
     Program PWSCF v.7.2 starts on  2Jun2025 at 11:23:51 

     This program is part of the open-source Quantum ESPRESSO suite
     for quantum simulation of materials; please cite
         "P. Giannozzi et al., J. Phys.:Condens. Matter 21 395502 (2009);
         "P. Giannozzi et al., J. Phys.:Condens. Matter 29 465901 (2017);
         "P. Giannozzi et al., J. Chem. Phys. 152 154105 (2020);
          URL http://www.quantum-espresso.org", 
     in publications or presentations arising from this work. More details at
     http://www.quantum-espresso.org/quote

     Parallel version (MPI), running on    16 processors

     MPI processes distributed on     1 nodes
     38688 MiB available memory on the printing compute node when the environment starts
 
     Waiting for input...
     Reading input from standard input

     Current dimensions of program PWSCF are:
     Max number of different atomic species (ntypx) = 10
     Max number of k-points (npk) =  40000
     Max angular momentum in pseudopotentials (lmaxx) =  4
     file Co.pbe-n-kjpaw_psl.1.0.0.UPF: wavefunction(s)  4S 3D renormalized
     Message from routine setup:
     using ibrav=0 with symmetry is DISCOURAGED, use correct ibrav instead
 
     R & G space division:  proc/nbgrp/npool/nimage =      16
     Subspace diagonalization in iterative solution of the eigenvalue problem:
     a serial algorithm will be used

 
     Parallelization info
     --------------------
     sticks:   dense  smooth     PW     G-vecs:    dense   smooth      PW
     Min          22      22      6                  544      544      92
     Max          23      23      7                  547      547      99
     Sum         361     361    109                 8737     8737    1545
 
     Using Slab Decomposition
 


     bravais-lattice index     =            0
     lattice parameter (alat)  =       4.4409  a.u.
     unit-cell volume          =     123.4411 (a.u.)^3
     number of atoms/cell      =            2
     number of atomic types    =            1
     number of electrons       =        18.00
     number of Kohn-Sham states=           13
     kinetic-energy cutoff     =      65.0000  Ry
     charge density cutoff     =     260.0000  Ry
     scf convergence threshold =      1.0E-06
     mixing beta               =       0.7000
     number of iterations used =            8  plain     mixing
     Exchange-correlation= SLA  PW   PBX  PBC
                           (   1   4   3   4   0   0   0)

     celldm(1)=   4.440856  celldm(2)=   0.000000  celldm(3)=   0.000000
     celldm(4)=   0.000000  celldm(5)=   0.000000  celldm(6)=   0.000000

     crystal axes: (cart. coord. in units of alat)
               a(1) = (   1.000000   0.000000   0.000000 )  
               a(2) = (  -0.500000   0.866025   0.000000 )  
               a(3) = (   0.000000   0.000000   1.627530 )  

     reciprocal axes: (cart. coord. in units 2 pi/alat)
               b(1) = (  1.000000  0.577350  0.000000 )  
               b(2) = (  0.000000  1.154701  0.000000 )  
               b(3) = (  0.000000  0.000000  0.614428 )  


     PseudoPot. # 1 for Co read from file:
     /shared/ESPRESSO/PSLIBRARY/1.0.0/pbe/PSEUDOPOTENTIALS/Co.pbe-n-kjpaw_psl.1.0.0.UPF
     MD5 check sum: 17e7ab8db721b244d1352252ea6cb8e7
     Pseudo is Projector augmented-wave + core cor, Zval =  9.0
     Generated using "atomic" code by A. Dal Corso  (Quantum ESPRESSO distribution)
     Shape of augmentation charge: PSQ
     Using radial grid of 1193 points,  6 beta functions with: 
                l(1) =   0
                l(2) =   0
                l(3) =   1
                l(4) =   1
                l(5) =   2
                l(6) =   2
     Q(r) pseudized with 0 coefficients 


     atomic species   valence    mass     pseudopotential
        Co             9.00    58.93320     Co( 1.00)

     24 Sym. Ops., with inversion, found (12 have fractional translation)



   Cartesian axes

     site n.     atom                  positions (alat units)
         1           Co  tau(   1) = (   0.0000000   0.0000000   0.0000000  )
         2           Co  tau(   2) = (  -0.0000000   0.5773503   0.8137650  )

     number of k points=   270  Fermi-Dirac smearing, width (Ry)=  0.0070

     Number of k-points >= 100: set verbosity='high' to print them.

     Dense  grid:     8737 G-vectors     FFT dimensions: (  24,  24,  40)

     Estimated max dynamical RAM per process >       7.01 MB

     Estimated total dynamical RAM >     112.12 MB

     Initial potential from superposition of free atoms

     starting charge      17.9994, renormalised to      18.0000
     Starting wfcs are   18 randomized atomic wfcs
     Checking if some PAW data can be deallocated... 

     total cpu time spent up to now is        0.6 secs

     Self-consistent Calculation

     iteration #  1     ecut=    65.00 Ry     beta= 0.70
     Davidson diagonalization with overlap
     ethr =  1.00E-02,  avg # of iterations =  2.6

     Threshold (ethr) on eigenvalues was too large:
     Diagonalizing with lowered threshold

     Davidson diagonalization with overlap
     ethr =  8.56E-05,  avg # of iterations =  6.4

     total cpu time spent up to now is        2.7 secs

     total energy              =    -324.05006476 Ry
     estimated scf accuracy    <       0.04140985 Ry

     iteration #  2     ecut=    65.00 Ry     beta= 0.70
     Davidson diagonalization with overlap
     ethr =  2.30E-04,  avg # of iterations =  2.2

     total cpu time spent up to now is        3.5 secs

     total energy              =    -324.05570401 Ry
     estimated scf accuracy    <       0.08400516 Ry

     iteration #  3     ecut=    65.00 Ry     beta= 0.70
     Davidson diagonalization with overlap
     ethr =  2.30E-04,  avg # of iterations =  2.0

     total cpu time spent up to now is        4.3 secs

     total energy              =    -324.07069880 Ry
     estimated scf accuracy    <       0.00004654 Ry

     iteration #  4     ecut=    65.00 Ry     beta= 0.70
     Davidson diagonalization with overlap
     c_bands:  1 eigenvalues not converged
     c_bands:  1 eigenvalues not converged
     ethr =  2.59E-07,  avg # of iterations =  7.2

     total cpu time spent up to now is        5.8 secs

     total energy              =    -324.07081957 Ry
     estimated scf accuracy    <       0.00019330 Ry

     iteration #  5     ecut=    65.00 Ry     beta= 0.70
     Davidson diagonalization with overlap
     ethr =  2.59E-07,  avg # of iterations =  2.2

     total cpu time spent up to now is        6.6 secs

     total energy              =    -324.07086840 Ry
     estimated scf accuracy    <       0.00001086 Ry

     iteration #  6     ecut=    65.00 Ry     beta= 0.70
     Davidson diagonalization with overlap
     ethr =  6.03E-08,  avg # of iterations =  1.1

     total cpu time spent up to now is        7.3 secs

     End of self-consistent calculation

     Number of k-points >= 100: set verbosity='high' to print the bands.

     the Fermi energy is    17.3574 ev

!    total energy              =    -324.07086947 Ry
     total all-electron energy =     -5573.758222 Ry
     estimated scf accuracy    <       0.00000043 Ry
     smearing contrib. (-TS)   =      -0.01003458 Ry
     internal energy E=F+TS    =    -324.06083489 Ry

     The total energy is F=E-TS. E is the sum of the following terms:
     one-electron contribution =       9.30298089 Ry
     hartree contribution      =      23.63785155 Ry
     xc contribution           =     -65.47414400 Ry
     ewald contribution        =    -118.39302913 Ry
     one-center paw contrib.   =    -173.13449421 Ry

     convergence has been achieved in   6 iterations

     Forces acting on atoms (cartesian axes, Ry/au):

     atom    1 type  1   force =     0.00000000    0.00000000    0.00000000
     atom    2 type  1   force =     0.00000000    0.00000000    0.00000000
     The non-local contrib.  to forces
     atom    1 type  1   force =     0.00000000   -0.00000000    0.00000000
     atom    2 type  1   force =     0.00000000   -0.00000000    0.00000000
     The ionic contribution  to forces
     atom    1 type  1   force =    -0.00000000    0.00000000   -0.00000000
     atom    2 type  1   force =    -0.00000000    0.00000000   -0.00000000
     The local contribution  to forces
     atom    1 type  1   force =    -0.00000000   -0.00000000    0.00000000
     atom    2 type  1   force =     0.00000000   -0.00000000    0.00000000
     The core correction contribution to forces
     atom    1 type  1   force =    -0.00000000   -0.00000000    0.00000000
     atom    2 type  1   force =     0.00000000   -0.00000000    0.00000000
     The Hubbard contrib.    to forces
     atom    1 type  1   force =     0.00000000    0.00000000    0.00000000
     atom    2 type  1   force =     0.00000000    0.00000000    0.00000000
     The SCF correction term to forces
     atom    1 type  1   force =     0.00000000    0.00000000   -0.00000000
     atom    2 type  1   force =    -0.00000000   -0.00000000    0.00000000

     Total force =     0.000000     Total SCF correction =     0.000000


     Computing stress (Cartesian axis) and pressure

          total   stress  (Ry/bohr**3)                   (kbar)     P=      443.68
   0.00309941   0.00000000   0.00000000          455.94        0.00        0.00
   0.00000000   0.00309941   0.00000000            0.00      455.94        0.00
   0.00000000   0.00000000   0.00284936            0.00        0.00      419.16


     Writing all to output data dir ./tmp/scf.save/
 
     init_run     :      0.33s CPU      0.39s WALL (       1 calls)
     electrons    :      5.73s CPU      6.67s WALL (       1 calls)
     forces       :      0.04s CPU      0.04s WALL (       1 calls)
     stress       :      0.20s CPU      0.21s WALL (       1 calls)

     Called by init_run:
     wfcinit      :      0.24s CPU      0.27s WALL (       1 calls)
     potinit      :      0.04s CPU      0.05s WALL (       1 calls)
     hinit0       :      0.03s CPU      0.06s WALL (       1 calls)

     Called by electrons:
     c_bands      :      4.99s CPU      5.78s WALL (       7 calls)
     sum_band     :      0.55s CPU      0.62s WALL (       7 calls)
     v_of_rho     :      0.00s CPU      0.00s WALL (       7 calls)
     newd         :      0.01s CPU      0.01s WALL (       7 calls)
     PAW_pot      :      0.23s CPU      0.30s WALL (       7 calls)
     mix_rho      :      0.00s CPU      0.00s WALL (       7 calls)

     Called by c_bands:
     init_us_2    :      0.05s CPU      0.06s WALL (    4590 calls)
     init_us_2:cp :      0.05s CPU      0.06s WALL (    4590 calls)
     cegterg      :      4.75s CPU      5.50s WALL (    1890 calls)

     Called by *egterg:
     cdiaghg      :      1.01s CPU      1.16s WALL (    7998 calls)
     h_psi        :      3.56s CPU      4.15s WALL (    8538 calls)
     s_psi        :      0.05s CPU      0.06s WALL (    8538 calls)
     g_psi        :      0.01s CPU      0.01s WALL (    6378 calls)

     Called by h_psi:
     h_psi:calbec :      0.09s CPU      0.11s WALL (    8538 calls)
     vloc_psi     :      3.39s CPU      3.95s WALL (    8538 calls)
     add_vuspsi   :      0.05s CPU      0.06s WALL (    8538 calls)

     General routines
     calbec       :      0.15s CPU      0.17s WALL (   11778 calls)
     fft          :      0.02s CPU      0.05s WALL (     103 calls)
     ffts         :      0.00s CPU      0.00s WALL (       7 calls)
     fftw         :      3.57s CPU      4.14s WALL (  193014 calls)
 
     Parallel routines
 
     PWSCF        :      6.56s CPU      7.73s WALL

 
   This run was terminated on:  11:23:59   2Jun2025            

=------------------------------------------------------------------------------=
   JOB DONE.
=------------------------------------------------------------------------------=
