
     Program PWSCF v.7.2 starts on 29May2025 at 15:33:44 

     This program is part of the open-source Quantum ESPRESSO suite
     for quantum simulation of materials; please cite
         "P. Giannozzi et al., J. Phys.:Condens. Matter 21 395502 (2009);
         "P. Giannozzi et al., J. Phys.:Condens. Matter 29 465901 (2017);
         "P. Giannozzi et al., J. Chem. Phys. 152 154105 (2020);
          URL http://www.quantum-espresso.org", 
     in publications or presentations arising from this work. More details at
     http://www.quantum-espresso.org/quote

     Parallel version (MPI), running on    16 processors

     MPI processes distributed on     1 nodes
     20434 MiB available memory on the printing compute node when the environment starts
 
     Waiting for input...
     Reading input from standard input

     Current dimensions of program PWSCF are:
     Max number of different atomic species (ntypx) = 10
     Max number of k-points (npk) =  40000
     Max angular momentum in pseudopotentials (lmaxx) =  4
     file Co.pbe-n-kjpaw_psl.1.0.0.UPF: wavefunction(s)  4S 3D renormalized
     Message from routine setup:
     using ibrav=0 with symmetry is DISCOURAGED, use correct ibrav instead
 
     K-points division:     npool     =       2
     R & G space division:  proc/nbgrp/npool/nimage =       8
     Subspace diagonalization in iterative solution of the eigenvalue problem:
     a serial algorithm will be used

 
     Parallelization info
     --------------------
     sticks:   dense  smooth     PW     G-vecs:    dense   smooth      PW
     Min          15      15      5                  217      217      44
     Max          16      16      7                  222      222      49
     Sum         121     121     43                 1761     1761     379
 
     Using Slab Decomposition
 


     bravais-lattice index     =            0
     lattice parameter (alat)  =       4.6676  a.u.
     unit-cell volume          =     143.3333 (a.u.)^3
     number of atoms/cell      =            2
     number of atomic types    =            1
     number of electrons       =        18.00
     number of Kohn-Sham states=           13
     kinetic-energy cutoff     =      20.0000  Ry
     charge density cutoff     =      80.0000  Ry
     scf convergence threshold =      1.0E-06
     mixing beta               =       0.7000
     number of iterations used =            8  plain     mixing
     Exchange-correlation= SLA  PW   PBX  PBC
                           (   1   4   3   4   0   0   0)

     celldm(1)=   4.667624  celldm(2)=   0.000000  celldm(3)=   0.000000
     celldm(4)=   0.000000  celldm(5)=   0.000000  celldm(6)=   0.000000

     crystal axes: (cart. coord. in units of alat)
               a(1) = (   1.000000   0.000000   0.000000 )  
               a(2) = (  -0.500000   0.866025   0.000000 )  
               a(3) = (   0.000000   0.000000   1.627530 )  

     reciprocal axes: (cart. coord. in units 2 pi/alat)
               b(1) = (  1.000000  0.577350  0.000000 )  
               b(2) = (  0.000000  1.154701  0.000000 )  
               b(3) = (  0.000000  0.000000  0.614428 )  


     PseudoPot. # 1 for Co read from file:
     /shared/ESPRESSO/PSLIBRARY/1.0.0/pbe/PSEUDOPOTENTIALS/Co.pbe-n-kjpaw_psl.1.0.0.UPF
     MD5 check sum: 17e7ab8db721b244d1352252ea6cb8e7
     Pseudo is Projector augmented-wave + core cor, Zval =  9.0
     Generated using "atomic" code by A. Dal Corso  (Quantum ESPRESSO distribution)
     Shape of augmentation charge: PSQ
     Using radial grid of 1193 points,  6 beta functions with: 
                l(1) =   0
                l(2) =   0
                l(3) =   1
                l(4) =   1
                l(5) =   2
                l(6) =   2
     Q(r) pseudized with 0 coefficients 


     atomic species   valence    mass     pseudopotential
        Co             9.00    58.93320     Co( 1.00)

     24 Sym. Ops., with inversion, found (12 have fractional translation)



   Cartesian axes

     site n.     atom                  positions (alat units)
         1           Co  tau(   1) = (   0.0000000   0.0000000   0.0000000  )
         2           Co  tau(   2) = (  -0.0000000   0.5773503   0.8137652  )

     number of k points=   270  Fermi-Dirac smearing, width (Ry)=  0.0070

     Number of k-points >= 100: set verbosity='high' to print them.

     Dense  grid:     1761 G-vectors     FFT dimensions: (  15,  15,  24)

     Estimated max dynamical RAM per process >       1.94 MB

     Estimated total dynamical RAM >      30.59 MB

     Check: negative core charge=   -0.000023

     Initial potential from superposition of free atoms

     starting charge      17.9994, renormalised to      18.0000
     Starting wfcs are   18 randomized atomic wfcs
     Checking if some PAW data can be deallocated... 

     total cpu time spent up to now is        2.3 secs

     Self-consistent Calculation

     iteration #  1     ecut=    20.00 Ry     beta= 0.70
     Davidson diagonalization with overlap
     ethr =  1.00E-02,  avg # of iterations =  2.2

     total cpu time spent up to now is        2.7 secs

     total energy              =    -322.79921316 Ry
     estimated scf accuracy    <       0.56737752 Ry

     iteration #  2     ecut=    20.00 Ry     beta= 0.70
     Davidson diagonalization with overlap
     ethr =  3.15E-03,  avg # of iterations =  2.1

     total cpu time spent up to now is        3.1 secs

     total energy              =    -322.92580639 Ry
     estimated scf accuracy    <       0.78749895 Ry

     iteration #  3     ecut=    20.00 Ry     beta= 0.70
     Davidson diagonalization with overlap
     ethr =  3.15E-03,  avg # of iterations =  2.0

     total cpu time spent up to now is        3.4 secs

     total energy              =    -323.07083750 Ry
     estimated scf accuracy    <       0.00278970 Ry

     iteration #  4     ecut=    20.00 Ry     beta= 0.70
     Davidson diagonalization with overlap
     ethr =  1.55E-05,  avg # of iterations =  5.9

     total cpu time spent up to now is        4.5 secs

     total energy              =    -323.07525962 Ry
     estimated scf accuracy    <       0.00145697 Ry

     iteration #  5     ecut=    20.00 Ry     beta= 0.70
     Davidson diagonalization with overlap
     ethr =  8.09E-06,  avg # of iterations =  1.3

     total cpu time spent up to now is        5.2 secs

     total energy              =    -323.07512139 Ry
     estimated scf accuracy    <       0.00037535 Ry

     iteration #  6     ecut=    20.00 Ry     beta= 0.70
     Davidson diagonalization with overlap
     ethr =  2.09E-06,  avg # of iterations =  2.7

     total cpu time spent up to now is        6.2 secs

     total energy              =    -323.07523889 Ry
     estimated scf accuracy    <       0.00010318 Ry

     iteration #  7     ecut=    20.00 Ry     beta= 0.70
     Davidson diagonalization with overlap
     ethr =  5.73E-07,  avg # of iterations =  1.5

     total cpu time spent up to now is        7.1 secs

     End of self-consistent calculation

     Number of k-points >= 100: set verbosity='high' to print the bands.

     the Fermi energy is    13.8182 ev

!    total energy              =    -323.07525474 Ry
     total all-electron energy =     -5572.762607 Ry
     estimated scf accuracy    <       0.00000081 Ry
     smearing contrib. (-TS)   =      -0.01262747 Ry
     internal energy E=F+TS    =    -323.06262727 Ry

     The total energy is F=E-TS. E is the sum of the following terms:
     one-electron contribution =       2.79983987 Ry
     hartree contribution      =      24.11946699 Ry
     xc contribution           =     -64.45704346 Ry
     ewald contribution        =    -112.64113275 Ry
     one-center paw contrib.   =    -172.88375792 Ry

     convergence has been achieved in   7 iterations

     Forces acting on atoms (cartesian axes, Ry/au):

     atom    1 type  1   force =     0.00000000    0.00000000    0.00000000
     atom    2 type  1   force =     0.00000000    0.00000000    0.00000000
     The non-local contrib.  to forces
     atom    1 type  1   force =    -0.00000000    0.00000000    0.00000000
     atom    2 type  1   force =     0.00000000   -0.00000000    0.00000000
     The ionic contribution  to forces
     atom    1 type  1   force =    -0.00000000    0.00000000   -0.00000000
     atom    2 type  1   force =    -0.00000000    0.00000000    0.00000000
     The local contribution  to forces
     atom    1 type  1   force =    -0.00000000    0.00000000   -0.00000000
     atom    2 type  1   force =     0.00000000   -0.00000000    0.00000000
     The core correction contribution to forces
     atom    1 type  1   force =    -0.00000000    0.00000000   -0.00000000
     atom    2 type  1   force =     0.00000000   -0.00000000   -0.00000000
     The Hubbard contrib.    to forces
     atom    1 type  1   force =     0.00000000    0.00000000    0.00000000
     atom    2 type  1   force =     0.00000000    0.00000000    0.00000000
     The SCF correction term to forces
     atom    1 type  1   force =    -0.00000000   -0.00000000   -0.00000000
     atom    2 type  1   force =     0.00000000   -0.00000000   -0.00000000

     Total force =     0.000000     Total SCF correction =     0.000000


     Computing stress (Cartesian axis) and pressure

          total   stress  (Ry/bohr**3)                   (kbar)     P=    -4544.10
  -0.03085315   0.00000000   0.00000000        -4538.66        0.00        0.00
   0.00000000  -0.03085315   0.00000000            0.00    -4538.66        0.00
   0.00000000   0.00000000  -0.03096422            0.00        0.00    -4554.99


     Writing all to output data dir ./tmp/scf.save/
 
     init_run     :      0.23s CPU      1.45s WALL (       1 calls)
     electrons    :      4.20s CPU      4.77s WALL (       1 calls)
     forces       :      0.05s CPU      0.08s WALL (       1 calls)
     stress       :      0.14s CPU      0.15s WALL (       1 calls)

     Called by init_run:
     wfcinit      :      0.10s CPU      0.11s WALL (       1 calls)
     potinit      :      0.09s CPU      0.09s WALL (       1 calls)
     hinit0       :      0.03s CPU      1.20s WALL (       1 calls)

     Called by electrons:
     c_bands      :      3.22s CPU      3.61s WALL (       7 calls)
     sum_band     :      0.39s CPU      0.47s WALL (       7 calls)
     v_of_rho     :      0.00s CPU      0.00s WALL (       8 calls)
     newd         :      0.01s CPU      0.01s WALL (       8 calls)
     PAW_pot      :      0.66s CPU      0.74s WALL (       8 calls)
     mix_rho      :      0.00s CPU      0.00s WALL (       7 calls)

     Called by c_bands:
     init_us_2    :      0.05s CPU      0.06s WALL (    2295 calls)
     init_us_2:cp :      0.05s CPU      0.05s WALL (    2295 calls)
     cegterg      :      2.66s CPU      3.00s WALL (     945 calls)

     Called by *egterg:
     cdiaghg      :      0.57s CPU      0.67s WALL (    3150 calls)
     h_psi        :      1.89s CPU      2.12s WALL (    3285 calls)
     s_psi        :      0.03s CPU      0.03s WALL (    3285 calls)
     g_psi        :      0.00s CPU      0.01s WALL (    2205 calls)

     Called by h_psi:
     h_psi:calbec :      0.09s CPU      0.10s WALL (    3285 calls)
     vloc_psi     :      1.75s CPU      1.95s WALL (    3285 calls)
     add_vuspsi   :      0.04s CPU      0.04s WALL (    3285 calls)

     General routines
     calbec       :      0.15s CPU      0.17s WALL (    4905 calls)
     fft          :      0.01s CPU      0.16s WALL (     113 calls)
     ffts         :      0.00s CPU      0.00s WALL (       7 calls)
     fftw         :      1.87s CPU      2.12s WALL (   80751 calls)
 
     Parallel routines
 
     PWSCF        :      5.01s CPU      7.48s WALL

 
   This run was terminated on:  15:33:52  29May2025            

=------------------------------------------------------------------------------=
   JOB DONE.
=------------------------------------------------------------------------------=
