
     Program PWSCF v.7.2 starts on  9Jul2025 at 16:43:11 

     This program is part of the open-source Quantum ESPRESSO suite
     for quantum simulation of materials; please cite
         "P. Giannozzi et al., J. Phys.:Condens. Matter 21 395502 (2009);
         "P. Giannozzi et al., J. Phys.:Condens. Matter 29 465901 (2017);
         "P. Giannozzi et al., J. Chem. Phys. 152 154105 (2020);
          URL http://www.quantum-espresso.org", 
     in publications or presentations arising from this work. More details at
     http://www.quantum-espresso.org/quote

     Parallel version (MPI), running on     4 processors

     MPI processes distributed on     1 nodes
     23285 MiB available memory on the printing compute node when the environment starts
 
     Waiting for input...
     Reading input from standard input

     Current dimensions of program PWSCF are:
     Max number of different atomic species (ntypx) = 10
     Max number of k-points (npk) =  40000
     Max angular momentum in pseudopotentials (lmaxx) =  4
     file Co.pbe-n-kjpaw_psl.1.0.0.UPF: wavefunction(s)  4S 3D renormalized
     Message from routine setup:
     using ibrav=0 with symmetry is DISCOURAGED, use correct ibrav instead
 
     R & G space division:  proc/nbgrp/npool/nimage =       4
     Subspace diagonalization in iterative solution of the eigenvalue problem:
     a serial algorithm will be used

 
     Parallelization info
     --------------------
     sticks:   dense  smooth     PW     G-vecs:    dense   smooth      PW
     Min         259     105     30                10967     2787     484
     Max         260     106     31                10972     2792     491
     Sum        1039     421    121                43881    11153    1943
 
     Using Slab Decomposition
 


     bravais-lattice index     =            0
     lattice parameter (alat)  =       4.6298  a.u.
     unit-cell volume          =     139.8796 (a.u.)^3
     number of atoms/cell      =            2
     number of atomic types    =            1
     number of electrons       =        18.00
     number of Kohn-Sham states=           13
     kinetic-energy cutoff     =      70.0000  Ry
     charge density cutoff     =     700.0000  Ry
     scf convergence threshold =      1.0E-06
     mixing beta               =       0.7000
     number of iterations used =            8  plain     mixing
     Exchange-correlation= SLA  PW   PBX  PBC
                           (   1   4   3   4   0   0   0)

     celldm(1)=   4.629829  celldm(2)=   0.000000  celldm(3)=   0.000000
     celldm(4)=   0.000000  celldm(5)=   0.000000  celldm(6)=   0.000000

     crystal axes: (cart. coord. in units of alat)
               a(1) = (   1.000000   0.000000   0.000000 )  
               a(2) = (  -0.500000   0.866025   0.000000 )  
               a(3) = (   0.000000   0.000000   1.627530 )  

     reciprocal axes: (cart. coord. in units 2 pi/alat)
               b(1) = (  1.000000  0.577350  0.000000 )  
               b(2) = (  0.000000  1.154701  0.000000 )  
               b(3) = (  0.000000  0.000000  0.614428 )  


     PseudoPot. # 1 for Co read from file:
     /shared/ESPRESSO/PSLIBRARY/1.0.0/pbe/PSEUDOPOTENTIALS/Co.pbe-n-kjpaw_psl.1.0.0.UPF
     MD5 check sum: 17e7ab8db721b244d1352252ea6cb8e7
     Pseudo is Projector augmented-wave + core cor, Zval =  9.0
     Generated using "atomic" code by A. Dal Corso  (Quantum ESPRESSO distribution)
     Shape of augmentation charge: PSQ
     Using radial grid of 1193 points,  6 beta functions with: 
                l(1) =   0
                l(2) =   0
                l(3) =   1
                l(4) =   1
                l(5) =   2
                l(6) =   2
     Q(r) pseudized with 0 coefficients 


     atomic species   valence    mass     pseudopotential
        Co             9.00    58.93320     Co( 1.00)

     24 Sym. Ops., with inversion, found (12 have fractional translation)



   Cartesian axes

     site n.     atom                  positions (alat units)
         1           Co  tau(   1) = (   0.0000000   0.0000000   0.0000000  )
         2           Co  tau(   2) = (  -0.0000000   0.5773503   0.8137650  )

     number of k points=    95  Gaussian smearing, width (Ry)=  0.0073
                       cart. coord. in units 2pi/alat
        k(    1) = (   0.0000000   0.0000000   0.0000000), wk =   0.0015432
        k(    2) = (   0.0000000   0.0000000   0.0682698), wk =   0.0030864
        k(    3) = (   0.0000000   0.0000000   0.1365396), wk =   0.0030864
        k(    4) = (   0.0000000   0.0000000   0.2048093), wk =   0.0030864
        k(    5) = (   0.0000000   0.0000000   0.2730791), wk =   0.0030864
        k(    6) = (   0.0000000   0.0962250   0.0000000), wk =   0.0092593
        k(    7) = (   0.0000000   0.0962250   0.0682698), wk =   0.0185185
        k(    8) = (   0.0000000   0.0962250   0.1365396), wk =   0.0185185
        k(    9) = (   0.0000000   0.0962250   0.2048093), wk =   0.0185185
        k(   10) = (   0.0000000   0.0962250   0.2730791), wk =   0.0185185
        k(   11) = (   0.0000000   0.1924501   0.0000000), wk =   0.0092593
        k(   12) = (   0.0000000   0.1924501   0.0682698), wk =   0.0185185
        k(   13) = (   0.0000000   0.1924501   0.1365396), wk =   0.0185185
        k(   14) = (   0.0000000   0.1924501   0.2048093), wk =   0.0185185
        k(   15) = (   0.0000000   0.1924501   0.2730791), wk =   0.0185185
        k(   16) = (   0.0000000   0.2886751   0.0000000), wk =   0.0092593
        k(   17) = (   0.0000000   0.2886751   0.0682698), wk =   0.0185185
        k(   18) = (   0.0000000   0.2886751   0.1365396), wk =   0.0185185
        k(   19) = (   0.0000000   0.2886751   0.2048093), wk =   0.0185185
        k(   20) = (   0.0000000   0.2886751   0.2730791), wk =   0.0185185
        k(   21) = (   0.0000000   0.3849002   0.0000000), wk =   0.0092593
        k(   22) = (   0.0000000   0.3849002   0.0682698), wk =   0.0185185
        k(   23) = (   0.0000000   0.3849002   0.1365396), wk =   0.0185185
        k(   24) = (   0.0000000   0.3849002   0.2048093), wk =   0.0185185
        k(   25) = (   0.0000000   0.3849002   0.2730791), wk =   0.0185185
        k(   26) = (   0.0000000   0.4811252   0.0000000), wk =   0.0092593
        k(   27) = (   0.0000000   0.4811252   0.0682698), wk =   0.0185185
        k(   28) = (   0.0000000   0.4811252   0.1365396), wk =   0.0185185
        k(   29) = (   0.0000000   0.4811252   0.2048093), wk =   0.0185185
        k(   30) = (   0.0000000   0.4811252   0.2730791), wk =   0.0185185
        k(   31) = (   0.0000000  -0.5773503   0.0000000), wk =   0.0046296
        k(   32) = (   0.0000000  -0.5773503   0.0682698), wk =   0.0092593
        k(   33) = (   0.0000000  -0.5773503   0.1365396), wk =   0.0092593
        k(   34) = (   0.0000000  -0.5773503   0.2048093), wk =   0.0092593
        k(   35) = (   0.0000000  -0.5773503   0.2730791), wk =   0.0092593
        k(   36) = (   0.0833333   0.1443376   0.0000000), wk =   0.0092593
        k(   37) = (   0.0833333   0.1443376   0.0682698), wk =   0.0185185
        k(   38) = (   0.0833333   0.1443376   0.1365396), wk =   0.0185185
        k(   39) = (   0.0833333   0.1443376   0.2048093), wk =   0.0185185
        k(   40) = (   0.0833333   0.1443376   0.2730791), wk =   0.0185185
        k(   41) = (   0.0833333   0.2405626   0.0000000), wk =   0.0185185
        k(   42) = (   0.0833333   0.2405626   0.0682698), wk =   0.0370370
        k(   43) = (   0.0833333   0.2405626   0.1365396), wk =   0.0370370
        k(   44) = (   0.0833333   0.2405626   0.2048093), wk =   0.0370370
        k(   45) = (   0.0833333   0.2405626   0.2730791), wk =   0.0370370
        k(   46) = (   0.0833333   0.3367877   0.0000000), wk =   0.0185185
        k(   47) = (   0.0833333   0.3367877   0.0682698), wk =   0.0370370
        k(   48) = (   0.0833333   0.3367877   0.1365396), wk =   0.0370370
        k(   49) = (   0.0833333   0.3367877   0.2048093), wk =   0.0370370
        k(   50) = (   0.0833333   0.3367877   0.2730791), wk =   0.0370370
        k(   51) = (   0.0833333   0.4330127   0.0000000), wk =   0.0185185
        k(   52) = (   0.0833333   0.4330127   0.0682698), wk =   0.0370370
        k(   53) = (   0.0833333   0.4330127   0.1365396), wk =   0.0370370
        k(   54) = (   0.0833333   0.4330127   0.2048093), wk =   0.0370370
        k(   55) = (   0.0833333   0.4330127   0.2730791), wk =   0.0370370
        k(   56) = (   0.0833333   0.5292377   0.0000000), wk =   0.0185185
        k(   57) = (   0.0833333   0.5292377   0.0682698), wk =   0.0370370
        k(   58) = (   0.0833333   0.5292377   0.1365396), wk =   0.0370370
        k(   59) = (   0.0833333   0.5292377   0.2048093), wk =   0.0370370
        k(   60) = (   0.0833333   0.5292377   0.2730791), wk =   0.0370370
        k(   61) = (   0.1666667   0.2886751   0.0000000), wk =   0.0092593
        k(   62) = (   0.1666667   0.2886751   0.0682698), wk =   0.0185185
        k(   63) = (   0.1666667   0.2886751   0.1365396), wk =   0.0185185
        k(   64) = (   0.1666667   0.2886751   0.2048093), wk =   0.0185185
        k(   65) = (   0.1666667   0.2886751   0.2730791), wk =   0.0185185
        k(   66) = (   0.1666667   0.3849002   0.0000000), wk =   0.0185185
        k(   67) = (   0.1666667   0.3849002   0.0682698), wk =   0.0370370
        k(   68) = (   0.1666667   0.3849002   0.1365396), wk =   0.0370370
        k(   69) = (   0.1666667   0.3849002   0.2048093), wk =   0.0370370
        k(   70) = (   0.1666667   0.3849002   0.2730791), wk =   0.0370370
        k(   71) = (   0.1666667   0.4811252   0.0000000), wk =   0.0185185
        k(   72) = (   0.1666667   0.4811252   0.0682698), wk =   0.0370370
        k(   73) = (   0.1666667   0.4811252   0.1365396), wk =   0.0370370
        k(   74) = (   0.1666667   0.4811252   0.2048093), wk =   0.0370370
        k(   75) = (   0.1666667   0.4811252   0.2730791), wk =   0.0370370
        k(   76) = (   0.1666667   0.5773503   0.0000000), wk =   0.0092593
        k(   77) = (   0.1666667   0.5773503   0.0682698), wk =   0.0185185
        k(   78) = (   0.1666667   0.5773503   0.1365396), wk =   0.0185185
        k(   79) = (   0.1666667   0.5773503   0.2048093), wk =   0.0185185
        k(   80) = (   0.1666667   0.5773503   0.2730791), wk =   0.0185185
        k(   81) = (   0.2500000   0.4330127   0.0000000), wk =   0.0092593
        k(   82) = (   0.2500000   0.4330127   0.0682698), wk =   0.0185185
        k(   83) = (   0.2500000   0.4330127   0.1365396), wk =   0.0185185
        k(   84) = (   0.2500000   0.4330127   0.2048093), wk =   0.0185185
        k(   85) = (   0.2500000   0.4330127   0.2730791), wk =   0.0185185
        k(   86) = (   0.2500000   0.5292377   0.0000000), wk =   0.0185185
        k(   87) = (   0.2500000   0.5292377   0.0682698), wk =   0.0370370
        k(   88) = (   0.2500000   0.5292377   0.1365396), wk =   0.0370370
        k(   89) = (   0.2500000   0.5292377   0.2048093), wk =   0.0370370
        k(   90) = (   0.2500000   0.5292377   0.2730791), wk =   0.0370370
        k(   91) = (   0.3333333   0.5773503   0.0000000), wk =   0.0030864
        k(   92) = (   0.3333333   0.5773503   0.0682698), wk =   0.0061728
        k(   93) = (   0.3333333   0.5773503   0.1365396), wk =   0.0061728
        k(   94) = (   0.3333333   0.5773503   0.2048093), wk =   0.0061728
        k(   95) = (   0.3333333   0.5773503   0.2730791), wk =   0.0061728

     Dense  grid:    43881 G-vectors     FFT dimensions: (  45,  45,  64)

     Smooth grid:    11153 G-vectors     FFT dimensions: (  27,  27,  48)

     Estimated max dynamical RAM per process >      49.25 MB

     Estimated total dynamical RAM >     197.00 MB

     Initial potential from superposition of free atoms

     starting charge      17.9994, renormalised to      18.0000
     Starting wfcs are   18 randomized atomic wfcs
     Checking if some PAW data can be deallocated... 

     total cpu time spent up to now is        1.2 secs

     Self-consistent Calculation

     iteration #  1     ecut=    70.00 Ry     beta= 0.70
     Davidson diagonalization with overlap
     ethr =  1.00E-02,  avg # of iterations =  2.4

     Threshold (ethr) on eigenvalues was too large:
     Diagonalizing with lowered threshold

     Davidson diagonalization with overlap
     ethr =  4.60E-05,  avg # of iterations =  6.8

     total cpu time spent up to now is        5.2 secs

     total energy              =    -324.07346602 Ry
     estimated scf accuracy    <       0.02863786 Ry

     iteration #  2     ecut=    70.00 Ry     beta= 0.70
     Davidson diagonalization with overlap
     ethr =  1.59E-04,  avg # of iterations =  2.2

     total cpu time spent up to now is        7.2 secs

     total energy              =    -324.07486751 Ry
     estimated scf accuracy    <       0.07392134 Ry

     iteration #  3     ecut=    70.00 Ry     beta= 0.70
     Davidson diagonalization with overlap
     ethr =  1.59E-04,  avg # of iterations =  2.0

     total cpu time spent up to now is        9.0 secs

     total energy              =    -324.08777259 Ry
     estimated scf accuracy    <       0.00007252 Ry

     iteration #  4     ecut=    70.00 Ry     beta= 0.70
     Davidson diagonalization with overlap
     c_bands:  1 eigenvalues not converged
     c_bands:  1 eigenvalues not converged
     c_bands:  1 eigenvalues not converged
     c_bands:  1 eigenvalues not converged
     ethr =  4.03E-07,  avg # of iterations =  6.1

     total cpu time spent up to now is       11.4 secs

     total energy              =    -324.08784055 Ry
     estimated scf accuracy    <       0.00012994 Ry

     iteration #  5     ecut=    70.00 Ry     beta= 0.70
     Davidson diagonalization with overlap
     c_bands:  1 eigenvalues not converged
     ethr =  4.03E-07,  avg # of iterations =  2.4

     total cpu time spent up to now is       13.0 secs

     total energy              =    -324.08787140 Ry
     estimated scf accuracy    <       0.00000644 Ry

     iteration #  6     ecut=    70.00 Ry     beta= 0.70
     Davidson diagonalization with overlap
     ethr =  3.58E-08,  avg # of iterations =  1.7

     total cpu time spent up to now is       14.5 secs

     End of self-consistent calculation

          k = 0.0000 0.0000 0.0000 (  1389 PWs)   bands (ev):

     5.4606   9.7841  12.7719  12.8458  12.8458  13.2024  13.2024  13.6368
    13.6368  14.4468  14.8554  14.8554  21.8383

          k = 0.0000 0.0000 0.0683 (  1388 PWs)   bands (ev):

     5.5882   9.7322  12.7334  12.8108  12.8108  13.1645  13.1645  13.7213
    13.7213  14.0361  14.8485  14.8485  22.5236

          k = 0.0000 0.0000 0.1365 (  1394 PWs)   bands (ev):

     5.9646   9.5187  12.6271  12.7509  12.7509  13.0660  13.0660  13.2181
    13.9232  13.9232  14.8171  14.8171  24.2165

          k = 0.0000 0.0000 0.2048 (  1388 PWs)   bands (ev):

     6.5684   9.0154  12.4825  12.5827  12.7227  12.7227  12.9412  12.9412
    14.1675  14.1675  14.7393  14.7393  26.4361

          k = 0.0000 0.0000 0.2731 (  1376 PWs)   bands (ev):

     7.3538   8.2279  12.3355  12.3537  12.7481  12.7481  12.8261  12.8261
    14.4043  14.4043  14.6010  14.6010  28.9359

          k = 0.0000 0.0962 0.0000 (  1373 PWs)   bands (ev):

     5.7129   9.9491  12.5547  12.9744  13.0155  13.1410  13.3112  13.3167
    13.5545  13.6742  14.8899  16.1103  21.8667

          k = 0.0000 0.0962 0.0683 (  1372 PWs)   bands (ev):

     5.8386   9.9043  12.5532  12.9158  12.9291  12.9699  13.2737  13.3525
    13.6566  13.7087  14.8791  15.8145  22.5929

          k = 0.0000 0.0962 0.1365 (  1386 PWs)   bands (ev):

     6.2095   9.7074  12.5554  12.5931  12.7240  12.8579  13.1724  13.2179
    13.8788  13.9070  14.8372  15.3373  24.3383

          k = 0.0000 0.0962 0.2048 (  1381 PWs)   bands (ev):

     6.8043   9.2176  12.2505  12.4684  12.6236  12.8259  13.0194  13.0469
    14.1362  14.1778  14.7458  14.9924  26.5866

          k = 0.0000 0.0962 0.2731 (  1379 PWs)   bands (ev):

     7.5781   8.4400  12.1611  12.2728  12.7023  12.8394  12.8515  12.9308
    14.3845  14.4557  14.5937  14.7219  29.1015

          k = 0.0000 0.1925 0.0000 (  1371 PWs)   bands (ev):

     6.4443  10.3646  12.2312  12.3547  12.9212  13.3385  13.3522  13.3533
    13.4682  13.6373  14.9625  17.7555  21.9723

          k = 0.0000 0.1925 0.0683 (  1371 PWs)   bands (ev):

     6.5632  10.3425  12.2006  12.2509  12.8789  13.1939  13.2142  13.5051
    13.6468  13.6640  14.9428  17.2241  22.8352

          k = 0.0000 0.1925 0.1365 (  1379 PWs)   bands (ev):

     6.9136  10.1983  11.9100  12.3044  12.6763  13.1033  13.1148  13.4621
    13.8401  13.9356  14.8781  16.3204  24.7248

          k = 0.0000 0.1925 0.2048 (  1381 PWs)   bands (ev):

     7.4740   9.7485  11.7664  12.3535  12.4520  12.9702  13.0804  13.3395
    14.0993  14.2505  14.7587  15.5779  27.0385

          k = 0.0000 0.1925 0.2731 (  1380 PWs)   bands (ev):

     8.2009   9.0112  11.8656  12.0993  12.5790  12.7731  13.1219  13.2154
    14.3555  14.5816  14.6115  15.0353  29.5749

          k = 0.0000 0.2887 0.0000 (  1369 PWs)   bands (ev):

     7.5627  10.7299  11.5841  11.9899  12.7837  13.1099  13.2462  13.8231
    13.8694  14.0989  15.0296  19.5867  22.1844

          k = 0.0000 0.2887 0.0683 (  1378 PWs)   bands (ev):

     7.6646  10.7393  11.5018  12.0193  12.7046  13.1273  13.2347  13.8962
    13.8988  14.0705  15.0015  18.7003  23.3228

          k = 0.0000 0.2887 0.1365 (  1386 PWs)   bands (ev):

     7.9626  10.6648  11.3663  12.0909  12.5418  13.1620  13.1824  13.8929
    14.0803  14.0970  14.9182  17.3911  25.3815

          k = 0.0000 0.2887 0.2048 (  1381 PWs)   bands (ev):

     8.4322  10.2805  11.4326  12.1103  12.4414  13.0077  13.2796  13.7544
    14.2279  14.4076  14.7845  16.2856  27.6698

          k = 0.0000 0.2887 0.2731 (  1385 PWs)   bands (ev):

     9.0283   9.6795  11.6562  11.9179  12.5717  12.7930  13.4167  13.5824
    14.4178  14.6116  14.8441  15.4498  29.4680

          k = 0.0000 0.3849 0.0000 (  1369 PWs)   bands (ev):

     8.8395  10.6918  11.0386  12.0039  12.8922  12.9028  13.0319  14.4404
    14.5450  14.6001  15.0745  21.5658  22.1728

          k = 0.0000 0.3849 0.0683 (  1380 PWs)   bands (ev):

     8.8982  10.6985  11.0451  11.9613  12.8235  12.9380  13.1922  14.4540
    14.5237  14.5508  15.0454  20.0494  23.6978

          k = 0.0000 0.3849 0.1365 (  1381 PWs)   bands (ev):

     9.0679  10.6269  11.1070  11.9146  12.7701  13.0719  13.4205  14.3843
    14.5042  14.5127  14.9718  18.4408  24.9011

          k = 0.0000 0.3849 0.2048 (  1384 PWs)   bands (ev):

     9.3310  10.3760  11.2821  11.8760  12.8339  13.2830  13.5058  14.1449
    14.5827  14.6568  14.8770  17.0588  25.5941

          k = 0.0000 0.3849 0.2731 (  1384 PWs)   bands (ev):

     9.6618  10.0264  11.5165  11.7386  13.0628  13.3438  13.5525  13.8523
    14.6738  14.7748  15.1430  15.9506  26.3126

          k = 0.0000 0.4811 0.0000 (  1386 PWs)   bands (ev):

     9.8166  10.4743  10.7153  12.2400  12.7438  12.8780  13.1337  14.8703
    15.0178  15.0977  15.6322  20.3832  23.5928

          k = 0.0000 0.4811 0.0683 (  1385 PWs)   bands (ev):

     9.7769  10.4546  10.8765  11.9444  12.7999  13.1160  13.2844  14.8653
    14.9342  15.1029  15.5497  19.9725  23.2076

          k = 0.0000 0.4811 0.1365 (  1381 PWs)   bands (ev):

     9.7293  10.4304  11.1301  11.6611  12.9644  13.1248  13.9563  14.6692
    14.9106  15.0900  15.3051  18.9480  23.0522

          k = 0.0000 0.4811 0.2048 (  1385 PWs)   bands (ev):

     9.7552  10.3027  11.2588  11.6437  13.2255  13.3040  14.3315  14.6515
    14.9409  14.9724  15.0607  17.7449  23.2639

          k = 0.0000 0.4811 0.2731 (  1402 PWs)   bands (ev):

     9.8774  10.0800  11.4126  11.5802  13.5626  13.7508  13.9452  14.3217
    14.9803  15.0221  15.6297  16.6138  23.7188

          k = 0.0000-0.5774 0.0000 (  1392 PWs)   bands (ev):

    10.1986  10.3009  10.6084  12.4528  12.6914  12.8222  13.2206  15.0254
    15.1046  15.1888  16.7029  18.7208  24.8941

          k = 0.0000-0.5774 0.0683 (  1384 PWs)   bands (ev):

    10.0341  10.3228  10.8698  11.9632  12.7504  13.2098  13.4240  14.9677
    15.0763  15.1849  16.5692  18.6221  24.4824

          k = 0.0000-0.5774 0.1365 (  1384 PWs)   bands (ev):

     9.8695  10.3507  11.2706  11.4971  12.9236  13.2348  14.2510  14.7290
    15.0763  15.1738  16.1809  18.3105  23.7374

          k = 0.0000-0.5774 0.2048 (  1386 PWs)   bands (ev):

     9.8240  10.2721  11.3055  11.5246  13.1989  13.4675  14.3704  15.0548
    15.0918  15.1566  15.6581  17.7656  23.1428

          k = 0.0000-0.5774 0.2731 (  1400 PWs)   bands (ev):

     9.9013  10.0765  11.3778  11.5166  13.5551  13.9603  14.0138  14.7290
    15.1128  15.1354  16.1577  17.0165  22.8604

          k = 0.0833 0.1443 0.0000 (  1372 PWs)   bands (ev):

     6.2054  10.2450  12.3057  12.6153  13.0097  13.1861  13.2367  13.3100
    13.5653  13.6162  14.9312  17.2983  21.9359

          k = 0.0833 0.1443 0.0683 (  1371 PWs)   bands (ev):

     6.3269  10.2153  12.3195  12.4265  12.9801  13.0669  13.1789  13.4261
    13.6272  13.6995  14.9156  16.8381  22.7508

          k = 0.0833 0.1443 0.1365 (  1378 PWs)   bands (ev):

     6.6850  10.0534  12.0887  12.3659  12.7091  13.0521  13.1040  13.3653
    13.8871  13.8883  14.8614  16.0460  24.5948

          k = 0.0833 0.1443 0.2048 (  1375 PWs)   bands (ev):

     7.2586   9.5896  11.8894  12.4139  12.4683  12.9586  13.0322  13.2467
    14.1264  14.2048  14.7554  15.4066  26.8908

          k = 0.0833 0.1443 0.2731 (  1382 PWs)   bands (ev):

     8.0038   8.8353  11.9424  12.1513  12.5986  12.7769  13.0532  13.1321
    14.3692  14.5297  14.6114  14.9391  29.4265

          k = 0.0833 0.2406 0.0000 (  1378 PWs)   bands (ev):

     7.1375  10.6810  11.8598  11.9741  12.8464  13.0407  13.4674  13.4755
    13.7152  14.0276  14.9810  18.9307  22.1176

          k = 0.0833 0.2406 0.0683 (  1378 PWs)   bands (ev):

     7.2477  10.6829  11.7428  11.9999  12.8045  13.0152  13.3457  13.5730
    13.8326  14.0131  14.9610  18.1937  23.1367

          k = 0.0833 0.2406 0.1365 (  1377 PWs)   bands (ev):

     7.5715  10.5907  11.5307  12.0712  12.6286  12.9931  13.2319  13.6627
    14.0233  14.0629  14.8975  17.0284  25.1431

          k = 0.0833 0.2406 0.2048 (  1379 PWs)   bands (ev):

     8.0863  10.1665  11.5258  12.1546  12.4103  12.8617  13.2474  13.5976
    14.2162  14.3306  14.7873  16.0448  27.4888

          k = 0.0833 0.2406 0.2731 (  1373 PWs)   bands (ev):

     8.7487   9.4839  11.7271  11.9968  12.4543  12.6560  13.3413  13.4676
    14.4225  14.5973  14.7722  15.3053  29.9849

          k = 0.0833 0.3368 0.0000 (  1379 PWs)   bands (ev):

     8.3649  10.8646  11.2638  11.8253  12.8173  12.8290  13.2376  13.9313
    14.2883  14.6370  15.0221  20.7974  22.3945

          k = 0.0833 0.3368 0.0683 (  1383 PWs)   bands (ev):

     8.4480  10.8894  11.2075  11.8570  12.6756  12.9716  13.2111  13.9484
    14.3330  14.5733  15.0200  19.6120  23.7762

          k = 0.0833 0.3368 0.1365 (  1386 PWs)   bands (ev):

     8.6888  10.8189  11.1794  11.9390  12.5350  13.1049  13.1504  14.0040
    14.4401  14.4513  14.9962  18.1029  25.8038

          k = 0.0833 0.3368 0.2048 (  1384 PWs)   bands (ev):

     9.0614  10.4787  11.3583  11.9912  12.4576  12.9729  13.3058  13.9642
    14.4730  14.6288  14.9397  16.8134  27.2114

          k = 0.0833 0.3368 0.2731 (  1382 PWs)   bands (ev):

     9.5231  10.0175  11.6130  11.8609  12.5632  12.7712  13.5094  13.7463
    14.6660  14.7915  15.0818  15.7976  28.0148

          k = 0.0833 0.4330 0.0000 (  1382 PWs)   bands (ev):

     9.5468  10.6826  10.8651  11.9521  12.6795  12.9988  13.0404  14.5145
    14.7797  15.0468  15.4209  21.6907  22.8103

          k = 0.0833 0.4330 0.0683 (  1381 PWs)   bands (ev):

     9.5627  10.6799  10.9330  11.8625  12.7232  13.0392  13.1332  14.4931
    14.8089  14.9361  15.4329  20.6069  23.3524

          k = 0.0833 0.4330 0.1365 (  1380 PWs)   bands (ev):

     9.6223  10.6285  11.0787  11.7914  12.7333  13.1372  13.4050  14.4232
    14.7084  14.8960  15.4265  19.0931  23.8223

          k = 0.0833 0.4330 0.2048 (  1395 PWs)   bands (ev):

     9.7449  10.4436  11.2694  11.8133  12.7914  13.2923  13.6137  14.1991
    14.6718  15.0237  15.4295  17.7059  24.3363

          k = 0.0833 0.4330 0.2731 (  1392 PWs)   bands (ev):

     9.9369  10.1840  11.5015  11.7163  13.0410  13.3195  13.6860  13.9001
    14.8773  15.0375  15.7450  16.5555  24.9874

          k = 0.0833 0.5292 0.0000 (  1380 PWs)   bands (ev):

    10.2067  10.4761  10.6669  12.2332  12.6406  12.8257  13.2197  14.9569
    15.0425  15.0572  16.5737  19.4683  24.7171

          k = 0.0833 0.5292 0.0683 (  1384 PWs)   bands (ev):

    10.0898  10.4703  10.9081  11.8976  12.6724  13.2037  13.2431  14.9055
    15.0043  15.0574  16.5180  19.3271  23.9874

          k = 0.0833 0.5292 0.1365 (  1383 PWs)   bands (ev):

     9.9581  10.4924  11.2526  11.5618  12.7020  13.3498  13.7616  14.6576
    14.9645  15.1092  16.3821  18.8844  23.2346

          k = 0.0833 0.5292 0.2048 (  1389 PWs)   bands (ev):

     9.9313  10.4042  11.3090  11.6448  12.8253  13.6115  14.0332  14.3917
    14.9348  15.1589  16.3383  18.1828  22.9295

          k = 0.0833 0.5292 0.2731 (  1388 PWs)   bands (ev):

    10.0189  10.1997  11.4384  11.6117  13.1875  13.6565  13.9962  14.3041
    14.9660  15.0789  16.6960  17.3891  23.0309

          k = 0.1667 0.2887 0.0000 (  1374 PWs)   bands (ev):

     8.1994  11.0378  11.3821  11.6237  12.7333  12.8365  13.3537  13.6673
    14.2684  14.6576  14.9759  20.5400  22.4536

          k = 0.1667 0.2887 0.0683 (  1381 PWs)   bands (ev):

     8.2905  11.0804  11.2957  11.6520  12.7049  12.8479  13.2892  13.7112
    14.3327  14.5772  14.9996  19.4567  23.7614

          k = 0.1667 0.2887 0.1365 (  1382 PWs)   bands (ev):

     8.5557  10.9959  11.2473  11.7361  12.6010  12.8407  13.1943  13.8426
    14.4269  14.4733  15.0187  18.0023  25.8801

          k = 0.1667 0.2887 0.2048 (  1375 PWs)   bands (ev):

     8.9695  10.5763  11.4524  11.8596  12.4263  12.6959  13.2576  13.8849
    14.4758  14.6244  15.0047  16.7541  28.1715

          k = 0.1667 0.2887 0.2731 (  1378 PWs)   bands (ev):

     9.4876  10.0477  11.7040  11.9013  12.3246  12.4758  13.4495  13.6875
    14.7530  14.7858  15.0988  15.7675  29.7824

          k = 0.1667 0.3849 0.0000 (  1378 PWs)   bands (ev):

     9.4158  11.0189  11.0515  11.5275  12.5425  12.9860  13.1244  14.0205
    14.7717  14.9672  15.4698  22.4240  22.7831

          k = 0.1667 0.3849 0.0683 (  1381 PWs)   bands (ev):

     9.4663  10.9728  11.1008  11.5743  12.5540  12.9929  13.0792  14.0368
    14.8199  14.8410  15.5233  20.8006  24.3806

          k = 0.1667 0.3849 0.1365 (  1385 PWs)   bands (ev):

     9.6109  10.8468  11.2310  11.7056  12.5365  12.8973  13.1103  14.1058
    14.5912  14.9332  15.6055  19.1782  25.3682

          k = 0.1667 0.3849 0.2048 (  1385 PWs)   bands (ev):

     9.8305  10.6421  11.4358  11.8691  12.4408  12.7337  13.2424  14.0409
    14.5905  15.0479  15.6971  17.7776  26.0103

          k = 0.1667 0.3849 0.2731 (  1387 PWs)   bands (ev):

    10.0979  10.3806  11.6849  11.8914  12.4103  12.5591  13.4473  13.7349
    14.9190  15.0838  15.9547  16.6610  26.7499

          k = 0.1667 0.4811 0.0000 (  1386 PWs)   bands (ev):

    10.3273  10.7991  10.8219  11.7473  12.4914  12.8682  13.2175  14.4905
    14.9601  15.0208  16.5660  21.1003  24.4541

          k = 0.1667 0.4811 0.0683 (  1383 PWs)   bands (ev):

    10.2717  10.8270  10.9351  11.6826  12.5311  12.8939  13.2489  14.4865
    14.8503  15.0554  16.5958  20.8293  23.6528

          k = 0.1667 0.4811 0.1365 (  1384 PWs)   bands (ev):

    10.2123  10.8396  11.1200  11.6967  12.4852  12.9885  13.3643  14.4395
    14.6340  15.1327  16.6825  19.9936  23.3006

          k = 0.1667 0.4811 0.2048 (  1388 PWs)   bands (ev):

    10.2277  10.7021  11.3252  11.8987  12.3816  13.0255  13.5294  14.1475
    14.6952  15.1822  16.8662  18.9170  23.5083

          k = 0.1667 0.4811 0.2731 (  1382 PWs)   bands (ev):

    10.3283  10.4995  11.5855  11.8426  12.5698  12.8817  13.6736  13.8592
    14.9204  15.1187  17.2577  17.9505  24.0280

          k = 0.1667 0.5774 0.0000 (  1380 PWs)   bands (ev):

    10.6157  10.7011  10.7262  11.9362  12.5269  12.7205  13.3188  14.8152
    14.9571  14.9915  17.6944  19.3406  25.7001

          k = 0.1667 0.5774 0.0683 (  1388 PWs)   bands (ev):

    10.4189  10.7358  11.0232  11.7441  12.4979  12.8969  13.3556  14.8134
    14.8365  15.0231  17.7223  19.3043  25.0885

          k = 0.1667 0.5774 0.1365 (  1385 PWs)   bands (ev):

    10.2864  10.8025  11.4420  11.4512  12.3984  13.1525  13.4804  14.5449
    14.8136  15.0781  17.8077  19.1852  24.1724

          k = 0.1667 0.5774 0.2048 (  1390 PWs)   bands (ev):

    10.2666  10.7384  11.3792  11.8398  12.2887  13.2348  13.6809  14.2214
    14.8349  15.0961  17.9781  18.9607  23.4247

          k = 0.1667 0.5774 0.2731 (  1383 PWs)   bands (ev):

    10.3547  10.5319  11.5636  11.8060  12.5711  13.0014  13.8807  14.0256
    14.9075  15.0235  18.2674  18.6312  23.0358

          k = 0.2500 0.4330 0.0000 (  1378 PWs)   bands (ev):

    10.4216  10.8756  11.2378  11.2519  12.4020  12.8955  13.2254  14.2287
    14.9102  15.0237  16.5984  22.8206  23.6513

          k = 0.2500 0.4330 0.0683 (  1389 PWs)   bands (ev):

    10.4357  10.8407  11.2568  11.3468  12.4559  12.8144  13.2251  14.2478
    14.7956  15.0615  16.6529  21.9474  23.7814

          k = 0.2500 0.4330 0.1365 (  1391 PWs)   bands (ev):

    10.4729  10.7818  11.3345  11.5699  12.5522  12.6080  13.2337  14.2892
    14.5582  15.1410  16.7950  20.5397  24.1563

          k = 0.2500 0.4330 0.2048 (  1387 PWs)   bands (ev):

    10.5255  10.7230  11.4943  11.8482  12.3436  12.5636  13.2886  14.0462
    14.6566  15.1911  17.0295  19.2311  24.7312

          k = 0.2500 0.4330 0.2731 (  1379 PWs)   bands (ev):

    10.5897  10.6586  11.7258  11.9718  12.2235  12.4346  13.4373  13.7015
    14.9375  15.1383  17.4487  18.1747  25.4346

          k = 0.2500 0.5292 0.0000 (  1390 PWs)   bands (ev):

    10.8157  10.9026  11.0736  11.5096  12.4144  12.6563  13.4195  14.5454
    14.8766  14.9519  18.1419  20.6793  22.9769

          k = 0.2500 0.5292 0.0683 (  1394 PWs)   bands (ev):

    10.7383  11.0253  11.1262  11.4804  12.4275  12.6287  13.4236  14.5594
    14.7568  14.9787  18.2256  20.6825  23.0020

          k = 0.2500 0.5292 0.1365 (  1389 PWs)   bands (ev):

    10.6946  11.1556  11.2227  11.5166  12.3744  12.6036  13.4441  14.4339
    14.6354  15.0317  18.4488  20.6177  22.9966

          k = 0.2500 0.5292 0.2048 (  1384 PWs)   bands (ev):

    10.7171  11.0690  11.4106  11.7531  12.2176  12.5681  13.4942  14.0755
    14.7433  15.0558  18.7794  20.3077  22.9970

          k = 0.2500 0.5292 0.2731 (  1387 PWs)   bands (ev):

    10.7990  10.9252  11.6469  11.8584  12.1964  12.4246  13.5910  13.7753
    14.8879  15.0080  19.2219  19.7690  23.2975

          k = 0.3333 0.5774 0.0000 (  1398 PWs)   bands (ev):

    10.8376  11.1574  11.1574  11.4008  12.4750  12.4750  13.5299  14.7147
    14.7147  14.8435  19.7890  20.6907  20.6907

          k = 0.3333 0.5774 0.0683 (  1383 PWs)   bands (ev):

    10.8799  11.1778  11.1778  11.4125  12.4499  12.4499  13.5172  14.7182
    14.7382  14.7382  19.9812  20.7171  20.7171

          k = 0.3333 0.5774 0.1365 (  1398 PWs)   bands (ev):

    10.9976  11.2311  11.2311  11.4392  12.3868  12.3868  13.4899  14.4072
    14.7958  14.7958  20.5026  20.7917  20.7917

          k = 0.3333 0.5774 0.2048 (  1392 PWs)   bands (ev):

    11.1612  11.2958  11.2958  11.4558  12.3148  12.3148  13.4816  14.0400
    14.8580  14.8580  20.8932  20.8932  21.2525

          k = 0.3333 0.5774 0.2731 (  1398 PWs)   bands (ev):

    11.3212  11.3409  11.3409  11.4252  12.2667  12.2667  13.5452  13.7307
    14.8969  14.8969  20.9727  20.9727  22.1593

     the Fermi energy is    14.7528 ev

!    total energy              =    -324.08787164 Ry
     total all-electron energy =     -5573.775224 Ry
     estimated scf accuracy    <       0.00000064 Ry
     smearing contrib. (-TS)   =      -0.00182855 Ry
     internal energy E=F+TS    =    -324.08604309 Ry

     The total energy is F=E-TS. E is the sum of the following terms:
     one-electron contribution =       2.27778803 Ry
     hartree contribution      =      25.54938996 Ry
     xc contribution           =     -65.24325830 Ry
     ewald contribution        =    -113.56066059 Ry
     one-center paw contrib.   =    -173.10930220 Ry

     convergence has been achieved in   6 iterations

     Forces acting on atoms (cartesian axes, Ry/au):

     atom    1 type  1   force =     0.00000000    0.00000000    0.00000000
     atom    2 type  1   force =     0.00000000    0.00000000    0.00000000
     The non-local contrib.  to forces
     atom    1 type  1   force =     0.00000000    0.00000000    0.00000000
     atom    2 type  1   force =     0.00000000   -0.00000000    0.00000000
     The ionic contribution  to forces
     atom    1 type  1   force =    -0.00000000   -0.00000000   -0.00000000
     atom    2 type  1   force =    -0.00000000    0.00000000    0.00000000
     The local contribution  to forces
     atom    1 type  1   force =    -0.00000000   -0.00000000   -0.00000000
     atom    2 type  1   force =     0.00000000   -0.00000000    0.00000000
     The core correction contribution to forces
     atom    1 type  1   force =    -0.00000000   -0.00000000   -0.00000000
     atom    2 type  1   force =     0.00000000   -0.00000000   -0.00000000
     The Hubbard contrib.    to forces
     atom    1 type  1   force =     0.00000000    0.00000000    0.00000000
     atom    2 type  1   force =     0.00000000    0.00000000    0.00000000
     The SCF correction term to forces
     atom    1 type  1   force =     0.00000000   -0.00000000   -0.00000000
     atom    2 type  1   force =    -0.00000000    0.00000000    0.00000000

     Total force =     0.000000     Total SCF correction =     0.000000


     Computing stress (Cartesian axis) and pressure

          total   stress  (Ry/bohr**3)                   (kbar)     P=        5.44
   0.00009164   0.00000000   0.00000000           13.48        0.00        0.00
   0.00000000   0.00009164   0.00000000            0.00       13.48        0.00
   0.00000000   0.00000000  -0.00007244            0.00        0.00      -10.66


     Writing all to output data dir ./tmp/scf.save/
 
     init_run     :      0.95s CPU      1.02s WALL (       1 calls)
     electrons    :     12.40s CPU     13.25s WALL (       1 calls)
     forces       :      0.17s CPU      0.17s WALL (       1 calls)
     stress       :      1.00s CPU      1.00s WALL (       1 calls)

     Called by init_run:
     wfcinit      :      0.43s CPU      0.45s WALL (       1 calls)
     potinit      :      0.15s CPU      0.16s WALL (       1 calls)
     hinit0       :      0.20s CPU      0.21s WALL (       1 calls)

     Called by electrons:
     c_bands      :      9.49s CPU     10.17s WALL (       7 calls)
     sum_band     :      1.71s CPU      1.87s WALL (       7 calls)
     v_of_rho     :      0.11s CPU      0.12s WALL (       7 calls)
     newd         :      0.30s CPU      0.33s WALL (       7 calls)
     PAW_pot      :      0.92s CPU      0.93s WALL (       7 calls)
     mix_rho      :      0.01s CPU      0.01s WALL (       7 calls)

     Called by c_bands:
     init_us_2    :      0.22s CPU      0.23s WALL (    1615 calls)
     init_us_2:cp :      0.22s CPU      0.23s WALL (    1615 calls)
     cegterg      :      8.47s CPU      9.11s WALL (     665 calls)

     Called by *egterg:
     cdiaghg      :      0.69s CPU      0.72s WALL (    2814 calls)
     h_psi        :      7.16s CPU      7.73s WALL (    3004 calls)
     s_psi        :      0.11s CPU      0.12s WALL (    3004 calls)
     g_psi        :      0.03s CPU      0.03s WALL (    2244 calls)

     Called by h_psi:
     h_psi:calbec :      0.36s CPU      0.38s WALL (    3004 calls)
     vloc_psi     :      6.59s CPU      7.12s WALL (    3004 calls)
     add_vuspsi   :      0.15s CPU      0.16s WALL (    3004 calls)

     General routines
     calbec       :      0.81s CPU      0.85s WALL (    4144 calls)
     fft          :      0.08s CPU      0.10s WALL (     115 calls)
     ffts         :      0.00s CPU      0.00s WALL (      14 calls)
     fftw         :      5.73s CPU      6.23s WALL (   65465 calls)
     interpolate  :      0.01s CPU      0.01s WALL (       7 calls)
 
     Parallel routines
 
     PWSCF        :     14.76s CPU     15.79s WALL

 
   This run was terminated on:  16:43:26   9Jul2025            

=------------------------------------------------------------------------------=
   JOB DONE.
=------------------------------------------------------------------------------=
