
     Program PWSCF v.7.2 starts on  9Jul2025 at 16:43:43 

     This program is part of the open-source Quantum ESPRESSO suite
     for quantum simulation of materials; please cite
         "P. Giannozzi et al., J. Phys.:Condens. Matter 21 395502 (2009);
         "P. Giannozzi et al., J. Phys.:Condens. Matter 29 465901 (2017);
         "P. Giannozzi et al., J. Chem. Phys. 152 154105 (2020);
          URL http://www.quantum-espresso.org", 
     in publications or presentations arising from this work. More details at
     http://www.quantum-espresso.org/quote

     Parallel version (MPI), running on     4 processors

     MPI processes distributed on     1 nodes
     23861 MiB available memory on the printing compute node when the environment starts
 
     Waiting for input...
     Reading input from standard input

     Current dimensions of program PWSCF are:
     Max number of different atomic species (ntypx) = 10
     Max number of k-points (npk) =  40000
     Max angular momentum in pseudopotentials (lmaxx) =  4
     file Co.pbe-n-kjpaw_psl.1.0.0.UPF: wavefunction(s)  4S 3D renormalized
     Message from routine setup:
     using ibrav=0 with symmetry is DISCOURAGED, use correct ibrav instead
 
     R & G space division:  proc/nbgrp/npool/nimage =       4
     Subspace diagonalization in iterative solution of the eigenvalue problem:
     a serial algorithm will be used

 
     Parallelization info
     --------------------
     sticks:   dense  smooth     PW     G-vecs:    dense   smooth      PW
     Min         259     105     30                10967     2787     484
     Max         260     106     31                10972     2792     491
     Sum        1039     421    121                43881    11153    1943
 
     Using Slab Decomposition
 


     bravais-lattice index     =            0
     lattice parameter (alat)  =       4.6298  a.u.
     unit-cell volume          =     139.8796 (a.u.)^3
     number of atoms/cell      =            2
     number of atomic types    =            1
     number of electrons       =        18.00
     number of Kohn-Sham states=           13
     kinetic-energy cutoff     =      70.0000  Ry
     charge density cutoff     =     700.0000  Ry
     scf convergence threshold =      1.0E-06
     mixing beta               =       0.7000
     number of iterations used =            8  plain     mixing
     Exchange-correlation= SLA  PW   PBX  PBC
                           (   1   4   3   4   0   0   0)

     celldm(1)=   4.629829  celldm(2)=   0.000000  celldm(3)=   0.000000
     celldm(4)=   0.000000  celldm(5)=   0.000000  celldm(6)=   0.000000

     crystal axes: (cart. coord. in units of alat)
               a(1) = (   1.000000   0.000000   0.000000 )  
               a(2) = (  -0.500000   0.866025   0.000000 )  
               a(3) = (   0.000000   0.000000   1.627530 )  

     reciprocal axes: (cart. coord. in units 2 pi/alat)
               b(1) = (  1.000000  0.577350  0.000000 )  
               b(2) = (  0.000000  1.154701  0.000000 )  
               b(3) = (  0.000000  0.000000  0.614428 )  


     PseudoPot. # 1 for Co read from file:
     /shared/ESPRESSO/PSLIBRARY/1.0.0/pbe/PSEUDOPOTENTIALS/Co.pbe-n-kjpaw_psl.1.0.0.UPF
     MD5 check sum: 17e7ab8db721b244d1352252ea6cb8e7
     Pseudo is Projector augmented-wave + core cor, Zval =  9.0
     Generated using "atomic" code by A. Dal Corso  (Quantum ESPRESSO distribution)
     Shape of augmentation charge: PSQ
     Using radial grid of 1193 points,  6 beta functions with: 
                l(1) =   0
                l(2) =   0
                l(3) =   1
                l(4) =   1
                l(5) =   2
                l(6) =   2
     Q(r) pseudized with 0 coefficients 


     atomic species   valence    mass     pseudopotential
        Co             9.00    58.93320     Co( 1.00)

     24 Sym. Ops., with inversion, found (12 have fractional translation)



   Cartesian axes

     site n.     atom                  positions (alat units)
         1           Co  tau(   1) = (   0.0000000   0.0000000   0.0000000  )
         2           Co  tau(   2) = (  -0.0000000   0.5773503   0.8137650  )

     number of k points=   675  Gaussian smearing, width (Ry)=  0.0073

     Number of k-points >= 100: set verbosity='high' to print them.

     Dense  grid:    43881 G-vectors     FFT dimensions: (  45,  45,  64)

     Smooth grid:    11153 G-vectors     FFT dimensions: (  27,  27,  48)

     Estimated max dynamical RAM per process >      88.94 MB

     Estimated total dynamical RAM >     355.77 MB

     Initial potential from superposition of free atoms

     starting charge      17.9994, renormalised to      18.0000
     Starting wfcs are   18 randomized atomic wfcs
     Checking if some PAW data can be deallocated... 

     total cpu time spent up to now is        5.1 secs

     Self-consistent Calculation

     iteration #  1     ecut=    70.00 Ry     beta= 0.70
     Davidson diagonalization with overlap
     ethr =  1.00E-02,  avg # of iterations =  2.4

     Threshold (ethr) on eigenvalues was too large:
     Diagonalizing with lowered threshold

     Davidson diagonalization with overlap
     c_bands:  1 eigenvalues not converged
     ethr =  4.58E-05,  avg # of iterations =  7.1

     total cpu time spent up to now is       33.3 secs

     total energy              =    -324.07341207 Ry
     estimated scf accuracy    <       0.02830922 Ry

     iteration #  2     ecut=    70.00 Ry     beta= 0.70
     Davidson diagonalization with overlap
     ethr =  1.57E-04,  avg # of iterations =  2.2

     total cpu time spent up to now is       43.4 secs

     total energy              =    -324.07487098 Ry
     estimated scf accuracy    <       0.07237198 Ry

     iteration #  3     ecut=    70.00 Ry     beta= 0.70
     Davidson diagonalization with overlap
     ethr =  1.57E-04,  avg # of iterations =  2.0

     total cpu time spent up to now is       49.7 secs

     total energy              =    -324.08757862 Ry
     estimated scf accuracy    <       0.00005933 Ry

     iteration #  4     ecut=    70.00 Ry     beta= 0.70
     Davidson diagonalization with overlap
     c_bands:  1 eigenvalues not converged
     c_bands:  1 eigenvalues not converged
     c_bands:  1 eigenvalues not converged
     c_bands:  1 eigenvalues not converged
     c_bands:  1 eigenvalues not converged
     c_bands:  1 eigenvalues not converged
     c_bands:  1 eigenvalues not converged
     c_bands:  1 eigenvalues not converged
     c_bands:  1 eigenvalues not converged
     c_bands:  1 eigenvalues not converged
     ethr =  3.30E-07,  avg # of iterations =  6.2

     total cpu time spent up to now is       58.8 secs

     total energy              =    -324.08765208 Ry
     estimated scf accuracy    <       0.00014513 Ry

     iteration #  5     ecut=    70.00 Ry     beta= 0.70
     Davidson diagonalization with overlap
     ethr =  3.30E-07,  avg # of iterations =  2.1

     total cpu time spent up to now is       65.1 secs

     total energy              =    -324.08768218 Ry
     estimated scf accuracy    <       0.00000166 Ry

     iteration #  6     ecut=    70.00 Ry     beta= 0.70
     Davidson diagonalization with overlap
     ethr =  9.23E-09,  avg # of iterations =  3.0

     total cpu time spent up to now is       71.3 secs

     End of self-consistent calculation

     Number of k-points >= 100: set verbosity='high' to print the bands.

     the Fermi energy is    14.7623 ev

!    total energy              =    -324.08768172 Ry
     total all-electron energy =     -5573.775034 Ry
     estimated scf accuracy    <       0.00000093 Ry
     smearing contrib. (-TS)   =      -0.00203066 Ry
     internal energy E=F+TS    =    -324.08565106 Ry

     The total energy is F=E-TS. E is the sum of the following terms:
     one-electron contribution =       2.27323253 Ry
     hartree contribution      =      25.55623124 Ry
     xc contribution           =     -65.24544975 Ry
     ewald contribution        =    -113.56066059 Ry
     one-center paw contrib.   =    -173.10900449 Ry

     convergence has been achieved in   6 iterations

     Forces acting on atoms (cartesian axes, Ry/au):

     atom    1 type  1   force =     0.00000000    0.00000000    0.00000000
     atom    2 type  1   force =     0.00000000    0.00000000    0.00000000
     The non-local contrib.  to forces
     atom    1 type  1   force =     0.00000000    0.00000000    0.00000000
     atom    2 type  1   force =     0.00000000    0.00000000    0.00000000
     The ionic contribution  to forces
     atom    1 type  1   force =    -0.00000000   -0.00000000   -0.00000000
     atom    2 type  1   force =    -0.00000000    0.00000000    0.00000000
     The local contribution  to forces
     atom    1 type  1   force =    -0.00000000   -0.00000000   -0.00000000
     atom    2 type  1   force =     0.00000000   -0.00000000    0.00000000
     The core correction contribution to forces
     atom    1 type  1   force =    -0.00000000   -0.00000000   -0.00000000
     atom    2 type  1   force =     0.00000000   -0.00000000   -0.00000000
     The Hubbard contrib.    to forces
     atom    1 type  1   force =     0.00000000    0.00000000    0.00000000
     atom    2 type  1   force =     0.00000000    0.00000000    0.00000000
     The SCF correction term to forces
     atom    1 type  1   force =    -0.00000000   -0.00000000   -0.00000000
     atom    2 type  1   force =     0.00000000   -0.00000000   -0.00000000

     Total force =     0.000000     Total SCF correction =     0.000000


     Computing stress (Cartesian axis) and pressure

          total   stress  (Ry/bohr**3)                   (kbar)     P=        8.33
   0.00011806  -0.00000000   0.00000000           17.37       -0.00        0.00
  -0.00000000   0.00011806   0.00000000           -0.00       17.37        0.00
   0.00000000   0.00000000  -0.00006624            0.00        0.00       -9.74


     Writing all to output data dir ./tmp/scf.save/
 
     init_run     :      4.57s CPU      4.85s WALL (       1 calls)
     electrons    :     59.11s CPU     66.29s WALL (       1 calls)
     forces       :      0.29s CPU      0.29s WALL (       1 calls)
     stress       :      2.56s CPU      2.57s WALL (       1 calls)

     Called by init_run:
     wfcinit      :      3.97s CPU      4.15s WALL (       1 calls)
     potinit      :      0.19s CPU      0.20s WALL (       1 calls)
     hinit0       :      0.23s CPU      0.30s WALL (       1 calls)

     Called by electrons:
     c_bands      :     51.64s CPU     58.08s WALL (       7 calls)
     sum_band     :      6.67s CPU      7.39s WALL (       7 calls)
     v_of_rho     :      0.09s CPU      0.10s WALL (       7 calls)
     newd         :      0.22s CPU      0.25s WALL (       7 calls)
     PAW_pot      :      0.68s CPU      0.69s WALL (       7 calls)
     mix_rho      :      0.01s CPU      0.01s WALL (       7 calls)

     Called by c_bands:
     init_us_2    :      1.08s CPU      1.14s WALL (   11475 calls)
     init_us_2:cp :      1.06s CPU      1.12s WALL (   11475 calls)
     cegterg      :     46.87s CPU     53.08s WALL (    4725 calls)

     Called by *egterg:
     cdiaghg      :      3.87s CPU      4.16s WALL (   20940 calls)
     h_psi        :     41.05s CPU     46.59s WALL (   22290 calls)
     s_psi        :      0.56s CPU      0.62s WALL (   22290 calls)
     g_psi        :      0.14s CPU      0.16s WALL (   16890 calls)

     Called by h_psi:
     h_psi:calbec :      2.03s CPU      2.26s WALL (   22290 calls)
     vloc_psi     :     37.92s CPU     43.13s WALL (   22290 calls)
     add_vuspsi   :      0.77s CPU      0.84s WALL (   22290 calls)

     General routines
     calbec       :      2.62s CPU      2.90s WALL (   30390 calls)
     fft          :      0.06s CPU      0.13s WALL (     115 calls)
     ffts         :      0.00s CPU      0.00s WALL (      14 calls)
     fftw         :     34.44s CPU     39.36s WALL (  476705 calls)
     interpolate  :      0.01s CPU      0.01s WALL (       7 calls)
 
     Parallel routines
 
     PWSCF        :   1m 6.93s CPU   1m14.67s WALL

 
   This run was terminated on:  16:44:57   9Jul2025            

=------------------------------------------------------------------------------=
   JOB DONE.
=------------------------------------------------------------------------------=
