
     Program PWSCF v.7.2 starts on  9Jul2025 at 16:43:11 

     This program is part of the open-source Quantum ESPRESSO suite
     for quantum simulation of materials; please cite
         "P. Giannozzi et al., J. Phys.:Condens. Matter 21 395502 (2009);
         "P. Giannozzi et al., J. Phys.:Condens. Matter 29 465901 (2017);
         "P. Giannozzi et al., J. Chem. Phys. 152 154105 (2020);
          URL http://www.quantum-espresso.org", 
     in publications or presentations arising from this work. More details at
     http://www.quantum-espresso.org/quote

     Parallel version (MPI), running on     4 processors

     MPI processes distributed on     1 nodes
     23402 MiB available memory on the printing compute node when the environment starts
 
     Waiting for input...
     Reading input from standard input

     Current dimensions of program PWSCF are:
     Max number of different atomic species (ntypx) = 10
     Max number of k-points (npk) =  40000
     Max angular momentum in pseudopotentials (lmaxx) =  4
     file Co.pbe-n-kjpaw_psl.1.0.0.UPF: wavefunction(s)  4S 3D renormalized
     Message from routine setup:
     using ibrav=0 with symmetry is DISCOURAGED, use correct ibrav instead
 
     R & G space division:  proc/nbgrp/npool/nimage =       4
     Subspace diagonalization in iterative solution of the eigenvalue problem:
     a serial algorithm will be used

 
     Parallelization info
     --------------------
     sticks:   dense  smooth     PW     G-vecs:    dense   smooth      PW
     Min         259     105     30                10967     2787     478
     Max         260     106     31                10972     2792     483
     Sum        1039     421    121                43881    11153    1919
 
     Using Slab Decomposition
 


     bravais-lattice index     =            0
     lattice parameter (alat)  =       4.6298  a.u.
     unit-cell volume          =     139.8796 (a.u.)^3
     number of atoms/cell      =            2
     number of atomic types    =            1
     number of electrons       =        18.00
     number of Kohn-Sham states=           13
     kinetic-energy cutoff     =      70.0000  Ry
     charge density cutoff     =     700.0000  Ry
     scf convergence threshold =      1.0E-06
     mixing beta               =       0.7000
     number of iterations used =            8  plain     mixing
     Exchange-correlation= SLA  PW   PBX  PBC
                           (   1   4   3   4   0   0   0)

     celldm(1)=   4.629829  celldm(2)=   0.000000  celldm(3)=   0.000000
     celldm(4)=   0.000000  celldm(5)=   0.000000  celldm(6)=   0.000000

     crystal axes: (cart. coord. in units of alat)
               a(1) = (   1.000000   0.000000   0.000000 )  
               a(2) = (  -0.500000   0.866025   0.000000 )  
               a(3) = (   0.000000   0.000000   1.627530 )  

     reciprocal axes: (cart. coord. in units 2 pi/alat)
               b(1) = (  1.000000  0.577350  0.000000 )  
               b(2) = (  0.000000  1.154701  0.000000 )  
               b(3) = (  0.000000  0.000000  0.614428 )  


     PseudoPot. # 1 for Co read from file:
     /shared/ESPRESSO/PSLIBRARY/1.0.0/pbe/PSEUDOPOTENTIALS/Co.pbe-n-kjpaw_psl.1.0.0.UPF
     MD5 check sum: 17e7ab8db721b244d1352252ea6cb8e7
     Pseudo is Projector augmented-wave + core cor, Zval =  9.0
     Generated using "atomic" code by A. Dal Corso  (Quantum ESPRESSO distribution)
     Shape of augmentation charge: PSQ
     Using radial grid of 1193 points,  6 beta functions with: 
                l(1) =   0
                l(2) =   0
                l(3) =   1
                l(4) =   1
                l(5) =   2
                l(6) =   2
     Q(r) pseudized with 0 coefficients 


     atomic species   valence    mass     pseudopotential
        Co             9.00    58.93320     Co( 1.00)

     24 Sym. Ops., with inversion, found (12 have fractional translation)



   Cartesian axes

     site n.     atom                  positions (alat units)
         1           Co  tau(   1) = (   0.0000000   0.0000000   0.0000000  )
         2           Co  tau(   2) = (  -0.0000000   0.5773503   0.8137650  )

     number of k points=    48  Gaussian smearing, width (Ry)=  0.0073
                       cart. coord. in units 2pi/alat
        k(    1) = (   0.0000000   0.0000000   0.0000000), wk =   0.0035273
        k(    2) = (   0.0000000   0.0000000   0.0877754), wk =   0.0070547
        k(    3) = (   0.0000000   0.0000000   0.1755509), wk =   0.0070547
        k(    4) = (   0.0000000   0.0000000   0.2633263), wk =   0.0070547
        k(    5) = (   0.0000000   0.1283001   0.0000000), wk =   0.0211640
        k(    6) = (   0.0000000   0.1283001   0.0877754), wk =   0.0423280
        k(    7) = (   0.0000000   0.1283001   0.1755509), wk =   0.0423280
        k(    8) = (   0.0000000   0.1283001   0.2633263), wk =   0.0423280
        k(    9) = (   0.0000000   0.2566001   0.0000000), wk =   0.0211640
        k(   10) = (   0.0000000   0.2566001   0.0877754), wk =   0.0423280
        k(   11) = (   0.0000000   0.2566001   0.1755509), wk =   0.0423280
        k(   12) = (   0.0000000   0.2566001   0.2633263), wk =   0.0423280
        k(   13) = (   0.0000000   0.3849002   0.0000000), wk =   0.0211640
        k(   14) = (   0.0000000   0.3849002   0.0877754), wk =   0.0423280
        k(   15) = (   0.0000000   0.3849002   0.1755509), wk =   0.0423280
        k(   16) = (   0.0000000   0.3849002   0.2633263), wk =   0.0423280
        k(   17) = (   0.0000000   0.5132002   0.0000000), wk =   0.0211640
        k(   18) = (   0.0000000   0.5132002   0.0877754), wk =   0.0423280
        k(   19) = (   0.0000000   0.5132002   0.1755509), wk =   0.0423280
        k(   20) = (   0.0000000   0.5132002   0.2633263), wk =   0.0423280
        k(   21) = (   0.1111111   0.1924501   0.0000000), wk =   0.0211640
        k(   22) = (   0.1111111   0.1924501   0.0877754), wk =   0.0423280
        k(   23) = (   0.1111111   0.1924501   0.1755509), wk =   0.0423280
        k(   24) = (   0.1111111   0.1924501   0.2633263), wk =   0.0423280
        k(   25) = (   0.1111111   0.3207501   0.0000000), wk =   0.0423280
        k(   26) = (   0.1111111   0.3207501   0.0877754), wk =   0.0846561
        k(   27) = (   0.1111111   0.3207501   0.1755509), wk =   0.0846561
        k(   28) = (   0.1111111   0.3207501   0.2633263), wk =   0.0846561
        k(   29) = (   0.1111111   0.4490502   0.0000000), wk =   0.0423280
        k(   30) = (   0.1111111   0.4490502   0.0877754), wk =   0.0846561
        k(   31) = (   0.1111111   0.4490502   0.1755509), wk =   0.0846561
        k(   32) = (   0.1111111   0.4490502   0.2633263), wk =   0.0846561
        k(   33) = (   0.1111111   0.5773503   0.0000000), wk =   0.0211640
        k(   34) = (   0.1111111   0.5773503   0.0877754), wk =   0.0423280
        k(   35) = (   0.1111111   0.5773503   0.1755509), wk =   0.0423280
        k(   36) = (   0.1111111   0.5773503   0.2633263), wk =   0.0423280
        k(   37) = (   0.2222222   0.3849002   0.0000000), wk =   0.0211640
        k(   38) = (   0.2222222   0.3849002   0.0877754), wk =   0.0423280
        k(   39) = (   0.2222222   0.3849002   0.1755509), wk =   0.0423280
        k(   40) = (   0.2222222   0.3849002   0.2633263), wk =   0.0423280
        k(   41) = (   0.2222222   0.5132002   0.0000000), wk =   0.0423280
        k(   42) = (   0.2222222   0.5132002   0.0877754), wk =   0.0846561
        k(   43) = (   0.2222222   0.5132002   0.1755509), wk =   0.0846561
        k(   44) = (   0.2222222   0.5132002   0.2633263), wk =   0.0846561
        k(   45) = (   0.3333333   0.5773503   0.0000000), wk =   0.0070547
        k(   46) = (   0.3333333   0.5773503   0.0877754), wk =   0.0141093
        k(   47) = (   0.3333333   0.5773503   0.1755509), wk =   0.0141093
        k(   48) = (   0.3333333   0.5773503   0.2633263), wk =   0.0141093

     Dense  grid:    43881 G-vectors     FFT dimensions: (  45,  45,  64)

     Smooth grid:    11153 G-vectors     FFT dimensions: (  27,  27,  48)

     Estimated max dynamical RAM per process >      46.03 MB

     Estimated total dynamical RAM >     184.14 MB

     Initial potential from superposition of free atoms

     starting charge      17.9994, renormalised to      18.0000
     Starting wfcs are   18 randomized atomic wfcs
     Checking if some PAW data can be deallocated... 

     total cpu time spent up to now is        0.9 secs

     Self-consistent Calculation

     iteration #  1     ecut=    70.00 Ry     beta= 0.70
     Davidson diagonalization with overlap
     ethr =  1.00E-02,  avg # of iterations =  2.3

     Threshold (ethr) on eigenvalues was too large:
     Diagonalizing with lowered threshold

     Davidson diagonalization with overlap
     ethr =  4.85E-05,  avg # of iterations =  6.6

     total cpu time spent up to now is        1.9 secs

     total energy              =    -324.07283224 Ry
     estimated scf accuracy    <       0.02944108 Ry

     iteration #  2     ecut=    70.00 Ry     beta= 0.70
     Davidson diagonalization with overlap
     ethr =  1.64E-04,  avg # of iterations =  2.2

     total cpu time spent up to now is        2.5 secs

     total energy              =    -324.07403703 Ry
     estimated scf accuracy    <       0.07827750 Ry

     iteration #  3     ecut=    70.00 Ry     beta= 0.70
     Davidson diagonalization with overlap
     ethr =  1.64E-04,  avg # of iterations =  2.0

     total cpu time spent up to now is        3.2 secs

     total energy              =    -324.08762557 Ry
     estimated scf accuracy    <       0.00006886 Ry

     iteration #  4     ecut=    70.00 Ry     beta= 0.70
     Davidson diagonalization with overlap
     c_bands:  1 eigenvalues not converged
     ethr =  3.83E-07,  avg # of iterations =  6.3

     total cpu time spent up to now is        4.1 secs

     total energy              =    -324.08772188 Ry
     estimated scf accuracy    <       0.00014133 Ry

     iteration #  5     ecut=    70.00 Ry     beta= 0.70
     Davidson diagonalization with overlap
     ethr =  3.83E-07,  avg # of iterations =  2.0

     total cpu time spent up to now is        4.8 secs

     total energy              =    -324.08773164 Ry
     estimated scf accuracy    <       0.00000771 Ry

     iteration #  6     ecut=    70.00 Ry     beta= 0.70
     Davidson diagonalization with overlap
     ethr =  4.29E-08,  avg # of iterations =  2.7

     total cpu time spent up to now is        5.5 secs

     total energy              =    -324.08773496 Ry
     estimated scf accuracy    <       0.00000702 Ry

     iteration #  7     ecut=    70.00 Ry     beta= 0.70
     Davidson diagonalization with overlap
     ethr =  3.90E-08,  avg # of iterations =  1.0

     total cpu time spent up to now is        6.2 secs

     End of self-consistent calculation

          k = 0.0000 0.0000 0.0000 (  1389 PWs)   bands (ev):

     5.4605   9.7826  12.7667  12.8512  12.8512  13.2079  13.2079  13.6317
    13.6317  14.4431  14.8502  14.8502  21.8380

          k = 0.0000 0.0000 0.0878 (  1388 PWs)   bands (ev):

     5.6709   9.6918  12.7039  12.7976  12.7976  13.1465  13.1465  13.7665
    13.7665  13.8096  14.8382  14.8382  22.9298

          k = 0.0000 0.0000 0.1756 (  1406 PWs)   bands (ev):

     6.2840   9.2720  12.5412  12.7326  12.7326  12.8042  13.0000  13.0000
    14.0578  14.0578  14.7754  14.7754  25.4399

          k = 0.0000 0.0000 0.2633 (  1376 PWs)   bands (ev):

     7.2334   8.3510  12.3451  12.3630  12.7447  12.7447  12.8447  12.8447
    14.3690  14.3690  14.6211  14.6211  28.5669

          k = 0.0000 0.1283 0.0000 (  1377 PWs)   bands (ev):

     5.9061  10.0673  12.4538  12.9794  13.0356  13.0774  13.1565  13.4085
    13.4913  13.5947  14.9073  16.6311  21.8913

          k = 0.0000 0.1283 0.0878 (  1380 PWs)   bands (ev):

     6.1109   9.9970  12.4652  12.6369  12.8837  12.9928  13.2360  13.3329
    13.6770  13.7337  14.8845  16.0822  23.0878

          k = 0.0000 0.1283 0.1756 (  1385 PWs)   bands (ev):

     6.7071   9.6149  12.1725  12.5116  12.5740  12.9106  13.0975  13.1850
    14.0019  14.0635  14.7959  15.3439  25.6913

          k = 0.0000 0.1283 0.2633 (  1379 PWs)   bands (ev):

     7.6299   8.7182  12.0473  12.2466  12.6497  12.8563  12.9232  13.0275
    14.3353  14.4492  14.6124  14.8523  28.8568

          k = 0.0000 0.2566 0.0000 (  1377 PWs)   bands (ev):

     7.1567  10.6425  11.8119  12.0471  12.8132  13.1857  13.3172  13.6411
    13.6859  13.9406  15.0043  18.9531  22.1045

          k = 0.0000 0.2566 0.0878 (  1378 PWs)   bands (ev):

     7.3369  10.6349  11.6512  12.0910  12.7078  13.1799  13.2120  13.7513
    13.8317  13.9121  14.9622  17.8652  23.6527

          k = 0.0000 0.2566 0.1756 (  1377 PWs)   bands (ev):

     7.8575  10.3585  11.4838  12.1896  12.4655  13.0403  13.2091  13.6724
    14.0670  14.1933  14.8325  16.4302  26.4495

          k = 0.0000 0.2566 0.2633 (  1377 PWs)   bands (ev):

     8.6509   9.5757  11.6758  12.0135  12.5109  12.7841  13.3137  13.4835
    14.3459  14.6183  14.6900  15.3915  29.5597

          k = 0.0000 0.3849 0.0000 (  1369 PWs)   bands (ev):

     8.8398  10.6935  11.0344  12.0055  12.8873  12.9023  13.0272  14.4460
    14.5435  14.6058  15.0693  21.5611  22.1740

          k = 0.0000 0.3849 0.0878 (  1384 PWs)   bands (ev):

     8.9361  10.6952  11.0495  11.9443  12.7993  12.9628  13.2578  14.4647
    14.5114  14.5260  15.0244  19.5682  24.1330

          k = 0.0000 0.3849 0.1756 (  1386 PWs)   bands (ev):

     9.2081  10.5019  11.1942  11.9000  12.7837  13.1796  13.4999  14.2574
    14.5516  14.5543  14.9193  17.6170  25.3081

          k = 0.0000 0.3849 0.2633 (  1386 PWs)   bands (ev):

     9.6110  10.0781  11.4818  11.7651  13.0217  13.3784  13.5076  13.8933
    14.6643  14.7925  15.0494  16.0876  26.2036

          k = 0.0000 0.5132 0.0000 (  1388 PWs)   bands (ev):

    10.0093  10.4086  10.6516  12.3432  12.7099  12.8426  13.1800  14.9615
    15.0965  15.1162  16.0769  19.6253  24.2040

          k = 0.0000 0.5132 0.0878 (  1385 PWs)   bands (ev):

     9.8870  10.3920  10.9642  11.8189  12.8051  13.1638  13.5560  14.8857
    15.0032  15.1433  15.9104  19.2591  23.3795

          k = 0.0000 0.5132 0.1756 (  1385 PWs)   bands (ev):

     9.7916  10.3502  11.2572  11.5557  13.0798  13.2663  14.5103  14.5860
    15.0169  15.1275  15.4163  18.2403  22.9206

          k = 0.0000 0.5132 0.2633 (  1394 PWs)   bands (ev):

     9.8731  10.1103  11.3700  11.5619  13.5008  13.8077  14.0079  14.6453
    15.0528  15.0931  15.7296  16.9652  23.1121

          k = 0.1111 0.1925 0.0000 (  1376 PWs)   bands (ev):

     6.7588  10.5306  12.0826  12.1180  12.9154  13.1105  13.3293  13.5351
    13.5452  13.8580  14.9537  18.3089  22.0383

          k = 0.1111 0.1925 0.0878 (  1378 PWs)   bands (ev):

     6.9492  10.5055  11.9026  12.1176  12.8722  12.9760  13.3010  13.5109
    13.8017  13.8674  14.9236  17.3930  23.4627

          k = 0.1111 0.1925 0.1756 (  1374 PWs)   bands (ev):

     7.5016  10.1959  11.6355  12.2206  12.5247  12.9484  13.1787  13.5081
    14.0750  14.1225  14.8208  16.1369  26.2143

          k = 0.1111 0.1925 0.2633 (  1377 PWs)   bands (ev):

     8.3514   9.3531  11.7591  12.0910  12.4657  12.7157  13.2351  13.3624
    14.3593  14.5529  14.6732  15.2378  29.4159

          k = 0.1111 0.3208 0.0000 (  1378 PWs)   bands (ev):

     8.2733  10.9427  11.3213  11.7366  12.7702  12.8317  13.2942  13.7891
    14.2794  14.6522  14.9940  20.6497  22.4295

          k = 0.1111 0.3208 0.0878 (  1381 PWs)   bands (ev):

     8.4173  10.9867  11.2107  11.7954  12.6313  12.9589  13.2124  13.8413
    14.3661  14.5380  15.0097  19.0870  24.3427

          k = 0.1111 0.3208 0.1756 (  1385 PWs)   bands (ev):

     8.8259  10.7074  11.2997  11.9301  12.4477  12.9215  13.2156  13.9504
    14.4066  14.5551  14.9911  17.2874  27.0631

          k = 0.1111 0.3208 0.2633 (  1382 PWs)   bands (ev):

     9.4276  10.1045  11.6143  11.9203  12.4048  12.6525  13.4465  13.7479
    14.6767  14.7943  15.0289  15.9020  28.5370

          k = 0.1111 0.4491 0.0000 (  1382 PWs)   bands (ev):

     9.8107  10.7173  10.8267  11.8959  12.6022  12.9646  13.0944  14.5014
    14.8930  15.0163  15.7641  21.4904  23.3135

          k = 0.1111 0.4491 0.0878 (  1380 PWs)   bands (ev):

     9.8073  10.7108  10.9631  11.7767  12.6596  13.0680  13.1807  14.4745
    14.8500  14.9479  15.7750  20.3710  23.3753

          k = 0.1111 0.4491 0.1756 (  1387 PWs)   bands (ev):

     9.8593  10.5969  11.1910  11.8012  12.6392  13.2160  13.4929  14.3132
    14.6352  15.0795  15.8017  18.6013  23.7983

          k = 0.1111 0.4491 0.2633 (  1390 PWs)   bands (ev):

    10.0292  10.3064  11.4856  11.7685  12.8582  13.2237  13.6750  13.9308
    14.8706  15.1107  16.1049  17.0816  24.5300

          k = 0.1111 0.5774 0.0000 (  1382 PWs)   bands (ev):

    10.4036  10.4949  10.6624  12.1857  12.6022  12.7726  13.2606  14.9905
    15.0221  15.0258  17.1665  19.0256  25.3396

          k = 0.1111 0.5774 0.0878 (  1388 PWs)   bands (ev):

    10.1646  10.5380  11.0671  11.7392  12.5936  13.2705  13.3168  14.8384
    14.9809  15.0720  17.1027  18.9132  24.5919

          k = 0.1111 0.5774 0.1756 (  1388 PWs)   bands (ev):

    10.0293  10.5487  11.3576  11.5839  12.5823  13.5653  13.7679  14.4464
    14.9579  15.1320  17.0194  18.5465  23.5505

          k = 0.1111 0.5774 0.2633 (  1386 PWs)   bands (ev):

    10.0930  10.3207  11.4424  11.6775  12.9240  13.5317  13.9823  14.2710
    14.9514  15.0506  17.2834  17.9275  22.9738

          k = 0.2222 0.3849 0.0000 (  1380 PWs)   bands (ev):

     9.7768  10.9670  11.2362  11.3029  12.4625  13.0591  13.0623  14.0397
    14.8956  14.9354  15.8139  23.0146  23.0468

          k = 0.2222 0.3849 0.0878 (  1390 PWs)   bands (ev):

     9.8428  10.8865  11.3488  11.3764  12.5191  12.9153  13.0843  14.0782
    14.7521  14.9682  15.8884  20.7704  25.1937

          k = 0.2222 0.3849 0.1756 (  1380 PWs)   bands (ev):

    10.0226  10.7377  11.5014  11.6511  12.5557  12.6217  13.1478  14.1298
    14.5234  15.1033  16.0344  18.7993  25.8380

          k = 0.2222 0.3849 0.2633 (  1382 PWs)   bands (ev):

    10.2705  10.5274  11.7507  11.8900  12.3446  12.4244  13.3639  13.7455
    14.8964  15.1448  16.3523  17.2579  26.7006

          k = 0.2222 0.5132 0.0000 (  1388 PWs)   bands (ev):

    10.7558  10.8010  10.9814  11.5871  12.4209  12.7248  13.3563  14.5160
    14.8956  15.0071  17.5669  20.7914  23.8987

          k = 0.2222 0.5132 0.0878 (  1392 PWs)   bands (ev):

    10.5922  11.0368  11.0509  11.5374  12.4439  12.7112  13.3802  14.5272
    14.7127  15.0515  17.6720  20.6963  23.6333

          k = 0.2222 0.5132 0.1756 (  1386 PWs)   bands (ev):

    10.5393  11.0121  11.2840  11.7416  12.2857  12.7348  13.4664  14.2463
    14.6594  15.1137  17.9597  20.1685  23.1708

          k = 0.2222 0.5132 0.2633 (  1384 PWs)   bands (ev):

    10.6168  10.7972  11.6085  11.9683  12.1972  12.5907  13.6015  13.8375
    14.8693  15.0656  18.4625  19.2517  23.4719

          k = 0.3333 0.5774 0.0000 (  1398 PWs)   bands (ev):

    10.8333  11.1582  11.1582  11.4048  12.4703  12.4703  13.5356  14.7134
    14.7134  14.8385  19.7915  20.6909  20.6909

          k = 0.3333 0.5774 0.0878 (  1383 PWs)   bands (ev):

    10.9027  11.1904  11.1904  11.4232  12.4315  12.4315  13.5152  14.6386
    14.7502  14.7502  20.1033  20.7344  20.7344

          k = 0.3333 0.5774 0.1756 (  1386 PWs)   bands (ev):

    11.0850  11.2665  11.2665  11.4550  12.3450  12.3450  13.4842  14.1934
    14.8288  14.8288  20.8496  20.8496  20.9105

          k = 0.3333 0.5774 0.2633 (  1386 PWs)   bands (ev):

    11.2993  11.3325  11.3325  11.4347  12.2748  12.2748  13.5319  13.7678
    14.8881  14.8881  20.9664  20.9664  22.0233

     the Fermi energy is    14.7354 ev

!    total energy              =    -324.08773494 Ry
     total all-electron energy =     -5573.775087 Ry
     estimated scf accuracy    <       0.00000074 Ry
     smearing contrib. (-TS)   =      -0.00161127 Ry
     internal energy E=F+TS    =    -324.08612367 Ry

     The total energy is F=E-TS. E is the sum of the following terms:
     one-electron contribution =       2.27776146 Ry
     hartree contribution      =      25.54925747 Ry
     xc contribution           =     -65.24316687 Ry
     ewald contribution        =    -113.56066059 Ry
     one-center paw contrib.   =    -173.10931513 Ry

     convergence has been achieved in   7 iterations

     Forces acting on atoms (cartesian axes, Ry/au):

     atom    1 type  1   force =     0.00000000    0.00000000    0.00000000
     atom    2 type  1   force =    -0.00000000   -0.00000000    0.00000000
     The non-local contrib.  to forces
     atom    1 type  1   force =    -0.00000000    0.00000000    0.00000000
     atom    2 type  1   force =     0.00000000    0.00000000    0.00000000
     The ionic contribution  to forces
     atom    1 type  1   force =    -0.00000000   -0.00000000   -0.00000000
     atom    2 type  1   force =    -0.00000000    0.00000000    0.00000000
     The local contribution  to forces
     atom    1 type  1   force =    -0.00000000   -0.00000000   -0.00000000
     atom    2 type  1   force =     0.00000000   -0.00000000    0.00000000
     The core correction contribution to forces
     atom    1 type  1   force =    -0.00000000   -0.00000000   -0.00000000
     atom    2 type  1   force =     0.00000000   -0.00000000   -0.00000000
     The Hubbard contrib.    to forces
     atom    1 type  1   force =     0.00000000    0.00000000    0.00000000
     atom    2 type  1   force =     0.00000000    0.00000000    0.00000000
     The SCF correction term to forces
     atom    1 type  1   force =     0.00000000    0.00000000   -0.00000000
     atom    2 type  1   force =    -0.00000000    0.00000000    0.00000000

     Total force =     0.000000     Total SCF correction =     0.000000


     Computing stress (Cartesian axis) and pressure

          total   stress  (Ry/bohr**3)                   (kbar)     P=        6.00
   0.00010684   0.00000000   0.00000000           15.72        0.00        0.00
   0.00000000   0.00010684   0.00000000            0.00       15.72        0.00
   0.00000000   0.00000000  -0.00009131            0.00        0.00      -13.43


     Writing all to output data dir ./tmp/scf.save/
 
     init_run     :      0.54s CPU      0.65s WALL (       1 calls)
     electrons    :      4.85s CPU      5.32s WALL (       1 calls)
     forces       :      0.12s CPU      0.12s WALL (       1 calls)
     stress       :      0.49s CPU      0.50s WALL (       1 calls)

     Called by init_run:
     wfcinit      :      0.14s CPU      0.14s WALL (       1 calls)
     potinit      :      0.08s CPU      0.09s WALL (       1 calls)
     hinit0       :      0.23s CPU      0.31s WALL (       1 calls)

     Called by electrons:
     c_bands      :      3.27s CPU      3.64s WALL (       8 calls)
     sum_band     :      0.68s CPU      0.78s WALL (       8 calls)
     v_of_rho     :      0.09s CPU      0.10s WALL (       8 calls)
     newd         :      0.24s CPU      0.26s WALL (       8 calls)
     PAW_pot      :      0.63s CPU      0.63s WALL (       8 calls)
     mix_rho      :      0.01s CPU      0.01s WALL (       8 calls)

     Called by c_bands:
     init_us_2    :      0.07s CPU      0.07s WALL (     912 calls)
     init_us_2:cp :      0.07s CPU      0.07s WALL (     912 calls)
     cegterg      :      2.90s CPU      3.24s WALL (     384 calls)

     Called by *egterg:
     cdiaghg      :      0.27s CPU      0.29s WALL (    1546 calls)
     h_psi        :      2.41s CPU      2.72s WALL (    1642 calls)
     s_psi        :      0.03s CPU      0.04s WALL (    1642 calls)
     g_psi        :      0.01s CPU      0.01s WALL (    1210 calls)

     Called by h_psi:
     h_psi:calbec :      0.13s CPU      0.15s WALL (    1642 calls)
     vloc_psi     :      2.21s CPU      2.50s WALL (    1642 calls)
     add_vuspsi   :      0.05s CPU      0.05s WALL (    1642 calls)

     General routines
     calbec       :      0.24s CPU      0.26s WALL (    2266 calls)
     fft          :      0.06s CPU      0.13s WALL (     128 calls)
     ffts         :      0.00s CPU      0.00s WALL (      16 calls)
     fftw         :      2.03s CPU      2.31s WALL (   36396 calls)
     interpolate  :      0.01s CPU      0.01s WALL (       8 calls)
 
     Parallel routines
 
     PWSCF        :      6.19s CPU      6.86s WALL

 
   This run was terminated on:  16:43:17   9Jul2025            

=------------------------------------------------------------------------------=
   JOB DONE.
=------------------------------------------------------------------------------=
