
     Program PWSCF v.7.2 starts on 15Jul2025 at 12:24:29 

     This program is part of the open-source Quantum ESPRESSO suite
     for quantum simulation of materials; please cite
         "P. Giannozzi et al., J. Phys.:Condens. Matter 21 395502 (2009);
         "P. Giannozzi et al., J. Phys.:Condens. Matter 29 465901 (2017);
         "P. Giannozzi et al., J. Chem. Phys. 152 154105 (2020);
          URL http://www.quantum-espresso.org", 
     in publications or presentations arising from this work. More details at
     http://www.quantum-espresso.org/quote

     Parallel version (MPI), running on     4 processors

     MPI processes distributed on     1 nodes
     23377 MiB available memory on the printing compute node when the environment starts
 
     Waiting for input...
     Reading input from standard input

     Current dimensions of program PWSCF are:
     Max number of different atomic species (ntypx) = 10
     Max number of k-points (npk) =  40000
     Max angular momentum in pseudopotentials (lmaxx) =  4
     file Mo.pbe-spn-kjpaw_psl.1.0.0.UPF: wavefunction(s)  4S 4D renormalized
     file S.pbe-n-kjpaw_psl.1.0.0.UPF: wavefunction(s)  3S 3P renormalized
     Message from routine setup:
     using ibrav=0 with symmetry is DISCOURAGED, use correct ibrav instead
     Message from routine setup:
     Dynamics, you should have no symmetries
 
     R & G space division:  proc/nbgrp/npool/nimage =       4
     Subspace diagonalization in iterative solution of the eigenvalue problem:
     a serial algorithm will be used

 
     Parallelization info
     --------------------
     sticks:   dense  smooth     PW     G-vecs:    dense   smooth      PW
     Min         430     170     49                86678    21907    3479
     Max         431     172     50                86701    21914    3502
     Sum        1723     685    199               346773    87647   13981
 
     Using Slab Decomposition
 


     bravais-lattice index     =            0
     lattice parameter (alat)  =       5.9715  a.u.
     unit-cell volume          =    1108.8045 (a.u.)^3
     number of atoms/cell      =            3
     number of atomic types    =            2
     number of electrons       =        26.00
     number of Kohn-Sham states=           17
     kinetic-energy cutoff     =      70.0000  Ry
     charge density cutoff     =     700.0000  Ry
     scf convergence threshold =      1.0E-06
     mixing beta               =       0.7000
     number of iterations used =            8  plain     mixing
     energy convergence thresh.=      1.0E-04
     force convergence thresh. =      1.0E-03
     Exchange-correlation= SLA  PW   PBX  PBC
                           (   1   4   3   4   0   0   0)
     nstep                     =          100


     celldm(1)=   5.971535  celldm(2)=   0.000000  celldm(3)=   0.000000
     celldm(4)=   0.000000  celldm(5)=   0.000000  celldm(6)=   0.000000

     crystal axes: (cart. coord. in units of alat)
               a(1) = (   1.000000   0.000000   0.000000 )  
               a(2) = (  -0.500000   0.866025   0.000000 )  
               a(3) = (   0.000000   0.000000   6.012658 )  

     reciprocal axes: (cart. coord. in units 2 pi/alat)
               b(1) = (  1.000000  0.577350  0.000000 )  
               b(2) = (  0.000000  1.154701  0.000000 )  
               b(3) = (  0.000000  0.000000  0.166316 )  


     PseudoPot. # 1 for Mo read from file:
     /shared/ESPRESSO/PSLIBRARY/1.0.0/pbe/PSEUDOPOTENTIALS/Mo.pbe-spn-kjpaw_psl.1.0.0.UPF
     MD5 check sum: 4396e0c640fcce5c25f020efccf1ab12
     Pseudo is Projector augmented-wave + core cor, Zval = 14.0
     Generated using &quot;atomic&quot; code by A. Dal Corso  v.6.3
     Shape of augmentation charge: PSQ
     Using radial grid of 1229 points,  6 beta functions with: 
                l(1) =   0
                l(2) =   0
                l(3) =   1
                l(4) =   1
                l(5) =   2
                l(6) =   2
     Q(r) pseudized with 0 coefficients 


     PseudoPot. # 2 for S  read from file:
     /shared/ESPRESSO/PSLIBRARY/1.0.0/pbe/PSEUDOPOTENTIALS/S.pbe-n-kjpaw_psl.1.0.0.UPF
     MD5 check sum: c08f931834bcc19553f8bde8f1a3adc5
     Pseudo is Projector augmented-wave + core cor, Zval =  6.0
     Generated using "atomic" code by A. Dal Corso  (Quantum ESPRESSO distribution)
     Shape of augmentation charge: PSQ
     Using radial grid of 1151 points,  6 beta functions with: 
                l(1) =   0
                l(2) =   0
                l(3) =   1
                l(4) =   1
                l(5) =   2
                l(6) =   2
     Q(r) pseudized with 0 coefficients 


     atomic species   valence    mass     pseudopotential
        Mo            14.00    95.94000     Mo( 1.00)
        S              6.00    32.06500     S ( 1.00)

     12 Sym. Ops. (no inversion) found



   Cartesian axes

     site n.     atom                  positions (alat units)
         1           Mo  tau(   1) = (   0.0000000   0.0000000   3.0063291  )
         2           S   tau(   2) = (   0.5000000   0.2886751   3.6392405  )
         3           S   tau(   3) = (   0.5000000   0.2886751   2.3734177  )

     --------------------------------------------
     DFT-D3 Dispersion Correction (3-body terms):
     --------------------------------------------
       Reference C6 values for interpolation: 

         atom   Coordination number   C6
         S          0.000           268.01
         S          0.995           261.99
         S          1.990           251.62
         Mo         0.000          1691.79
         Mo         1.942          1004.01
         Mo        11.056           674.22

       Values used:

         atom   Coordination number  R0_AB[au]  C6      C8
         Mo         9.326            3.547    674.22  77634.20
         S          3.220            3.128    251.62  12327.25
         S          3.220            3.128    251.62  12327.25

         Molecular C6 ( Ry / a.u.^6 ) =      3323.66


     number of k points=    12  Gaussian smearing, width (Ry)=  0.0073
                       cart. coord. in units 2pi/alat
        k(    1) = (   0.0000000   0.0000000   0.0000000), wk =   0.0246914
        k(    2) = (   0.0000000   0.1283001   0.0000000), wk =   0.1481481
        k(    3) = (   0.0000000   0.2566001   0.0000000), wk =   0.1481481
        k(    4) = (   0.0000000   0.3849002   0.0000000), wk =   0.1481481
        k(    5) = (   0.0000000   0.5132002   0.0000000), wk =   0.1481481
        k(    6) = (   0.1111111   0.1924501   0.0000000), wk =   0.1481481
        k(    7) = (   0.1111111   0.3207501   0.0000000), wk =   0.2962963
        k(    8) = (   0.1111111   0.4490502   0.0000000), wk =   0.2962963
        k(    9) = (   0.1111111   0.5773503   0.0000000), wk =   0.1481481
        k(   10) = (   0.2222222   0.3849002   0.0000000), wk =   0.1481481
        k(   11) = (   0.2222222   0.5132002   0.0000000), wk =   0.2962963
        k(   12) = (   0.3333333   0.5773503   0.0000000), wk =   0.0493827

     Dense  grid:   346773 G-vectors     FFT dimensions: (  54,  54, 320)

     Smooth grid:    87647 G-vectors     FFT dimensions: (  32,  32, 192)

     Estimated max dynamical RAM per process >     335.88 MB

     Estimated total dynamical RAM >       1.31 GB

     Initial potential from superposition of free atoms

     starting charge      25.9991, renormalised to      26.0000

     negative rho (up, down):  5.220E-05 0.000E+00
     Starting wfcs are   18 randomized atomic wfcs
     Checking if some PAW data can be deallocated... 

     total cpu time spent up to now is        3.0 secs

     Self-consistent Calculation

     iteration #  1     ecut=    70.00 Ry     beta= 0.70
     Davidson diagonalization with overlap
     ethr =  1.00E-02,  avg # of iterations =  2.0

     Threshold (ethr) on eigenvalues was too large:
     Diagonalizing with lowered threshold

     Davidson diagonalization with overlap
     ethr =  2.11E-04,  avg # of iterations =  3.8

     negative rho (up, down):  6.333E-05 0.000E+00

     total cpu time spent up to now is       13.4 secs

     total energy              =    -496.51574229 Ry
     estimated scf accuracy    <       0.09633346 Ry

     iteration #  2     ecut=    70.00 Ry     beta= 0.70
     Davidson diagonalization with overlap
     ethr =  3.71E-04,  avg # of iterations =  3.0

     negative rho (up, down):  6.489E-05 0.000E+00

     total cpu time spent up to now is       20.2 secs

     total energy              =    -496.40599439 Ry
     estimated scf accuracy    <       1.16479706 Ry

     iteration #  3     ecut=    70.00 Ry     beta= 0.70
     Davidson diagonalization with overlap
     ethr =  3.71E-04,  avg # of iterations =  3.0

     negative rho (up, down):  6.709E-05 0.000E+00

     total cpu time spent up to now is       26.8 secs

     total energy              =    -496.52909266 Ry
     estimated scf accuracy    <       0.33346582 Ry

     iteration #  4     ecut=    70.00 Ry     beta= 0.70
     Davidson diagonalization with overlap
     ethr =  3.71E-04,  avg # of iterations =  1.8

     negative rho (up, down):  6.967E-05 0.000E+00

     total cpu time spent up to now is       32.9 secs

     total energy              =    -496.55837266 Ry
     estimated scf accuracy    <       0.00203114 Ry

     iteration #  5     ecut=    70.00 Ry     beta= 0.70
     Davidson diagonalization with overlap
     ethr =  7.81E-06,  avg # of iterations =  2.5

     negative rho (up, down):  7.108E-05 0.000E+00

     total cpu time spent up to now is       39.5 secs

     total energy              =    -496.55881520 Ry
     estimated scf accuracy    <       0.00010014 Ry

     iteration #  6     ecut=    70.00 Ry     beta= 0.70
     Davidson diagonalization with overlap
     ethr =  3.85E-07,  avg # of iterations =  3.3

     negative rho (up, down):  7.206E-05 0.000E+00

     total cpu time spent up to now is       47.3 secs

     total energy              =    -496.55882637 Ry
     estimated scf accuracy    <       0.00001960 Ry

     iteration #  7     ecut=    70.00 Ry     beta= 0.70
     Davidson diagonalization with overlap
     ethr =  7.54E-08,  avg # of iterations =  2.4

     negative rho (up, down):  7.216E-05 0.000E+00

     total cpu time spent up to now is       57.5 secs

     total energy              =    -496.55883195 Ry
     estimated scf accuracy    <       0.00000174 Ry

     iteration #  8     ecut=    70.00 Ry     beta= 0.70
     Davidson diagonalization with overlap
     ethr =  6.71E-09,  avg # of iterations =  2.0

     negative rho (up, down):  7.216E-05 0.000E+00

     total cpu time spent up to now is       66.6 secs

     End of self-consistent calculation

          k = 0.0000 0.0000 0.0000 ( 10889 PWs)   bands (ev):

   -61.6200 -35.7007 -35.4030 -35.4030 -13.6420 -13.2207  -5.3819  -3.0198
    -1.7308  -1.3841  -1.3841  -0.4001  -0.4001   1.6685   1.6685   1.9693
     1.9693

          k = 0.0000 0.1283 0.0000 ( 10881 PWs)   bands (ev):

   -61.6158 -35.6945 -35.4424 -35.4123 -13.4754 -13.0923  -5.1393  -3.0803
    -1.8046  -1.6268  -1.1976  -0.7637  -0.6529   1.0451   1.5202   1.6433
     2.0743

          k = 0.0000 0.2566 0.0000 ( 10934 PWs)   bands (ev):

   -61.6052 -35.6788 -35.5412 -35.4360 -13.0117 -12.7358  -4.5411  -3.3029
    -2.8473  -1.8418  -1.5423  -1.1686  -0.7597   0.3887   1.2919   1.5088
     2.2134

          k = 0.0000 0.3849 0.0000 ( 10948 PWs)   bands (ev):

   -61.5931 -35.6609 -35.6520 -35.4628 -12.3788 -12.2557  -4.3660  -3.9653
    -3.7327  -2.6743  -1.6345  -1.6188  -0.4611   0.7542   1.4371   1.7492
     2.2552

          k = 0.0000 0.5132 0.0000 ( 10978 PWs)   bands (ev):

   -61.5852 -35.7234 -35.6492 -35.4801 -11.8769 -11.8644  -5.1872  -4.7179
    -3.6776  -2.8850  -1.8967  -1.4158  -0.4453   1.4369   1.8602   1.9926
     2.2459

          k = 0.1111 0.1925 0.0000 ( 10928 PWs)   bands (ev):

   -61.6084 -35.6836 -35.5080 -35.4324 -13.1597 -12.8492  -4.7069  -3.1914
    -2.5014  -1.6188  -1.5253  -0.9380  -0.9301   0.4459   1.3035   1.4504
     2.1668

          k = 0.1111 0.3208 0.0000 ( 10971 PWs)   bands (ev):

   -61.5971 -35.6668 -35.6046 -35.4658 -12.6050 -12.4246  -4.1136  -3.5285
    -3.4840  -2.7068  -1.6637  -1.4634  -0.6974   0.2315   1.4765   1.5348
     2.1986

          k = 0.1111 0.4491 0.0000 ( 10976 PWs)   bands (ev):

   -61.5871 -35.6880 -35.6520 -35.4954 -12.0072 -11.9757  -4.7058  -4.3186
    -3.6074  -2.9641  -2.0052  -1.7728  -0.7031   0.8433   1.7113   1.9428
     2.2475

          k = 0.1111 0.5774 0.0000 ( 10986 PWs)   bands (ev):

   -61.5831 -35.7207 -35.6461 -35.5071 -11.7696 -11.7255  -5.1592  -4.7453
    -3.5768  -2.9129  -2.2720  -1.7246  -0.6806   1.4693   1.7553   1.9248
     2.3127

          k = 0.2222 0.3849 0.0000 ( 10980 PWs)   bands (ev):

   -61.5878 -35.6579 -35.6531 -35.5180 -12.0675 -12.0156  -4.2514  -3.8449
    -3.5570  -3.3487  -2.2191  -2.0231  -0.8268   0.4110   1.3816   2.0510
     2.3536

          k = 0.2222 0.5132 0.0000 ( 10996 PWs)   bands (ev):

   -61.5817 -35.6831 -35.6441 -35.5614 -11.7036 -11.6529  -4.6568  -4.4527
    -3.3955  -3.1749  -2.7434  -2.6381  -0.6738   1.0734   1.1683   2.0022
     2.6380

          k = 0.3333 0.5774 0.0000 ( 11040 PWs)   bands (ev):

   -61.5796 -35.6410 -35.6393 -35.6295 -11.5880 -11.5055  -4.4500  -4.2546
    -3.7046  -3.2488  -3.2065  -2.9588  -0.4983   0.9024   1.4211   1.6077
     2.8525

     the Fermi energy is    -0.0966 ev

!    total energy              =    -496.55883193 Ry
     estimated scf accuracy    <       0.00000025 Ry
     smearing contrib. (-TS)   =      -0.00000003 Ry
     internal energy E=F+TS    =    -496.55883190 Ry

     convergence has been achieved in   8 iterations

     negative rho (up, down):  7.216E-05 0.000E+00

     Forces acting on atoms (cartesian axes, Ry/au):

     atom    1 type  1   force =     0.00000000    0.00000000    0.00000000
     atom    2 type  2   force =     0.00000000   -0.00000000   -0.17113727
     atom    3 type  2   force =     0.00000000   -0.00000000    0.17113727
     The non-local contrib.  to forces
     atom    1 type  1   force =     0.00000000    0.00000000    0.00000000
     atom    2 type  2   force =     0.00000000   -0.00000000   -0.33248157
     atom    3 type  2   force =     0.00000000    0.00000000    0.33248157
     The ionic contribution  to forces
     atom    1 type  1   force =     0.00000000   -0.00000000    0.00000000
     atom    2 type  2   force =    -0.00000000    0.00000000   34.49674280
     atom    3 type  2   force =    -0.00000000   -0.00000000  -34.49674280
     The local contribution  to forces
     atom    1 type  1   force =    -0.00000000    0.00000000   -0.00000000
     atom    2 type  2   force =    -0.00000000    0.00000000  -34.33860066
     atom    3 type  2   force =    -0.00000000    0.00000000   34.33860066
     The core correction contribution to forces
     atom    1 type  1   force =     0.00000000   -0.00000000   -0.00000000
     atom    2 type  2   force =     0.00000000   -0.00000000    0.00634565
     atom    3 type  2   force =     0.00000000   -0.00000000   -0.00634565
     The Hubbard contrib.    to forces
     atom    1 type  1   force =     0.00000000    0.00000000    0.00000000
     atom    2 type  2   force =     0.00000000    0.00000000    0.00000000
     atom    3 type  2   force =     0.00000000    0.00000000    0.00000000
     The SCF correction term to forces
     atom    1 type  1   force =     0.00000000    0.00000000    0.00000000
     atom    2 type  2   force =    -0.00000000   -0.00000000   -0.00074700
     atom    3 type  2   force =    -0.00000000   -0.00000000    0.00074700

     DFT-D3 dispersion contribution to forces:
     atom    1 type  1   force =    -0.00000000    0.00000000    0.00000000
     atom    2 type  2   force =     0.00000000   -0.00000000   -0.00239651
     atom    3 type  2   force =     0.00000000   -0.00000000    0.00239651

     Total force =     0.242025     Total SCF correction =     0.001056


     Computing stress (Cartesian axis) and pressure


     negative rho (up, down):  7.216E-05 0.000E+00
          total   stress  (Ry/bohr**3)                   (kbar)     P=      -82.94
  -0.00026109  -0.00000000  -0.00000000          -38.41       -0.00       -0.00
  -0.00000000  -0.00026109   0.00000000           -0.00      -38.41        0.00
   0.00000000   0.00000000  -0.00116924            0.00        0.00     -172.00


     Damped Dynamics Calculation

     Entering Dynamics:    iteration =     1

ATOMIC_POSITIONS (crystal)
Mo            0.0000000000        0.0000000000        0.5000000000
S             0.6666666667        0.3333333333        0.6031713489
S             0.6666666667        0.3333333333        0.3968286511



     Writing config-only to output data dir ./tmp/scf.save/
     NEW-OLD atomic charge density approx. for the potential

     negative rho (up, down):  7.294E-05 0.000E+00

     total cpu time spent up to now is       92.0 secs

     Self-consistent Calculation

     iteration #  1     ecut=    70.00 Ry     beta= 0.70
     Davidson diagonalization with overlap
     ethr =  1.00E-06,  avg # of iterations =  7.0

     negative rho (up, down):  7.254E-05 0.000E+00

     total cpu time spent up to now is       99.6 secs

     total energy              =    -496.58346036 Ry
     estimated scf accuracy    <       0.00098024 Ry

     iteration #  2     ecut=    70.00 Ry     beta= 0.70
     Davidson diagonalization with overlap
     ethr =  3.77E-06,  avg # of iterations =  3.2

     negative rho (up, down):  7.211E-05 0.000E+00

     total cpu time spent up to now is      105.5 secs

     total energy              =    -496.58084596 Ry
     estimated scf accuracy    <       0.04161100 Ry

     iteration #  3     ecut=    70.00 Ry     beta= 0.70
     Davidson diagonalization with overlap
     ethr =  3.77E-06,  avg # of iterations =  3.0

     negative rho (up, down):  7.207E-05 0.000E+00

     total cpu time spent up to now is      111.2 secs

     total energy              =    -496.58411912 Ry
     estimated scf accuracy    <       0.00003064 Ry

     iteration #  4     ecut=    70.00 Ry     beta= 0.70
     Davidson diagonalization with overlap
     ethr =  1.18E-07,  avg # of iterations =  2.8

     negative rho (up, down):  7.210E-05 0.000E+00

     total cpu time spent up to now is      116.7 secs

     total energy              =    -496.58412569 Ry
     estimated scf accuracy    <       0.00000840 Ry

     iteration #  5     ecut=    70.00 Ry     beta= 0.70
     Davidson diagonalization with overlap
     ethr =  3.23E-08,  avg # of iterations =  1.7

     negative rho (up, down):  7.210E-05 0.000E+00

     total cpu time spent up to now is      122.3 secs

     total energy              =    -496.58412613 Ry
     estimated scf accuracy    <       0.00000183 Ry

     iteration #  6     ecut=    70.00 Ry     beta= 0.70
     Davidson diagonalization with overlap
     ethr =  7.03E-09,  avg # of iterations =  2.0

     negative rho (up, down):  7.210E-05 0.000E+00

     total cpu time spent up to now is      127.7 secs

     End of self-consistent calculation

          k = 0.0000 0.0000 0.0000 ( 10889 PWs)   bands (ev):

   -61.6013 -35.6813 -35.3922 -35.3922 -13.7150 -13.2470  -5.4298  -2.9880
    -1.6523  -1.4831  -1.4831  -0.5131  -0.5131   1.7128   1.7128   2.0037
     2.0037

          k = 0.0000 0.1283 0.0000 ( 10881 PWs)   bands (ev):

   -61.5971 -35.6749 -35.4320 -35.4017 -13.5471 -13.1214  -5.1888  -3.0665
    -1.9098  -1.5640  -1.2993  -0.8567  -0.7710   1.1090   1.5648   1.6929
     2.1244

          k = 0.0000 0.2566 0.0000 ( 10934 PWs)   bands (ev):

   -61.5864 -35.6587 -35.5318 -35.4255 -13.0801 -12.7729  -4.5980  -3.3382
    -2.9569  -1.8761  -1.5123  -1.2953  -0.8662   0.4808   1.3364   1.5879
     2.2941

          k = 0.0000 0.3849 0.0000 ( 10948 PWs)   bands (ev):

   -61.5742 -35.6435 -35.6403 -35.4524 -12.4436 -12.3047  -4.4647  -4.0404
    -3.7971  -2.6606  -1.7676  -1.6014  -0.5537   0.8372   1.4632   1.8611
     2.3600

          k = 0.0000 0.5132 0.0000 ( 10978 PWs)   bands (ev):

   -61.5663 -35.7155 -35.6282 -35.4699 -11.9366 -11.9269  -5.2782  -4.7799
    -3.7483  -2.8764  -2.0327  -1.3932  -0.5171   1.5144   1.8624   2.1210
     2.3622

          k = 0.1111 0.1925 0.0000 ( 10928 PWs)   bands (ev):

   -61.5896 -35.6636 -35.4982 -35.4219 -13.2291 -12.8836  -4.7605  -3.2058
    -2.6136  -1.7113  -1.4911  -1.0307  -1.0246   0.5302   1.3527   1.5080
     2.2506

          k = 0.1111 0.3208 0.0000 ( 10971 PWs)   bands (ev):

   -61.5782 -35.6463 -35.5957 -35.4555 -12.6710 -12.4691  -4.1899  -3.6170
    -3.5479  -2.7557  -1.6785  -1.5395  -0.7694   0.3271   1.5160   1.6125
     2.3187

          k = 0.1111 0.4491 0.0000 ( 10976 PWs)   bands (ev):

   -61.5681 -35.6798 -35.6310 -35.4854 -12.0704 -12.0320  -4.8018  -4.3928
    -3.6754  -2.9867  -2.0929  -1.8007  -0.7316   0.9161   1.8188   1.9735
     2.3779

          k = 0.1111 0.5774 0.0000 ( 10986 PWs)   bands (ev):

   -61.5642 -35.7128 -35.6250 -35.4971 -11.8319 -11.7876  -5.2475  -4.8120
    -3.6532  -2.9200  -2.3793  -1.7583  -0.6873   1.5266   1.8785   1.9732
     2.4388

          k = 0.2222 0.3849 0.0000 ( 10980 PWs)   bands (ev):

   -61.5689 -35.6494 -35.6322 -35.5082 -12.1309 -12.0703  -4.3583  -3.9390
    -3.6129  -3.3968  -2.2855  -2.0599  -0.8330   0.5055   1.4787   2.0855
     2.4930

          k = 0.2222 0.5132 0.0000 ( 10996 PWs)   bands (ev):

   -61.5628 -35.6749 -35.6229 -35.5520 -11.7664 -11.7147  -4.7456  -4.5478
    -3.4756  -3.2287  -2.8089  -2.6630  -0.6573   1.1521   1.2866   2.0691
     2.7798

          k = 0.3333 0.5774 0.0000 ( 11040 PWs)   bands (ev):

   -61.5607 -35.6313 -35.6200 -35.6197 -11.6534 -11.5669  -4.5734  -4.3418
    -3.7805  -3.2823  -3.2809  -2.9743  -0.4785   1.0250   1.4612   1.7313
     3.0023

     the Fermi energy is    -0.0852 ev

!    total energy              =    -496.58412624 Ry
     estimated scf accuracy    <       0.00000031 Ry
     smearing contrib. (-TS)   =      -0.00000000 Ry
     internal energy E=F+TS    =    -496.58412624 Ry

     convergence has been achieved in   6 iterations

     negative rho (up, down):  7.210E-05 0.000E+00

     Forces acting on atoms (cartesian axes, Ry/au):

     atom    1 type  1   force =     0.00000000    0.00000000    0.00000000
     atom    2 type  2   force =     0.00000000    0.00000000   -0.16510144
     atom    3 type  2   force =     0.00000000    0.00000000    0.16510144
     The non-local contrib.  to forces
     atom    1 type  1   force =     0.00000000   -0.00000000    0.00000000
     atom    2 type  2   force =    -0.00000000   -0.00000000   -0.33167279
     atom    3 type  2   force =     0.00000000    0.00000000    0.33167279
     The ionic contribution  to forces
     atom    1 type  1   force =     0.00000000   -0.00000000    0.00000000
     atom    2 type  2   force =    -0.00000000    0.00000000   34.67485256
     atom    3 type  2   force =    -0.00000000    0.00000000  -34.67485256
     The local contribution  to forces
     atom    1 type  1   force =     0.00000000   -0.00000000   -0.00000000
     atom    2 type  2   force =    -0.00000000    0.00000000  -34.51068291
     atom    3 type  2   force =    -0.00000000    0.00000000   34.51068291
     The core correction contribution to forces
     atom    1 type  1   force =     0.00000000   -0.00000000   -0.00000000
     atom    2 type  2   force =     0.00000000   -0.00000000    0.00612692
     atom    3 type  2   force =     0.00000000   -0.00000000   -0.00612692
     The Hubbard contrib.    to forces
     atom    1 type  1   force =     0.00000000    0.00000000    0.00000000
     atom    2 type  2   force =     0.00000000    0.00000000    0.00000000
     atom    3 type  2   force =     0.00000000    0.00000000    0.00000000
     The SCF correction term to forces
     atom    1 type  1   force =    -0.00000000   -0.00000000    0.00000000
     atom    2 type  2   force =    -0.00000000   -0.00000000   -0.00131667
     atom    3 type  2   force =    -0.00000000   -0.00000000    0.00131667

     DFT-D3 dispersion contribution to forces:
     atom    1 type  1   force =    -0.00000000    0.00000000    0.00000000
     atom    2 type  2   force =     0.00000000   -0.00000000   -0.00240854
     atom    3 type  2   force =     0.00000000   -0.00000000    0.00240854

     Total force =     0.233489     Total SCF correction =     0.001862


     Computing stress (Cartesian axis) and pressure


     negative rho (up, down):  7.210E-05 0.000E+00
          total   stress  (Ry/bohr**3)                   (kbar)     P=      -79.07
  -0.00025323   0.00000000   0.00000000          -37.25        0.00        0.00
   0.00000000  -0.00025323   0.00000000            0.00      -37.25        0.00
  -0.00000000  -0.00000000  -0.00110598           -0.00       -0.00     -162.69


     Entering Dynamics:    iteration =     2

     <vel(dt)|acc(dt)> =   1.00000000

ATOMIC_POSITIONS (crystal)
Mo            0.0000000000        0.0000000000        0.5000000000
S             0.6666666667        0.3333333333        0.5941651732
S             0.6666666667        0.3333333333        0.4058348268



     Writing config-only to output data dir ./tmp/scf.save/
     NEW-OLD atomic charge density approx. for the potential

     negative rho (up, down):  8.135E-05 0.000E+00

     total cpu time spent up to now is      144.3 secs

     Self-consistent Calculation

     iteration #  1     ecut=    70.00 Ry     beta= 0.70
     Davidson diagonalization with overlap
     ethr =  1.00E-06,  avg # of iterations =  9.6

     negative rho (up, down):  7.785E-05 0.000E+00

     total cpu time spent up to now is      153.3 secs

     total energy              =    -496.66830296 Ry
     estimated scf accuracy    <       0.01523100 Ry

     iteration #  2     ecut=    70.00 Ry     beta= 0.70
     Davidson diagonalization with overlap
     ethr =  5.86E-05,  avg # of iterations =  3.0

     negative rho (up, down):  7.583E-05 0.000E+00

     total cpu time spent up to now is      159.1 secs

     total energy              =    -496.64597979 Ry
     estimated scf accuracy    <       0.30966648 Ry

     iteration #  3     ecut=    70.00 Ry     beta= 0.70
     Davidson diagonalization with overlap
     ethr =  5.86E-05,  avg # of iterations =  3.0

     negative rho (up, down):  7.505E-05 0.000E+00

     total cpu time spent up to now is      164.9 secs

     total energy              =    -496.67775569 Ry
     estimated scf accuracy    <       0.00044978 Ry

     iteration #  4     ecut=    70.00 Ry     beta= 0.70
     Davidson diagonalization with overlap
     ethr =  1.73E-06,  avg # of iterations =  3.3

     negative rho (up, down):  7.514E-05 0.000E+00

     total cpu time spent up to now is      170.6 secs

     total energy              =    -496.67783014 Ry
     estimated scf accuracy    <       0.00010509 Ry

     iteration #  5     ecut=    70.00 Ry     beta= 0.70
     Davidson diagonalization with overlap
     ethr =  4.04E-07,  avg # of iterations =  1.8

     negative rho (up, down):  7.528E-05 0.000E+00

     total cpu time spent up to now is      175.9 secs

     total energy              =    -496.67784131 Ry
     estimated scf accuracy    <       0.00000382 Ry

     iteration #  6     ecut=    70.00 Ry     beta= 0.70
     Davidson diagonalization with overlap
     ethr =  1.47E-08,  avg # of iterations =  2.7

     negative rho (up, down):  7.530E-05 0.000E+00

     total cpu time spent up to now is      181.3 secs

     End of self-consistent calculation

          k = 0.0000 0.0000 0.0000 ( 10889 PWs)   bands (ev):

   -61.5282 -35.6229 -35.3615 -35.3615 -14.0942 -13.3625  -5.7037  -2.8160
    -2.0554  -2.0554  -1.2821  -1.0974  -1.0974   1.9620   1.9620   2.1300
     2.1300

          k = 0.0000 0.1283 0.0000 ( 10881 PWs)   bands (ev):

   -61.5239 -35.6154 -35.4036 -35.3713 -13.9198 -13.2527  -5.4722  -3.0164
    -2.4978  -1.8765  -1.3719  -1.2899  -1.2599   1.4347   1.8055   1.8769
     2.3254

          k = 0.0000 0.2566 0.0000 ( 10934 PWs)   bands (ev):

   -61.5127 -35.5965 -35.5090 -35.3962 -13.4377 -12.9501  -4.9318  -3.5568
    -3.4873  -1.9677  -1.9270  -1.4397  -1.3903   0.9119   1.5475   1.8980
     2.6489

          k = 0.0000 0.3849 0.0000 ( 10948 PWs)   bands (ev):

   -61.5001 -35.6270 -35.5750 -35.4243 -12.7875 -12.5496  -4.9878  -4.3868
    -4.0836  -2.5606  -2.4227  -1.5620  -1.0419   1.2155   1.5648   2.3203
     2.8416

          k = 0.0000 0.5132 0.0000 ( 10978 PWs)   bands (ev):

   -61.4918 -35.7030 -35.5608 -35.4425 -12.2657 -12.2412  -5.7123  -5.0570
    -4.1022  -2.7917  -2.6994  -1.3239  -0.8972   1.8353   1.8394   2.6520
     2.9059

          k = 0.1111 0.1925 0.0000 ( 10928 PWs)   bands (ev):

   -61.5161 -35.6022 -35.4736 -35.3924 -13.5909 -13.0458  -5.0704  -3.3166
    -3.1802  -2.1929  -1.6455  -1.3711  -1.2821   0.9373   1.5891   1.7251
     2.6121

          k = 0.1111 0.3208 0.0000 ( 10971 PWs)   bands (ev):

   -61.5042 -35.5820 -35.5765 -35.4276 -13.0186 -12.6883  -4.6687  -3.9687
    -3.8819  -3.0461  -1.8425  -1.7986  -1.0997   0.7661   1.6810   1.9250
     2.8569

          k = 0.1111 0.4491 0.0000 ( 10976 PWs)   bands (ev):

   -61.4937 -35.6653 -35.5642 -35.4589 -12.4095 -12.3173  -5.2760  -4.7442
    -3.9997  -3.1971  -2.3676  -1.9971  -0.8953   1.2404   2.0654   2.2862
     2.9522

          k = 0.1111 0.5774 0.0000 ( 10986 PWs)   bands (ev):

   -61.4896 -35.7001 -35.5571 -35.4712 -12.1502 -12.1255  -5.6620  -5.1270
    -4.0340  -3.0931  -2.7024  -1.9620  -0.7517   1.7100   2.1709   2.4443
     2.9645

          k = 0.2222 0.3849 0.0000 ( 10980 PWs)   bands (ev):

   -61.4945 -35.6333 -35.5655 -35.4830 -12.4700 -12.3465  -4.8955  -4.4159
    -3.8632  -3.6354  -2.6196  -2.1524  -0.9339   0.9394   1.9019   2.1761
     3.1053

          k = 0.2222 0.5132 0.0000 ( 10996 PWs)   bands (ev):

   -61.4882 -35.6602 -35.5547 -35.5290 -12.0879 -12.0518  -5.1659  -5.0299
    -3.8579  -3.4789  -3.1167  -2.6965  -0.6565   1.4470   1.8295   2.3153
     3.3789

          k = 0.3333 0.5774 0.0000 ( 11040 PWs)   bands (ev):

   -61.4860 -35.6179 -35.5971 -35.5509 -11.9892 -11.9040  -5.1710  -4.7363
    -4.1508  -3.6365  -3.4154  -2.9865  -0.4474   1.5152   1.5925   2.2830
     3.6337

     the Fermi energy is     0.1737 ev

!    total energy              =    -496.67784186 Ry
     estimated scf accuracy    <       0.00000077 Ry
     smearing contrib. (-TS)   =      -0.00000000 Ry
     internal energy E=F+TS    =    -496.67784186 Ry

     convergence has been achieved in   6 iterations

     negative rho (up, down):  7.530E-05 0.000E+00

     Forces acting on atoms (cartesian axes, Ry/au):

     atom    1 type  1   force =     0.00000000    0.00000000    0.00000000
     atom    2 type  2   force =     0.00000000    0.00000000   -0.11880285
     atom    3 type  2   force =     0.00000000   -0.00000000    0.11880285
     The non-local contrib.  to forces
     atom    1 type  1   force =     0.00000000    0.00000000    0.00000000
     atom    2 type  2   force =     0.00000000    0.00000000   -0.31686904
     atom    3 type  2   force =    -0.00000000   -0.00000000    0.31686904
     The ionic contribution  to forces
     atom    1 type  1   force =     0.00000000   -0.00000000   -0.00000000
     atom    2 type  2   force =    -0.00000000    0.00000000   35.34874857
     atom    3 type  2   force =    -0.00000000   -0.00000000  -35.34874857
     The local contribution  to forces
     atom    1 type  1   force =    -0.00000000   -0.00000000   -0.00000000
     atom    2 type  2   force =    -0.00000000    0.00000000  -35.15185846
     atom    3 type  2   force =    -0.00000000    0.00000000   35.15185846
     The core correction contribution to forces
     atom    1 type  1   force =     0.00000000    0.00000000    0.00000000
     atom    2 type  2   force =     0.00000000   -0.00000000    0.00480131
     atom    3 type  2   force =     0.00000000   -0.00000000   -0.00480131
     The Hubbard contrib.    to forces
     atom    1 type  1   force =     0.00000000    0.00000000    0.00000000
     atom    2 type  2   force =     0.00000000    0.00000000    0.00000000
     atom    3 type  2   force =     0.00000000    0.00000000    0.00000000
     The SCF correction term to forces
     atom    1 type  1   force =     0.00000000    0.00000000    0.00000000
     atom    2 type  2   force =    -0.00000000    0.00000000   -0.00162703
     atom    3 type  2   force =    -0.00000000   -0.00000000    0.00162703

     DFT-D3 dispersion contribution to forces:
     atom    1 type  1   force =     0.00000000   -0.00000000   -0.00000000
     atom    2 type  2   force =    -0.00000000    0.00000000   -0.00199820
     atom    3 type  2   force =    -0.00000000    0.00000000    0.00199820

     Total force =     0.168013     Total SCF correction =     0.002301


     Computing stress (Cartesian axis) and pressure


     negative rho (up, down):  7.530E-05 0.000E+00
          total   stress  (Ry/bohr**3)                   (kbar)     P=      -54.05
  -0.00018711  -0.00000000  -0.00000000          -27.52       -0.00       -0.00
  -0.00000000  -0.00018711   0.00000000           -0.00      -27.52        0.00
   0.00000000  -0.00000000  -0.00072801            0.00       -0.00     -107.09


     Entering Dynamics:    iteration =     3

     <vel(dt)|acc(dt)> =   1.00000000

ATOMIC_POSITIONS (crystal)
Mo            0.0000000000        0.0000000000        0.5000000000
S             0.6666666667        0.3333333333        0.5823488113
S             0.6666666667        0.3333333333        0.4176511887



     Writing config-only to output data dir ./tmp/scf.save/
     NEW-OLD atomic charge density approx. for the potential

     negative rho (up, down):  8.797E-05 0.000E+00

     total cpu time spent up to now is      197.3 secs

     Self-consistent Calculation

     iteration #  1     ecut=    70.00 Ry     beta= 0.70
     Davidson diagonalization with overlap
     ethr =  1.00E-06,  avg # of iterations = 10.2

     negative rho (up, down):  8.336E-05 0.000E+00

     total cpu time spent up to now is      203.7 secs

     total energy              =    -496.72138939 Ry
     estimated scf accuracy    <       0.02061144 Ry

     iteration #  2     ecut=    70.00 Ry     beta= 0.70
     Davidson diagonalization with overlap
     ethr =  7.93E-05,  avg # of iterations =  3.0

     negative rho (up, down):  8.121E-05 0.000E+00

     total cpu time spent up to now is      206.6 secs

     total energy              =    -496.70775246 Ry
     estimated scf accuracy    <       0.17284958 Ry

     iteration #  3     ecut=    70.00 Ry     beta= 0.70
     Davidson diagonalization with overlap
     ethr =  7.93E-05,  avg # of iterations =  3.0

     negative rho (up, down):  8.013E-05 0.000E+00

     total cpu time spent up to now is      209.2 secs

     total energy              =    -496.73234867 Ry
     estimated scf accuracy    <       0.00113863 Ry

     iteration #  4     ecut=    70.00 Ry     beta= 0.70
     Davidson diagonalization with overlap
     ethr =  4.38E-06,  avg # of iterations =  2.1

     negative rho (up, down):  8.007E-05 0.000E+00

     total cpu time spent up to now is      211.2 secs

     total energy              =    -496.73247264 Ry
     estimated scf accuracy    <       0.00010536 Ry

     iteration #  5     ecut=    70.00 Ry     beta= 0.70
     Davidson diagonalization with overlap
     ethr =  4.05E-07,  avg # of iterations =  2.0

     negative rho (up, down):  8.019E-05 0.000E+00

     total cpu time spent up to now is      213.2 secs

     total energy              =    -496.73249100 Ry
     estimated scf accuracy    <       0.00000100 Ry

     iteration #  6     ecut=    70.00 Ry     beta= 0.70
     Davidson diagonalization with overlap
     ethr =  3.86E-09,  avg # of iterations =  4.4

     negative rho (up, down):  8.034E-05 0.000E+00

     total cpu time spent up to now is      215.4 secs

     End of self-consistent calculation

          k = 0.0000 0.0000 0.0000 ( 10889 PWs)   bands (ev):

   -61.4928 -35.6468 -35.4143 -35.4143 -14.7937 -13.4796  -6.3045  -3.2256
    -3.2256  -2.4641  -2.1002  -2.1002  -0.6912   2.1943   2.1943   2.4347
     2.4347

          k = 0.0000 0.1283 0.0000 ( 10881 PWs)   bands (ev):

   -61.4880 -35.6374 -35.4622 -35.4252 -14.6081 -13.4027  -6.0973  -3.6197
    -3.1411  -3.0321  -2.3838  -1.7266  -0.7835   1.9744   2.0004   2.2341
     2.5009

          k = 0.0000 0.2566 0.0000 ( 10934 PWs)   bands (ev):

   -61.4758 -35.6134 -35.5820 -35.4526 -14.1033 -13.1946  -5.6992  -4.3353
    -4.0258  -2.9600  -2.5280  -1.8721  -1.2335   1.5431   1.8523   2.1790
     3.0849

          k = 0.0000 0.3849 0.0000 ( 10948 PWs)   bands (ev):

   -61.4620 -35.7155 -35.5860 -35.4836 -13.4435 -12.9284  -5.9197  -4.8651
    -4.5462  -3.4745  -2.2868  -1.9503  -1.6269   1.6375   1.7226   2.8102
     3.5217

          k = 0.0000 0.5132 0.0000 ( 10978 PWs)   bands (ev):

   -61.4529 -35.8012 -35.5681 -35.5037 -12.9348 -12.7321  -6.3936  -5.4105
    -4.6963  -3.7610  -2.5171  -1.6021  -1.3604   1.6711   2.1115   3.2281
     3.7130

          k = 0.1111 0.1925 0.0000 ( 10928 PWs)   bands (ev):

   -61.4795 -35.6207 -35.5418 -35.4486 -14.2622 -13.2595  -5.7714  -4.1541
    -3.6769  -3.0734  -2.7220  -1.5591  -1.0625   1.5568   1.8869   1.9428
     3.0331

          k = 0.1111 0.3208 0.0000 ( 10971 PWs)   bands (ev):

   -61.4665 -35.6585 -35.5950 -35.4877 -13.6738 -13.0167  -5.6518  -4.4749
    -4.4637  -3.7036  -2.4765  -1.8101  -1.4565   1.3568   1.8675   2.2298
     3.5751

          k = 0.1111 0.4491 0.0000 ( 10976 PWs)   bands (ev):

   -61.4550 -35.7589 -35.5723 -35.5224 -13.0699 -12.7725  -6.0657  -5.2939
    -4.5209  -3.8355  -2.4613  -2.2895  -1.2810   1.6104   2.0316   2.8405
     3.7261

          k = 0.1111 0.5774 0.0000 ( 10986 PWs)   bands (ev):

   -61.4505 -35.7981 -35.5633 -35.5361 -12.7979 -12.6656  -6.2881  -5.6238
    -4.6722  -3.8226  -2.5227  -2.3718  -1.0292   1.6838   2.3041   3.2296
     3.5690

          k = 0.2222 0.3849 0.0000 ( 10980 PWs)   bands (ev):

   -61.4558 -35.7229 -35.5740 -35.5495 -13.1258 -12.7842  -5.7902  -5.2300
    -4.2762  -3.9873  -3.1709  -2.0456  -1.3154   1.5250   2.0597   2.3994
     3.9256

          k = 0.2222 0.5132 0.0000 ( 10996 PWs)   bands (ev):

   -61.4489 -35.7539 -35.6006 -35.5602 -12.7217 -12.6088  -5.8490  -5.8098
    -4.4589  -3.7778  -3.5858  -2.5293  -0.9321   1.4747   2.5581   2.5884
     4.0784

          k = 0.3333 0.5774 0.0000 ( 11040 PWs)   bands (ev):

   -61.4465 -35.7146 -35.6691 -35.5555 -12.5800 -12.5353  -6.1071  -5.2728
    -4.7462  -4.1902  -3.5442  -2.8181  -0.6369   1.1179   2.4159   2.9718
     4.3484

     the Fermi energy is     0.0483 ev

!    total energy              =    -496.73249166 Ry
     estimated scf accuracy    <       0.00000010 Ry
     smearing contrib. (-TS)   =      -0.00000000 Ry
     internal energy E=F+TS    =    -496.73249166 Ry

     convergence has been achieved in   6 iterations

     negative rho (up, down):  8.034E-05 0.000E+00

     Forces acting on atoms (cartesian axes, Ry/au):

     atom    1 type  1   force =     0.00000000    0.00000000    0.00000000
     atom    2 type  2   force =     0.00000000    0.00000000    0.00373579
     atom    3 type  2   force =     0.00000000   -0.00000000   -0.00373579
     The non-local contrib.  to forces
     atom    1 type  1   force =     0.00000000   -0.00000000    0.00000000
     atom    2 type  2   force =     0.00000000    0.00000000   -0.26488222
     atom    3 type  2   force =     0.00000000    0.00000000    0.26488222
     The ionic contribution  to forces
     atom    1 type  1   force =     0.00000000   -0.00000000    0.00000000
     atom    2 type  2   force =     0.00000000    0.00000000   35.93748664
     atom    3 type  2   force =     0.00000000    0.00000000  -35.93748664
     The local contribution  to forces
     atom    1 type  1   force =    -0.00000000   -0.00000000   -0.00000000
     atom    2 type  2   force =    -0.00000000    0.00000000  -35.66854912
     atom    3 type  2   force =    -0.00000000    0.00000000   35.66854912
     The core correction contribution to forces
     atom    1 type  1   force =     0.00000000    0.00000000    0.00000000
     atom    2 type  2   force =     0.00000000   -0.00000000    0.00204333
     atom    3 type  2   force =     0.00000000   -0.00000000   -0.00204333
     The Hubbard contrib.    to forces
     atom    1 type  1   force =     0.00000000    0.00000000    0.00000000
     atom    2 type  2   force =     0.00000000    0.00000000    0.00000000
     atom    3 type  2   force =     0.00000000    0.00000000    0.00000000
     The SCF correction term to forces
     atom    1 type  1   force =     0.00000000   -0.00000000   -0.00000000
     atom    2 type  2   force =    -0.00000000   -0.00000000   -0.00057716
     atom    3 type  2   force =     0.00000000   -0.00000000    0.00057716

     DFT-D3 dispersion contribution to forces:
     atom    1 type  1   force =    -0.00000000   -0.00000000   -0.00000000
     atom    2 type  2   force =     0.00000000    0.00000000   -0.00178567
     atom    3 type  2   force =     0.00000000    0.00000000    0.00178567

     Total force =     0.005283     Total SCF correction =     0.000816
     SCF correction compared to forces is large: reduce conv_thr to get better values


     Computing stress (Cartesian axis) and pressure


     negative rho (up, down):  8.034E-05 0.000E+00
          total   stress  (Ry/bohr**3)                   (kbar)     P=        2.93
   0.00002139  -0.00000000   0.00000000            3.15       -0.00        0.00
  -0.00000000   0.00002139   0.00000000           -0.00        3.15        0.00
  -0.00000000  -0.00000000   0.00001704           -0.00       -0.00        2.51


     Entering Dynamics:    iteration =     4

     <vel(dt)|acc(dt)> =  -1.00000000

ATOMIC_POSITIONS (crystal)
Mo            0.0000000000        0.0000000000        0.5000000000
S             0.6666666667        0.3333333333        0.5825069081
S             0.6666666667        0.3333333333        0.4174930919



     Writing config-only to output data dir ./tmp/scf.save/
     NEW-OLD atomic charge density approx. for the potential

     negative rho (up, down):  8.024E-05 0.000E+00

     total cpu time spent up to now is      224.3 secs

     Self-consistent Calculation

     iteration #  1     ecut=    70.00 Ry     beta= 0.70
     Davidson diagonalization with overlap
     ethr =  1.00E-06,  avg # of iterations =  3.7

     Threshold (ethr) on eigenvalues was too large:
     Diagonalizing with lowered threshold

     Davidson diagonalization with overlap
     ethr =  1.19E-08,  avg # of iterations =  4.0

     negative rho (up, down):  8.027E-05 0.000E+00

     total cpu time spent up to now is      232.8 secs

     total energy              =    -496.73252053 Ry
     estimated scf accuracy    <       0.00000132 Ry

     iteration #  2     ecut=    70.00 Ry     beta= 0.70
     Davidson diagonalization with overlap
     ethr =  5.07E-09,  avg # of iterations =  2.0

     negative rho (up, down):  8.028E-05 0.000E+00

     total cpu time spent up to now is      237.4 secs

     End of self-consistent calculation

          k = 0.0000 0.0000 0.0000 ( 10889 PWs)   bands (ev):

   -61.4930 -35.6458 -35.4126 -35.4126 -14.7817 -13.4782  -6.2937  -3.2058
    -3.2058  -2.4700  -2.0847  -2.0847  -0.7001   2.1948   2.1948   2.4276
     2.4276

          k = 0.0000 0.1283 0.0000 ( 10881 PWs)   bands (ev):

   -61.4882 -35.6364 -35.4604 -35.4234 -14.5963 -13.4008  -6.0860  -3.6011
    -3.1357  -3.0127  -2.3682  -1.7239  -0.7905   1.9667   2.0002   2.2279
     2.4999

          k = 0.0000 0.2566 0.0000 ( 10934 PWs)   bands (ev):

   -61.4760 -35.6125 -35.5799 -35.4508 -14.0919 -13.1911  -5.6854  -4.3218
    -4.0180  -2.9443  -2.5099  -1.8751  -1.2355   1.5345   1.8485   2.1767
     3.0800

          k = 0.0000 0.3849 0.0000 ( 10948 PWs)   bands (ev):

   -61.4622 -35.7131 -35.5852 -35.4818 -13.4321 -12.9227  -5.9047  -4.8584
    -4.5384  -3.4586  -2.2917  -1.9351  -1.6247   1.6375   1.7164   2.8050
     3.5127

          k = 0.0000 0.5132 0.0000 ( 10978 PWs)   bands (ev):

   -61.4531 -35.7986 -35.5673 -35.5019 -12.9230 -12.7246  -6.3830  -5.4057
    -4.6869  -3.7451  -2.5222  -1.5903  -1.3582   1.6752   2.1103   3.2218
     3.7018

          k = 0.1111 0.1925 0.0000 ( 10928 PWs)   bands (ev):

   -61.4797 -35.6197 -35.5398 -35.4468 -14.2507 -13.2565  -5.7587  -4.1383
    -3.6696  -3.0594  -2.7038  -1.5593  -1.0658   1.5483   1.8862   1.9381
     3.0285

          k = 0.1111 0.3208 0.0000 ( 10971 PWs)   bands (ev):

   -61.4667 -35.6562 -35.5941 -35.4858 -13.6625 -13.0118  -5.6358  -4.4660
    -4.4542  -3.6929  -2.4636  -1.8124  -1.4524   1.3498   1.8653   2.2271
     3.5659

          k = 0.1111 0.4491 0.0000 ( 10976 PWs)   bands (ev):

   -61.4552 -35.7564 -35.5715 -35.5205 -13.0584 -12.7656  -6.0532  -5.2852
    -4.5126  -3.8252  -2.4528  -2.2932  -1.2737   1.6074   2.0335   2.8343
     3.7157

          k = 0.1111 0.5774 0.0000 ( 10986 PWs)   bands (ev):

   -61.4507 -35.7955 -35.5626 -35.5341 -12.7860 -12.6578  -6.2785  -5.6158
    -4.6622  -3.8119  -2.5273  -2.3647  -1.0229   1.6874   2.3044   3.2198
     3.5613

          k = 0.2222 0.3849 0.0000 ( 10980 PWs)   bands (ev):

   -61.4561 -35.7205 -35.5732 -35.5475 -13.1144 -12.7776  -5.7762  -5.2172
    -4.2690  -3.9824  -3.1622  -2.0488  -1.3076   1.5177   2.0641   2.3939
     3.9146

          k = 0.2222 0.5132 0.0000 ( 10996 PWs)   bands (ev):

   -61.4491 -35.7514 -35.5986 -35.5595 -12.7100 -12.6009  -5.8361  -5.7999
    -4.4496  -3.7741  -3.5785  -2.5331  -0.9251   1.4794   2.5554   2.5784
     4.0700

          k = 0.3333 0.5774 0.0000 ( 11040 PWs)   bands (ev):

   -61.4467 -35.7120 -35.6670 -35.5548 -12.5681 -12.5270  -6.0930  -5.2652
    -4.7367  -4.1816  -3.5427  -2.8219  -0.6314   1.1281   2.4045   2.9640
     4.3403

     the Fermi energy is     0.0408 ev

!    total energy              =    -496.73252077 Ry
     estimated scf accuracy    <       0.00000024 Ry
     smearing contrib. (-TS)   =      -0.00000000 Ry
     internal energy E=F+TS    =    -496.73252077 Ry

     convergence has been achieved in   2 iterations

     negative rho (up, down):  8.028E-05 0.000E+00

     Forces acting on atoms (cartesian axes, Ry/au):

     atom    1 type  1   force =     0.00000000    0.00000000    0.00000000
     atom    2 type  2   force =     0.00000000    0.00000000    0.00148998
     atom    3 type  2   force =     0.00000000    0.00000000   -0.00148998
     The non-local contrib.  to forces
     atom    1 type  1   force =     0.00000000   -0.00000000    0.00000000
     atom    2 type  2   force =     0.00000000    0.00000000   -0.26566672
     atom    3 type  2   force =     0.00000000    0.00000000    0.26566672
     The ionic contribution  to forces
     atom    1 type  1   force =     0.00000000   -0.00000000    0.00000000
     atom    2 type  2   force =     0.00000000    0.00000000   35.93231215
     atom    3 type  2   force =     0.00000000    0.00000000  -35.93231215
     The local contribution  to forces
     atom    1 type  1   force =    -0.00000000   -0.00000000   -0.00000000
     atom    2 type  2   force =    -0.00000000    0.00000000  -35.66438967
     atom    3 type  2   force =    -0.00000000    0.00000000   35.66438967
     The core correction contribution to forces
     atom    1 type  1   force =     0.00000000    0.00000000    0.00000000
     atom    2 type  2   force =     0.00000000   -0.00000000    0.00208359
     atom    3 type  2   force =     0.00000000   -0.00000000   -0.00208359
     The Hubbard contrib.    to forces
     atom    1 type  1   force =     0.00000000    0.00000000    0.00000000
     atom    2 type  2   force =     0.00000000    0.00000000    0.00000000
     atom    3 type  2   force =     0.00000000    0.00000000    0.00000000
     The SCF correction term to forces
     atom    1 type  1   force =    -0.00000000   -0.00000000   -0.00000000
     atom    2 type  2   force =     0.00000000    0.00000000   -0.00106709
     atom    3 type  2   force =     0.00000000    0.00000000    0.00106709

     DFT-D3 dispersion contribution to forces:
     atom    1 type  1   force =    -0.00000000   -0.00000000   -0.00000000
     atom    2 type  2   force =     0.00000000    0.00000000   -0.00178228
     atom    3 type  2   force =     0.00000000    0.00000000    0.00178228

     Total force =     0.002107     Total SCF correction =     0.001509
     SCF correction compared to forces is large: reduce conv_thr to get better values


     Computing stress (Cartesian axis) and pressure


     negative rho (up, down):  8.028E-05 0.000E+00
          total   stress  (Ry/bohr**3)                   (kbar)     P=        2.07
   0.00001826  -0.00000000   0.00000000            2.69       -0.00        0.00
  -0.00000000   0.00001826   0.00000000           -0.00        2.69        0.00
   0.00000000  -0.00000000   0.00000562            0.00       -0.00        0.83


     Entering Dynamics:    iteration =     5

     <vel(dt)|acc(dt)> =   1.00000000

ATOMIC_POSITIONS (crystal)
Mo            0.0000000000        0.0000000000        0.5000000000
S             0.6666666667        0.3333333333        0.5827110371
S             0.6666666667        0.3333333333        0.4172889629



     Writing config-only to output data dir ./tmp/scf.save/
     NEW-OLD atomic charge density approx. for the potential

     negative rho (up, down):  8.016E-05 0.000E+00

     total cpu time spent up to now is      250.4 secs

     Self-consistent Calculation

     iteration #  1     ecut=    70.00 Ry     beta= 0.70
     Davidson diagonalization with overlap
     ethr =  1.00E-06,  avg # of iterations =  4.0

     Threshold (ethr) on eigenvalues was too large:
     Diagonalizing with lowered threshold

     Davidson diagonalization with overlap
     ethr =  1.90E-08,  avg # of iterations =  4.0

     negative rho (up, down):  8.021E-05 0.000E+00

     total cpu time spent up to now is      259.4 secs

     total energy              =    -496.73252066 Ry
     estimated scf accuracy    <       0.00000267 Ry

     iteration #  2     ecut=    70.00 Ry     beta= 0.70
     Davidson diagonalization with overlap
     ethr =  1.03E-08,  avg # of iterations =  2.0

     negative rho (up, down):  8.022E-05 0.000E+00

     total cpu time spent up to now is      264.8 secs

     total energy              =    -496.73252105 Ry
     estimated scf accuracy    <       0.00000110 Ry

     iteration #  3     ecut=    70.00 Ry     beta= 0.70
     Davidson diagonalization with overlap
     ethr =  4.23E-09,  avg # of iterations =  2.1

     negative rho (up, down):  8.021E-05 0.000E+00

     total cpu time spent up to now is      270.2 secs

     total energy              =    -496.73252106 Ry
     estimated scf accuracy    <       0.00000304 Ry

     iteration #  4     ecut=    70.00 Ry     beta= 0.70
     Davidson diagonalization with overlap
     ethr =  4.23E-09,  avg # of iterations =  2.0

     negative rho (up, down):  8.022E-05 0.000E+00

     total cpu time spent up to now is      275.4 secs

     End of self-consistent calculation

          k = 0.0000 0.0000 0.0000 ( 10889 PWs)   bands (ev):

   -61.4940 -35.6455 -35.4119 -35.4119 -14.7688 -13.4781  -6.2822  -3.1833
    -3.1833  -2.4788  -2.0671  -2.0671  -0.7127   2.1936   2.1936   2.4169
     2.4169

          k = 0.0000 0.1283 0.0000 ( 10881 PWs)   bands (ev):

   -61.4892 -35.6362 -35.4596 -35.4228 -14.5836 -13.4001  -6.0739  -3.5801
    -3.1307  -2.9906  -2.3506  -1.7220  -0.8009   1.9552   1.9981   2.2182
     2.4968

          k = 0.0000 0.2566 0.0000 ( 10934 PWs)   bands (ev):

   -61.4771 -35.6124 -35.5788 -35.4501 -14.0795 -13.1884  -5.6701  -4.3072
    -4.0098  -2.9265  -2.4894  -1.8802  -1.2398   1.5219   1.8417   2.1719
     3.0719

          k = 0.0000 0.3849 0.0000 ( 10948 PWs)   bands (ev):

   -61.4633 -35.7116 -35.5852 -35.4810 -13.4198 -12.9173  -5.8881  -4.8516
    -4.5303  -3.4406  -2.2991  -1.9182  -1.6241   1.6354   1.7067   2.7964
     3.4996

          k = 0.0000 0.5132 0.0000 ( 10978 PWs)   bands (ev):

   -61.4542 -35.7969 -35.5674 -35.5010 -12.9103 -12.7171  -6.3716  -5.4013
    -4.6770  -3.7270  -2.5299  -1.5772  -1.3575   1.6779   2.1068   3.2118
     3.6860

          k = 0.1111 0.1925 0.0000 ( 10928 PWs)   bands (ev):

   -61.4808 -35.6196 -35.5388 -35.4461 -14.2383 -13.2544  -5.7448  -4.1209
    -3.6623  -3.0437  -2.6832  -1.5609  -1.0717   1.5359   1.8834   1.9303
     3.0210

          k = 0.1111 0.3208 0.0000 ( 10971 PWs)   bands (ev):

   -61.4678 -35.6549 -35.5941 -35.4850 -13.6503 -13.0075  -5.6178  -4.4569
    -4.4441  -3.6812  -2.4495  -1.8167  -1.4493   1.3390   1.8606   2.2217
     3.5524

          k = 0.1111 0.4491 0.0000 ( 10976 PWs)   bands (ev):

   -61.4563 -35.7548 -35.5716 -35.5196 -13.0459 -12.7588  -6.0395  -5.2760
    -4.5039  -3.8141  -2.4441  -2.2991  -1.2668   1.6014   2.0339   2.8246
     3.7007

          k = 0.1111 0.5774 0.0000 ( 10986 PWs)   bands (ev):

   -61.4518 -35.7938 -35.5627 -35.5332 -12.7732 -12.6498  -6.2684  -5.6075
    -4.6515  -3.8001  -2.5343  -2.3576  -1.0172   1.6897   2.3026   3.2058
     3.5496

          k = 0.2222 0.3849 0.0000 ( 10980 PWs)   bands (ev):

   -61.4572 -35.7190 -35.5733 -35.5466 -13.1021 -12.7711  -5.7606  -5.2030
    -4.2617  -3.9778  -3.1532  -2.0541  -1.3002   1.5066   2.0673   2.3852
     3.8988

          k = 0.2222 0.5132 0.0000 ( 10996 PWs)   bands (ev):

   -61.4503 -35.7498 -35.5975 -35.5596 -12.6972 -12.5929  -5.8220  -5.7893
    -4.4398  -3.7710  -3.5711  -2.5393  -0.9188   1.4830   2.5499   2.5643
     4.0574

          k = 0.3333 0.5774 0.0000 ( 11040 PWs)   bands (ev):

   -61.4479 -35.7104 -35.6659 -35.5549 -12.5552 -12.5185  -6.0773  -5.2573
    -4.7269  -4.1724  -3.5424  -2.8280  -0.6270   1.1387   2.3888   2.9518
     4.3279

     the Fermi energy is     0.0293 ev

!    total energy              =    -496.73252150 Ry
     estimated scf accuracy    <       0.00000004 Ry
     smearing contrib. (-TS)   =      -0.00000000 Ry
     internal energy E=F+TS    =    -496.73252150 Ry

     convergence has been achieved in   4 iterations

     negative rho (up, down):  8.022E-05 0.000E+00

     Forces acting on atoms (cartesian axes, Ry/au):

     atom    1 type  1   force =     0.00000000    0.00000000    0.00000000
     atom    2 type  2   force =     0.00000000   -0.00000000   -0.00136593
     atom    3 type  2   force =     0.00000000    0.00000000    0.00136593
     The non-local contrib.  to forces
     atom    1 type  1   force =     0.00000000   -0.00000000    0.00000000
     atom    2 type  2   force =     0.00000000   -0.00000000   -0.26702762
     atom    3 type  2   force =     0.00000000   -0.00000000    0.26702762
     The ionic contribution  to forces
     atom    1 type  1   force =    -0.00000000   -0.00000000    0.00000000
     atom    2 type  2   force =    -0.00000000    0.00000000   35.92551139
     atom    3 type  2   force =    -0.00000000    0.00000000  -35.92551139
     The local contribution  to forces
     atom    1 type  1   force =    -0.00000000   -0.00000000   -0.00000000
     atom    2 type  2   force =    -0.00000000    0.00000000  -35.66058479
     atom    3 type  2   force =    -0.00000000    0.00000000   35.66058479
     The core correction contribution to forces
     atom    1 type  1   force =     0.00000000    0.00000000    0.00000000
     atom    2 type  2   force =     0.00000000   -0.00000000    0.00213816
     atom    3 type  2   force =     0.00000000   -0.00000000   -0.00213816
     The Hubbard contrib.    to forces
     atom    1 type  1   force =     0.00000000    0.00000000    0.00000000
     atom    2 type  2   force =     0.00000000    0.00000000    0.00000000
     atom    3 type  2   force =     0.00000000    0.00000000    0.00000000
     The SCF correction term to forces
     atom    1 type  1   force =    -0.00000000   -0.00000000   -0.00000000
     atom    2 type  2   force =    -0.00000000   -0.00000000    0.00037496
     atom    3 type  2   force =    -0.00000000    0.00000000   -0.00037496

     DFT-D3 dispersion contribution to forces:
     atom    1 type  1   force =    -0.00000000   -0.00000000   -0.00000000
     atom    2 type  2   force =     0.00000000    0.00000000   -0.00177803
     atom    3 type  2   force =     0.00000000    0.00000000    0.00177803

     Total force =     0.001932     Total SCF correction =     0.000530
     SCF correction compared to forces is large: reduce conv_thr to get better values


     Computing stress (Cartesian axis) and pressure


     negative rho (up, down):  8.022E-05 0.000E+00
          total   stress  (Ry/bohr**3)                   (kbar)     P=        0.68
   0.00001156  -0.00000000   0.00000000            1.70       -0.00        0.00
  -0.00000000   0.00001156  -0.00000000           -0.00        1.70       -0.00
   0.00000000   0.00000000  -0.00000931            0.00        0.00       -1.37


     Entering Dynamics:    iteration =     6

     <vel(dt)|acc(dt)> =  -1.00000000

ATOMIC_POSITIONS (crystal)
Mo            0.0000000000        0.0000000000        0.5000000000
S             0.6666666667        0.3333333333        0.5826681903
S             0.6666666667        0.3333333333        0.4173318097



     Writing config-only to output data dir ./tmp/scf.save/
     NEW-OLD atomic charge density approx. for the potential

     negative rho (up, down):  8.025E-05 0.000E+00

     total cpu time spent up to now is      291.2 secs

     Self-consistent Calculation

     iteration #  1     ecut=    70.00 Ry     beta= 0.70
     Davidson diagonalization with overlap
     ethr =  1.00E-06,  avg # of iterations =  2.0

     Threshold (ethr) on eigenvalues was too large:
     Diagonalizing with lowered threshold

     Davidson diagonalization with overlap
     ethr =  3.49E-09,  avg # of iterations =  4.0

     negative rho (up, down):  8.022E-05 0.000E+00

     total cpu time spent up to now is      300.8 secs

     End of self-consistent calculation

          k = 0.0000 0.0000 0.0000 ( 10889 PWs)   bands (ev):

   -61.4913 -35.6435 -35.4095 -35.4095 -14.7697 -13.4766  -6.2830  -3.1856
    -3.1856  -2.4757  -2.0688  -2.0688  -0.7084   2.1957   2.1957   2.4209
     2.4209

          k = 0.0000 0.1283 0.0000 ( 10881 PWs)   bands (ev):

   -61.4865 -35.6341 -35.4572 -35.4203 -14.5844 -13.3987  -6.0748  -3.5821
    -3.1301  -2.9929  -2.3523  -1.7209  -0.7971   1.9595   2.0005   2.2221
     2.4993

          k = 0.0000 0.2566 0.0000 ( 10934 PWs)   bands (ev):

   -61.4744 -35.6103 -35.5764 -35.4477 -14.0803 -13.1874  -5.6716  -4.3081
    -4.0098  -2.9282  -2.4915  -1.8778  -1.2371   1.5264   1.8451   2.1748
     3.0754

          k = 0.0000 0.3849 0.0000 ( 10948 PWs)   bands (ev):

   -61.4606 -35.7094 -35.5831 -35.4786 -13.4207 -12.9168  -5.8896  -4.8513
    -4.5304  -3.4424  -2.2964  -1.9197  -1.6221   1.6381   1.7106   2.8001
     3.5041

          k = 0.0000 0.5132 0.0000 ( 10978 PWs)   bands (ev):

   -61.4515 -35.7947 -35.5652 -35.4986 -12.9112 -12.7171  -6.3720  -5.4004
    -4.6775  -3.7288  -2.5271  -1.5781  -1.3556   1.6798   2.1097   3.2158
     3.6911

          k = 0.1111 0.1925 0.0000 ( 10928 PWs)   bands (ev):

   -61.4781 -35.6175 -35.5364 -35.4437 -14.2391 -13.2533  -5.7460  -4.1223
    -3.6621  -3.0450  -2.6852  -1.5592  -1.0687   1.5403   1.8860   1.9339
     3.0244

          k = 0.1111 0.3208 0.0000 ( 10971 PWs)   bands (ev):

   -61.4651 -35.6526 -35.5920 -35.4826 -13.6511 -13.0068  -5.6197  -4.4571
    -4.4444  -3.6818  -2.4504  -1.8145  -1.4479   1.3432   1.8636   2.2248
     3.5570

          k = 0.1111 0.4491 0.0000 ( 10976 PWs)   bands (ev):

   -61.4536 -35.7526 -35.5694 -35.5172 -13.0467 -12.7586  -6.0403  -5.2761
    -4.5042  -3.8146  -2.4440  -2.2966  -1.2661   1.6048   2.0361   2.8285
     3.7056

          k = 0.1111 0.5774 0.0000 ( 10986 PWs)   bands (ev):

   -61.4491 -35.7916 -35.5605 -35.5308 -12.7741 -12.6499  -6.2685  -5.6074
    -4.6521  -3.8008  -2.5317  -2.3573  -1.0162   1.6916   2.3053   3.2105
     3.5540

          k = 0.2222 0.3849 0.0000 ( 10980 PWs)   bands (ev):

   -61.4545 -35.7167 -35.5711 -35.5442 -13.1029 -12.7709  -5.7619  -5.2040
    -4.2618  -3.9772  -3.1531  -2.0517  -1.2995   1.5109   2.0690   2.3889
     3.9039

          k = 0.2222 0.5132 0.0000 ( 10996 PWs)   bands (ev):

   -61.4475 -35.7475 -35.5951 -35.5575 -12.6981 -12.5929  -5.8229  -5.7896
    -4.4403  -3.7700  -3.5709  -2.5368  -0.9177   1.4845   2.5533   2.5690
     4.0620

          k = 0.3333 0.5774 0.0000 ( 11040 PWs)   bands (ev):

   -61.4451 -35.7082 -35.6635 -35.5527 -12.5561 -12.5187  -6.0785  -5.2572
    -4.7269  -4.1730  -3.5409  -2.8256  -0.6255   1.1388   2.3938   2.9565
     4.3325

     the Fermi energy is     0.0338 ev

!    total energy              =    -496.73252467 Ry
     estimated scf accuracy    <       0.00000026 Ry
     smearing contrib. (-TS)   =      -0.00000000 Ry
     internal energy E=F+TS    =    -496.73252467 Ry

     convergence has been achieved in   1 iterations

     negative rho (up, down):  8.022E-05 0.000E+00

     Forces acting on atoms (cartesian axes, Ry/au):

     atom    1 type  1   force =     0.00000000    0.00000000    0.00000000
     atom    2 type  2   force =    -0.00000000    0.00000000   -0.00056729
     atom    3 type  2   force =     0.00000000    0.00000000    0.00056729
     The non-local contrib.  to forces
     atom    1 type  1   force =     0.00000000    0.00000000    0.00000000
     atom    2 type  2   force =     0.00000000    0.00000000   -0.26687762
     atom    3 type  2   force =     0.00000000    0.00000000    0.26687762
     The ionic contribution  to forces
     atom    1 type  1   force =     0.00000000   -0.00000000    0.00000000
     atom    2 type  2   force =     0.00000000    0.00000000   35.92695003
     atom    3 type  2   force =     0.00000000    0.00000000  -35.92695003
     The local contribution  to forces
     atom    1 type  1   force =    -0.00000000   -0.00000000   -0.00000000
     atom    2 type  2   force =    -0.00000000    0.00000000  -35.65999210
     atom    3 type  2   force =    -0.00000000    0.00000000   35.65999210
     The core correction contribution to forces
     atom    1 type  1   force =     0.00000000    0.00000000    0.00000000
     atom    2 type  2   force =     0.00000000   -0.00000000    0.00213927
     atom    3 type  2   force =     0.00000000   -0.00000000   -0.00213927
     The Hubbard contrib.    to forces
     atom    1 type  1   force =     0.00000000    0.00000000    0.00000000
     atom    2 type  2   force =     0.00000000    0.00000000    0.00000000
     atom    3 type  2   force =     0.00000000    0.00000000    0.00000000
     The SCF correction term to forces
     atom    1 type  1   force =     0.00000000    0.00000000   -0.00000000
     atom    2 type  2   force =    -0.00000000   -0.00000000   -0.00100796
     atom    3 type  2   force =    -0.00000000   -0.00000000    0.00100796

     DFT-D3 dispersion contribution to forces:
     atom    1 type  1   force =    -0.00000000   -0.00000000   -0.00000000
     atom    2 type  2   force =     0.00000000    0.00000000   -0.00177891
     atom    3 type  2   force =     0.00000000    0.00000000    0.00177891

     Total force =     0.000802     Total SCF correction =     0.001425
     SCF correction compared to forces is large: reduce conv_thr to get better values


     Computing stress (Cartesian axis) and pressure


     negative rho (up, down):  8.022E-05 0.000E+00
          total   stress  (Ry/bohr**3)                   (kbar)     P=        1.09
   0.00001454   0.00000000  -0.00000000            2.14        0.00       -0.00
   0.00000000   0.00001454  -0.00000000            0.00        2.14       -0.00
   0.00000000   0.00000000  -0.00000687            0.00        0.00       -1.01


     Damped Dynamics: convergence achieved in   6 steps

     End of damped dynamics calculation

     Final energy =    -496.7325246691 Ry

Begin final coordinates
     new unit-cell volume =   1108.80455 a.u.^3 (   164.30788 Ang^3 )
     density =      1.61771 g/cm^3

CELL_PARAMETERS (angstrom)
   3.160000000   0.000000000   0.000000000
  -1.580000000   2.736640276   0.000000000
   0.000000000   0.000000000  19.000000000

ATOMIC_POSITIONS (crystal)
Mo            0.0000000000        0.0000000000        0.5000000000
S             0.6666666667        0.3333333333        0.5826681903
S             0.6666666667        0.3333333333        0.4173318097
End final coordinates



     Writing all to output data dir ./tmp/scf.save/
 
     init_run     :      2.28s CPU      2.73s WALL (       1 calls)
     electrons    :    164.05s CPU    202.55s WALL (       7 calls)
     update_pot   :      8.41s CPU     10.32s WALL (       6 calls)
     forces       :     13.75s CPU     16.82s WALL (       7 calls)
     force_dftd3  :      0.23s CPU      0.24s WALL (       7 calls)
     stress       :     62.21s CPU     72.86s WALL (       7 calls)
     stres_dftd3  :      0.22s CPU      0.23s WALL (       7 calls)

     Called by init_run:
     wfcinit      :      0.42s CPU      0.43s WALL (       1 calls)
     potinit      :      0.60s CPU      0.66s WALL (       1 calls)
     hinit0       :      0.75s CPU      0.82s WALL (       1 calls)

     Called by electrons:
     c_bands      :     71.98s CPU     77.44s WALL (      37 calls)
     sum_band     :     50.42s CPU     69.19s WALL (      37 calls)
     v_of_rho     :      8.43s CPU      9.22s WALL (      40 calls)
     newd         :     31.70s CPU     47.49s WALL (      40 calls)
     PAW_pot      :      7.60s CPU      7.84s WALL (      46 calls)
     mix_rho      :      1.12s CPU      1.19s WALL (      37 calls)
     energy_dftd3 :      0.14s CPU      0.14s WALL (       7 calls)

     Called by c_bands:
     init_us_2    :      1.68s CPU      1.72s WALL (    1140 calls)
     init_us_2:cp :      1.67s CPU      1.71s WALL (    1140 calls)
     cegterg      :     62.53s CPU     67.95s WALL (     444 calls)

     Called by *egterg:
     cdiaghg      :      0.75s CPU      0.76s WALL (    1778 calls)
     h_psi        :     52.96s CPU     58.20s WALL (    1910 calls)
     s_psi        :      1.27s CPU      1.31s WALL (    1910 calls)
     g_psi        :      0.13s CPU      0.13s WALL (    1454 calls)

     Called by h_psi:
     h_psi:calbec :      2.36s CPU      2.49s WALL (    1910 calls)
     vloc_psi     :     48.48s CPU     53.52s WALL (    1910 calls)
     add_vuspsi   :      1.73s CPU      1.79s WALL (    1910 calls)

     General routines
     calbec       :     14.20s CPU     14.98s WALL (    2846 calls)
     fft          :     12.20s CPU     15.15s WALL (     691 calls)
     ffts         :      0.09s CPU      0.11s WALL (      77 calls)
     fftw         :     27.75s CPU     32.22s WALL (   52564 calls)
     interpolate  :      0.54s CPU      0.58s WALL (      40 calls)
 
     Parallel routines
 
     PWSCF        :   4m16.69s CPU   5m13.67s WALL

 
   This run was terminated on:  12:29:43  15Jul2025            

=------------------------------------------------------------------------------=
   JOB DONE.
=------------------------------------------------------------------------------=
