
     Program PWSCF v.7.2 starts on 15Jul2025 at 11:57:42 

     This program is part of the open-source Quantum ESPRESSO suite
     for quantum simulation of materials; please cite
         "P. Giannozzi et al., J. Phys.:Condens. Matter 21 395502 (2009);
         "P. Giannozzi et al., J. Phys.:Condens. Matter 29 465901 (2017);
         "P. Giannozzi et al., J. Chem. Phys. 152 154105 (2020);
          URL http://www.quantum-espresso.org", 
     in publications or presentations arising from this work. More details at
     http://www.quantum-espresso.org/quote

     Parallel version (MPI), running on     4 processors

     MPI processes distributed on     1 nodes
     23317 MiB available memory on the printing compute node when the environment starts
 
     Waiting for input...
     Reading input from standard input

     Current dimensions of program PWSCF are:
     Max number of different atomic species (ntypx) = 10
     Max number of k-points (npk) =  40000
     Max angular momentum in pseudopotentials (lmaxx) =  4
     file Mo.pbe-spn-kjpaw_psl.1.0.0.UPF: wavefunction(s)  4S 4D renormalized
     file S.pbe-n-kjpaw_psl.1.0.0.UPF: wavefunction(s)  3S 3P renormalized
     Message from routine setup:
     using ibrav=0 with symmetry is DISCOURAGED, use correct ibrav instead
     Message from routine setup:
     Dynamics, you should have no symmetries
 
     R & G space division:  proc/nbgrp/npool/nimage =       4
     Subspace diagonalization in iterative solution of the eigenvalue problem:
     a serial algorithm will be used

 
     Parallelization info
     --------------------
     sticks:   dense  smooth     PW     G-vecs:    dense   smooth      PW
     Min         418     168     49                84998    21528    3437
     Max         419     169     50                85015    21551    3458
     Sum        1675     673    199               340029    86147   13801
 
     Using Slab Decomposition
 


     bravais-lattice index     =            0
     lattice parameter (alat)  =       5.9148  a.u.
     unit-cell volume          =    1087.8512 (a.u.)^3
     number of atoms/cell      =            3
     number of atomic types    =            2
     number of electrons       =        26.00
     number of Kohn-Sham states=           17
     kinetic-energy cutoff     =      70.0000  Ry
     charge density cutoff     =     700.0000  Ry
     scf convergence threshold =      1.0E-06
     mixing beta               =       0.7000
     number of iterations used =            8  plain     mixing
     energy convergence thresh.=      1.0E-04
     force convergence thresh. =      1.0E-03
     Exchange-correlation= SLA  PW   PBX  PBC
                           (   1   4   3   4   0   0   0)
     nstep                     =          100


     celldm(1)=   5.914843  celldm(2)=   0.000000  celldm(3)=   0.000000
     celldm(4)=   0.000000  celldm(5)=   0.000000  celldm(6)=   0.000000

     crystal axes: (cart. coord. in units of alat)
               a(1) = (   1.000000   0.000000   0.000000 )  
               a(2) = (  -0.500000   0.866025   0.000000 )  
               a(3) = (   0.000000   0.000000   6.070288 )  

     reciprocal axes: (cart. coord. in units 2 pi/alat)
               b(1) = (  1.000000  0.577350  0.000000 )  
               b(2) = (  0.000000  1.154701  0.000000 )  
               b(3) = (  0.000000  0.000000  0.164737 )  


     PseudoPot. # 1 for Mo read from file:
     /shared/ESPRESSO/PSLIBRARY/1.0.0/pbe/PSEUDOPOTENTIALS/Mo.pbe-spn-kjpaw_psl.1.0.0.UPF
     MD5 check sum: 4396e0c640fcce5c25f020efccf1ab12
     Pseudo is Projector augmented-wave + core cor, Zval = 14.0
     Generated using &quot;atomic&quot; code by A. Dal Corso  v.6.3
     Shape of augmentation charge: PSQ
     Using radial grid of 1229 points,  6 beta functions with: 
                l(1) =   0
                l(2) =   0
                l(3) =   1
                l(4) =   1
                l(5) =   2
                l(6) =   2
     Q(r) pseudized with 0 coefficients 


     PseudoPot. # 2 for S  read from file:
     /shared/ESPRESSO/PSLIBRARY/1.0.0/pbe/PSEUDOPOTENTIALS/S.pbe-n-kjpaw_psl.1.0.0.UPF
     MD5 check sum: c08f931834bcc19553f8bde8f1a3adc5
     Pseudo is Projector augmented-wave + core cor, Zval =  6.0
     Generated using "atomic" code by A. Dal Corso  (Quantum ESPRESSO distribution)
     Shape of augmentation charge: PSQ
     Using radial grid of 1151 points,  6 beta functions with: 
                l(1) =   0
                l(2) =   0
                l(3) =   1
                l(4) =   1
                l(5) =   2
                l(6) =   2
     Q(r) pseudized with 0 coefficients 


     atomic species   valence    mass     pseudopotential
        Mo            14.00    95.94000     Mo( 1.00)
        S              6.00    32.06500     S ( 1.00)

     12 Sym. Ops. (no inversion) found



   Cartesian axes

     site n.     atom                  positions (alat units)
         1           Mo  tau(   1) = (   0.0000000   0.0000000   3.0351438  )
         2           S   tau(   2) = (   0.5000000   0.2886751   3.6741214  )
         3           S   tau(   3) = (   0.5000000   0.2886751   2.3961661  )

     --------------------------------------------
     DFT-D3 Dispersion Correction (3-body terms):
     --------------------------------------------
       Reference C6 values for interpolation: 

         atom   Coordination number   C6
         S          0.000           268.01
         S          0.995           261.99
         S          1.990           251.62
         Mo         0.000          1691.79
         Mo         1.942          1004.01
         Mo        11.056           674.22

       Values used:

         atom   Coordination number  R0_AB[au]  C6      C8
         Mo         9.593            3.547    674.22  77634.20
         S          3.325            3.128    251.62  12327.25
         S          3.325            3.128    251.62  12327.25

         Molecular C6 ( Ry / a.u.^6 ) =      3323.66


     number of k points=    12  Gaussian smearing, width (Ry)=  0.0073
                       cart. coord. in units 2pi/alat
        k(    1) = (   0.0000000   0.0000000   0.0000000), wk =   0.0246914
        k(    2) = (   0.0000000   0.1283001   0.0000000), wk =   0.1481481
        k(    3) = (   0.0000000   0.2566001   0.0000000), wk =   0.1481481
        k(    4) = (   0.0000000   0.3849002   0.0000000), wk =   0.1481481
        k(    5) = (   0.0000000   0.5132002   0.0000000), wk =   0.1481481
        k(    6) = (   0.1111111   0.1924501   0.0000000), wk =   0.1481481
        k(    7) = (   0.1111111   0.3207501   0.0000000), wk =   0.2962963
        k(    8) = (   0.1111111   0.4490502   0.0000000), wk =   0.2962963
        k(    9) = (   0.1111111   0.5773503   0.0000000), wk =   0.1481481
        k(   10) = (   0.2222222   0.3849002   0.0000000), wk =   0.1481481
        k(   11) = (   0.2222222   0.5132002   0.0000000), wk =   0.2962963
        k(   12) = (   0.3333333   0.5773503   0.0000000), wk =   0.0493827

     Dense  grid:   340029 G-vectors     FFT dimensions: (  50,  50, 320)

     Smooth grid:    86147 G-vectors     FFT dimensions: (  32,  32, 192)

     Estimated max dynamical RAM per process >     327.46 MB

     Estimated total dynamical RAM >       1.28 GB

     Initial potential from superposition of free atoms

     starting charge      25.9991, renormalised to      26.0000

     negative rho (up, down):  5.116E-05 0.000E+00
     Starting wfcs are   18 randomized atomic wfcs
     Checking if some PAW data can be deallocated... 

     total cpu time spent up to now is        4.4 secs

     Self-consistent Calculation

     iteration #  1     ecut=    70.00 Ry     beta= 0.70
     Davidson diagonalization with overlap
     ethr =  1.00E-02,  avg # of iterations =  2.0

     Threshold (ethr) on eigenvalues was too large:
     Diagonalizing with lowered threshold

     Davidson diagonalization with overlap
     ethr =  2.60E-04,  avg # of iterations =  3.2

     negative rho (up, down):  5.960E-05 0.000E+00

     total cpu time spent up to now is       13.9 secs

     total energy              =    -496.51089871 Ry
     estimated scf accuracy    <       0.10875245 Ry

     iteration #  2     ecut=    70.00 Ry     beta= 0.70
     Davidson diagonalization with overlap
     ethr =  4.18E-04,  avg # of iterations =  3.0

     negative rho (up, down):  6.014E-05 0.000E+00

     total cpu time spent up to now is       18.2 secs

     total energy              =    -496.36381005 Ry
     estimated scf accuracy    <       1.78930338 Ry

     iteration #  3     ecut=    70.00 Ry     beta= 0.70
     Davidson diagonalization with overlap
     ethr =  4.18E-04,  avg # of iterations =  3.2

     negative rho (up, down):  6.260E-05 0.000E+00

     total cpu time spent up to now is       22.3 secs

     total energy              =    -496.54288678 Ry
     estimated scf accuracy    <       0.20815062 Ry

     iteration #  4     ecut=    70.00 Ry     beta= 0.70
     Davidson diagonalization with overlap
     ethr =  4.18E-04,  avg # of iterations =  1.2

     negative rho (up, down):  6.667E-05 0.000E+00

     total cpu time spent up to now is       26.3 secs

     total energy              =    -496.56329041 Ry
     estimated scf accuracy    <       0.00273340 Ry

     iteration #  5     ecut=    70.00 Ry     beta= 0.70
     Davidson diagonalization with overlap
     ethr =  1.05E-05,  avg # of iterations =  2.1

     negative rho (up, down):  6.892E-05 0.000E+00

     total cpu time spent up to now is       31.2 secs

     total energy              =    -496.56382069 Ry
     estimated scf accuracy    <       0.00009567 Ry

     iteration #  6     ecut=    70.00 Ry     beta= 0.70
     Davidson diagonalization with overlap
     ethr =  3.68E-07,  avg # of iterations =  2.8

     negative rho (up, down):  7.038E-05 0.000E+00

     total cpu time spent up to now is       36.4 secs

     total energy              =    -496.56383543 Ry
     estimated scf accuracy    <       0.00001356 Ry

     iteration #  7     ecut=    70.00 Ry     beta= 0.70
     Davidson diagonalization with overlap
     ethr =  5.22E-08,  avg # of iterations =  2.4

     negative rho (up, down):  7.050E-05 0.000E+00

     total cpu time spent up to now is       41.7 secs

     total energy              =    -496.56383954 Ry
     estimated scf accuracy    <       0.00000159 Ry

     iteration #  8     ecut=    70.00 Ry     beta= 0.70
     Davidson diagonalization with overlap
     ethr =  6.13E-09,  avg # of iterations =  2.0

     negative rho (up, down):  7.056E-05 0.000E+00

     total cpu time spent up to now is       46.7 secs

     End of self-consistent calculation

          k = 0.0000 0.0000 0.0000 ( 10733 PWs)   bands (ev):

   -61.4657 -35.5587 -35.2335 -35.2335 -13.6360 -13.2051  -5.3543  -2.9858
    -1.6994  -1.2486  -1.2486  -0.2091  -0.2091   1.8765   1.8765   2.1820
     2.1820

          k = 0.0000 0.1283 0.0000 ( 10711 PWs)   bands (ev):

   -61.4610 -35.5518 -35.2772 -35.2438 -13.4622 -13.0706  -5.1036  -3.0424
    -1.6832  -1.5783  -1.0519  -0.5937  -0.4712   1.2159   1.7182   1.8366
     2.2859

          k = 0.0000 0.2566 0.0000 ( 10736 PWs)   bands (ev):

   -61.4489 -35.5342 -35.3867 -35.2699 -12.9772 -12.6960  -4.4870  -3.2570
    -2.7407  -1.7255  -1.4767  -1.0043  -0.5892   0.5025   1.4741   1.6770
     2.4173

          k = 0.0000 0.3849 0.0000 ( 10762 PWs)   bands (ev):

   -61.4351 -35.5142 -35.5093 -35.2994 -12.3103 -12.1881  -4.3127  -3.9250
    -3.6574  -2.6055  -1.5504  -1.4850  -0.2804   0.8789   1.6342   1.9030
     2.4475

          k = 0.0000 0.5132 0.0000 ( 10772 PWs)   bands (ev):

   -61.4261 -35.5882 -35.5012 -35.3186 -11.7832 -11.7617  -5.1733  -4.7082
    -3.6167  -2.8259  -1.7550  -1.3323  -0.2730   1.5876   2.0941   2.1420
     2.4304

          k = 0.1111 0.1925 0.0000 ( 10724 PWs)   bands (ev):

   -61.4525 -35.5396 -35.3499 -35.2660 -13.1322 -12.8153  -4.6572  -3.1484
    -2.3874  -1.4772  -1.4618  -0.7794  -0.7708   0.5737   1.4817   1.6302
     2.3651

          k = 0.1111 0.3208 0.0000 ( 10750 PWs)   bands (ev):

   -61.4396 -35.5208 -35.4568 -35.3029 -12.5495 -12.3674  -4.0485  -3.4394
    -3.4346  -2.6168  -1.5835  -1.3272  -0.5395   0.3298   1.6662   1.7006
     2.3774

          k = 0.1111 0.4491 0.0000 ( 10759 PWs)   bands (ev):

   -61.4282 -35.5491 -35.5042 -35.3356 -11.9154 -11.8896  -4.6706  -4.2903
    -3.5322  -2.8987  -1.8860  -1.6842  -0.5683   0.9774   1.8624   2.1615
     2.4210

          k = 0.1111 0.5774 0.0000 ( 10772 PWs)   bands (ev):

   -61.4237 -35.5852 -35.4977 -35.3485 -11.6681 -11.6131  -5.1491  -4.7370
    -3.5097  -2.8491  -2.1590  -1.6229  -0.5560   1.6378   1.8987   2.1328
     2.4890

          k = 0.2222 0.3849 0.0000 ( 10752 PWs)   bands (ev):

   -61.4290 -35.5157 -35.5055 -35.3607 -11.9802 -11.9326  -4.1996  -3.7923
    -3.4660  -3.2926  -2.1346  -1.9206  -0.7147   0.5157   1.5201   2.2739
     2.5312

          k = 0.2222 0.5132 0.0000 ( 10803 PWs)   bands (ev):

   -61.4221 -35.5435 -35.4954 -35.4088 -11.5977 -11.5363  -4.6310  -4.4276
    -3.3123  -3.1119  -2.6623  -2.5608  -0.5691   1.2181   1.2796   2.2033
     2.8327

          k = 0.3333 0.5774 0.0000 ( 10818 PWs)   bands (ev):

   -61.4198 -35.4950 -35.4920 -35.4843 -11.4731 -11.3779  -4.4207  -4.2196
    -3.6643  -3.2047  -3.1053  -2.8847  -0.3901   0.9957   1.6052   1.7580
     3.0597

     the Fermi energy is     0.0455 ev

!    total energy              =    -496.56383958 Ry
     estimated scf accuracy    <       0.00000018 Ry
     smearing contrib. (-TS)   =      -0.00000037 Ry
     internal energy E=F+TS    =    -496.56383921 Ry

     convergence has been achieved in   8 iterations

     negative rho (up, down):  7.056E-05 0.000E+00

     Forces acting on atoms (cartesian axes, Ry/au):

     atom    1 type  1   force =     0.00000000    0.00000000    0.00000000
     atom    2 type  2   force =     0.00000000    0.00000000   -0.17003392
     atom    3 type  2   force =     0.00000000    0.00000000    0.17003392
     The non-local contrib.  to forces
     atom    1 type  1   force =     0.00000000    0.00000000    0.00000000
     atom    2 type  2   force =     0.00000000   -0.00000000   -0.33059648
     atom    3 type  2   force =     0.00000000    0.00000000    0.33059648
     The ionic contribution  to forces
     atom    1 type  1   force =     0.00000000   -0.00000000    0.00000000
     atom    2 type  2   force =    -0.00000000   -0.00000000   35.20162375
     atom    3 type  2   force =    -0.00000000    0.00000000  -35.20162375
     The local contribution  to forces
     atom    1 type  1   force =    -0.00000000    0.00000000    0.00000000
     atom    2 type  2   force =    -0.00000000    0.00000000  -35.04436010
     atom    3 type  2   force =    -0.00000000    0.00000000   35.04436010
     The core correction contribution to forces
     atom    1 type  1   force =     0.00000000   -0.00000000   -0.00000000
     atom    2 type  2   force =     0.00000000   -0.00000000    0.00621019
     atom    3 type  2   force =     0.00000000   -0.00000000   -0.00621019
     The Hubbard contrib.    to forces
     atom    1 type  1   force =     0.00000000    0.00000000    0.00000000
     atom    2 type  2   force =     0.00000000    0.00000000    0.00000000
     atom    3 type  2   force =     0.00000000    0.00000000    0.00000000
     The SCF correction term to forces
     atom    1 type  1   force =     0.00000000    0.00000000   -0.00000000
     atom    2 type  2   force =    -0.00000000   -0.00000000   -0.00045688
     atom    3 type  2   force =    -0.00000000   -0.00000000    0.00045688

     DFT-D3 dispersion contribution to forces:
     atom    1 type  1   force =    -0.00000000   -0.00000000   -0.00000000
     atom    2 type  2   force =     0.00000000    0.00000000   -0.00245440
     atom    3 type  2   force =     0.00000000    0.00000000    0.00245440

     Total force =     0.240464     Total SCF correction =     0.000646


     Computing stress (Cartesian axis) and pressure


     negative rho (up, down):  7.056E-05 0.000E+00
          total   stress  (Ry/bohr**3)                   (kbar)     P=      -79.35
  -0.00021719   0.00000000   0.00000000          -31.95        0.00        0.00
   0.00000000  -0.00021719   0.00000000            0.00      -31.95        0.00
  -0.00000000  -0.00000000  -0.00118384           -0.00       -0.00     -174.15


     Damped Dynamics Calculation

     Entering Dynamics:    iteration =     1

ATOMIC_POSITIONS (crystal)
Mo            0.0000000000        0.0000000000        0.5000000000
S             0.6666666667        0.3333333333        0.6031848352
S             0.6666666667        0.3333333333        0.3968151648



     Writing config-only to output data dir ./tmp/scf.save/
     NEW-OLD atomic charge density approx. for the potential

     negative rho (up, down):  7.201E-05 0.000E+00

     total cpu time spent up to now is       62.9 secs

     Self-consistent Calculation

     iteration #  1     ecut=    70.00 Ry     beta= 0.70
     Davidson diagonalization with overlap
     ethr =  1.00E-06,  avg # of iterations =  7.0

     negative rho (up, down):  7.170E-05 0.000E+00

     total cpu time spent up to now is       70.0 secs

     total energy              =    -496.58813888 Ry
     estimated scf accuracy    <       0.00094824 Ry

     iteration #  2     ecut=    70.00 Ry     beta= 0.70
     Davidson diagonalization with overlap
     ethr =  3.65E-06,  avg # of iterations =  3.2

     negative rho (up, down):  7.135E-05 0.000E+00

     total cpu time spent up to now is       75.5 secs

     total energy              =    -496.58562248 Ry
     estimated scf accuracy    <       0.03990345 Ry

     iteration #  3     ecut=    70.00 Ry     beta= 0.70
     Davidson diagonalization with overlap
     ethr =  3.65E-06,  avg # of iterations =  3.0

     negative rho (up, down):  7.129E-05 0.000E+00

     total cpu time spent up to now is       81.0 secs

     total energy              =    -496.58877381 Ry
     estimated scf accuracy    <       0.00003137 Ry

     iteration #  4     ecut=    70.00 Ry     beta= 0.70
     Davidson diagonalization with overlap
     ethr =  1.21E-07,  avg # of iterations =  2.7

     negative rho (up, down):  7.132E-05 0.000E+00

     total cpu time spent up to now is       86.3 secs

     total energy              =    -496.58878010 Ry
     estimated scf accuracy    <       0.00000764 Ry

     iteration #  5     ecut=    70.00 Ry     beta= 0.70
     Davidson diagonalization with overlap
     ethr =  2.94E-08,  avg # of iterations =  1.8

     negative rho (up, down):  7.132E-05 0.000E+00

     total cpu time spent up to now is       91.3 secs

     total energy              =    -496.58878054 Ry
     estimated scf accuracy    <       0.00000162 Ry

     iteration #  6     ecut=    70.00 Ry     beta= 0.70
     Davidson diagonalization with overlap
     ethr =  6.22E-09,  avg # of iterations =  2.0

     negative rho (up, down):  7.132E-05 0.000E+00

     total cpu time spent up to now is       96.4 secs

     End of self-consistent calculation

          k = 0.0000 0.0000 0.0000 ( 10733 PWs)   bands (ev):

   -61.4478 -35.5407 -35.2235 -35.2235 -13.7096 -13.2314  -5.4026  -2.9542
    -1.6216  -1.3471  -1.3471  -0.3240  -0.3240   1.9187   1.9187   2.2152
     2.2152

          k = 0.0000 0.1283 0.0000 ( 10711 PWs)   bands (ev):

   -61.4430 -35.5336 -35.2676 -35.2339 -13.5345 -13.0997  -5.1536  -3.0288
    -1.7832  -1.5210  -1.1533  -0.6887  -0.5914   1.2780   1.7608   1.8861
     2.3355

          k = 0.0000 0.2566 0.0000 ( 10736 PWs)   bands (ev):

   -61.4308 -35.5155 -35.3781 -35.2602 -13.0461 -12.7336  -4.5447  -3.2928
    -2.8508  -1.7617  -1.4472  -1.1335  -0.6962   0.5939   1.5176   1.7577
     2.4983

          k = 0.0000 0.3849 0.0000 ( 10762 PWs)   bands (ev):

   -61.4170 -35.5018 -35.4949 -35.2899 -12.3758 -12.2382  -4.4134  -4.0019
    -3.7209  -2.5922  -1.6206  -1.5329  -0.3735   0.9612   1.6595   2.0174
     2.5527

          k = 0.0000 0.5132 0.0000 ( 10772 PWs)   bands (ev):

   -61.4079 -35.5813 -35.4814 -35.3092 -11.8449 -11.8249  -5.2650  -4.7709
    -3.6876  -2.8181  -1.8937  -1.3096  -0.3448   1.6662   2.0953   2.2724
     2.5471

          k = 0.1111 0.1925 0.0000 ( 10724 PWs)   bands (ev):

   -61.4345 -35.5210 -35.3410 -35.2562 -13.2021 -12.8501  -4.7114  -3.1633
    -2.5001  -1.5713  -1.4268  -0.8727  -0.8683   0.6565   1.5299   1.6882
     2.4496

          k = 0.1111 0.3208 0.0000 ( 10750 PWs)   bands (ev):

   -61.4215 -35.5016 -35.4488 -35.2934 -12.6161 -12.4127  -4.1270  -3.5271
    -3.4995  -2.6667  -1.5973  -1.4058  -0.6132   0.4251   1.7051   1.7792
     2.4993

          k = 0.1111 0.4491 0.0000 ( 10759 PWs)   bands (ev):

   -61.4100 -35.5419 -35.4846 -35.3264 -11.9792 -11.9475  -4.7678  -4.3657
    -3.6003  -2.9209  -1.9768  -1.7106  -0.5974   1.0499   1.9708   2.1929
     2.5532

          k = 0.1111 0.5774 0.0000 ( 10772 PWs)   bands (ev):

   -61.4055 -35.5783 -35.4778 -35.3394 -11.7326 -11.6758  -5.2380  -4.8042
    -3.5867  -2.8563  -2.2694  -1.6555  -0.5631   1.6985   2.0224   2.1808
     2.6170

          k = 0.2222 0.3849 0.0000 ( 10752 PWs)   bands (ev):

   -61.4109 -35.5082 -35.4858 -35.3517 -12.0442 -11.9887  -4.3083  -3.8876
    -3.5211  -3.3423  -2.2018  -1.9584  -0.7198   0.6099   1.6174   2.3101
     2.6737

          k = 0.2222 0.5132 0.0000 ( 10803 PWs)   bands (ev):

   -61.4040 -35.5363 -35.4755 -35.4002 -11.6627 -11.5988  -4.7207  -4.5234
    -3.3936  -3.1674  -2.7279  -2.5866  -0.5514   1.2986   1.3976   2.2734
     2.9785

          k = 0.3333 0.5774 0.0000 ( 10818 PWs)   bands (ev):

   -61.4015 -35.4880 -35.4757 -35.4719 -11.5409 -11.4400  -4.5459  -4.3082
    -3.7407  -3.2366  -3.1817  -2.9018  -0.3696   1.1177   1.6490   1.8840
     3.2146

     the Fermi energy is     0.0423 ev

!    total energy              =    -496.58878064 Ry
     estimated scf accuracy    <       0.00000028 Ry
     smearing contrib. (-TS)   =      -0.00000000 Ry
     internal energy E=F+TS    =    -496.58878064 Ry

     convergence has been achieved in   6 iterations

     negative rho (up, down):  7.132E-05 0.000E+00

     Forces acting on atoms (cartesian axes, Ry/au):

     atom    1 type  1   force =     0.00000000    0.00000000    0.00000000
     atom    2 type  2   force =     0.00000000   -0.00000000   -0.16371438
     atom    3 type  2   force =    -0.00000000   -0.00000000    0.16371438
     The non-local contrib.  to forces
     atom    1 type  1   force =     0.00000000    0.00000000    0.00000000
     atom    2 type  2   force =     0.00000000   -0.00000000   -0.32961660
     atom    3 type  2   force =     0.00000000   -0.00000000    0.32961660
     The ionic contribution  to forces
     atom    1 type  1   force =     0.00000000   -0.00000000    0.00000000
     atom    2 type  2   force =    -0.00000000    0.00000000   35.38462771
     atom    3 type  2   force =    -0.00000000   -0.00000000  -35.38462771
     The local contribution  to forces
     atom    1 type  1   force =     0.00000000    0.00000000    0.00000000
     atom    2 type  2   force =    -0.00000000    0.00000000  -35.22099476
     atom    3 type  2   force =    -0.00000000    0.00000000   35.22099476
     The core correction contribution to forces
     atom    1 type  1   force =     0.00000000   -0.00000000   -0.00000000
     atom    2 type  2   force =     0.00000000   -0.00000000    0.00598281
     atom    3 type  2   force =     0.00000000   -0.00000000   -0.00598281
     The Hubbard contrib.    to forces
     atom    1 type  1   force =     0.00000000    0.00000000    0.00000000
     atom    2 type  2   force =     0.00000000    0.00000000    0.00000000
     atom    3 type  2   force =     0.00000000    0.00000000    0.00000000
     The SCF correction term to forces
     atom    1 type  1   force =    -0.00000000    0.00000000    0.00000000
     atom    2 type  2   force =     0.00000000    0.00000000   -0.00125552
     atom    3 type  2   force =     0.00000000    0.00000000    0.00125552

     DFT-D3 dispersion contribution to forces:
     atom    1 type  1   force =     0.00000000   -0.00000000    0.00000000
     atom    2 type  2   force =    -0.00000000    0.00000000   -0.00245801
     atom    3 type  2   force =    -0.00000000    0.00000000    0.00245801

     Total force =     0.231527     Total SCF correction =     0.001776


     Computing stress (Cartesian axis) and pressure


     negative rho (up, down):  7.132E-05 0.000E+00
          total   stress  (Ry/bohr**3)                   (kbar)     P=      -75.15
  -0.00020729   0.00000000   0.00000000          -30.49        0.00        0.00
   0.00000000  -0.00020729   0.00000000            0.00      -30.49        0.00
   0.00000000   0.00000000  -0.00111798            0.00        0.00     -164.46


     Entering Dynamics:    iteration =     2

     <vel(dt)|acc(dt)> =   1.00000000

ATOMIC_POSITIONS (crystal)
Mo           -0.0000000000       -0.0000000000        0.5000000000
S             0.6666666667        0.3333333333        0.5941921459
S             0.6666666667        0.3333333333        0.4058078541



     Writing config-only to output data dir ./tmp/scf.save/
     NEW-OLD atomic charge density approx. for the potential

     negative rho (up, down):  8.060E-05 0.000E+00

     total cpu time spent up to now is      112.9 secs

     Self-consistent Calculation

     iteration #  1     ecut=    70.00 Ry     beta= 0.70
     Davidson diagonalization with overlap
     ethr =  1.00E-06,  avg # of iterations =  9.7

     negative rho (up, down):  7.701E-05 0.000E+00

     total cpu time spent up to now is      121.3 secs

     total energy              =    -496.67115150 Ry
     estimated scf accuracy    <       0.01558293 Ry

     iteration #  2     ecut=    70.00 Ry     beta= 0.70
     Davidson diagonalization with overlap
     ethr =  5.99E-05,  avg # of iterations =  3.0

     negative rho (up, down):  7.498E-05 0.000E+00

     total cpu time spent up to now is      126.8 secs

     total energy              =    -496.64816103 Ry
     estimated scf accuracy    <       0.31859766 Ry

     iteration #  3     ecut=    70.00 Ry     beta= 0.70
     Davidson diagonalization with overlap
     ethr =  5.99E-05,  avg # of iterations =  3.1

     negative rho (up, down):  7.407E-05 0.000E+00

     total cpu time spent up to now is      132.3 secs

     total energy              =    -496.68085830 Ry
     estimated scf accuracy    <       0.00045277 Ry

     iteration #  4     ecut=    70.00 Ry     beta= 0.70
     Davidson diagonalization with overlap
     ethr =  1.74E-06,  avg # of iterations =  3.5

     negative rho (up, down):  7.428E-05 0.000E+00

     total cpu time spent up to now is      137.7 secs

     total energy              =    -496.68093295 Ry
     estimated scf accuracy    <       0.00010633 Ry

     iteration #  5     ecut=    70.00 Ry     beta= 0.70
     Davidson diagonalization with overlap
     ethr =  4.09E-07,  avg # of iterations =  2.0

     negative rho (up, down):  7.444E-05 0.000E+00

     total cpu time spent up to now is      142.8 secs

     total energy              =    -496.68094410 Ry
     estimated scf accuracy    <       0.00000466 Ry

     iteration #  6     ecut=    70.00 Ry     beta= 0.70
     Davidson diagonalization with overlap
     ethr =  1.79E-08,  avg # of iterations =  2.1

     negative rho (up, down):  7.445E-05 0.000E+00

     total cpu time spent up to now is      147.9 secs

     End of self-consistent calculation

          k = 0.0000 0.0000 0.0000 ( 10733 PWs)   bands (ev):

   -61.3767 -35.4877 -35.1954 -35.1954 -14.0921 -13.3463  -5.6814  -2.7828
    -1.9221  -1.9221  -1.2507  -0.9218  -0.9218   2.1611   2.1611   2.3367
     2.3367

          k = 0.0000 0.1283 0.0000 ( 10711 PWs)   bands (ev):

   -61.3717 -35.4794 -35.2421 -35.2063 -13.9103 -13.2312  -5.4418  -2.9777
    -2.3751  -1.7342  -1.2166  -1.2068  -1.1369   1.5987   1.9958   2.0703
     2.5352

          k = 0.0000 0.2566 0.0000 ( 10736 PWs)   bands (ev):

   -61.3591 -35.4583 -35.3589 -35.2337 -13.4066 -12.9133  -4.8854  -3.5134
    -3.3863  -1.8644  -1.7808  -1.3254  -1.2761   1.0248   1.7262   2.0768
     2.8570

          k = 0.0000 0.3849 0.0000 ( 10762 PWs)   bands (ev):

   -61.3447 -35.4893 -35.4342 -35.2647 -12.7227 -12.4900  -4.9485  -4.3576
    -4.0060  -2.4938  -2.2919  -1.4924  -0.8661   1.3410   1.7580   2.4906
     3.0404

          k = 0.0000 0.5132 0.0000 ( 10772 PWs)   bands (ev):

   -61.3352 -35.5732 -35.4185 -35.2848 -12.1676 -12.1613  -5.7043  -5.0519
    -4.0457  -2.7365  -2.5768  -1.2381  -0.7260   1.9988   2.0670   2.8148
     3.0969

          k = 0.1111 0.1925 0.0000 ( 10724 PWs)   bands (ev):

   -61.3629 -35.4647 -35.3196 -35.2296 -13.5669 -13.0140  -5.0269  -3.2749
    -3.0728  -2.0637  -1.5004  -1.2303  -1.2096   1.0610   1.7638   1.9077
     2.8174

          k = 0.1111 0.3208 0.0000 ( 10750 PWs)   bands (ev):

   -61.3494 -35.4421 -35.4335 -35.2685 -12.9666 -12.6370  -4.6189  -3.8766
    -3.8386  -2.9625  -1.7492  -1.6800  -0.9619   0.8671   1.8681   2.0978
     3.0499

          k = 0.1111 0.4491 0.0000 ( 10759 PWs)   bands (ev):

   -61.3375 -35.5316 -35.4222 -35.3030 -12.3217 -12.2428  -5.2501  -4.7233
    -3.9272  -3.1260  -2.2733  -1.8999  -0.7648   1.3776   2.2876   2.4465
     3.1393

          k = 0.1111 0.5774 0.0000 ( 10772 PWs)   bands (ev):

   -61.3327 -35.5699 -35.4143 -35.3166 -12.0639 -12.0178  -5.6568  -5.1220
    -3.9736  -3.0116  -2.6277  -1.8540  -0.6276   1.9009   2.3798   2.5946
     3.1533

          k = 0.2222 0.3849 0.0000 ( 10752 PWs)   bands (ev):

   -61.3383 -35.4961 -35.4237 -35.3298 -12.3866 -12.2740  -4.8568  -4.3726
    -3.7694  -3.5895  -2.5409  -2.0557  -0.8173   1.0475   2.0458   2.4082
     3.3035

          k = 0.2222 0.5132 0.0000 ( 10803 PWs)   bands (ev):

   -61.3311 -35.5258 -35.4116 -35.3807 -11.9972 -11.9398  -5.1469  -5.0122
    -3.7837  -3.4255  -3.0361  -2.6240  -0.5443   1.6105   1.9432   2.5325
     3.5999

          k = 0.3333 0.5774 0.0000 ( 10818 PWs)   bands (ev):

   -61.3286 -35.4789 -35.4562 -35.4074 -11.8908 -11.7815  -5.1559  -4.7097
    -4.1145  -3.5396  -3.3696  -2.9206  -0.3342   1.6865   1.7214   2.4531
     3.8746

     the Fermi energy is     0.1460 ev

!    total energy              =    -496.68094474 Ry
     estimated scf accuracy    <       0.00000085 Ry
     smearing contrib. (-TS)   =      -0.00000000 Ry
     internal energy E=F+TS    =    -496.68094474 Ry

     convergence has been achieved in   6 iterations

     negative rho (up, down):  7.445E-05 0.000E+00

     Forces acting on atoms (cartesian axes, Ry/au):

     atom    1 type  1   force =     0.00000000    0.00000000    0.00000000
     atom    2 type  2   force =     0.00000000    0.00000000   -0.11565354
     atom    3 type  2   force =     0.00000000   -0.00000000    0.11565354
     The non-local contrib.  to forces
     atom    1 type  1   force =    -0.00000000    0.00000000    0.00000000
     atom    2 type  2   force =     0.00000000   -0.00000000   -0.31353885
     atom    3 type  2   force =     0.00000000    0.00000000    0.31353885
     The ionic contribution  to forces
     atom    1 type  1   force =     0.00000000    0.00000000    0.00000000
     atom    2 type  2   force =    -0.00000000    0.00000000   36.08350407
     atom    3 type  2   force =    -0.00000000    0.00000000  -36.08350407
     The local contribution  to forces
     atom    1 type  1   force =    -0.00000000    0.00000000   -0.00000000
     atom    2 type  2   force =    -0.00000000    0.00000000  -35.88649342
     atom    3 type  2   force =    -0.00000000    0.00000000   35.88649342
     The core correction contribution to forces
     atom    1 type  1   force =     0.00000000   -0.00000000    0.00000000
     atom    2 type  2   force =     0.00000000   -0.00000000    0.00458778
     atom    3 type  2   force =     0.00000000   -0.00000000   -0.00458778
     The Hubbard contrib.    to forces
     atom    1 type  1   force =     0.00000000    0.00000000    0.00000000
     atom    2 type  2   force =     0.00000000    0.00000000    0.00000000
     atom    3 type  2   force =     0.00000000    0.00000000    0.00000000
     The SCF correction term to forces
     atom    1 type  1   force =    -0.00000000   -0.00000000    0.00000000
     atom    2 type  2   force =     0.00000000    0.00000000   -0.00170112
     atom    3 type  2   force =     0.00000000    0.00000000    0.00170112

     DFT-D3 dispersion contribution to forces:
     atom    1 type  1   force =     0.00000000   -0.00000000   -0.00000000
     atom    2 type  2   force =    -0.00000000    0.00000000   -0.00201200
     atom    3 type  2   force =    -0.00000000    0.00000000    0.00201200

     Total force =     0.163559     Total SCF correction =     0.002406


     Computing stress (Cartesian axis) and pressure


     negative rho (up, down):  7.445E-05 0.000E+00
          total   stress  (Ry/bohr**3)                   (kbar)     P=      -48.37
  -0.00013191  -0.00000000  -0.00000000          -19.40       -0.00       -0.00
  -0.00000000  -0.00013191  -0.00000000           -0.00      -19.40       -0.00
   0.00000000   0.00000000  -0.00072266            0.00        0.00     -106.31


     Entering Dynamics:    iteration =     3

     <vel(dt)|acc(dt)> =   1.00000000

ATOMIC_POSITIONS (crystal)
Mo           -0.0000000000       -0.0000000000        0.5000000000
S             0.6666666667        0.3333333333        0.5823757839
S             0.6666666667        0.3333333333        0.4176242161



     Writing config-only to output data dir ./tmp/scf.save/
     NEW-OLD atomic charge density approx. for the potential

     negative rho (up, down):  8.669E-05 0.000E+00

     total cpu time spent up to now is      163.0 secs

     Self-consistent Calculation

     iteration #  1     ecut=    70.00 Ry     beta= 0.70
     Davidson diagonalization with overlap
     ethr =  1.00E-06,  avg # of iterations = 10.2

     negative rho (up, down):  8.176E-05 0.000E+00

     total cpu time spent up to now is      171.1 secs

     total energy              =    -496.71955071 Ry
     estimated scf accuracy    <       0.02152186 Ry

     iteration #  2     ecut=    70.00 Ry     beta= 0.70
     Davidson diagonalization with overlap
     ethr =  8.28E-05,  avg # of iterations =  3.0

     negative rho (up, down):  7.950E-05 0.000E+00

     total cpu time spent up to now is      176.4 secs

     total energy              =    -496.70525162 Ry
     estimated scf accuracy    <       0.18252336 Ry

     iteration #  3     ecut=    70.00 Ry     beta= 0.70
     Davidson diagonalization with overlap
     ethr =  8.28E-05,  avg # of iterations =  3.0

     negative rho (up, down):  7.847E-05 0.000E+00

     total cpu time spent up to now is      181.6 secs

     total energy              =    -496.73111417 Ry
     estimated scf accuracy    <       0.00106829 Ry

     iteration #  4     ecut=    70.00 Ry     beta= 0.70
     Davidson diagonalization with overlap
     ethr =  4.11E-06,  avg # of iterations =  2.3

     negative rho (up, down):  7.842E-05 0.000E+00

     total cpu time spent up to now is      186.4 secs

     total energy              =    -496.73123442 Ry
     estimated scf accuracy    <       0.00011050 Ry

     iteration #  5     ecut=    70.00 Ry     beta= 0.70
     Davidson diagonalization with overlap
     ethr =  4.25E-07,  avg # of iterations =  1.9

     negative rho (up, down):  7.858E-05 0.000E+00

     total cpu time spent up to now is      190.7 secs

     End of self-consistent calculation

          k = 0.0000 0.0000 0.0000 ( 10733 PWs)   bands (ev):

   -61.3447 -35.5214 -35.2530 -35.2530 -14.7901 -13.4567  -6.2935  -3.1048
    -3.1048  -2.4305  -1.9508  -1.9508  -0.6509   2.3933   2.3933   2.6328
     2.6328

          k = 0.0000 0.1283 0.0000 ( 10711 PWs)   bands (ev):

   -61.3392 -35.5109 -35.3060 -35.2650 -14.5965 -13.3763  -6.0788  -3.5101
    -3.0847  -2.9029  -2.2452  -1.6138  -0.7302   2.1378   2.1918   2.4239
     2.7084

          k = 0.0000 0.2566 0.0000 ( 10736 PWs)   bands (ev):

   -61.3254 -35.4841 -35.4384 -35.2952 -14.0691 -13.1582  -5.6697  -4.2409
    -3.9853  -2.8409  -2.3777  -1.7833  -1.1633   1.6619   2.0323   2.3687
     3.3014

          k = 0.0000 0.3849 0.0000 ( 10762 PWs)   bands (ev):

   -61.3096 -35.5858 -35.4536 -35.3293 -13.3763 -12.8782  -5.8976  -4.8452
    -4.4669  -3.3712  -2.2216  -1.7810  -1.5544   1.8280   1.8614   3.0000
     3.7351

          k = 0.0000 0.5132 0.0000 ( 10772 PWs)   bands (ev):

   -61.2992 -35.6802 -35.4335 -35.3515 -12.8372 -12.6709  -6.3894  -5.4063
    -4.6478  -3.6661  -2.4635  -1.4288  -1.2670   1.8898   2.3099   3.4025
     3.9199

          k = 0.1111 0.1925 0.0000 ( 10724 PWs)   bands (ev):

   -61.3296 -35.4923 -35.3940 -35.2908 -14.2353 -13.2263  -5.7426  -4.0571
    -3.6303  -2.9660  -2.5800  -1.4452  -0.9921   1.6850   2.0710   2.1175
     3.2492

          k = 0.1111 0.3208 0.0000 ( 10750 PWs)   bands (ev):

   -61.3147 -35.5228 -35.4636 -35.3339 -13.6187 -12.9712  -5.6219  -4.4242
    -4.3821  -3.6349  -2.3481  -1.7093  -1.3606   1.4749   2.0505   2.4117
     3.7904

          k = 0.1111 0.4491 0.0000 ( 10759 PWs)   bands (ev):

   -61.3017 -35.6336 -35.4382 -35.3722 -12.9810 -12.7133  -6.0505  -5.2780
    -4.4515  -3.7690  -2.3489  -2.2143  -1.1583   1.7704   2.2516   3.0181
     3.9277

          k = 0.1111 0.5774 0.0000 ( 10772 PWs)   bands (ev):

   -61.2965 -35.6768 -35.4282 -35.3873 -12.6913 -12.5999  -6.2841  -5.6196
    -4.6230  -3.7489  -2.4634  -2.2511  -0.9024   1.8997   2.5279   3.3999
     3.7613

          k = 0.2222 0.3849 0.0000 ( 10752 PWs)   bands (ev):

   -61.3026 -35.5939 -35.4401 -35.4023 -13.0404 -12.7254  -5.7671  -5.2015
    -4.1775  -3.9491  -3.0937  -1.9523  -1.1988   1.6493   2.2996   2.5579
     4.1479

          k = 0.2222 0.5132 0.0000 ( 10803 PWs)   bands (ev):

   -61.2947 -35.6279 -35.4588 -35.4248 -12.6104 -12.5385  -5.8452  -5.7954
    -4.3942  -3.7280  -3.5010  -2.4590  -0.8105   1.6824   2.7129   2.7760
     4.3278

          k = 0.3333 0.5774 0.0000 ( 10818 PWs)   bands (ev):

   -61.2920 -35.5843 -35.5346 -35.4195 -12.4594 -12.4590  -6.1127  -5.2504
    -4.7111  -4.0970  -3.4897  -2.7574  -0.5136   1.3391   2.5159   3.1811
     4.6322

     the Fermi energy is     0.3215 ev

!    total energy              =    -496.73125331 Ry
     estimated scf accuracy    <       0.00000094 Ry
     smearing contrib. (-TS)   =      -0.00000000 Ry
     internal energy E=F+TS    =    -496.73125331 Ry

     convergence has been achieved in   5 iterations

     negative rho (up, down):  7.858E-05 0.000E+00

     Forces acting on atoms (cartesian axes, Ry/au):

     atom    1 type  1   force =     0.00000000    0.00000000    0.00000000
     atom    2 type  2   force =     0.00000000    0.00000000    0.01069651
     atom    3 type  2   force =     0.00000000   -0.00000000   -0.01069651
     The non-local contrib.  to forces
     atom    1 type  1   force =     0.00000000    0.00000000    0.00000000
     atom    2 type  2   force =     0.00000000    0.00000000   -0.25872040
     atom    3 type  2   force =    -0.00000000    0.00000000    0.25872040
     The ionic contribution  to forces
     atom    1 type  1   force =     0.00000000    0.00000000    0.00000000
     atom    2 type  2   force =    -0.00000000   -0.00000000   36.70373308
     atom    3 type  2   force =    -0.00000000   -0.00000000  -36.70373308
     The local contribution  to forces
     atom    1 type  1   force =     0.00000000    0.00000000   -0.00000000
     atom    2 type  2   force =    -0.00000000    0.00000000  -36.43382683
     atom    3 type  2   force =    -0.00000000   -0.00000000   36.43382683
     The core correction contribution to forces
     atom    1 type  1   force =     0.00000000   -0.00000000    0.00000000
     atom    2 type  2   force =     0.00000000   -0.00000000    0.00168830
     atom    3 type  2   force =     0.00000000    0.00000000   -0.00168830
     The Hubbard contrib.    to forces
     atom    1 type  1   force =     0.00000000    0.00000000    0.00000000
     atom    2 type  2   force =     0.00000000    0.00000000    0.00000000
     atom    3 type  2   force =     0.00000000    0.00000000    0.00000000
     The SCF correction term to forces
     atom    1 type  1   force =     0.00000000   -0.00000000    0.00000000
     atom    2 type  2   force =    -0.00000000    0.00000000   -0.00040293
     atom    3 type  2   force =     0.00000000    0.00000000    0.00040293

     DFT-D3 dispersion contribution to forces:
     atom    1 type  1   force =     0.00000000    0.00000000   -0.00000000
     atom    2 type  2   force =    -0.00000000   -0.00000000   -0.00177471
     atom    3 type  2   force =    -0.00000000   -0.00000000    0.00177471

     Total force =     0.015127     Total SCF correction =     0.000570


     Computing stress (Cartesian axis) and pressure


     negative rho (up, down):  7.858E-05 0.000E+00
          total   stress  (Ry/bohr**3)                   (kbar)     P=       12.55
   0.00009800  -0.00000000  -0.00000000           14.42       -0.00       -0.00
  -0.00000000   0.00009800   0.00000000           -0.00       14.42        0.00
   0.00000000   0.00000000   0.00006001            0.00        0.00        8.83


     Entering Dynamics:    iteration =     4

     <vel(dt)|acc(dt)> =  -1.00000000

ATOMIC_POSITIONS (crystal)
Mo           -0.0000000000       -0.0000000000        0.5000000000
S             0.6666666667        0.3333333333        0.5828148001
S             0.6666666667        0.3333333333        0.4171851999



     Writing config-only to output data dir ./tmp/scf.save/
     NEW-OLD atomic charge density approx. for the potential

     negative rho (up, down):  7.814E-05 0.000E+00

     total cpu time spent up to now is      200.9 secs

     Self-consistent Calculation

     iteration #  1     ecut=    70.00 Ry     beta= 0.70
     Davidson diagonalization with overlap
     ethr =  1.00E-06,  avg # of iterations =  5.0

     negative rho (up, down):  7.830E-05 0.000E+00

     total cpu time spent up to now is      204.0 secs

     total energy              =    -496.73149145 Ry
     estimated scf accuracy    <       0.00002639 Ry

     iteration #  2     ecut=    70.00 Ry     beta= 0.70
     Davidson diagonalization with overlap
     ethr =  1.02E-07,  avg # of iterations =  3.0

     negative rho (up, down):  7.834E-05 0.000E+00

     total cpu time spent up to now is      206.2 secs

     total energy              =    -496.73147526 Ry
     estimated scf accuracy    <       0.00020311 Ry

     iteration #  3     ecut=    70.00 Ry     beta= 0.70
     Davidson diagonalization with overlap
     ethr =  1.02E-07,  avg # of iterations =  2.9

     negative rho (up, down):  7.833E-05 0.000E+00

     total cpu time spent up to now is      208.4 secs

     total energy              =    -496.73150583 Ry
     estimated scf accuracy    <       0.00000420 Ry

     iteration #  4     ecut=    70.00 Ry     beta= 0.70
     Davidson diagonalization with overlap
     ethr =  1.62E-08,  avg # of iterations =  1.9

     negative rho (up, down):  7.833E-05 0.000E+00

     total cpu time spent up to now is      211.2 secs

     End of self-consistent calculation

          k = 0.0000 0.0000 0.0000 ( 10733 PWs)   bands (ev):

   -61.3452 -35.5200 -35.2497 -35.2497 -14.7634 -13.4584  -6.2690  -3.0556
    -3.0556  -2.4512  -1.9122  -1.9122  -0.6797   2.3903   2.3903   2.6086
     2.6086

          k = 0.0000 0.1283 0.0000 ( 10711 PWs)   bands (ev):

   -61.3398 -35.5095 -35.3024 -35.2616 -14.5704 -13.3765  -6.0530  -3.4644
    -3.0760  -2.8547  -2.2065  -1.6090  -0.7542   2.1121   2.1868   2.4021
     2.7011

          k = 0.0000 0.2566 0.0000 ( 10736 PWs)   bands (ev):

   -61.3260 -35.4830 -35.4341 -35.2917 -14.0439 -13.1539  -5.6366  -4.2096
    -3.9686  -2.8019  -2.3332  -1.7956  -1.1737   1.6338   2.0170   2.3577
     3.2830

          k = 0.0000 0.3849 0.0000 ( 10762 PWs)   bands (ev):

   -61.3103 -35.5806 -35.4527 -35.3257 -13.3512 -12.8677  -5.8617  -4.8314
    -4.4508  -3.3318  -2.2392  -1.7448  -1.5537   1.8236   1.8392   2.9804
     3.7055

          k = 0.0000 0.5132 0.0000 ( 10772 PWs)   bands (ev):

   -61.3000 -35.6746 -35.4328 -35.3478 -12.8109 -12.6554  -6.3657  -5.3979
    -4.6270  -3.6265  -2.4818  -1.4020  -1.2666   1.8969   2.3005   3.3802
     3.8843

          k = 0.1111 0.1925 0.0000 ( 10724 PWs)   bands (ev):

   -61.3302 -35.4911 -35.3899 -35.2874 -14.2099 -13.2234  -5.7127  -4.0196
    -3.6157  -2.9317  -2.5353  -1.4493  -1.0060   1.6569   2.0646   2.1001
     3.2319

          k = 0.1111 0.3208 0.0000 ( 10750 PWs)   bands (ev):

   -61.3154 -35.5180 -35.4626 -35.3303 -13.5938 -12.9630  -5.5828  -4.4034
    -4.3634  -3.6097  -2.3194  -1.7197  -1.3532   1.4500   2.0405   2.3996
     3.7599

          k = 0.1111 0.4491 0.0000 ( 10759 PWs)   bands (ev):

   -61.3024 -35.6282 -35.4375 -35.3684 -12.9554 -12.6994  -6.0213  -5.2590
    -4.4338  -3.7454  -2.3318  -2.2283  -1.1433   1.7558   2.2532   2.9960
     3.8943

          k = 0.1111 0.5774 0.0000 ( 10772 PWs)   bands (ev):

   -61.2973 -35.6712 -35.4276 -35.3834 -12.6648 -12.5833  -6.2632  -5.6027
    -4.6002  -3.7237  -2.4800  -2.2375  -0.8906   1.9042   2.5236   3.3677
     3.7361

          k = 0.2222 0.3849 0.0000 ( 10752 PWs)   bands (ev):

   -61.3034 -35.5887 -35.4394 -35.3983 -13.0152 -12.7122  -5.7337  -5.1711
    -4.1631  -3.9402  -3.0754  -1.9654  -1.1828   1.6241   2.3069   2.5381
     4.1126

          k = 0.2222 0.5132 0.0000 ( 10803 PWs)   bands (ev):

   -61.2955 -35.6225 -35.4545 -35.4242 -12.5841 -12.5217  -5.8147  -5.7735
    -4.3737  -3.7226  -3.4864  -2.4738  -0.7972   1.6886   2.6810   2.7645
     4.2995

          k = 0.3333 0.5774 0.0000 ( 10818 PWs)   bands (ev):

   -61.2927 -35.5788 -35.5304 -35.4189 -12.4415 -12.4323  -6.0787  -5.2345
    -4.6909  -4.0781  -3.4908  -2.7720  -0.5045   1.3620   2.4807   3.1532
     4.6040

     the Fermi energy is     0.2955 ev

!    total energy              =    -496.73150632 Ry
     estimated scf accuracy    <       0.00000017 Ry
     smearing contrib. (-TS)   =      -0.00000000 Ry
     internal energy E=F+TS    =    -496.73150632 Ry

     convergence has been achieved in   4 iterations

     negative rho (up, down):  7.833E-05 0.000E+00

     Forces acting on atoms (cartesian axes, Ry/au):

     atom    1 type  1   force =     0.00000000    0.00000000    0.00000000
     atom    2 type  2   force =     0.00000000   -0.00000000    0.00511037
     atom    3 type  2   force =     0.00000000   -0.00000000   -0.00511037
     The non-local contrib.  to forces
     atom    1 type  1   force =     0.00000000   -0.00000000    0.00000000
     atom    2 type  2   force =     0.00000000    0.00000000   -0.26143403
     atom    3 type  2   force =     0.00000000    0.00000000    0.26143403
     The ionic contribution  to forces
     atom    1 type  1   force =     0.00000000    0.00000000    0.00000000
     atom    2 type  2   force =    -0.00000000   -0.00000000   36.68810279
     atom    3 type  2   force =    -0.00000000   -0.00000000  -36.68810279
     The local contribution  to forces
     atom    1 type  1   force =     0.00000000    0.00000000   -0.00000000
     atom    2 type  2   force =    -0.00000000   -0.00000000  -36.42125519
     atom    3 type  2   force =    -0.00000000   -0.00000000   36.42125519
     The core correction contribution to forces
     atom    1 type  1   force =     0.00000000   -0.00000000    0.00000000
     atom    2 type  2   force =     0.00000000   -0.00000000    0.00182176
     atom    3 type  2   force =     0.00000000   -0.00000000   -0.00182176
     The Hubbard contrib.    to forces
     atom    1 type  1   force =     0.00000000    0.00000000    0.00000000
     atom    2 type  2   force =     0.00000000    0.00000000    0.00000000
     atom    3 type  2   force =     0.00000000    0.00000000    0.00000000
     The SCF correction term to forces
     atom    1 type  1   force =     0.00000000    0.00000000   -0.00000000
     atom    2 type  2   force =     0.00000000    0.00000000   -0.00035924
     atom    3 type  2   force =     0.00000000   -0.00000000    0.00035924

     DFT-D3 dispersion contribution to forces:
     atom    1 type  1   force =     0.00000000    0.00000000   -0.00000000
     atom    2 type  2   force =    -0.00000000   -0.00000000   -0.00176571
     atom    3 type  2   force =    -0.00000000   -0.00000000    0.00176571

     Total force =     0.007227     Total SCF correction =     0.000508


     Computing stress (Cartesian axis) and pressure


     negative rho (up, down):  7.833E-05 0.000E+00
          total   stress  (Ry/bohr**3)                   (kbar)     P=        9.36
   0.00008342  -0.00000000   0.00000000           12.27       -0.00        0.00
  -0.00000000   0.00008342   0.00000000           -0.00       12.27        0.00
  -0.00000000  -0.00000000   0.00002401           -0.00       -0.00        3.53


     Entering Dynamics:    iteration =     5

     <vel(dt)|acc(dt)> =   1.00000000

ATOMIC_POSITIONS (crystal)
Mo           -0.0000000000       -0.0000000000        0.5000000000
S             0.6666666667        0.3333333333        0.5834300752
S             0.6666666667        0.3333333333        0.4165699248



     Writing config-only to output data dir ./tmp/scf.save/
     NEW-OLD atomic charge density approx. for the potential

     negative rho (up, down):  7.770E-05 0.000E+00

     total cpu time spent up to now is      223.5 secs

     Self-consistent Calculation

     iteration #  1     ecut=    70.00 Ry     beta= 0.70
     Davidson diagonalization with overlap
     ethr =  1.00E-06,  avg # of iterations =  5.8

     negative rho (up, down):  7.779E-05 0.000E+00

     total cpu time spent up to now is      229.0 secs

     total energy              =    -496.73151070 Ry
     estimated scf accuracy    <       0.00003987 Ry

     iteration #  2     ecut=    70.00 Ry     beta= 0.70
     Davidson diagonalization with overlap
     ethr =  1.53E-07,  avg # of iterations =  3.0

     negative rho (up, down):  7.783E-05 0.000E+00

     total cpu time spent up to now is      233.7 secs

     total energy              =    -496.73148682 Ry
     estimated scf accuracy    <       0.00025521 Ry

     iteration #  3     ecut=    70.00 Ry     beta= 0.70
     Davidson diagonalization with overlap
     ethr =  1.53E-07,  avg # of iterations =  2.8

     negative rho (up, down):  7.783E-05 0.000E+00

     total cpu time spent up to now is      238.1 secs

     total energy              =    -496.73152847 Ry
     estimated scf accuracy    <       0.00001164 Ry

     iteration #  4     ecut=    70.00 Ry     beta= 0.70
     Davidson diagonalization with overlap
     ethr =  4.48E-08,  avg # of iterations =  1.4

     negative rho (up, down):  7.782E-05 0.000E+00

     total cpu time spent up to now is      242.2 secs

     End of self-consistent calculation

          k = 0.0000 0.0000 0.0000 ( 10733 PWs)   bands (ev):

   -61.3441 -35.5146 -35.2427 -35.2427 -14.7208 -13.4551  -6.2295  -2.9820
    -2.9820  -2.4744  -1.8529  -1.8529  -0.7146   2.3909   2.3909   2.5800
     2.5800

          k = 0.0000 0.1283 0.0000 ( 10711 PWs)   bands (ev):

   -61.3387 -35.5043 -35.2950 -35.2546 -14.5285 -13.3709  -6.0118  -3.3952
    -3.0600  -2.7823  -2.1471  -1.5952  -0.7825   2.0812   2.1843   2.3769
     2.6954

          k = 0.0000 0.2566 0.0000 ( 10736 PWs)   bands (ev):

   -61.3250 -35.4781 -35.4256 -35.2845 -14.0034 -13.1421  -5.5855  -4.1604
    -3.9401  -2.7420  -2.2660  -1.8069  -1.1830   1.5991   2.0006   2.3466
     3.2617

          k = 0.0000 0.3849 0.0000 ( 10762 PWs)   bands (ev):

   -61.3094 -35.5710 -35.4482 -35.3183 -13.3108 -12.8471  -5.8062  -4.8066
    -4.4229  -3.2713  -2.2584  -1.6892  -1.5472   1.8127   1.8222   2.9576
     3.6687

          k = 0.0000 0.5132 0.0000 ( 10772 PWs)   bands (ev):

   -61.2992 -35.6643 -35.4286 -35.3402 -12.7689 -12.6276  -6.3271  -5.3810
    -4.5925  -3.5656  -2.5017  -1.3595  -1.2607   1.9110   2.2912   3.3537
     3.8392

          k = 0.1111 0.1925 0.0000 ( 10724 PWs)   bands (ev):

   -61.3292 -35.4861 -35.3818 -35.2802 -14.1691 -13.2136  -5.6659  -3.9615
    -3.5905  -2.8786  -2.4678  -1.4486  -1.0201   1.6226   2.0601   2.0807
     3.2120

          k = 0.1111 0.3208 0.0000 ( 10750 PWs)   bands (ev):

   -61.3145 -35.5089 -35.4580 -35.3228 -13.5537 -12.9457  -5.5229  -4.3692
    -4.3320  -3.5692  -2.2748  -1.7281  -1.3367   1.4195   2.0316   2.3869
     3.7218

          k = 0.1111 0.4491 0.0000 ( 10759 PWs)   bands (ev):

   -61.3015 -35.6182 -35.4332 -35.3606 -12.9143 -12.6739  -5.9751  -5.2275
    -4.4038  -3.7069  -2.3028  -2.2421  -1.1171   1.7393   2.2600   2.9694
     3.8523

          k = 0.1111 0.5774 0.0000 ( 10772 PWs)   bands (ev):

   -61.2964 -35.6608 -35.4234 -35.3755 -12.6224 -12.5540  -6.2287  -5.5741
    -4.5630  -3.6827  -2.4977  -2.2134  -0.8691   1.9143   2.5218   3.3267
     3.7059

          k = 0.2222 0.3849 0.0000 ( 10752 PWs)   bands (ev):

   -61.3025 -35.5790 -35.4350 -35.3903 -12.9745 -12.6879  -5.6816  -5.1232
    -4.1381  -3.9224  -3.0443  -1.9780  -1.1554   1.5934   2.3212   2.5145
     4.0680

          k = 0.2222 0.5132 0.0000 ( 10803 PWs)   bands (ev):

   -61.2947 -35.6125 -35.4462 -35.4200 -12.5421 -12.4922  -5.7669  -5.7375
    -4.3396  -3.7097  -3.4606  -2.4889  -0.7739   1.7008   2.6407   2.7531
     4.2646

          k = 0.3333 0.5774 0.0000 ( 10818 PWs)   bands (ev):

   -61.2919 -35.5685 -35.5220 -35.4148 -12.4104 -12.3897  -6.0256  -5.2069
    -4.6573  -4.0464  -3.4872  -2.7866  -0.4871   1.3980   2.4360   3.1183
     4.5689

     the Fermi energy is     0.2632 ev

!    total energy              =    -496.73152974 Ry
     estimated scf accuracy    <       0.00000030 Ry
     smearing contrib. (-TS)   =      -0.00000000 Ry
     internal energy E=F+TS    =    -496.73152974 Ry

     convergence has been achieved in   4 iterations

     negative rho (up, down):  7.782E-05 0.000E+00

     Forces acting on atoms (cartesian axes, Ry/au):

     atom    1 type  1   force =     0.00000000    0.00000000    0.00000000
     atom    2 type  2   force =     0.00000000    0.00000000   -0.00352935
     atom    3 type  2   force =     0.00000000    0.00000000    0.00352935
     The non-local contrib.  to forces
     atom    1 type  1   force =     0.00000000   -0.00000000    0.00000000
     atom    2 type  2   force =     0.00000000   -0.00000000   -0.26535088
     atom    3 type  2   force =    -0.00000000   -0.00000000    0.26535088
     The ionic contribution  to forces
     atom    1 type  1   force =     0.00000000    0.00000000    0.00000000
     atom    2 type  2   force =    -0.00000000   -0.00000000   36.66513718
     atom    3 type  2   force =    -0.00000000   -0.00000000  -36.66513718
     The local contribution  to forces
     atom    1 type  1   force =     0.00000000    0.00000000   -0.00000000
     atom    2 type  2   force =    -0.00000000    0.00000000  -36.40318080
     atom    3 type  2   force =    -0.00000000    0.00000000   36.40318080
     The core correction contribution to forces
     atom    1 type  1   force =     0.00000000   -0.00000000    0.00000000
     atom    2 type  2   force =     0.00000000   -0.00000000    0.00200151
     atom    3 type  2   force =     0.00000000   -0.00000000   -0.00200151
     The Hubbard contrib.    to forces
     atom    1 type  1   force =     0.00000000    0.00000000    0.00000000
     atom    2 type  2   force =     0.00000000    0.00000000    0.00000000
     atom    3 type  2   force =     0.00000000    0.00000000    0.00000000
     The SCF correction term to forces
     atom    1 type  1   force =    -0.00000000    0.00000000   -0.00000000
     atom    2 type  2   force =     0.00000000    0.00000000   -0.00038191
     atom    3 type  2   force =     0.00000000    0.00000000    0.00038191

     DFT-D3 dispersion contribution to forces:
     atom    1 type  1   force =     0.00000000    0.00000000   -0.00000000
     atom    2 type  2   force =    -0.00000000   -0.00000000   -0.00175445
     atom    3 type  2   force =    -0.00000000   -0.00000000    0.00175445

     Total force =     0.004991     Total SCF correction =     0.000540
     SCF correction compared to forces is large: reduce conv_thr to get better values


     Computing stress (Cartesian axis) and pressure


     negative rho (up, down):  7.782E-05 0.000E+00
          total   stress  (Ry/bohr**3)                   (kbar)     P=        5.40
   0.00006677  -0.00000000   0.00000000            9.82       -0.00        0.00
  -0.00000000   0.00006677  -0.00000000           -0.00        9.82       -0.00
   0.00000000   0.00000000  -0.00002339            0.00        0.00       -3.44


     Entering Dynamics:    iteration =     6

     <vel(dt)|acc(dt)> =  -1.00000000

ATOMIC_POSITIONS (crystal)
Mo           -0.0000000000       -0.0000000000        0.5000000000
S             0.6666666667        0.3333333333        0.5833197705
S             0.6666666667        0.3333333333        0.4166802295



     Writing config-only to output data dir ./tmp/scf.save/
     NEW-OLD atomic charge density approx. for the potential

     negative rho (up, down):  7.792E-05 0.000E+00

     total cpu time spent up to now is      256.6 secs

     Self-consistent Calculation

     iteration #  1     ecut=    70.00 Ry     beta= 0.70
     Davidson diagonalization with overlap
     ethr =  1.00E-06,  avg # of iterations =  3.0

     Threshold (ethr) on eigenvalues was too large:
     Diagonalizing with lowered threshold

     Davidson diagonalization with overlap
     ethr =  4.29E-08,  avg # of iterations =  2.1

     negative rho (up, down):  7.792E-05 0.000E+00

     total cpu time spent up to now is      265.2 secs

     total energy              =    -496.73154488 Ry
     estimated scf accuracy    <       0.00001278 Ry

     iteration #  2     ecut=    70.00 Ry     beta= 0.70
     Davidson diagonalization with overlap
     ethr =  4.91E-08,  avg # of iterations =  3.0

     negative rho (up, down):  7.788E-05 0.000E+00

     total cpu time spent up to now is      270.3 secs

     total energy              =    -496.73153336 Ry
     estimated scf accuracy    <       0.00016510 Ry

     iteration #  3     ecut=    70.00 Ry     beta= 0.70
     Davidson diagonalization with overlap
     ethr =  4.91E-08,  avg # of iterations =  3.0

     negative rho (up, down):  7.792E-05 0.000E+00

     total cpu time spent up to now is      275.2 secs

     End of self-consistent calculation

          k = 0.0000 0.0000 0.0000 ( 10733 PWs)   bands (ev):

   -61.3450 -35.5162 -35.2445 -35.2445 -14.7275 -13.4546  -6.2359  -2.9949
    -2.9949  -2.4691  -1.8632  -1.8632  -0.7080   2.3914   2.3914   2.5859
     2.5859

          k = 0.0000 0.1283 0.0000 ( 10711 PWs)   bands (ev):

   -61.3395 -35.5058 -35.2969 -35.2564 -14.5350 -13.3709  -6.0184  -3.4072
    -3.0620  -2.7950  -2.1574  -1.5970  -0.7771   2.0874   2.1852   2.3821
     2.6970

          k = 0.0000 0.2566 0.0000 ( 10736 PWs)   bands (ev):

   -61.3258 -35.4796 -35.4277 -35.2863 -14.0097 -13.1432  -5.5940  -4.1686
    -3.9445  -2.7523  -2.2776  -1.8038  -1.1811   1.6058   2.0040   2.3489
     3.2661

          k = 0.0000 0.3849 0.0000 ( 10762 PWs)   bands (ev):

   -61.3102 -35.5733 -35.4496 -35.3201 -13.3170 -12.8498  -5.8155  -4.8103
    -4.4271  -3.2817  -2.2539  -1.6984  -1.5481   1.8177   1.8226   2.9621
     3.6758

          k = 0.0000 0.5132 0.0000 ( 10772 PWs)   bands (ev):

   -61.2999 -35.6666 -35.4299 -35.3421 -12.7754 -12.6316  -6.3333  -5.3832
    -4.5980  -3.5761  -2.4972  -1.3662  -1.2613   1.9083   2.2930   3.3589
     3.8478

          k = 0.1111 0.1925 0.0000 ( 10724 PWs)   bands (ev):

   -61.3300 -35.4875 -35.3838 -35.2820 -14.1754 -13.2143  -5.6736  -3.9714
    -3.5943  -2.8876  -2.4794  -1.4478  -1.0173   1.6293   2.0612   2.0847
     3.2161

          k = 0.1111 0.3208 0.0000 ( 10750 PWs)   bands (ev):

   -61.3153 -35.5111 -35.4594 -35.3247 -13.5599 -12.9477  -5.5330  -4.3746
    -4.3368  -3.5759  -2.2821  -1.7256  -1.3394   1.4254   2.0334   2.3895
     3.7291

          k = 0.1111 0.4491 0.0000 ( 10759 PWs)   bands (ev):

   -61.3023 -35.6205 -35.4346 -35.3625 -12.9207 -12.6774  -5.9827  -5.2324
    -4.4084  -3.7132  -2.3072  -2.2387  -1.1214   1.7425   2.2587   2.9746
     3.8603

          k = 0.1111 0.5774 0.0000 ( 10772 PWs)   bands (ev):

   -61.2972 -35.6632 -35.4247 -35.3775 -12.6290 -12.5583  -6.2341  -5.5785
    -4.5691  -3.6895  -2.4936  -2.2168  -0.8725   1.9124   2.5221   3.3346
     3.7117

          k = 0.2222 0.3849 0.0000 ( 10752 PWs)   bands (ev):

   -61.3033 -35.5812 -35.4364 -35.3923 -12.9808 -12.6912  -5.6903  -5.1311
    -4.1416  -3.9249  -3.0492  -1.9747  -1.1601   1.5993   2.3185   2.5190
     4.0763

          k = 0.2222 0.5132 0.0000 ( 10803 PWs)   bands (ev):

   -61.2955 -35.6148 -35.4482 -35.4214 -12.5486 -12.4964  -5.7748  -5.7432
    -4.3450  -3.7112  -3.4643  -2.4853  -0.7778   1.6987   2.6484   2.7552
     4.2711

          k = 0.3333 0.5774 0.0000 ( 10818 PWs)   bands (ev):

   -61.2927 -35.5709 -35.5240 -35.4161 -12.4150 -12.3963  -6.0345  -5.2111
    -4.6625  -4.0513  -3.4869  -2.7832  -0.4900   1.3916   2.4445   3.1248
     4.5754

     the Fermi energy is     0.2691 ev

!    total energy              =    -496.73155354 Ry
     estimated scf accuracy    <       0.00000014 Ry
     smearing contrib. (-TS)   =      -0.00000000 Ry
     internal energy E=F+TS    =    -496.73155354 Ry

     convergence has been achieved in   3 iterations

     negative rho (up, down):  7.792E-05 0.000E+00

     Forces acting on atoms (cartesian axes, Ry/au):

     atom    1 type  1   force =     0.00000000   -0.00000000    0.00000000
     atom    2 type  2   force =     0.00000000   -0.00000000   -0.00221836
     atom    3 type  2   force =     0.00000000   -0.00000000    0.00221836
     The non-local contrib.  to forces
     atom    1 type  1   force =     0.00000000    0.00000000    0.00000000
     atom    2 type  2   force =     0.00000000    0.00000000   -0.26471062
     atom    3 type  2   force =    -0.00000000   -0.00000000    0.26471062
     The ionic contribution  to forces
     atom    1 type  1   force =     0.00000000    0.00000000    0.00000000
     atom    2 type  2   force =    -0.00000000   -0.00000000   36.66934467
     atom    3 type  2   force =    -0.00000000   -0.00000000  -36.66934467
     The local contribution  to forces
     atom    1 type  1   force =    -0.00000000    0.00000000   -0.00000000
     atom    2 type  2   force =    -0.00000000   -0.00000000  -36.40784144
     atom    3 type  2   force =    -0.00000000    0.00000000   36.40784144
     The core correction contribution to forces
     atom    1 type  1   force =     0.00000000   -0.00000000    0.00000000
     atom    2 type  2   force =     0.00000000   -0.00000000    0.00196186
     atom    3 type  2   force =     0.00000000    0.00000000   -0.00196186
     The Hubbard contrib.    to forces
     atom    1 type  1   force =     0.00000000    0.00000000    0.00000000
     atom    2 type  2   force =     0.00000000    0.00000000    0.00000000
     atom    3 type  2   force =     0.00000000    0.00000000    0.00000000
     The SCF correction term to forces
     atom    1 type  1   force =     0.00000000    0.00000000    0.00000000
     atom    2 type  2   force =     0.00000000    0.00000000    0.00078352
     atom    3 type  2   force =     0.00000000   -0.00000000   -0.00078352

     DFT-D3 dispersion contribution to forces:
     atom    1 type  1   force =     0.00000000    0.00000000   -0.00000000
     atom    2 type  2   force =    -0.00000000   -0.00000000   -0.00175634
     atom    3 type  2   force =    -0.00000000   -0.00000000    0.00175634

     Total force =     0.003137     Total SCF correction =     0.001108
     SCF correction compared to forces is large: reduce conv_thr to get better values


     Computing stress (Cartesian axis) and pressure


     negative rho (up, down):  7.792E-05 0.000E+00
          total   stress  (Ry/bohr**3)                   (kbar)     P=        6.00
   0.00006878   0.00000000   0.00000000           10.12        0.00        0.00
   0.00000000   0.00006878  -0.00000000            0.00       10.12       -0.00
   0.00000000   0.00000000  -0.00001512            0.00        0.00       -2.22


     Entering Dynamics:    iteration =     7

     <vel(dt)|acc(dt)> =   1.00000000

ATOMIC_POSITIONS (crystal)
Mo           -0.0000000000       -0.0000000000        0.5000000000
S             0.6666666667        0.3333333333        0.5831275523
S             0.6666666667        0.3333333333        0.4168724477



     Writing config-only to output data dir ./tmp/scf.save/
     NEW-OLD atomic charge density approx. for the potential

     negative rho (up, down):  7.810E-05 0.000E+00

     total cpu time spent up to now is      290.3 secs

     Self-consistent Calculation

     iteration #  1     ecut=    70.00 Ry     beta= 0.70
     Davidson diagonalization with overlap
     ethr =  1.00E-06,  avg # of iterations =  3.9

     Threshold (ethr) on eigenvalues was too large:
     Diagonalizing with lowered threshold

     Davidson diagonalization with overlap
     ethr =  1.89E-08,  avg # of iterations =  4.0

     negative rho (up, down):  7.808E-05 0.000E+00

     total cpu time spent up to now is      300.0 secs

     total energy              =    -496.73156397 Ry
     estimated scf accuracy    <       0.00000421 Ry

     iteration #  2     ecut=    70.00 Ry     beta= 0.70
     Davidson diagonalization with overlap
     ethr =  1.62E-08,  avg # of iterations =  2.9

     negative rho (up, down):  7.807E-05 0.000E+00

     total cpu time spent up to now is      305.4 secs

     total energy              =    -496.73156160 Ry
     estimated scf accuracy    <       0.00002497 Ry

     iteration #  3     ecut=    70.00 Ry     beta= 0.70
     Davidson diagonalization with overlap
     ethr =  1.62E-08,  avg # of iterations =  2.8

     negative rho (up, down):  7.808E-05 0.000E+00

     total cpu time spent up to now is      310.7 secs

     total energy              =    -496.73156575 Ry
     estimated scf accuracy    <       0.00000149 Ry

     iteration #  4     ecut=    70.00 Ry     beta= 0.70
     Davidson diagonalization with overlap
     ethr =  5.73E-09,  avg # of iterations =  2.0

     negative rho (up, down):  7.808E-05 0.000E+00

     total cpu time spent up to now is      315.7 secs

     End of self-consistent calculation

          k = 0.0000 0.0000 0.0000 ( 10733 PWs)   bands (ev):

   -61.3441 -35.5166 -35.2453 -35.2453 -14.7389 -13.4542  -6.2465  -3.0157
    -3.0157  -2.4607  -1.8799  -1.8799  -0.6960   2.3927   2.3927   2.5962
     2.5962

          k = 0.0000 0.1283 0.0000 ( 10711 PWs)   bands (ev):

   -61.3387 -35.5063 -35.2978 -35.2572 -14.5463 -13.3711  -6.0296  -3.4267
    -3.0654  -2.8154  -2.1742  -1.6000  -0.7671   2.0984   2.1875   2.3914
     2.7002

          k = 0.0000 0.2566 0.0000 ( 10736 PWs)   bands (ev):

   -61.3250 -35.4799 -35.4289 -35.2872 -14.0205 -13.1453  -5.6081  -4.1821
    -3.9519  -2.7693  -2.2965  -1.7991  -1.1768   1.6179   2.0106   2.3538
     3.2741

          k = 0.0000 0.3849 0.0000 ( 10762 PWs)   bands (ev):

   -61.3093 -35.5748 -35.4498 -35.3210 -13.3278 -12.8546  -5.8310  -4.8166
    -4.4343  -3.2988  -2.2469  -1.7139  -1.5485   1.8247   1.8273   2.9707
     3.6886

          k = 0.0000 0.5132 0.0000 ( 10772 PWs)   bands (ev):

   -61.2990 -35.6684 -35.4301 -35.3430 -12.7866 -12.6385  -6.3437  -5.3871
    -4.6072  -3.5933  -2.4899  -1.3777  -1.2615   1.9057   2.2974   3.3687
     3.8630

          k = 0.1111 0.1925 0.0000 ( 10724 PWs)   bands (ev):

   -61.3291 -35.4879 -35.3849 -35.2828 -14.1863 -13.2158  -5.6864  -3.9876
    -3.6006  -2.9025  -2.4985  -1.4468  -1.0116   1.6414   2.0641   2.0922
     3.2237

          k = 0.1111 0.3208 0.0000 ( 10750 PWs)   bands (ev):

   -61.3144 -35.5125 -35.4597 -35.3256 -13.5706 -12.9515  -5.5499  -4.3836
    -4.3449  -3.5869  -2.2942  -1.7218  -1.3430   1.4363   2.0377   2.3949
     3.7423

          k = 0.1111 0.4491 0.0000 ( 10759 PWs)   bands (ev):

   -61.3014 -35.6221 -35.4347 -35.3635 -12.9316 -12.6837  -5.9954  -5.2407
    -4.4163  -3.7236  -2.3147  -2.2333  -1.1278   1.7492   2.2582   2.9842
     3.8747

          k = 0.1111 0.5774 0.0000 ( 10772 PWs)   bands (ev):

   -61.2963 -35.6649 -35.4248 -35.3785 -12.6403 -12.5657  -6.2433  -5.5858
    -4.5791  -3.7007  -2.4870  -2.2228  -0.8775   1.9110   2.5243   3.3486
     3.7226

          k = 0.2222 0.3849 0.0000 ( 10752 PWs)   bands (ev):

   -61.3024 -35.5828 -35.4366 -35.3933 -12.9916 -12.6971  -5.7047  -5.1444
    -4.1480  -3.9291  -3.0572  -1.9697  -1.1668   1.6103   2.3158   2.5277
     4.0916

          k = 0.2222 0.5132 0.0000 ( 10803 PWs)   bands (ev):

   -61.2945 -35.6164 -35.4494 -35.4215 -12.5598 -12.5039  -5.7880  -5.7528
    -4.3541  -3.7139  -3.4709  -2.4795  -0.7832   1.6967   2.6621   2.7604
     4.2835

          k = 0.3333 0.5774 0.0000 ( 10818 PWs)   bands (ev):

   -61.2918 -35.5726 -35.5252 -35.4162 -12.4229 -12.4077  -6.0494  -5.2183
    -4.6713  -4.0597  -3.4867  -2.7775  -0.4936   1.3822   2.4595   3.1372
     4.5880

     the Fermi energy is     0.2808 ev

!    total energy              =    -496.73156593 Ry
     estimated scf accuracy    <       0.00000003 Ry
     smearing contrib. (-TS)   =      -0.00000000 Ry
     internal energy E=F+TS    =    -496.73156593 Ry

     convergence has been achieved in   4 iterations

     negative rho (up, down):  7.808E-05 0.000E+00

     Forces acting on atoms (cartesian axes, Ry/au):

     atom    1 type  1   force =     0.00000000    0.00000000    0.00000000
     atom    2 type  2   force =     0.00000000    0.00000000    0.00035378
     atom    3 type  2   force =     0.00000000   -0.00000000   -0.00035378
     The non-local contrib.  to forces
     atom    1 type  1   force =     0.00000000   -0.00000000    0.00000000
     atom    2 type  2   force =    -0.00000000    0.00000000   -0.26340926
     atom    3 type  2   force =     0.00000000   -0.00000000    0.26340926
     The ionic contribution  to forces
     atom    1 type  1   force =     0.00000000    0.00000000    0.00000000
     atom    2 type  2   force =    -0.00000000   -0.00000000   36.67658269
     atom    3 type  2   force =    -0.00000000   -0.00000000  -36.67658269
     The local contribution  to forces
     atom    1 type  1   force =     0.00000000    0.00000000   -0.00000000
     atom    2 type  2   force =    -0.00000000    0.00000000  -36.41306781
     atom    3 type  2   force =    -0.00000000    0.00000000   36.41306781
     The core correction contribution to forces
     atom    1 type  1   force =     0.00000000   -0.00000000    0.00000000
     atom    2 type  2   force =     0.00000000   -0.00000000    0.00190786
     atom    3 type  2   force =     0.00000000   -0.00000000   -0.00190786
     The Hubbard contrib.    to forces
     atom    1 type  1   force =     0.00000000    0.00000000    0.00000000
     atom    2 type  2   force =     0.00000000    0.00000000    0.00000000
     atom    3 type  2   force =     0.00000000    0.00000000    0.00000000
     The SCF correction term to forces
     atom    1 type  1   force =     0.00000000    0.00000000    0.00000000
     atom    2 type  2   force =    -0.00000000   -0.00000000    0.00010008
     atom    3 type  2   force =    -0.00000000   -0.00000000   -0.00010008

     DFT-D3 dispersion contribution to forces:
     atom    1 type  1   force =     0.00000000    0.00000000   -0.00000000
     atom    2 type  2   force =    -0.00000000   -0.00000000   -0.00175978
     atom    3 type  2   force =    -0.00000000   -0.00000000    0.00175978

     Total force =     0.000500     Total SCF correction =     0.000142
     SCF correction compared to forces is large: reduce conv_thr to get better values


     Computing stress (Cartesian axis) and pressure


     negative rho (up, down):  7.808E-05 0.000E+00
          total   stress  (Ry/bohr**3)                   (kbar)     P=        7.41
   0.00007532   0.00000000  -0.00000000           11.08        0.00       -0.00
   0.00000000   0.00007532   0.00000000            0.00       11.08        0.00
   0.00000000   0.00000000   0.00000038            0.00        0.00        0.06


     Damped Dynamics: convergence achieved in   7 steps

     End of damped dynamics calculation

     Final energy =    -496.7315659340 Ry

Begin final coordinates
     new unit-cell volume =   1087.85123 a.u.^3 (   161.20292 Ang^3 )
     density =      1.64887 g/cm^3

CELL_PARAMETERS (angstrom)
   3.130000000   0.000000000   0.000000000
  -1.565000000   2.710659514   0.000000000
   0.000000000   0.000000000  19.000000000

ATOMIC_POSITIONS (crystal)
Mo           -0.0000000000       -0.0000000000        0.5000000000
S             0.6666666667        0.3333333333        0.5831275523
S             0.6666666667        0.3333333333        0.4168724477
End final coordinates



     Writing all to output data dir ./tmp/scf.save/
 
     init_run     :      3.41s CPU      4.19s WALL (       1 calls)
     electrons    :    172.00s CPU    212.02s WALL (       8 calls)
     update_pot   :      8.37s CPU     10.32s WALL (       7 calls)
     forces       :     13.80s CPU     17.17s WALL (       8 calls)
     force_dftd3  :      0.13s CPU      0.13s WALL (       8 calls)
     stress       :     64.89s CPU     76.25s WALL (       8 calls)
     stres_dftd3  :      0.14s CPU      0.14s WALL (       8 calls)

     Called by init_run:
     wfcinit      :      0.63s CPU      0.74s WALL (       1 calls)
     potinit      :      0.88s CPU      0.98s WALL (       1 calls)
     hinit0       :      0.73s CPU      0.82s WALL (       1 calls)

     Called by electrons:
     c_bands      :     75.54s CPU     79.61s WALL (      43 calls)
     sum_band     :     53.43s CPU     72.92s WALL (      43 calls)
     v_of_rho     :      9.14s CPU      9.96s WALL (      48 calls)
     newd         :     33.79s CPU     52.42s WALL (      48 calls)
     PAW_pot      :      6.99s CPU      7.18s WALL (      55 calls)
     mix_rho      :      1.29s CPU      1.34s WALL (      43 calls)
     energy_dftd3 :      0.17s CPU      0.17s WALL (       8 calls)

     Called by c_bands:
     init_us_2    :      1.98s CPU      2.02s WALL (    1320 calls)
     init_us_2:cp :      1.97s CPU      2.01s WALL (    1320 calls)
     cegterg      :     66.58s CPU     70.60s WALL (     516 calls)

     Called by *egterg:
     cdiaghg      :      0.90s CPU      0.91s WALL (    2050 calls)
     h_psi        :     56.28s CPU     60.29s WALL (    2182 calls)
     s_psi        :      1.58s CPU      1.60s WALL (    2182 calls)
     g_psi        :      0.15s CPU      0.15s WALL (    1654 calls)

     Called by h_psi:
     h_psi:calbec :      2.73s CPU      2.81s WALL (    2182 calls)
     vloc_psi     :     50.84s CPU     54.73s WALL (    2182 calls)
     add_vuspsi   :      2.21s CPU      2.25s WALL (    2182 calls)

     General routines
     calbec       :      5.96s CPU      6.15s WALL (    3262 calls)
     fft          :     12.45s CPU     15.33s WALL (     818 calls)
     ffts         :      0.12s CPU      0.12s WALL (      91 calls)
     fftw         :     27.18s CPU     30.76s WALL (   60432 calls)
     interpolate  :      0.61s CPU      0.64s WALL (      48 calls)
 
     Parallel routines
 
     PWSCF        :   4m28.96s CPU   5m29.27s WALL

 
   This run was terminated on:  12: 3:11  15Jul2025            

=------------------------------------------------------------------------------=
   JOB DONE.
=------------------------------------------------------------------------------=
