
     Program PWSCF v.7.2 starts on 15Jul2025 at 12: 8: 8 

     This program is part of the open-source Quantum ESPRESSO suite
     for quantum simulation of materials; please cite
         "P. Giannozzi et al., J. Phys.:Condens. Matter 21 395502 (2009);
         "P. Giannozzi et al., J. Phys.:Condens. Matter 29 465901 (2017);
         "P. Giannozzi et al., J. Chem. Phys. 152 154105 (2020);
          URL http://www.quantum-espresso.org", 
     in publications or presentations arising from this work. More details at
     http://www.quantum-espresso.org/quote

     Parallel version (MPI), running on     4 processors

     MPI processes distributed on     1 nodes
     23360 MiB available memory on the printing compute node when the environment starts
 
     Waiting for input...
     Reading input from standard input

     Current dimensions of program PWSCF are:
     Max number of different atomic species (ntypx) = 10
     Max number of k-points (npk) =  40000
     Max angular momentum in pseudopotentials (lmaxx) =  4
     file Mo.pbe-spn-kjpaw_psl.1.0.0.UPF: wavefunction(s)  4S 4D renormalized
     file S.pbe-n-kjpaw_psl.1.0.0.UPF: wavefunction(s)  3S 3P renormalized
     Message from routine setup:
     using ibrav=0 with symmetry is DISCOURAGED, use correct ibrav instead
     Message from routine setup:
     Dynamics, you should have no symmetries
 
     R & G space division:  proc/nbgrp/npool/nimage =       4
     Subspace diagonalization in iterative solution of the eigenvalue problem:
     a serial algorithm will be used

 
     Parallelization info
     --------------------
     sticks:   dense  smooth     PW     G-vecs:    dense   smooth      PW
     Min         420     168     49                85502    21652    3455
     Max         424     169     50                85508    21681    3476
     Sum        1687     673    199               342021    86651   13873
 
     Using Slab Decomposition
 


     bravais-lattice index     =            0
     lattice parameter (alat)  =       5.9337  a.u.
     unit-cell volume          =    1094.8135 (a.u.)^3
     number of atoms/cell      =            3
     number of atomic types    =            2
     number of electrons       =        26.00
     number of Kohn-Sham states=           17
     kinetic-energy cutoff     =      70.0000  Ry
     charge density cutoff     =     700.0000  Ry
     scf convergence threshold =      1.0E-06
     mixing beta               =       0.7000
     number of iterations used =            8  plain     mixing
     energy convergence thresh.=      1.0E-04
     force convergence thresh. =      1.0E-03
     Exchange-correlation= SLA  PW   PBX  PBC
                           (   1   4   3   4   0   0   0)
     nstep                     =          100


     celldm(1)=   5.933740  celldm(2)=   0.000000  celldm(3)=   0.000000
     celldm(4)=   0.000000  celldm(5)=   0.000000  celldm(6)=   0.000000

     crystal axes: (cart. coord. in units of alat)
               a(1) = (   1.000000   0.000000   0.000000 )  
               a(2) = (  -0.500000   0.866025   0.000000 )  
               a(3) = (   0.000000   0.000000   6.050955 )  

     reciprocal axes: (cart. coord. in units 2 pi/alat)
               b(1) = (  1.000000  0.577350  0.000000 )  
               b(2) = (  0.000000  1.154701  0.000000 )  
               b(3) = (  0.000000  0.000000  0.165263 )  


     PseudoPot. # 1 for Mo read from file:
     /shared/ESPRESSO/PSLIBRARY/1.0.0/pbe/PSEUDOPOTENTIALS/Mo.pbe-spn-kjpaw_psl.1.0.0.UPF
     MD5 check sum: 4396e0c640fcce5c25f020efccf1ab12
     Pseudo is Projector augmented-wave + core cor, Zval = 14.0
     Generated using &quot;atomic&quot; code by A. Dal Corso  v.6.3
     Shape of augmentation charge: PSQ
     Using radial grid of 1229 points,  6 beta functions with: 
                l(1) =   0
                l(2) =   0
                l(3) =   1
                l(4) =   1
                l(5) =   2
                l(6) =   2
     Q(r) pseudized with 0 coefficients 


     PseudoPot. # 2 for S  read from file:
     /shared/ESPRESSO/PSLIBRARY/1.0.0/pbe/PSEUDOPOTENTIALS/S.pbe-n-kjpaw_psl.1.0.0.UPF
     MD5 check sum: c08f931834bcc19553f8bde8f1a3adc5
     Pseudo is Projector augmented-wave + core cor, Zval =  6.0
     Generated using "atomic" code by A. Dal Corso  (Quantum ESPRESSO distribution)
     Shape of augmentation charge: PSQ
     Using radial grid of 1151 points,  6 beta functions with: 
                l(1) =   0
                l(2) =   0
                l(3) =   1
                l(4) =   1
                l(5) =   2
                l(6) =   2
     Q(r) pseudized with 0 coefficients 


     atomic species   valence    mass     pseudopotential
        Mo            14.00    95.94000     Mo( 1.00)
        S              6.00    32.06500     S ( 1.00)

     12 Sym. Ops. (no inversion) found



   Cartesian axes

     site n.     atom                  positions (alat units)
         1           Mo  tau(   1) = (   0.0000000   0.0000000   3.0254777  )
         2           S   tau(   2) = (   0.5000000   0.2886751   3.6624204  )
         3           S   tau(   3) = (   0.5000000   0.2886751   2.3885350  )

     --------------------------------------------
     DFT-D3 Dispersion Correction (3-body terms):
     --------------------------------------------
       Reference C6 values for interpolation: 

         atom   Coordination number   C6
         S          0.000           268.01
         S          0.995           261.99
         S          1.990           251.62
         Mo         0.000          1691.79
         Mo         1.942          1004.01
         Mo        11.056           674.22

       Values used:

         atom   Coordination number  R0_AB[au]  C6      C8
         Mo         9.505            3.547    674.22  77634.20
         S          3.289            3.128    251.62  12327.25
         S          3.289            3.128    251.62  12327.25

         Molecular C6 ( Ry / a.u.^6 ) =      3323.66


     number of k points=    12  Gaussian smearing, width (Ry)=  0.0073
                       cart. coord. in units 2pi/alat
        k(    1) = (   0.0000000   0.0000000   0.0000000), wk =   0.0246914
        k(    2) = (   0.0000000   0.1283001   0.0000000), wk =   0.1481481
        k(    3) = (   0.0000000   0.2566001   0.0000000), wk =   0.1481481
        k(    4) = (   0.0000000   0.3849002   0.0000000), wk =   0.1481481
        k(    5) = (   0.0000000   0.5132002   0.0000000), wk =   0.1481481
        k(    6) = (   0.1111111   0.1924501   0.0000000), wk =   0.1481481
        k(    7) = (   0.1111111   0.3207501   0.0000000), wk =   0.2962963
        k(    8) = (   0.1111111   0.4490502   0.0000000), wk =   0.2962963
        k(    9) = (   0.1111111   0.5773503   0.0000000), wk =   0.1481481
        k(   10) = (   0.2222222   0.3849002   0.0000000), wk =   0.1481481
        k(   11) = (   0.2222222   0.5132002   0.0000000), wk =   0.2962963
        k(   12) = (   0.3333333   0.5773503   0.0000000), wk =   0.0493827

     Dense  grid:   342021 G-vectors     FFT dimensions: (  50,  50, 320)

     Smooth grid:    86651 G-vectors     FFT dimensions: (  32,  32, 192)

     Estimated max dynamical RAM per process >     329.25 MB

     Estimated total dynamical RAM >       1.29 GB

     Initial potential from superposition of free atoms

     starting charge      25.9991, renormalised to      26.0000

     negative rho (up, down):  5.153E-05 0.000E+00
     Starting wfcs are   18 randomized atomic wfcs
     Checking if some PAW data can be deallocated... 

     total cpu time spent up to now is        5.3 secs

     Self-consistent Calculation

     iteration #  1     ecut=    70.00 Ry     beta= 0.70
     Davidson diagonalization with overlap
     ethr =  1.00E-02,  avg # of iterations =  2.0

     Threshold (ethr) on eigenvalues was too large:
     Diagonalizing with lowered threshold

     Davidson diagonalization with overlap
     ethr =  2.41E-04,  avg # of iterations =  3.4

     negative rho (up, down):  6.054E-05 0.000E+00

     total cpu time spent up to now is       23.4 secs

     total energy              =    -496.51287585 Ry
     estimated scf accuracy    <       0.10428194 Ry

     iteration #  2     ecut=    70.00 Ry     beta= 0.70
     Davidson diagonalization with overlap
     ethr =  4.01E-04,  avg # of iterations =  3.0

     negative rho (up, down):  6.130E-05 0.000E+00

     total cpu time spent up to now is       30.1 secs

     total energy              =    -496.37772882 Ry
     estimated scf accuracy    <       1.58038643 Ry

     iteration #  3     ecut=    70.00 Ry     beta= 0.70
     Davidson diagonalization with overlap
     ethr =  4.01E-04,  avg # of iterations =  3.1

     negative rho (up, down):  6.372E-05 0.000E+00

     total cpu time spent up to now is       35.7 secs

     total energy              =    -496.53893203 Ry
     estimated scf accuracy    <       0.24174845 Ry

     iteration #  4     ecut=    70.00 Ry     beta= 0.70
     Davidson diagonalization with overlap
     ethr =  4.01E-04,  avg # of iterations =  1.2

     negative rho (up, down):  6.743E-05 0.000E+00

     total cpu time spent up to now is       40.7 secs

     total energy              =    -496.56174947 Ry
     estimated scf accuracy    <       0.00251271 Ry

     iteration #  5     ecut=    70.00 Ry     beta= 0.70
     Davidson diagonalization with overlap
     ethr =  9.66E-06,  avg # of iterations =  2.3

     negative rho (up, down):  6.934E-05 0.000E+00

     total cpu time spent up to now is       46.0 secs

     total energy              =    -496.56226092 Ry
     estimated scf accuracy    <       0.00010100 Ry

     iteration #  6     ecut=    70.00 Ry     beta= 0.70
     Davidson diagonalization with overlap
     ethr =  3.88E-07,  avg # of iterations =  2.6

     negative rho (up, down):  7.071E-05 0.000E+00

     total cpu time spent up to now is       51.4 secs

     total energy              =    -496.56227426 Ry
     estimated scf accuracy    <       0.00001544 Ry

     iteration #  7     ecut=    70.00 Ry     beta= 0.70
     Davidson diagonalization with overlap
     ethr =  5.94E-08,  avg # of iterations =  2.6

     negative rho (up, down):  7.084E-05 0.000E+00

     total cpu time spent up to now is       56.7 secs

     total energy              =    -496.56227897 Ry
     estimated scf accuracy    <       0.00000158 Ry

     iteration #  8     ecut=    70.00 Ry     beta= 0.70
     Davidson diagonalization with overlap
     ethr =  6.06E-09,  avg # of iterations =  2.0

     negative rho (up, down):  7.087E-05 0.000E+00

     total cpu time spent up to now is       61.7 secs

     End of self-consistent calculation

          k = 0.0000 0.0000 0.0000 ( 10745 PWs)   bands (ev):

   -61.5177 -35.6066 -35.2907 -35.2907 -13.6377 -13.2101  -5.3636  -2.9972
    -1.7098  -1.2941  -1.2941  -0.2736  -0.2736   1.8063   1.8063   2.1102
     2.1102

          k = 0.0000 0.1283 0.0000 ( 10793 PWs)   bands (ev):

   -61.5132 -35.5999 -35.3329 -35.3007 -13.4664 -13.0777  -5.1157  -3.0551
    -1.7230  -1.5953  -1.1009  -0.6511  -0.5326   1.1582   1.6513   1.7714
     2.2145

          k = 0.0000 0.2566 0.0000 ( 10804 PWs)   bands (ev):

   -61.5016 -35.5830 -35.4388 -35.3260 -12.9886 -12.7092  -4.5053  -3.2724
    -2.7767  -1.7648  -1.4987  -1.0598  -0.6466   0.4642   1.4127   1.6205
     2.3486

          k = 0.0000 0.3849 0.0000 ( 10820 PWs)   bands (ev):

   -61.4884 -35.5637 -35.5573 -35.3545 -12.3332 -12.2106  -4.3306  -3.9386
    -3.6828  -2.6287  -1.5733  -1.5355  -0.3414   0.8370   1.5678   1.8515
     2.3828

          k = 0.0000 0.5132 0.0000 ( 10844 PWs)   bands (ev):

   -61.4798 -35.6336 -35.5511 -35.3731 -11.8146 -11.7962  -5.1779  -4.7114
    -3.6371  -2.8458  -1.8029  -1.3605  -0.3311   1.5372   2.0152   2.0920
     2.3683

          k = 0.1111 0.1925 0.0000 ( 10794 PWs)   bands (ev):

   -61.5051 -35.5881 -35.4032 -35.3221 -13.1412 -12.8265  -4.6740  -3.1628
    -2.4258  -1.5251  -1.4830  -0.8329  -0.8245   0.5306   1.4217   1.5696
     2.2984

          k = 0.1111 0.3208 0.0000 ( 10820 PWs)   bands (ev):

   -61.4927 -35.5701 -35.5065 -35.3578 -12.5680 -12.3865  -4.0704  -3.4696
    -3.4512  -2.6473  -1.6103  -1.3731  -0.5927   0.2969   1.6023   1.6449
     2.3173

          k = 0.1111 0.4491 0.0000 ( 10825 PWs)   bands (ev):

   -61.4818 -35.5958 -35.5541 -35.3895 -11.9462 -11.9185  -4.6825  -4.2998
    -3.5575  -2.9207  -1.9262  -1.7140  -0.6137   0.9324   1.8117   2.0878
     2.3627

          k = 0.1111 0.5774 0.0000 ( 10832 PWs)   bands (ev):

   -61.4775 -35.6307 -35.5478 -35.4020 -11.7023 -11.6510  -5.1524  -4.7397
    -3.5322  -2.8705  -2.1971  -1.6571  -0.5979   1.5815   1.8506   2.0627
     2.4298

          k = 0.2222 0.3849 0.0000 ( 10810 PWs)   bands (ev):

   -61.4826 -35.5635 -35.5553 -35.4137 -12.0095 -11.9604  -4.2171  -3.8100
    -3.4967  -3.3115  -2.1630  -1.9551  -0.7522   0.4806   1.4736   2.1989
     2.4716

          k = 0.2222 0.5132 0.0000 ( 10872 PWs)   bands (ev):

   -61.4760 -35.5904 -35.5456 -35.4602 -11.6334 -11.5756  -4.6397  -4.4360
    -3.3403  -3.1331  -2.6898  -2.5868  -0.6041   1.1696   1.2424   2.1358
     2.7673

          k = 0.3333 0.5774 0.0000 ( 10884 PWs)   bands (ev):

   -61.4737 -35.5435 -35.5423 -35.5332 -11.5118 -11.4209  -4.4305  -4.2314
    -3.6778  -3.2194  -3.1395  -2.9097  -0.4264   0.9646   1.5434   1.7077
     2.9902

     the Fermi energy is    -0.0023 ev

!    total energy              =    -496.56227897 Ry
     estimated scf accuracy    <       0.00000022 Ry
     smearing contrib. (-TS)   =      -0.00000015 Ry
     internal energy E=F+TS    =    -496.56227881 Ry

     convergence has been achieved in   8 iterations

     negative rho (up, down):  7.087E-05 0.000E+00

     Forces acting on atoms (cartesian axes, Ry/au):

     atom    1 type  1   force =     0.00000000    0.00000000    0.00000000
     atom    2 type  2   force =    -0.00000000    0.00000000   -0.17044092
     atom    3 type  2   force =     0.00000000    0.00000000    0.17044092
     The non-local contrib.  to forces
     atom    1 type  1   force =    -0.00000000   -0.00000000    0.00000000
     atom    2 type  2   force =     0.00000000   -0.00000000   -0.33126997
     atom    3 type  2   force =     0.00000000   -0.00000000    0.33126997
     The ionic contribution  to forces
     atom    1 type  1   force =     0.00000000   -0.00000000   -0.00000000
     atom    2 type  2   force =    -0.00000000    0.00000000   34.96446833
     atom    3 type  2   force =    -0.00000000   -0.00000000  -34.96446833
     The local contribution  to forces
     atom    1 type  1   force =    -0.00000000    0.00000000    0.00000000
     atom    2 type  2   force =    -0.00000000    0.00000000  -34.80682938
     atom    3 type  2   force =    -0.00000000    0.00000000   34.80682938
     The core correction contribution to forces
     atom    1 type  1   force =     0.00000000   -0.00000000    0.00000000
     atom    2 type  2   force =     0.00000000   -0.00000000    0.00625689
     atom    3 type  2   force =     0.00000000   -0.00000000   -0.00625689
     The Hubbard contrib.    to forces
     atom    1 type  1   force =     0.00000000    0.00000000    0.00000000
     atom    2 type  2   force =     0.00000000    0.00000000    0.00000000
     atom    3 type  2   force =     0.00000000    0.00000000    0.00000000
     The SCF correction term to forces
     atom    1 type  1   force =    -0.00000000   -0.00000000    0.00000000
     atom    2 type  2   force =     0.00000000    0.00000000   -0.00063054
     atom    3 type  2   force =     0.00000000    0.00000000    0.00063054

     DFT-D3 dispersion contribution to forces:
     atom    1 type  1   force =    -0.00000000    0.00000000   -0.00000000
     atom    2 type  2   force =     0.00000000   -0.00000000   -0.00243624
     atom    3 type  2   force =     0.00000000   -0.00000000    0.00243624

     Total force =     0.241040     Total SCF correction =     0.000892


     Computing stress (Cartesian axis) and pressure


     negative rho (up, down):  7.087E-05 0.000E+00
          total   stress  (Ry/bohr**3)                   (kbar)     P=      -80.60
  -0.00023227  -0.00000000   0.00000000          -34.17       -0.00        0.00
  -0.00000000  -0.00023227   0.00000000           -0.00      -34.17        0.00
   0.00000000   0.00000000  -0.00117908            0.00        0.00     -173.45


     Damped Dynamics Calculation

     Entering Dynamics:    iteration =     1

ATOMIC_POSITIONS (crystal)
Mo            0.0000000000        0.0000000000        0.5000000000
S             0.6666666667        0.3333333333        0.6031798604
S             0.6666666667        0.3333333333        0.3968201396



     Writing config-only to output data dir ./tmp/scf.save/
     NEW-OLD atomic charge density approx. for the potential

     negative rho (up, down):  7.209E-05 0.000E+00

     total cpu time spent up to now is       77.9 secs

     Self-consistent Calculation

     iteration #  1     ecut=    70.00 Ry     beta= 0.70
     Davidson diagonalization with overlap
     ethr =  1.00E-06,  avg # of iterations =  7.1

     negative rho (up, down):  7.178E-05 0.000E+00

     total cpu time spent up to now is       85.1 secs

     total energy              =    -496.58668922 Ry
     estimated scf accuracy    <       0.00096926 Ry

     iteration #  2     ecut=    70.00 Ry     beta= 0.70
     Davidson diagonalization with overlap
     ethr =  3.73E-06,  avg # of iterations =  3.2

     negative rho (up, down):  7.140E-05 0.000E+00

     total cpu time spent up to now is       90.7 secs

     total energy              =    -496.58410863 Ry
     estimated scf accuracy    <       0.04098600 Ry

     iteration #  3     ecut=    70.00 Ry     beta= 0.70
     Davidson diagonalization with overlap
     ethr =  3.73E-06,  avg # of iterations =  3.0

     negative rho (up, down):  7.137E-05 0.000E+00

     total cpu time spent up to now is       96.1 secs

     total energy              =    -496.58734004 Ry
     estimated scf accuracy    <       0.00003111 Ry

     iteration #  4     ecut=    70.00 Ry     beta= 0.70
     Davidson diagonalization with overlap
     ethr =  1.20E-07,  avg # of iterations =  2.8

     negative rho (up, down):  7.140E-05 0.000E+00

     total cpu time spent up to now is      101.4 secs

     total energy              =    -496.58734638 Ry
     estimated scf accuracy    <       0.00000776 Ry

     iteration #  5     ecut=    70.00 Ry     beta= 0.70
     Davidson diagonalization with overlap
     ethr =  2.98E-08,  avg # of iterations =  1.8

     negative rho (up, down):  7.140E-05 0.000E+00

     total cpu time spent up to now is      106.4 secs

     total energy              =    -496.58734683 Ry
     estimated scf accuracy    <       0.00000164 Ry

     iteration #  6     ecut=    70.00 Ry     beta= 0.70
     Davidson diagonalization with overlap
     ethr =  6.31E-09,  avg # of iterations =  2.0

     negative rho (up, down):  7.140E-05 0.000E+00

     total cpu time spent up to now is      111.5 secs

     End of self-consistent calculation

          k = 0.0000 0.0000 0.0000 ( 10745 PWs)   bands (ev):

   -61.4995 -35.5880 -35.2804 -35.2804 -13.7112 -13.2364  -5.4119  -2.9655
    -1.6317  -1.3929  -1.3929  -0.3879  -0.3879   1.8492   1.8492   2.1438
     2.1438

          k = 0.0000 0.1283 0.0000 ( 10793 PWs)   bands (ev):

   -61.4949 -35.5811 -35.3230 -35.2905 -13.5386 -13.1068  -5.1656  -3.0414
    -1.8258  -1.5353  -1.2025  -0.7455  -0.6521   1.2209   1.6946   1.8209
     2.2643

          k = 0.0000 0.2566 0.0000 ( 10804 PWs)   bands (ev):

   -61.4832 -35.5637 -35.4298 -35.3159 -13.0574 -12.7466  -4.5628  -3.3080
    -2.8866  -1.8004  -1.4690  -1.1881  -0.7536   0.5559   1.4566   1.7006
     2.4295

          k = 0.0000 0.3849 0.0000 ( 10820 PWs)   bands (ev):

   -61.4700 -35.5494 -35.5438 -35.3447 -12.3985 -12.2605  -4.4307  -4.0149
    -3.7467  -2.6153  -1.6703  -1.5559  -0.4343   0.9196   1.5933   1.9651
     2.4879

          k = 0.0000 0.5132 0.0000 ( 10844 PWs)   bands (ev):

   -61.4613 -35.6263 -35.5308 -35.3634 -11.8758 -11.8593  -5.2695  -4.7739
    -3.7080  -2.8377  -1.9407  -1.3378  -0.4029   1.6155   2.0167   2.2218
     2.4849

          k = 0.1111 0.1925 0.0000 ( 10794 PWs)   bands (ev):

   -61.4867 -35.5690 -35.3939 -35.3121 -13.2110 -12.8612  -4.7280  -3.1775
    -2.5384  -1.6186  -1.4482  -0.9261  -0.9210   0.6139   1.4702   1.6275
     2.3826

          k = 0.1111 0.3208 0.0000 ( 10820 PWs)   bands (ev):

   -61.4743 -35.5503 -35.4982 -35.3480 -12.6344 -12.4315  -4.1482  -3.5576
    -3.5157  -2.6968  -1.6245  -1.4510  -0.6659   0.3923   1.6414   1.7232
     2.4387

          k = 0.1111 0.4491 0.0000 ( 10825 PWs)   bands (ev):

   -61.4633 -35.5882 -35.5339 -35.3799 -12.0098 -11.9759  -4.7793  -4.3748
    -3.6256  -2.9431  -2.0160  -1.7409  -0.6426   1.0050   1.9199   2.1190
     2.4944

          k = 0.1111 0.5774 0.0000 ( 10832 PWs)   bands (ev):

   -61.4590 -35.6234 -35.5274 -35.3925 -11.7660 -11.7135  -5.2412  -4.8068
    -3.6090  -2.8777  -2.3065  -1.6901  -0.6049   1.6411   1.9743   2.1109
     2.5572

          k = 0.2222 0.3849 0.0000 ( 10810 PWs)   bands (ev):

   -61.4641 -35.5556 -35.5351 -35.4044 -12.0733 -12.0161  -4.3253  -3.9050
    -3.5522  -3.3607  -2.2300  -1.9926  -0.7578   0.5750   1.5709   2.2346
     2.6132

          k = 0.2222 0.5132 0.0000 ( 10872 PWs)   bands (ev):

   -61.4575 -35.5828 -35.5251 -35.4513 -11.6977 -11.6379  -4.7291  -4.5316
    -3.4212  -3.1881  -2.7553  -2.6123  -0.5869   1.2496   1.3605   2.2048
     2.9119

          k = 0.3333 0.5774 0.0000 ( 10884 PWs)   bands (ev):

   -61.4552 -35.5361 -35.5242 -35.5217 -11.5789 -11.4829  -4.5551  -4.3195
    -3.7540  -3.2514  -3.2158  -2.9263  -0.4061   1.0869   1.5860   1.8329
     3.1434

     the Fermi energy is    -0.0040 ev

!    total energy              =    -496.58734692 Ry
     estimated scf accuracy    <       0.00000029 Ry
     smearing contrib. (-TS)   =      -0.00000000 Ry
     internal energy E=F+TS    =    -496.58734692 Ry

     convergence has been achieved in   6 iterations

     negative rho (up, down):  7.140E-05 0.000E+00

     Forces acting on atoms (cartesian axes, Ry/au):

     atom    1 type  1   force =     0.00000000    0.00000000    0.00000000
     atom    2 type  2   force =     0.00000000   -0.00000000   -0.16420102
     atom    3 type  2   force =     0.00000000    0.00000000    0.16420102
     The non-local contrib.  to forces
     atom    1 type  1   force =     0.00000000   -0.00000000    0.00000000
     atom    2 type  2   force =     0.00000000    0.00000000   -0.33033107
     atom    3 type  2   force =     0.00000000    0.00000000    0.33033107
     The ionic contribution  to forces
     atom    1 type  1   force =     0.00000000   -0.00000000   -0.00000000
     atom    2 type  2   force =    -0.00000000    0.00000000   35.14586942
     atom    3 type  2   force =    -0.00000000    0.00000000  -35.14586942
     The local contribution  to forces
     atom    1 type  1   force =     0.00000000    0.00000000    0.00000000
     atom    2 type  2   force =    -0.00000000    0.00000000  -34.98206903
     atom    3 type  2   force =    -0.00000000    0.00000000   34.98206903
     The core correction contribution to forces
     atom    1 type  1   force =    -0.00000000    0.00000000   -0.00000000
     atom    2 type  2   force =     0.00000000   -0.00000000    0.00603171
     atom    3 type  2   force =     0.00000000   -0.00000000   -0.00603171
     The Hubbard contrib.    to forces
     atom    1 type  1   force =     0.00000000    0.00000000    0.00000000
     atom    2 type  2   force =     0.00000000    0.00000000    0.00000000
     atom    3 type  2   force =     0.00000000    0.00000000    0.00000000
     The SCF correction term to forces
     atom    1 type  1   force =     0.00000000    0.00000000   -0.00000000
     atom    2 type  2   force =    -0.00000000   -0.00000000   -0.00125932
     atom    3 type  2   force =    -0.00000000   -0.00000000    0.00125932

     DFT-D3 dispersion contribution to forces:
     atom    1 type  1   force =    -0.00000000    0.00000000    0.00000000
     atom    2 type  2   force =     0.00000000   -0.00000000   -0.00244273
     atom    3 type  2   force =     0.00000000   -0.00000000    0.00244273

     Total force =     0.232215     Total SCF correction =     0.001781


     Computing stress (Cartesian axis) and pressure


     negative rho (up, down):  7.140E-05 0.000E+00
          total   stress  (Ry/bohr**3)                   (kbar)     P=      -76.52
  -0.00022321   0.00000000   0.00000000          -32.84        0.00        0.00
   0.00000000  -0.00022321   0.00000000            0.00      -32.84        0.00
  -0.00000000   0.00000000  -0.00111408           -0.00        0.00     -163.89


     Entering Dynamics:    iteration =     2

     <vel(dt)|acc(dt)> =   1.00000000

ATOMIC_POSITIONS (crystal)
Mo           -0.0000000000       -0.0000000000        0.5000000000
S             0.6666666667        0.3333333333        0.5941821962
S             0.6666666667        0.3333333333        0.4058178038



     Writing config-only to output data dir ./tmp/scf.save/
     NEW-OLD atomic charge density approx. for the potential

     negative rho (up, down):  8.103E-05 0.000E+00

     total cpu time spent up to now is      126.4 secs

     Self-consistent Calculation

     iteration #  1     ecut=    70.00 Ry     beta= 0.70
     Davidson diagonalization with overlap
     ethr =  1.00E-06,  avg # of iterations =  9.7

     negative rho (up, down):  7.762E-05 0.000E+00

     total cpu time spent up to now is      134.6 secs

     total energy              =    -496.67034318 Ry
     estimated scf accuracy    <       0.01546341 Ry

     iteration #  2     ecut=    70.00 Ry     beta= 0.70
     Davidson diagonalization with overlap
     ethr =  5.95E-05,  avg # of iterations =  3.0

     negative rho (up, down):  7.572E-05 0.000E+00

     total cpu time spent up to now is      139.8 secs

     total energy              =    -496.64759223 Ry
     estimated scf accuracy    <       0.31542910 Ry

     iteration #  3     ecut=    70.00 Ry     beta= 0.70
     Davidson diagonalization with overlap
     ethr =  5.95E-05,  avg # of iterations =  3.1

     negative rho (up, down):  7.492E-05 0.000E+00

     total cpu time spent up to now is      145.3 secs

     total energy              =    -496.67996336 Ry
     estimated scf accuracy    <       0.00045256 Ry

     iteration #  4     ecut=    70.00 Ry     beta= 0.70
     Davidson diagonalization with overlap
     ethr =  1.74E-06,  avg # of iterations =  3.3

     negative rho (up, down):  7.502E-05 0.000E+00

     total cpu time spent up to now is      150.7 secs

     total energy              =    -496.68003805 Ry
     estimated scf accuracy    <       0.00010559 Ry

     iteration #  5     ecut=    70.00 Ry     beta= 0.70
     Davidson diagonalization with overlap
     ethr =  4.06E-07,  avg # of iterations =  1.8

     negative rho (up, down):  7.517E-05 0.000E+00

     total cpu time spent up to now is      155.6 secs

     total energy              =    -496.68004918 Ry
     estimated scf accuracy    <       0.00000384 Ry

     iteration #  6     ecut=    70.00 Ry     beta= 0.70
     Davidson diagonalization with overlap
     ethr =  1.48E-08,  avg # of iterations =  2.7

     negative rho (up, down):  7.519E-05 0.000E+00

     total cpu time spent up to now is      159.7 secs

     End of self-consistent calculation

          k = 0.0000 0.0000 0.0000 ( 10745 PWs)   bands (ev):

   -61.4275 -35.5330 -35.2513 -35.2513 -14.0926 -13.3516  -5.6890  -2.7939
    -1.9670  -1.9670  -1.2609  -0.9812  -0.9812   2.0940   2.0940   2.2670
     2.2670

          k = 0.0000 0.1283 0.0000 ( 10793 PWs)   bands (ev):

   -61.4228 -35.5250 -35.2964 -35.2618 -13.9134 -13.2383  -5.4522  -2.9906
    -2.4165  -1.7822  -1.2626  -1.2308  -1.1886   1.5434   1.9317   2.0051
     2.4644

          k = 0.0000 0.2566 0.0000 ( 10804 PWs)   bands (ev):

   -61.4107 -35.5047 -35.4092 -35.2883 -13.4169 -12.9255  -4.9011  -3.5279
    -3.4204  -1.8993  -1.8302  -1.3470  -1.3313   0.9870   1.6661   2.0167
     2.7870

          k = 0.0000 0.3849 0.0000 ( 10820 PWs)   bands (ev):

   -61.3969 -35.5354 -35.4815 -35.3183 -12.7444 -12.5100  -4.9618  -4.3674
    -4.0322  -2.5163  -2.3362  -1.5157  -0.9255   1.2991   1.6930   2.4337
     2.9736

          k = 0.0000 0.5132 0.0000 ( 10844 PWs)   bands (ev):

   -61.3878 -35.6165 -35.4663 -35.3378 -12.2007 -12.1882  -5.7070  -5.0536
    -4.0647  -2.7551  -2.6183  -1.2670  -0.7838   1.9444   1.9903   2.7605
     3.0328

          k = 0.1111 0.1925 0.0000 ( 10794 PWs)   bands (ev):

   -61.4143 -35.5109 -35.3713 -35.2844 -13.5749 -13.0245  -5.0417  -3.2889
    -3.1091  -2.1074  -1.5488  -1.2779  -1.2343   1.0195   1.7050   1.8463
     2.7484

          k = 0.1111 0.3208 0.0000 ( 10820 PWs)   bands (ev):

   -61.4014 -35.4891 -35.4814 -35.3220 -12.9840 -12.6541  -4.6358  -3.9078
    -3.8531  -2.9908  -1.7802  -1.7201  -1.0087   0.8335   1.8052   2.0398
     2.9853

          k = 0.1111 0.4491 0.0000 ( 10825 PWs)   bands (ev):

   -61.3899 -35.5763 -35.4699 -35.3554 -12.3513 -12.2679  -5.2589  -4.7304
    -3.9516  -3.1499  -2.3052  -1.9325  -0.8088   1.3318   2.2128   2.3929
     3.0766

          k = 0.1111 0.5774 0.0000 ( 10832 PWs)   bands (ev):

   -61.3854 -35.6134 -35.4623 -35.3686 -12.0929 -12.0541  -5.6585  -5.1236
    -3.9939  -3.0388  -2.6531  -1.8904  -0.6694   1.8371   2.3096   2.5445
     3.0901

          k = 0.2222 0.3849 0.0000 ( 10810 PWs)   bands (ev):

   -61.3908 -35.5420 -35.4713 -35.3812 -12.4146 -12.2983  -4.8700  -4.3872
    -3.8011  -3.6049  -2.5674  -2.0883  -0.8565   1.0115   1.9978   2.3302
     3.2371

          k = 0.2222 0.5132 0.0000 ( 10872 PWs)   bands (ev):

   -61.3839 -35.5707 -35.4597 -35.4305 -12.0278 -11.9776  -5.1533  -5.0182
    -3.8087  -3.4435  -3.0634  -2.6485  -0.5819   1.5560   1.9054   2.4595
     3.5258

          k = 0.3333 0.5774 0.0000 ( 10884 PWs)   bands (ev):

   -61.3815 -35.5255 -35.5034 -35.4556 -11.9240 -11.8229  -5.1610  -4.7186
    -4.1267  -3.5724  -3.3849  -2.9429  -0.3721   1.6522   1.6553   2.3964
     3.7938

     the Fermi energy is     0.0673 ev

!    total energy              =    -496.68004969 Ry
     estimated scf accuracy    <       0.00000089 Ry
     smearing contrib. (-TS)   =      -0.00000000 Ry
     internal energy E=F+TS    =    -496.68004969 Ry

     convergence has been achieved in   6 iterations

     negative rho (up, down):  7.519E-05 0.000E+00

     Forces acting on atoms (cartesian axes, Ry/au):

     atom    1 type  1   force =     0.00000000    0.00000000    0.00000000
     atom    2 type  2   force =     0.00000000    0.00000000   -0.11670666
     atom    3 type  2   force =     0.00000000    0.00000000    0.11670666
     The non-local contrib.  to forces
     atom    1 type  1   force =     0.00000000    0.00000000    0.00000000
     atom    2 type  2   force =     0.00000000    0.00000000   -0.31467086
     atom    3 type  2   force =     0.00000000    0.00000000    0.31467086
     The ionic contribution  to forces
     atom    1 type  1   force =     0.00000000   -0.00000000   -0.00000000
     atom    2 type  2   force =    -0.00000000   -0.00000000   35.83635379
     atom    3 type  2   force =    -0.00000000   -0.00000000  -35.83635379
     The local contribution  to forces
     atom    1 type  1   force =    -0.00000000    0.00000000   -0.00000000
     atom    2 type  2   force =    -0.00000000    0.00000000  -35.63929962
     atom    3 type  2   force =    -0.00000000    0.00000000   35.63929962
     The core correction contribution to forces
     atom    1 type  1   force =     0.00000000   -0.00000000    0.00000000
     atom    2 type  2   force =     0.00000000   -0.00000000    0.00466031
     atom    3 type  2   force =     0.00000000   -0.00000000   -0.00466031
     The Hubbard contrib.    to forces
     atom    1 type  1   force =     0.00000000    0.00000000    0.00000000
     atom    2 type  2   force =     0.00000000    0.00000000    0.00000000
     atom    3 type  2   force =     0.00000000    0.00000000    0.00000000
     The SCF correction term to forces
     atom    1 type  1   force =    -0.00000000   -0.00000000    0.00000000
     atom    2 type  2   force =    -0.00000000    0.00000000   -0.00174157
     atom    3 type  2   force =    -0.00000000    0.00000000    0.00174157

     DFT-D3 dispersion contribution to forces:
     atom    1 type  1   force =     0.00000000    0.00000000   -0.00000000
     atom    2 type  2   force =    -0.00000000   -0.00000000   -0.00200870
     atom    3 type  2   force =    -0.00000000   -0.00000000    0.00200870

     Total force =     0.165048     Total SCF correction =     0.002463


     Computing stress (Cartesian axis) and pressure


     negative rho (up, down):  7.519E-05 0.000E+00
          total   stress  (Ry/bohr**3)                   (kbar)     P=      -50.34
  -0.00015097   0.00000000   0.00000000          -22.21        0.00        0.00
   0.00000000  -0.00015097   0.00000000            0.00      -22.21        0.00
   0.00000000   0.00000000  -0.00072477            0.00        0.00     -106.62


     Entering Dynamics:    iteration =     3

     <vel(dt)|acc(dt)> =   1.00000000

ATOMIC_POSITIONS (crystal)
Mo           -0.0000000000       -0.0000000000        0.5000000000
S             0.6666666667        0.3333333333        0.5823658343
S             0.6666666667        0.3333333333        0.4176341657



     Writing config-only to output data dir ./tmp/scf.save/
     NEW-OLD atomic charge density approx. for the potential

     negative rho (up, down):  8.654E-05 0.000E+00

     total cpu time spent up to now is      169.7 secs

     Self-consistent Calculation

     iteration #  1     ecut=    70.00 Ry     beta= 0.70
     Davidson diagonalization with overlap
     ethr =  1.00E-06,  avg # of iterations = 10.2

     negative rho (up, down):  8.166E-05 0.000E+00

     total cpu time spent up to now is      174.0 secs

     total energy              =    -496.72029036 Ry
     estimated scf accuracy    <       0.02128039 Ry

     iteration #  2     ecut=    70.00 Ry     beta= 0.70
     Davidson diagonalization with overlap
     ethr =  8.18E-05,  avg # of iterations =  3.0

     negative rho (up, down):  7.934E-05 0.000E+00

     total cpu time spent up to now is      176.3 secs

     total energy              =    -496.70615093 Ry
     estimated scf accuracy    <       0.18011930 Ry

     iteration #  3     ecut=    70.00 Ry     beta= 0.70
     Davidson diagonalization with overlap
     ethr =  8.18E-05,  avg # of iterations =  3.0

     negative rho (up, down):  7.831E-05 0.000E+00

     total cpu time spent up to now is      178.6 secs

     total energy              =    -496.73169601 Ry
     estimated scf accuracy    <       0.00108836 Ry

     iteration #  4     ecut=    70.00 Ry     beta= 0.70
     Davidson diagonalization with overlap
     ethr =  4.19E-06,  avg # of iterations =  2.3

     negative rho (up, down):  7.825E-05 0.000E+00

     total cpu time spent up to now is      180.7 secs

     total energy              =    -496.73181753 Ry
     estimated scf accuracy    <       0.00010898 Ry

     iteration #  5     ecut=    70.00 Ry     beta= 0.70
     Davidson diagonalization with overlap
     ethr =  4.19E-07,  avg # of iterations =  2.0

     negative rho (up, down):  7.841E-05 0.000E+00

     total cpu time spent up to now is      183.6 secs

     End of self-consistent calculation

          k = 0.0000 0.0000 0.0000 ( 10745 PWs)   bands (ev):

   -61.3941 -35.5628 -35.3069 -35.3069 -14.7903 -13.4634  -6.2964  -3.1446
    -3.1446  -2.4409  -2.0005  -2.0005  -0.6631   2.3271   2.3271   2.5669
     2.5669

          k = 0.0000 0.1283 0.0000 ( 10793 PWs)   bands (ev):

   -61.3889 -35.5526 -35.3582 -35.3185 -14.5994 -13.3843  -6.0842  -3.5461
    -3.1025  -2.9456  -2.2912  -1.6514  -0.7468   2.0836   2.1282   2.3608
     2.6393

          k = 0.0000 0.2566 0.0000 ( 10804 PWs)   bands (ev):

   -61.3756 -35.5268 -35.4862 -35.3478 -14.0797 -13.1695  -5.6789  -4.2718
    -3.9980  -2.8803  -2.4276  -1.8125  -1.1857   1.6231   1.9726   2.3058
     3.2294

          k = 0.0000 0.3849 0.0000 ( 10820 PWs)   bands (ev):

   -61.3605 -35.6288 -35.4973 -35.3808 -13.3980 -12.8941  -5.9042  -4.8510
    -4.4928  -3.4053  -2.2427  -1.8373  -1.5778   1.7647   1.8161   2.9373
     3.6642

          k = 0.0000 0.5132 0.0000 ( 10844 PWs)   bands (ev):

   -61.3506 -35.7202 -35.4780 -35.4023 -12.8692 -12.6906  -6.3899  -5.4069
    -4.6631  -3.6974  -2.4807  -1.4864  -1.2976   1.8168   2.2448   3.3452
     3.8513

          k = 0.1111 0.1925 0.0000 ( 10794 PWs)   bands (ev):

   -61.3796 -35.5346 -35.4432 -35.3435 -14.2434 -13.2365  -5.7515  -4.0888
    -3.6449  -3.0015  -2.6271  -1.4830  -1.0146   1.6428   2.0099   2.0596
     3.1774

          k = 0.1111 0.3208 0.0000 ( 10820 PWs)   bands (ev):

   -61.3654 -35.5679 -35.5070 -35.3853 -13.6363 -12.9855  -5.6312  -4.4366
    -4.4125  -3.6572  -2.3902  -1.7426  -1.3923   1.4365   1.9897   2.3514
     3.7190

          k = 0.1111 0.4491 0.0000 ( 10825 PWs)   bands (ev):

   -61.3529 -35.6751 -35.4826 -35.4223 -13.0101 -12.7323  -6.0548  -5.2825
    -4.4740  -3.7905  -2.3857  -2.2389  -1.1989   1.7181   2.1782   2.9595
     3.8611

          k = 0.1111 0.5774 0.0000 ( 10832 PWs)   bands (ev):

   -61.3480 -35.7169 -35.4729 -35.4369 -12.7264 -12.6211  -6.2845  -5.6202
    -4.6386  -3.7729  -2.4825  -2.2909  -0.9443   1.8281   2.4536   3.3439
     3.6978

          k = 0.2222 0.3849 0.0000 ( 10810 PWs)   bands (ev):

   -61.3538 -35.6367 -35.4844 -35.4513 -13.0683 -12.7442  -5.7741  -5.2103
    -4.2100  -3.9610  -3.1186  -1.9830  -1.2372   1.6088   2.2196   2.5058
     4.0741

          k = 0.2222 0.5132 0.0000 ( 10872 PWs)   bands (ev):

   -61.3463 -35.6696 -35.5060 -35.4696 -12.6472 -12.5613  -5.8456  -5.7993
    -4.4150  -3.7438  -3.5288  -2.4819  -0.8503   1.6138   2.6723   2.7034
     4.2449

          k = 0.3333 0.5774 0.0000 ( 10884 PWs)   bands (ev):

   -61.3436 -35.6276 -35.5792 -35.4645 -12.4990 -12.4841  -6.1099  -5.2570
    -4.7220  -4.1277  -3.5072  -2.7771  -0.5540   1.2655   2.4835   3.1120
     4.5376

     the Fermi energy is     0.2304 ev

!    total energy              =    -496.73183617 Ry
     estimated scf accuracy    <       0.00000094 Ry
     smearing contrib. (-TS)   =      -0.00000000 Ry
     internal energy E=F+TS    =    -496.73183617 Ry

     convergence has been achieved in   5 iterations

     negative rho (up, down):  7.841E-05 0.000E+00

     Forces acting on atoms (cartesian axes, Ry/au):

     atom    1 type  1   force =     0.00000000    0.00000000    0.00000000
     atom    2 type  2   force =     0.00000000    0.00000000    0.00815092
     atom    3 type  2   force =     0.00000000    0.00000000   -0.00815092
     The non-local contrib.  to forces
     atom    1 type  1   force =     0.00000000   -0.00000000    0.00000000
     atom    2 type  2   force =     0.00000000   -0.00000000   -0.26077440
     atom    3 type  2   force =     0.00000000    0.00000000    0.26077440
     The ionic contribution  to forces
     atom    1 type  1   force =     0.00000000    0.00000000    0.00000000
     atom    2 type  2   force =    -0.00000000   -0.00000000   36.44590905
     atom    3 type  2   force =    -0.00000000   -0.00000000  -36.44590905
     The local contribution  to forces
     atom    1 type  1   force =    -0.00000000    0.00000000   -0.00000000
     atom    2 type  2   force =    -0.00000000    0.00000000  -36.17658672
     atom    3 type  2   force =    -0.00000000   -0.00000000   36.17658672
     The core correction contribution to forces
     atom    1 type  1   force =     0.00000000   -0.00000000    0.00000000
     atom    2 type  2   force =     0.00000000   -0.00000000    0.00180450
     atom    3 type  2   force =     0.00000000   -0.00000000   -0.00180450
     The Hubbard contrib.    to forces
     atom    1 type  1   force =     0.00000000    0.00000000    0.00000000
     atom    2 type  2   force =     0.00000000    0.00000000    0.00000000
     atom    3 type  2   force =     0.00000000    0.00000000    0.00000000
     The SCF correction term to forces
     atom    1 type  1   force =     0.00000000   -0.00000000    0.00000000
     atom    2 type  2   force =    -0.00000000    0.00000000   -0.00042212
     atom    3 type  2   force =    -0.00000000    0.00000000    0.00042212

     DFT-D3 dispersion contribution to forces:
     atom    1 type  1   force =     0.00000000    0.00000000   -0.00000000
     atom    2 type  2   force =    -0.00000000   -0.00000000   -0.00177940
     atom    3 type  2   force =    -0.00000000   -0.00000000    0.00177940

     Total force =     0.011527     Total SCF correction =     0.000597


     Computing stress (Cartesian axis) and pressure


     negative rho (up, down):  7.841E-05 0.000E+00
          total   stress  (Ry/bohr**3)                   (kbar)     P=        9.35
   0.00007239  -0.00000000  -0.00000000           10.65       -0.00       -0.00
  -0.00000000   0.00007239  -0.00000000           -0.00       10.65       -0.00
   0.00000000   0.00000000   0.00004591            0.00        0.00        6.75


     Entering Dynamics:    iteration =     4

     <vel(dt)|acc(dt)> =  -1.00000000

ATOMIC_POSITIONS (crystal)
Mo           -0.0000000000       -0.0000000000        0.5000000000
S             0.6666666667        0.3333333333        0.5827043706
S             0.6666666667        0.3333333333        0.4172956294



     Writing config-only to output data dir ./tmp/scf.save/
     NEW-OLD atomic charge density approx. for the potential

     negative rho (up, down):  7.815E-05 0.000E+00

     total cpu time spent up to now is      196.0 secs

     Self-consistent Calculation

     iteration #  1     ecut=    70.00 Ry     beta= 0.70
     Davidson diagonalization with overlap
     ethr =  1.00E-06,  avg # of iterations =  5.0

     Threshold (ethr) on eigenvalues was too large:
     Diagonalizing with lowered threshold

     Davidson diagonalization with overlap
     ethr =  5.08E-08,  avg # of iterations =  1.9

     negative rho (up, down):  7.826E-05 0.000E+00

     total cpu time spent up to now is      204.1 secs

     total energy              =    -496.73198101 Ry
     estimated scf accuracy    <       0.00001377 Ry

     iteration #  2     ecut=    70.00 Ry     beta= 0.70
     Davidson diagonalization with overlap
     ethr =  5.30E-08,  avg # of iterations =  3.0

     negative rho (up, down):  7.830E-05 0.000E+00

     total cpu time spent up to now is      208.8 secs

     total energy              =    -496.73197230 Ry
     estimated scf accuracy    <       0.00009750 Ry

     iteration #  3     ecut=    70.00 Ry     beta= 0.70
     Davidson diagonalization with overlap
     ethr =  5.30E-08,  avg # of iterations =  2.8

     negative rho (up, down):  7.832E-05 0.000E+00

     total cpu time spent up to now is      213.3 secs

     total energy              =    -496.73198749 Ry
     estimated scf accuracy    <       0.00000260 Ry

     iteration #  4     ecut=    70.00 Ry     beta= 0.70
     Davidson diagonalization with overlap
     ethr =  1.00E-08,  avg # of iterations =  1.4

     negative rho (up, down):  7.833E-05 0.000E+00

     total cpu time spent up to now is      217.5 secs

     End of self-consistent calculation

          k = 0.0000 0.0000 0.0000 ( 10745 PWs)   bands (ev):

   -61.3950 -35.5624 -35.3049 -35.3049 -14.7703 -13.4652  -6.2783  -3.1076
    -3.1076  -2.4574  -1.9716  -1.9716  -0.6858   2.3241   2.3241   2.5477
     2.5477

          k = 0.0000 0.1283 0.0000 ( 10793 PWs)   bands (ev):

   -61.3898 -35.5523 -35.3559 -35.3165 -14.5798 -13.3848  -6.0651  -3.5117
    -3.0961  -2.9093  -2.2623  -1.6489  -0.7658   2.0633   2.1237   2.3435
     2.6330

          k = 0.0000 0.2566 0.0000 ( 10804 PWs)   bands (ev):

   -61.3766 -35.5267 -35.4834 -35.3456 -14.0607 -13.1667  -5.6542  -4.2485
    -3.9857  -2.8512  -2.3941  -1.8227  -1.1944   1.6009   1.9603   2.2967
     3.2147

          k = 0.0000 0.3849 0.0000 ( 10820 PWs)   bands (ev):

   -61.3615 -35.6254 -35.4974 -35.3786 -13.3791 -12.8867  -5.8773  -4.8410
    -4.4809  -3.3759  -2.2569  -1.8100  -1.5780   1.7607   1.7985   2.9218
     3.6410

          k = 0.0000 0.5132 0.0000 ( 10844 PWs)   bands (ev):

   -61.3516 -35.7165 -35.4783 -35.3999 -12.8495 -12.6793  -6.3722  -5.4010
    -4.6478  -3.6678  -2.4953  -1.4662  -1.2979   1.8215   2.2372   3.3275
     3.8235

          k = 0.1111 0.1925 0.0000 ( 10794 PWs)   bands (ev):

   -61.3806 -35.5345 -35.4406 -35.3414 -14.2243 -13.2348  -5.7293  -4.0607
    -3.6342  -2.9759  -2.5934  -1.4870  -1.0259   1.6208   2.0043   2.0456
     3.1635

          k = 0.1111 0.3208 0.0000 ( 10820 PWs)   bands (ev):

   -61.3664 -35.5647 -35.5070 -35.3830 -13.6176 -12.9798  -5.6019  -4.4211
    -4.3987  -3.6387  -2.3683  -1.7513  -1.3876   1.4170   1.9813   2.3416
     3.6952

          k = 0.1111 0.4491 0.0000 ( 10825 PWs)   bands (ev):

   -61.3539 -35.6715 -35.4828 -35.4199 -12.9909 -12.7223  -6.0330  -5.2685
    -4.4609  -3.7731  -2.3729  -2.2504  -1.1882   1.7066   2.1785   2.9421
     3.8348

          k = 0.1111 0.5774 0.0000 ( 10832 PWs)   bands (ev):

   -61.3490 -35.7131 -35.4732 -35.4344 -12.7065 -12.6091  -6.2690  -5.6077
    -4.6218  -3.7543  -2.4960  -2.2808  -0.9359   1.8311   2.4498   3.3189
     3.6776

          k = 0.2222 0.3849 0.0000 ( 10810 PWs)   bands (ev):

   -61.3548 -35.6332 -35.4846 -35.4488 -13.0493 -12.7348  -5.7491  -5.1876
    -4.1994  -3.9548  -3.1051  -1.9937  -1.2256   1.5890   2.2246   2.4901
     4.0465

          k = 0.2222 0.5132 0.0000 ( 10872 PWs)   bands (ev):

   -61.3473 -35.6660 -35.5033 -35.4699 -12.6274 -12.5491  -5.8229  -5.7830
    -4.3999  -3.7403  -3.5181  -2.4939  -0.8407   1.6184   2.6473   2.6938
     4.2226

          k = 0.3333 0.5774 0.0000 ( 10884 PWs)   bands (ev):

   -61.3447 -35.6238 -35.5765 -35.4648 -12.4790 -12.4711  -6.0845  -5.2453
    -4.7070  -4.1137  -3.5084  -2.7889  -0.5475   1.2824   2.4560   3.0903
     4.5156

     the Fermi energy is     0.2101 ev

!    total energy              =    -496.73198778 Ry
     estimated scf accuracy    <       0.00000009 Ry
     smearing contrib. (-TS)   =      -0.00000000 Ry
     internal energy E=F+TS    =    -496.73198778 Ry

     convergence has been achieved in   4 iterations

     negative rho (up, down):  7.833E-05 0.000E+00

     Forces acting on atoms (cartesian axes, Ry/au):

     atom    1 type  1   force =     0.00000000    0.00000000    0.00000000
     atom    2 type  2   force =     0.00000000    0.00000000    0.00394697
     atom    3 type  2   force =     0.00000000    0.00000000   -0.00394697
     The non-local contrib.  to forces
     atom    1 type  1   force =     0.00000000   -0.00000000    0.00000000
     atom    2 type  2   force =     0.00000000   -0.00000000   -0.26290514
     atom    3 type  2   force =     0.00000000   -0.00000000    0.26290514
     The ionic contribution  to forces
     atom    1 type  1   force =     0.00000000    0.00000000    0.00000000
     atom    2 type  2   force =    -0.00000000   -0.00000000   36.43419015
     atom    3 type  2   force =    -0.00000000   -0.00000000  -36.43419015
     The local contribution  to forces
     atom    1 type  1   force =    -0.00000000    0.00000000   -0.00000000
     atom    2 type  2   force =    -0.00000000   -0.00000000  -36.16725427
     atom    3 type  2   force =    -0.00000000   -0.00000000   36.16725427
     The core correction contribution to forces
     atom    1 type  1   force =     0.00000000   -0.00000000    0.00000000
     atom    2 type  2   force =     0.00000000    0.00000000    0.00190796
     atom    3 type  2   force =     0.00000000    0.00000000   -0.00190796
     The Hubbard contrib.    to forces
     atom    1 type  1   force =     0.00000000    0.00000000    0.00000000
     atom    2 type  2   force =     0.00000000    0.00000000    0.00000000
     atom    3 type  2   force =     0.00000000    0.00000000    0.00000000
     The SCF correction term to forces
     atom    1 type  1   force =     0.00000000    0.00000000   -0.00000000
     atom    2 type  2   force =     0.00000000   -0.00000000   -0.00021939
     atom    3 type  2   force =    -0.00000000   -0.00000000    0.00021939

     DFT-D3 dispersion contribution to forces:
     atom    1 type  1   force =     0.00000000    0.00000000   -0.00000000
     atom    2 type  2   force =    -0.00000000   -0.00000000   -0.00177235
     atom    3 type  2   force =    -0.00000000   -0.00000000    0.00177235

     Total force =     0.005582     Total SCF correction =     0.000310


     Computing stress (Cartesian axis) and pressure


     negative rho (up, down):  7.833E-05 0.000E+00
          total   stress  (Ry/bohr**3)                   (kbar)     P=        6.86
   0.00006087  -0.00000000  -0.00000000            8.95       -0.00       -0.00
  -0.00000000   0.00006087   0.00000000           -0.00        8.95        0.00
  -0.00000000   0.00000000   0.00001822           -0.00        0.00        2.68


     Entering Dynamics:    iteration =     5

     <vel(dt)|acc(dt)> =   1.00000000

ATOMIC_POSITIONS (crystal)
Mo           -0.0000000000       -0.0000000000        0.5000000000
S             0.6666666667        0.3333333333        0.5831823963
S             0.6666666667        0.3333333333        0.4168176037



     Writing config-only to output data dir ./tmp/scf.save/
     NEW-OLD atomic charge density approx. for the potential

     negative rho (up, down):  7.797E-05 0.000E+00

     total cpu time spent up to now is      231.2 secs

     Self-consistent Calculation

     iteration #  1     ecut=    70.00 Ry     beta= 0.70
     Davidson diagonalization with overlap
     ethr =  1.00E-06,  avg # of iterations =  5.0

     Threshold (ethr) on eigenvalues was too large:
     Diagonalizing with lowered threshold

     Davidson diagonalization with overlap
     ethr =  9.44E-08,  avg # of iterations =  1.6

     negative rho (up, down):  7.804E-05 0.000E+00

     total cpu time spent up to now is      240.2 secs

     total energy              =    -496.73199166 Ry
     estimated scf accuracy    <       0.00002483 Ry

     iteration #  2     ecut=    70.00 Ry     beta= 0.70
     Davidson diagonalization with overlap
     ethr =  9.55E-08,  avg # of iterations =  3.0

     negative rho (up, down):  7.808E-05 0.000E+00

     total cpu time spent up to now is      245.5 secs

     total energy              =    -496.73197576 Ry
     estimated scf accuracy    <       0.00016969 Ry

     iteration #  3     ecut=    70.00 Ry     beta= 0.70
     Davidson diagonalization with overlap
     ethr =  9.55E-08,  avg # of iterations =  2.8

     negative rho (up, down):  7.809E-05 0.000E+00

     total cpu time spent up to now is      250.5 secs

     total energy              =    -496.73200268 Ry
     estimated scf accuracy    <       0.00000535 Ry

     iteration #  4     ecut=    70.00 Ry     beta= 0.70
     Davidson diagonalization with overlap
     ethr =  2.06E-08,  avg # of iterations =  1.2

     negative rho (up, down):  7.808E-05 0.000E+00

     total cpu time spent up to now is      255.2 secs

     End of self-consistent calculation

          k = 0.0000 0.0000 0.0000 ( 10745 PWs)   bands (ev):

   -61.3938 -35.5580 -35.2991 -35.2991 -14.7366 -13.4623  -6.2474  -3.0500
    -3.0500  -2.4755  -1.9256  -1.9256  -0.7127   2.3247   2.3247   2.5256
     2.5256

          k = 0.0000 0.1283 0.0000 ( 10793 PWs)   bands (ev):

   -61.3886 -35.5480 -35.3498 -35.3106 -14.5467 -13.3803  -6.0329  -3.4577
    -3.0827  -2.8527  -2.2163  -1.6391  -0.7875   2.0394   2.1220   2.3241
     2.6289

          k = 0.0000 0.2566 0.0000 ( 10804 PWs)   bands (ev):

   -61.3754 -35.5227 -35.4765 -35.3396 -14.0287 -13.1573  -5.6142  -4.2099
    -3.9634  -2.8047  -2.3415  -1.8317  -1.2013   1.5743   1.9477   2.2885
     3.1986

          k = 0.0000 0.3849 0.0000 ( 10820 PWs)   bands (ev):

   -61.3604 -35.6176 -35.4937 -35.3724 -13.3472 -12.8706  -5.8340  -4.8217
    -4.4590  -3.3289  -2.2718  -1.7664  -1.5726   1.7598   1.7785   2.9046
     3.6129

          k = 0.0000 0.5132 0.0000 ( 10844 PWs)   bands (ev):

   -61.3506 -35.7081 -35.4747 -35.3937 -12.8164 -12.6578  -6.3420  -5.3876
    -4.6208  -3.6206  -2.5108  -1.4327  -1.2929   1.8328   2.2311   3.3073
     3.7889

          k = 0.1111 0.1925 0.0000 ( 10794 PWs)   bands (ev):

   -61.3794 -35.5304 -35.4340 -35.3354 -14.1920 -13.2270  -5.6927  -4.0154
    -3.6142  -2.9347  -2.5406  -1.4869  -1.0366   1.5944   2.0011   2.0307
     3.1485

          k = 0.1111 0.3208 0.0000 ( 10820 PWs)   bands (ev):

   -61.3653 -35.5573 -35.5032 -35.3768 -13.5859 -12.9663  -5.5552  -4.3942
    -4.3740  -3.6072  -2.3327  -1.7581  -1.3752   1.3940   1.9745   2.3321
     3.6661

          k = 0.1111 0.4491 0.0000 ( 10825 PWs)   bands (ev):

   -61.3529 -35.6634 -35.4792 -35.4135 -12.9584 -12.7025  -5.9969  -5.2437
    -4.4374  -3.7431  -2.3497  -2.2613  -1.1676   1.6948   2.1840   2.9220
     3.8026

          k = 0.1111 0.5774 0.0000 ( 10832 PWs)   bands (ev):

   -61.3480 -35.7048 -35.4696 -35.4280 -12.6731 -12.5864  -6.2419  -5.5852
    -4.5928  -3.7226  -2.5098  -2.2615  -0.9187   1.8398   2.4491   3.2878
     3.6542

          k = 0.2222 0.3849 0.0000 ( 10810 PWs)   bands (ev):

   -61.3538 -35.6253 -35.4809 -35.4423 -13.0173 -12.7159  -5.7084  -5.1503
    -4.1796  -3.9409  -3.0806  -2.0035  -1.2039   1.5657   2.2363   2.4723
     4.0124

          k = 0.2222 0.5132 0.0000 ( 10872 PWs)   bands (ev):

   -61.3463 -35.6579 -35.4965 -35.4664 -12.5942 -12.5262  -5.7856  -5.7549
    -4.3733  -3.7301  -3.4977  -2.5056  -0.8220   1.6292   2.6164   2.6852
     4.1961

          k = 0.3333 0.5774 0.0000 ( 10884 PWs)   bands (ev):

   -61.3437 -35.6156 -35.5697 -35.4613 -12.4471 -12.4454  -6.0433  -5.2237
    -4.6806  -4.0889  -3.5053  -2.8004  -0.5333   1.3112   2.4214   3.0643
     4.4893

     the Fermi energy is     0.1859 ev

!    total energy              =    -496.73200323 Ry
     estimated scf accuracy    <       0.00000016 Ry
     smearing contrib. (-TS)   =      -0.00000000 Ry
     internal energy E=F+TS    =    -496.73200323 Ry

     convergence has been achieved in   4 iterations

     negative rho (up, down):  7.808E-05 0.000E+00

     Forces acting on atoms (cartesian axes, Ry/au):

     atom    1 type  1   force =     0.00000000    0.00000000    0.00000000
     atom    2 type  2   force =     0.00000000    0.00000000   -0.00266466
     atom    3 type  2   force =     0.00000000    0.00000000    0.00266466
     The non-local contrib.  to forces
     atom    1 type  1   force =     0.00000000   -0.00000000    0.00000000
     atom    2 type  2   force =     0.00000000    0.00000000   -0.26572801
     atom    3 type  2   force =     0.00000000    0.00000000    0.26572801
     The ionic contribution  to forces
     atom    1 type  1   force =     0.00000000    0.00000000    0.00000000
     atom    2 type  2   force =    -0.00000000   -0.00000000   36.41700672
     atom    3 type  2   force =    -0.00000000   -0.00000000  -36.41700672
     The local contribution  to forces
     atom    1 type  1   force =    -0.00000000    0.00000000   -0.00000000
     atom    2 type  2   force =    -0.00000000   -0.00000000  -36.15391115
     atom    3 type  2   force =    -0.00000000   -0.00000000   36.15391115
     The core correction contribution to forces
     atom    1 type  1   force =     0.00000000   -0.00000000    0.00000000
     atom    2 type  2   force =     0.00000000    0.00000000    0.00204171
     atom    3 type  2   force =     0.00000000    0.00000000   -0.00204171
     The Hubbard contrib.    to forces
     atom    1 type  1   force =     0.00000000    0.00000000    0.00000000
     atom    2 type  2   force =     0.00000000    0.00000000    0.00000000
     atom    3 type  2   force =     0.00000000    0.00000000    0.00000000
     The SCF correction term to forces
     atom    1 type  1   force =     0.00000000   -0.00000000    0.00000000
     atom    2 type  2   force =    -0.00000000   -0.00000000   -0.00031075
     atom    3 type  2   force =    -0.00000000   -0.00000000    0.00031075

     DFT-D3 dispersion contribution to forces:
     atom    1 type  1   force =     0.00000000    0.00000000   -0.00000000
     atom    2 type  2   force =    -0.00000000   -0.00000000   -0.00176318
     atom    3 type  2   force =    -0.00000000   -0.00000000    0.00176318

     Total force =     0.003768     Total SCF correction =     0.000439
     SCF correction compared to forces is large: reduce conv_thr to get better values


     Computing stress (Cartesian axis) and pressure


     negative rho (up, down):  7.808E-05 0.000E+00
          total   stress  (Ry/bohr**3)                   (kbar)     P=        3.83
   0.00004817   0.00000000  -0.00000000            7.09        0.00       -0.00
   0.00000000   0.00004817   0.00000000            0.00        7.09        0.00
   0.00000000   0.00000000  -0.00001824            0.00        0.00       -2.68


     Entering Dynamics:    iteration =     6

     <vel(dt)|acc(dt)> =  -1.00000000

ATOMIC_POSITIONS (crystal)
Mo           -0.0000000000       -0.0000000000        0.5000000000
S             0.6666666667        0.3333333333        0.5830978462
S             0.6666666667        0.3333333333        0.4169021538



     Writing config-only to output data dir ./tmp/scf.save/
     NEW-OLD atomic charge density approx. for the potential

     negative rho (up, down):  7.814E-05 0.000E+00

     total cpu time spent up to now is      271.5 secs

     Self-consistent Calculation

     iteration #  1     ecut=    70.00 Ry     beta= 0.70
     Davidson diagonalization with overlap
     ethr =  1.00E-06,  avg # of iterations =  2.9

     Threshold (ethr) on eigenvalues was too large:
     Diagonalizing with lowered threshold

     Davidson diagonalization with overlap
     ethr =  2.18E-08,  avg # of iterations =  3.5

     negative rho (up, down):  7.815E-05 0.000E+00

     total cpu time spent up to now is      280.8 secs

     total energy              =    -496.73201200 Ry
     estimated scf accuracy    <       0.00000761 Ry

     iteration #  2     ecut=    70.00 Ry     beta= 0.70
     Davidson diagonalization with overlap
     ethr =  2.93E-08,  avg # of iterations =  3.0

     negative rho (up, down):  7.812E-05 0.000E+00

     total cpu time spent up to now is      286.3 secs

     total energy              =    -496.73200514 Ry
     estimated scf accuracy    <       0.00009903 Ry

     iteration #  3     ecut=    70.00 Ry     beta= 0.70
     Davidson diagonalization with overlap
     ethr =  2.93E-08,  avg # of iterations =  3.0

     negative rho (up, down):  7.813E-05 0.000E+00

     total cpu time spent up to now is      291.7 secs

     End of self-consistent calculation

          k = 0.0000 0.0000 0.0000 ( 10745 PWs)   bands (ev):

   -61.3944 -35.5592 -35.3005 -35.3005 -14.7418 -13.4620  -6.2523  -3.0599
    -3.0599  -2.4714  -1.9335  -1.9335  -0.7077   2.3251   2.3251   2.5301
     2.5301

          k = 0.0000 0.1283 0.0000 ( 10793 PWs)   bands (ev):

   -61.3893 -35.5492 -35.3513 -35.3120 -14.5518 -13.3803  -6.0380  -3.4669
    -3.0844  -2.8624  -2.2241  -1.6402  -0.7834   2.0442   2.1227   2.3280
     2.6301

          k = 0.0000 0.2566 0.0000 ( 10804 PWs)   bands (ev):

   -61.3761 -35.5238 -35.4781 -35.3411 -14.0336 -13.1582  -5.6208  -4.2162
    -3.9668  -2.8126  -2.3504  -1.8293  -1.1999   1.5793   1.9503   2.2902
     3.2019

          k = 0.0000 0.3849 0.0000 ( 10820 PWs)   bands (ev):

   -61.3611 -35.6194 -35.4947 -35.3739 -13.3521 -12.8727  -5.8412  -4.8245
    -4.4622  -3.3369  -2.2684  -1.7736  -1.5733   1.7601   1.7823   2.9079
     3.6182

          k = 0.0000 0.5132 0.0000 ( 10844 PWs)   bands (ev):

   -61.3513 -35.7100 -35.4757 -35.3952 -12.8215 -12.6608  -6.3468  -5.3893
    -4.6251  -3.6285  -2.5074  -1.4379  -1.2934   1.8307   2.2323   3.3112
     3.7954

          k = 0.1111 0.1925 0.0000 ( 10794 PWs)   bands (ev):

   -61.3801 -35.5315 -35.4355 -35.3369 -14.1970 -13.2275  -5.6986  -4.0230
    -3.6171  -2.9416  -2.5495  -1.4862  -1.0344   1.5995   2.0020   2.0337
     3.1516

          k = 0.1111 0.3208 0.0000 ( 10820 PWs)   bands (ev):

   -61.3660 -35.5590 -35.5042 -35.3783 -13.5908 -12.9679  -5.5630  -4.3984
    -4.3777  -3.6123  -2.3385  -1.7562  -1.3772   1.3984   1.9758   2.3341
     3.6716

          k = 0.1111 0.4491 0.0000 ( 10825 PWs)   bands (ev):

   -61.3535 -35.6652 -35.4802 -35.4150 -12.9634 -12.7052  -6.0027  -5.2475
    -4.4410  -3.7479  -2.3532  -2.2586  -1.1709   1.6971   2.1830   2.9259
     3.8086

          k = 0.1111 0.5774 0.0000 ( 10832 PWs)   bands (ev):

   -61.3486 -35.7066 -35.4707 -35.4295 -12.6782 -12.5896  -6.2461  -5.5886
    -4.5974  -3.7277  -2.5066  -2.2642  -0.9214   1.8383   2.4492   3.2937
     3.6586

          k = 0.2222 0.3849 0.0000 ( 10810 PWs)   bands (ev):

   -61.3545 -35.6271 -35.4820 -35.4438 -13.0221 -12.7185  -5.7151  -5.1564
    -4.1824  -3.9428  -3.0844  -2.0010  -1.2075   1.5701   2.2342   2.4757
     4.0187

          k = 0.2222 0.5132 0.0000 ( 10872 PWs)   bands (ev):

   -61.3469 -35.6597 -35.4980 -35.4674 -12.5993 -12.5295  -5.7917  -5.7593
    -4.3774  -3.7313  -3.5006  -2.5028  -0.8251   1.6274   2.6223   2.6867
     4.2010

          k = 0.3333 0.5774 0.0000 ( 10884 PWs)   bands (ev):

   -61.3443 -35.6174 -35.5713 -35.4624 -12.4506 -12.4505  -6.0501  -5.2269
    -4.6846  -4.0927  -3.5051  -2.7977  -0.5356   1.3061   2.4279   3.0691
     4.4941

     the Fermi energy is     0.1903 ev

!    total energy              =    -496.73201718 Ry
     estimated scf accuracy    <       0.00000005 Ry
     smearing contrib. (-TS)   =      -0.00000000 Ry
     internal energy E=F+TS    =    -496.73201718 Ry

     convergence has been achieved in   3 iterations

     negative rho (up, down):  7.813E-05 0.000E+00

     Forces acting on atoms (cartesian axes, Ry/au):

     atom    1 type  1   force =     0.00000000    0.00000000    0.00000000
     atom    2 type  2   force =     0.00000000    0.00000000   -0.00166039
     atom    3 type  2   force =     0.00000000    0.00000000    0.00166039
     The non-local contrib.  to forces
     atom    1 type  1   force =     0.00000000   -0.00000000    0.00000000
     atom    2 type  2   force =     0.00000000    0.00000000   -0.26538343
     atom    3 type  2   force =     0.00000000    0.00000000    0.26538343
     The ionic contribution  to forces
     atom    1 type  1   force =     0.00000000    0.00000000    0.00000000
     atom    2 type  2   force =    -0.00000000   -0.00000000   36.42009989
     atom    3 type  2   force =    -0.00000000   -0.00000000  -36.42009989
     The local contribution  to forces
     atom    1 type  1   force =    -0.00000000    0.00000000   -0.00000000
     atom    2 type  2   force =    -0.00000000   -0.00000000  -36.15705436
     atom    3 type  2   force =    -0.00000000   -0.00000000   36.15705436
     The core correction contribution to forces
     atom    1 type  1   force =     0.00000000   -0.00000000    0.00000000
     atom    2 type  2   force =     0.00000000    0.00000000    0.00201675
     atom    3 type  2   force =     0.00000000    0.00000000   -0.00201675
     The Hubbard contrib.    to forces
     atom    1 type  1   force =     0.00000000    0.00000000    0.00000000
     atom    2 type  2   force =     0.00000000    0.00000000    0.00000000
     atom    3 type  2   force =     0.00000000    0.00000000    0.00000000
     The SCF correction term to forces
     atom    1 type  1   force =    -0.00000000   -0.00000000   -0.00000000
     atom    2 type  2   force =     0.00000000   -0.00000000    0.00042550
     atom    3 type  2   force =     0.00000000   -0.00000000   -0.00042550

     DFT-D3 dispersion contribution to forces:
     atom    1 type  1   force =     0.00000000    0.00000000   -0.00000000
     atom    2 type  2   force =    -0.00000000   -0.00000000   -0.00176473
     atom    3 type  2   force =    -0.00000000   -0.00000000    0.00176473

     Total force =     0.002348     Total SCF correction =     0.000602
     SCF correction compared to forces is large: reduce conv_thr to get better values


     Computing stress (Cartesian axis) and pressure


     negative rho (up, down):  7.813E-05 0.000E+00
          total   stress  (Ry/bohr**3)                   (kbar)     P=        4.30
   0.00004979   0.00000000  -0.00000000            7.32        0.00       -0.00
   0.00000000   0.00004979  -0.00000000            0.00        7.32       -0.00
   0.00000000   0.00000000  -0.00001197            0.00        0.00       -1.76


     Entering Dynamics:    iteration =     7

     <vel(dt)|acc(dt)> =   1.00000000

ATOMIC_POSITIONS (crystal)
Mo           -0.0000000000       -0.0000000000        0.5000000000
S             0.6666666667        0.3333333333        0.5829519475
S             0.6666666667        0.3333333333        0.4170480525



     Writing config-only to output data dir ./tmp/scf.save/
     NEW-OLD atomic charge density approx. for the potential

     negative rho (up, down):  7.823E-05 0.000E+00

     total cpu time spent up to now is      308.1 secs

     Self-consistent Calculation

     iteration #  1     ecut=    70.00 Ry     beta= 0.70
     Davidson diagonalization with overlap
     ethr =  1.00E-06,  avg # of iterations =  3.5

     Threshold (ethr) on eigenvalues was too large:
     Diagonalizing with lowered threshold

     Davidson diagonalization with overlap
     ethr =  1.22E-08,  avg # of iterations =  4.0

     negative rho (up, down):  7.822E-05 0.000E+00

     total cpu time spent up to now is      317.7 secs

     total energy              =    -496.73202284 Ry
     estimated scf accuracy    <       0.00000311 Ry

     iteration #  2     ecut=    70.00 Ry     beta= 0.70
     Davidson diagonalization with overlap
     ethr =  1.20E-08,  avg # of iterations =  3.0

     negative rho (up, down):  7.821E-05 0.000E+00

     total cpu time spent up to now is      323.1 secs

     total energy              =    -496.73202076 Ry
     estimated scf accuracy    <       0.00002440 Ry

     iteration #  3     ecut=    70.00 Ry     beta= 0.70
     Davidson diagonalization with overlap
     ethr =  1.20E-08,  avg # of iterations =  2.9

     negative rho (up, down):  7.821E-05 0.000E+00

     total cpu time spent up to now is      328.3 secs

     End of self-consistent calculation

          k = 0.0000 0.0000 0.0000 ( 10745 PWs)   bands (ev):

   -61.3961 -35.5617 -35.3036 -35.3036 -14.7524 -13.4631  -6.2623  -3.0784
    -3.0784  -2.4661  -1.9482  -1.9482  -0.7001   2.3244   2.3244   2.5363
     2.5363

          k = 0.0000 0.1283 0.0000 ( 10793 PWs)   bands (ev):

   -61.3909 -35.5517 -35.3545 -35.3151 -14.5622 -13.3819  -6.0484  -3.4843
    -3.0889  -2.8806  -2.2389  -1.6436  -0.7775   2.0509   2.1226   2.3334
     2.6308

          k = 0.0000 0.2566 0.0000 ( 10804 PWs)   bands (ev):

   -61.3777 -35.5262 -35.4815 -35.3442 -14.0437 -13.1613  -5.6336  -4.2287
    -3.9741  -2.8275  -2.3672  -1.8267  -1.1985   1.5868   1.9535   2.2921
     3.2062

          k = 0.0000 0.3849 0.0000 ( 10820 PWs)   bands (ev):

   -61.3627 -35.6230 -35.4971 -35.3771 -13.3621 -12.8779  -5.8550  -4.8309
    -4.4694  -3.3519  -2.2641  -1.7874  -1.5758   1.7595   1.7876   2.9125
     3.6263

          k = 0.0000 0.5132 0.0000 ( 10844 PWs)   bands (ev):

   -61.3529 -35.7138 -35.4780 -35.3984 -12.8319 -12.6677  -6.3565  -5.3938
    -4.6339  -3.6436  -2.5029  -1.4485  -1.2957   1.8261   2.2332   3.3168
     3.8054

          k = 0.1111 0.1925 0.0000 ( 10794 PWs)   bands (ev):

   -61.3817 -35.5339 -35.4389 -35.3400 -14.2072 -13.2302  -5.7103  -4.0376
    -3.6237  -2.9548  -2.5664  -1.4865  -1.0319   1.6070   2.0022   2.0376
     3.1556

          k = 0.1111 0.3208 0.0000 ( 10820 PWs)   bands (ev):

   -61.3676 -35.5626 -35.5066 -35.3815 -13.6008 -12.9723  -5.5779  -4.4070
    -4.3858  -3.6225  -2.3499  -1.7543  -1.3819   1.4048   1.9771   2.3362
     3.6799

          k = 0.1111 0.4491 0.0000 ( 10825 PWs)   bands (ev):

   -61.3552 -35.6690 -35.4825 -35.4183 -12.9736 -12.7115  -6.0143  -5.2555
    -4.4486  -3.7576  -2.3608  -2.2556  -1.1780   1.6999   2.1803   2.9314
     3.8178

          k = 0.1111 0.5774 0.0000 ( 10832 PWs)   bands (ev):

   -61.3502 -35.7105 -35.4729 -35.4328 -12.6887 -12.5969  -6.2548  -5.5959
    -4.6069  -3.7380  -2.5027  -2.2705  -0.9274   1.8346   2.4484   3.3026
     3.6651

          k = 0.2222 0.3849 0.0000 ( 10810 PWs)   bands (ev):

   -61.3561 -35.6308 -35.4843 -35.4471 -13.0323 -12.7245  -5.7281  -5.1683
    -4.1889  -3.9475  -3.0924  -1.9982  -1.2150   1.5765   2.2295   2.4805
     4.0284

          k = 0.2222 0.5132 0.0000 ( 10872 PWs)   bands (ev):

   -61.3485 -35.6635 -35.5014 -35.4697 -12.6098 -12.5368  -5.8036  -5.7683
    -4.3861  -3.7347  -3.5073  -2.4995  -0.8317   1.6231   2.6311   2.6884
     4.2083

          k = 0.3333 0.5774 0.0000 ( 10884 PWs)   bands (ev):

   -61.3459 -35.6212 -35.5747 -35.4646 -12.4612 -12.4582  -6.0633  -5.2339
    -4.6932  -4.1008  -3.5063  -2.7946  -0.5410   1.2963   2.4379   3.0761
     4.5013

     the Fermi energy is     0.1968 ev

!    total energy              =    -496.73202412 Ry
     estimated scf accuracy    <       0.00000050 Ry
     smearing contrib. (-TS)   =      -0.00000000 Ry
     internal energy E=F+TS    =    -496.73202412 Ry

     convergence has been achieved in   3 iterations

     negative rho (up, down):  7.821E-05 0.000E+00

     Forces acting on atoms (cartesian axes, Ry/au):

     atom    1 type  1   force =     0.00000000    0.00000000    0.00000000
     atom    2 type  2   force =    -0.00000000   -0.00000000    0.00018344
     atom    3 type  2   force =    -0.00000000   -0.00000000   -0.00018344
     The non-local contrib.  to forces
     atom    1 type  1   force =     0.00000000   -0.00000000    0.00000000
     atom    2 type  2   force =     0.00000000   -0.00000000   -0.26458076
     atom    3 type  2   force =     0.00000000   -0.00000000    0.26458076
     The ionic contribution  to forces
     atom    1 type  1   force =     0.00000000    0.00000000    0.00000000
     atom    2 type  2   force =    -0.00000000   -0.00000000   36.42538308
     atom    3 type  2   force =    -0.00000000   -0.00000000  -36.42538308
     The local contribution  to forces
     atom    1 type  1   force =    -0.00000000    0.00000000   -0.00000000
     atom    2 type  2   force =    -0.00000000    0.00000000  -36.16242637
     atom    3 type  2   force =    -0.00000000    0.00000000   36.16242637
     The core correction contribution to forces
     atom    1 type  1   force =     0.00000000   -0.00000000    0.00000000
     atom    2 type  2   force =     0.00000000   -0.00000000    0.00197272
     atom    3 type  2   force =     0.00000000    0.00000000   -0.00197272
     The Hubbard contrib.    to forces
     atom    1 type  1   force =     0.00000000    0.00000000    0.00000000
     atom    2 type  2   force =     0.00000000    0.00000000    0.00000000
     atom    3 type  2   force =     0.00000000    0.00000000    0.00000000
     The SCF correction term to forces
     atom    1 type  1   force =    -0.00000000    0.00000000   -0.00000000
     atom    2 type  2   force =     0.00000000   -0.00000000    0.00160225
     atom    3 type  2   force =     0.00000000   -0.00000000   -0.00160225

     DFT-D3 dispersion contribution to forces:
     atom    1 type  1   force =     0.00000000    0.00000000   -0.00000000
     atom    2 type  2   force =    -0.00000000   -0.00000000   -0.00176748
     atom    3 type  2   force =    -0.00000000   -0.00000000    0.00176748

     Total force =     0.000259     Total SCF correction =     0.002266
     SCF correction compared to forces is large: reduce conv_thr to get better values


     Computing stress (Cartesian axis) and pressure


     negative rho (up, down):  7.821E-05 0.000E+00
          total   stress  (Ry/bohr**3)                   (kbar)     P=        5.19
   0.00005294   0.00000000   0.00000000            7.79        0.00        0.00
   0.00000000   0.00005294   0.00000000            0.00        7.79        0.00
   0.00000000   0.00000000  -0.00000002            0.00        0.00       -0.00


     Damped Dynamics: convergence achieved in   7 steps

     End of damped dynamics calculation

     Final energy =    -496.7320241225 Ry

Begin final coordinates
     new unit-cell volume =   1094.81346 a.u.^3 (   162.23462 Ang^3 )
     density =      1.63838 g/cm^3

CELL_PARAMETERS (angstrom)
   3.140000000   0.000000000   0.000000000
  -1.570000000   2.719319768   0.000000000
   0.000000000   0.000000000  19.000000000

ATOMIC_POSITIONS (crystal)
Mo           -0.0000000000       -0.0000000000        0.5000000000
S             0.6666666667        0.3333333333        0.5829519475
S             0.6666666667        0.3333333333        0.4170480525
End final coordinates



     Writing all to output data dir ./tmp/scf.save/
 
     init_run     :      4.20s CPU      5.05s WALL (       1 calls)
     electrons    :    182.07s CPU    223.45s WALL (       8 calls)
     update_pot   :      8.63s CPU     10.51s WALL (       7 calls)
     forces       :     14.20s CPU     17.57s WALL (       8 calls)
     force_dftd3  :      0.26s CPU      0.27s WALL (       8 calls)
     stress       :     64.54s CPU     75.74s WALL (       8 calls)
     stres_dftd3  :      0.24s CPU      0.25s WALL (       8 calls)

     Called by init_run:
     wfcinit      :      1.25s CPU      1.35s WALL (       1 calls)
     potinit      :      0.89s CPU      0.98s WALL (       1 calls)
     hinit0       :      0.79s CPU      0.87s WALL (       1 calls)

     Called by electrons:
     c_bands      :     80.70s CPU     85.31s WALL (      44 calls)
     sum_band     :     58.25s CPU     78.19s WALL (      44 calls)
     v_of_rho     :      9.28s CPU     10.08s WALL (      47 calls)
     newd         :     33.54s CPU     52.99s WALL (      47 calls)
     PAW_pot      :      7.22s CPU      7.29s WALL (      54 calls)
     mix_rho      :      1.34s CPU      1.37s WALL (      44 calls)
     energy_dftd3 :      0.16s CPU      0.17s WALL (       8 calls)

     Called by c_bands:
     init_us_2    :      2.24s CPU      2.28s WALL (    1344 calls)
     init_us_2:cp :      2.23s CPU      2.27s WALL (    1344 calls)
     cegterg      :     72.18s CPU     76.76s WALL (     528 calls)

     Called by *egterg:
     cdiaghg      :      0.93s CPU      0.94s WALL (    2059 calls)
     h_psi        :     61.90s CPU     66.45s WALL (    2215 calls)
     s_psi        :      1.84s CPU      1.86s WALL (    2215 calls)
     g_psi        :      0.16s CPU      0.16s WALL (    1675 calls)

     Called by h_psi:
     h_psi:calbec :      2.92s CPU      3.00s WALL (    2215 calls)
     vloc_psi     :     55.98s CPU     60.40s WALL (    2215 calls)
     add_vuspsi   :      2.50s CPU      2.54s WALL (    2215 calls)

     General routines
     calbec       :     13.39s CPU     13.58s WALL (    3307 calls)
     fft          :     12.82s CPU     15.54s WALL (     807 calls)
     ffts         :      0.14s CPU      0.17s WALL (      91 calls)
     fftw         :     31.29s CPU     35.24s WALL (   61186 calls)
     interpolate  :      0.61s CPU      0.65s WALL (      47 calls)
 
     Parallel routines
 
     PWSCF        :   4m40.13s CPU   5m41.82s WALL

 
   This run was terminated on:  12:13:50  15Jul2025            

=------------------------------------------------------------------------------=
   JOB DONE.
=------------------------------------------------------------------------------=
