
     Program PWSCF v.7.2 starts on 15Jul2025 at 12:36:24 

     This program is part of the open-source Quantum ESPRESSO suite
     for quantum simulation of materials; please cite
         "P. Giannozzi et al., J. Phys.:Condens. Matter 21 395502 (2009);
         "P. Giannozzi et al., J. Phys.:Condens. Matter 29 465901 (2017);
         "P. Giannozzi et al., J. Chem. Phys. 152 154105 (2020);
          URL http://www.quantum-espresso.org", 
     in publications or presentations arising from this work. More details at
     http://www.quantum-espresso.org/quote

     Parallel version (MPI), running on     4 processors

     MPI processes distributed on     1 nodes
     24910 MiB available memory on the printing compute node when the environment starts
 
     Waiting for input...
     Reading input from standard input

     Current dimensions of program PWSCF are:
     Max number of different atomic species (ntypx) = 10
     Max number of k-points (npk) =  40000
     Max angular momentum in pseudopotentials (lmaxx) =  4

     File ./tmp/scf.md deleted, as requested

     File ./tmp/scf.bfgs deleted, as requested
     file Mo.pbe-spn-kjpaw_psl.1.0.0.UPF: wavefunction(s)  4S 4D renormalized
     file S.pbe-n-kjpaw_psl.1.0.0.UPF: wavefunction(s)  3S 3P renormalized
     Message from routine setup:
     using ibrav=0 with symmetry is DISCOURAGED, use correct ibrav instead
     Message from routine setup:
     Dynamics, you should have no symmetries
 
     R & G space division:  proc/nbgrp/npool/nimage =       4
     Subspace diagonalization in iterative solution of the eigenvalue problem:
     a serial algorithm will be used

 
     Parallelization info
     --------------------
     sticks:   dense  smooth     PW     G-vecs:    dense   smooth      PW
     Min         433     172     49                87759    22162    3507
     Max         434     174     50                87788    22170    3534
     Sum        1735     691    199               351117    88661   14101
 
     Using Slab Decomposition
 


     bravais-lattice index     =            0
     lattice parameter (alat)  =       6.0093  a.u.
     unit-cell volume          =    1122.8845 (a.u.)^3
     number of atoms/cell      =            3
     number of atomic types    =            2
     number of electrons       =        26.00
     number of Kohn-Sham states=           17
     kinetic-energy cutoff     =      70.0000  Ry
     charge density cutoff     =     700.0000  Ry
     scf convergence threshold =      1.0E-06
     mixing beta               =       0.7000
     number of iterations used =            8  plain     mixing
     energy convergence thresh.=      1.0E-04
     force convergence thresh. =      1.0E-03
     Exchange-correlation= SLA  PW   PBX  PBC
                           (   1   4   3   4   0   0   0)
     nstep                     =          100


     celldm(1)=   6.009329  celldm(2)=   0.000000  celldm(3)=   0.000000
     celldm(4)=   0.000000  celldm(5)=   0.000000  celldm(6)=   0.000000

     crystal axes: (cart. coord. in units of alat)
               a(1) = (   1.000000   0.000000   0.000000 )  
               a(2) = (  -0.500000   0.866025   0.000000 )  
               a(3) = (   0.000000   0.000000   5.974843 )  

     reciprocal axes: (cart. coord. in units 2 pi/alat)
               b(1) = (  1.000000  0.577350  0.000000 )  
               b(2) = (  0.000000  1.154701  0.000000 )  
               b(3) = (  0.000000  0.000000  0.167368 )  


     PseudoPot. # 1 for Mo read from file:
     /shared/ESPRESSO/PSLIBRARY/1.0.0/pbe/PSEUDOPOTENTIALS/Mo.pbe-spn-kjpaw_psl.1.0.0.UPF
     MD5 check sum: 4396e0c640fcce5c25f020efccf1ab12
     Pseudo is Projector augmented-wave + core cor, Zval = 14.0
     Generated using &quot;atomic&quot; code by A. Dal Corso  v.6.3
     Shape of augmentation charge: PSQ
     Using radial grid of 1229 points,  6 beta functions with: 
                l(1) =   0
                l(2) =   0
                l(3) =   1
                l(4) =   1
                l(5) =   2
                l(6) =   2
     Q(r) pseudized with 0 coefficients 


     PseudoPot. # 2 for S  read from file:
     /shared/ESPRESSO/PSLIBRARY/1.0.0/pbe/PSEUDOPOTENTIALS/S.pbe-n-kjpaw_psl.1.0.0.UPF
     MD5 check sum: c08f931834bcc19553f8bde8f1a3adc5
     Pseudo is Projector augmented-wave + core cor, Zval =  6.0
     Generated using "atomic" code by A. Dal Corso  (Quantum ESPRESSO distribution)
     Shape of augmentation charge: PSQ
     Using radial grid of 1151 points,  6 beta functions with: 
                l(1) =   0
                l(2) =   0
                l(3) =   1
                l(4) =   1
                l(5) =   2
                l(6) =   2
     Q(r) pseudized with 0 coefficients 


     atomic species   valence    mass     pseudopotential
        Mo            14.00    95.94000     Mo( 1.00)
        S              6.00    32.06500     S ( 1.00)

     12 Sym. Ops. (no inversion) found



   Cartesian axes

     site n.     atom                  positions (alat units)
         1           Mo  tau(   1) = (   0.0000000   0.0000000   2.9874214  )
         2           S   tau(   2) = (   0.5000000   0.2886751   3.6163522  )
         3           S   tau(   3) = (   0.5000000   0.2886751   2.3584906  )

     --------------------------------------------
     DFT-D3 Dispersion Correction (3-body terms):
     --------------------------------------------
       Reference C6 values for interpolation: 

         atom   Coordination number   C6
         S          0.000           268.01
         S          0.995           261.99
         S          1.990           251.62
         Mo         0.000          1691.79
         Mo         1.942          1004.01
         Mo        11.056           674.22

       Values used:

         atom   Coordination number  R0_AB[au]  C6      C8
         Mo         9.142            3.547    674.22  77634.20
         S          3.155            3.128    251.62  12327.26
         S          3.155            3.128    251.62  12327.26

         Molecular C6 ( Ry / a.u.^6 ) =      3323.66


     number of k points=    12  Gaussian smearing, width (Ry)=  0.0073
                       cart. coord. in units 2pi/alat
        k(    1) = (   0.0000000   0.0000000   0.0000000), wk =   0.0246914
        k(    2) = (   0.0000000   0.1283001   0.0000000), wk =   0.1481481
        k(    3) = (   0.0000000   0.2566001   0.0000000), wk =   0.1481481
        k(    4) = (   0.0000000   0.3849002   0.0000000), wk =   0.1481481
        k(    5) = (   0.0000000   0.5132002   0.0000000), wk =   0.1481481
        k(    6) = (   0.1111111   0.1924501   0.0000000), wk =   0.1481481
        k(    7) = (   0.1111111   0.3207501   0.0000000), wk =   0.2962963
        k(    8) = (   0.1111111   0.4490502   0.0000000), wk =   0.2962963
        k(    9) = (   0.1111111   0.5773503   0.0000000), wk =   0.1481481
        k(   10) = (   0.2222222   0.3849002   0.0000000), wk =   0.1481481
        k(   11) = (   0.2222222   0.5132002   0.0000000), wk =   0.2962963
        k(   12) = (   0.3333333   0.5773503   0.0000000), wk =   0.0493827

     Dense  grid:   351117 G-vectors     FFT dimensions: (  54,  54, 320)

     Smooth grid:    88661 G-vectors     FFT dimensions: (  36,  36, 192)

     Estimated max dynamical RAM per process >     339.74 MB

     Estimated total dynamical RAM >       1.33 GB

     Initial potential from superposition of free atoms

     starting charge      25.9991, renormalised to      26.0000

     negative rho (up, down):  5.215E-05 0.000E+00
     Starting wfcs are   18 randomized atomic wfcs
     Checking if some PAW data can be deallocated... 

     total cpu time spent up to now is        2.5 secs

     Self-consistent Calculation

     iteration #  1     ecut=    70.00 Ry     beta= 0.70
     Davidson diagonalization with overlap
     ethr =  1.00E-02,  avg # of iterations =  2.0

     Threshold (ethr) on eigenvalues was too large:
     Diagonalizing with lowered threshold

     Davidson diagonalization with overlap
     ethr =  1.89E-04,  avg # of iterations =  4.0

     negative rho (up, down):  6.376E-05 0.000E+00

     total cpu time spent up to now is        6.2 secs

     total energy              =    -496.51799827 Ry
     estimated scf accuracy    <       0.08827944 Ry

     iteration #  2     ecut=    70.00 Ry     beta= 0.70
     Davidson diagonalization with overlap
     ethr =  3.40E-04,  avg # of iterations =  3.0

     negative rho (up, down):  6.575E-05 0.000E+00

     total cpu time spent up to now is        8.4 secs

     total energy              =    -496.43336423 Ry
     estimated scf accuracy    <       0.79276615 Ry

     iteration #  3     ecut=    70.00 Ry     beta= 0.70
     Davidson diagonalization with overlap
     ethr =  3.40E-04,  avg # of iterations =  2.8

     negative rho (up, down):  6.814E-05 0.000E+00

     total cpu time spent up to now is       11.1 secs

     total energy              =    -496.51776611 Ry
     estimated scf accuracy    <       0.44761398 Ry

     iteration #  4     ecut=    70.00 Ry     beta= 0.70
     Davidson diagonalization with overlap
     ethr =  3.40E-04,  avg # of iterations =  1.8

     negative rho (up, down):  6.992E-05 0.000E+00

     total cpu time spent up to now is       14.5 secs

     total energy              =    -496.55455773 Ry
     estimated scf accuracy    <       0.00161341 Ry

     iteration #  5     ecut=    70.00 Ry     beta= 0.70
     Davidson diagonalization with overlap
     ethr =  6.21E-06,  avg # of iterations =  2.9

     negative rho (up, down):  7.114E-05 0.000E+00

     total cpu time spent up to now is       18.7 secs

     total energy              =    -496.55495158 Ry
     estimated scf accuracy    <       0.00011389 Ry

     iteration #  6     ecut=    70.00 Ry     beta= 0.70
     Davidson diagonalization with overlap
     ethr =  4.38E-07,  avg # of iterations =  2.8

     negative rho (up, down):  7.204E-05 0.000E+00

     total cpu time spent up to now is       22.7 secs

     total energy              =    -496.55496345 Ry
     estimated scf accuracy    <       0.00002115 Ry

     iteration #  7     ecut=    70.00 Ry     beta= 0.70
     Davidson diagonalization with overlap
     ethr =  8.14E-08,  avg # of iterations =  2.3

     negative rho (up, down):  7.219E-05 0.000E+00

     total cpu time spent up to now is       26.8 secs

     End of self-consistent calculation

          k = 0.0000 0.0000 0.0000 ( 10955 PWs)   bands (ev):

   -61.7211 -35.7942 -35.5130 -35.5130 -13.6461 -13.2313  -5.3984  -3.0415
    -1.7520  -1.4715  -1.4715  -0.5229  -0.5229   1.5351   1.5351   1.8323
     1.8323

          k = 0.0000 0.1283 0.0000 ( 11034 PWs)   bands (ev):

   -61.7173 -35.7884 -35.5498 -35.5217 -13.4842 -13.1069  -5.1610  -3.1046
    -1.8852  -1.6567  -1.2915  -0.8730  -0.7697   0.9356   1.3930   1.5183
     1.9376

          k = 0.0000 0.2566 0.0000 ( 11098 PWs)   bands (ev):

   -61.7076 -35.7739 -35.6420 -35.5439 -13.0343 -12.7620  -4.5748  -3.3323
    -2.9154  -1.9163  -1.5852  -1.2740  -0.8693   0.3150   1.1743   1.3991
     2.0812

          k = 0.0000 0.3849 0.0000 ( 11116 PWs)   bands (ev):

   -61.6965 -35.7572 -35.7455 -35.5689 -12.4232 -12.2996  -4.3997  -3.9909
    -3.7803  -2.7183  -1.7304  -1.6631  -0.5772   0.6728   1.3098   1.6481
     2.1303

          k = 0.0000 0.5132 0.0000 ( 11092 PWs)   bands (ev):

   -61.6893 -35.8123 -35.7464 -35.5852 -11.9371 -11.9302  -5.1958  -4.7240
    -3.7167  -2.9229  -1.9874  -1.4691  -0.5562   1.3373   1.7097   1.8942
     2.1260

          k = 0.1111 0.1925 0.0000 ( 11068 PWs)   bands (ev):

   -61.7105 -35.7783 -35.6110 -35.5405 -13.1777 -12.8715  -4.7377  -3.2189
    -2.5745  -1.7095  -1.5673  -1.0401  -1.0323   0.3640   1.1883   1.3338
     2.0380

          k = 0.1111 0.3208 0.0000 ( 11092 PWs)   bands (ev):

   -61.7001 -35.7627 -35.7012 -35.5717 -12.6411 -12.4619  -4.1546  -3.5848
    -3.5157  -2.7641  -1.7159  -1.5510  -0.7989   0.1674   1.3539   1.4267
     2.0817

          k = 0.1111 0.4491 0.0000 ( 11121 PWs)   bands (ev):

   -61.6910 -35.7792 -35.7489 -35.5994 -12.0664 -12.0313  -4.7279  -4.3365
    -3.6552  -3.0061  -2.0817  -1.8301  -0.7900   0.7556   1.6121   1.8010
     2.1340

          k = 0.1111 0.5774 0.0000 ( 11142 PWs)   bands (ev):

   -61.6874 -35.8098 -35.7435 -35.6104 -11.8347 -11.7976  -5.1656  -4.7506
    -3.6197  -2.9539  -2.3446  -1.7900  -0.7609   1.3578   1.6610   1.7903
     2.1975

          k = 0.2222 0.3849 0.0000 ( 11120 PWs)   bands (ev):

   -61.6916 -35.7511 -35.7499 -35.6205 -12.1239 -12.0693  -4.2840  -3.8784
    -3.6146  -3.3845  -2.2735  -2.0892  -0.8997   0.3424   1.2907   1.9062
     2.2372

          k = 0.2222 0.5132 0.0000 ( 11143 PWs)   bands (ev):

   -61.6861 -35.7747 -35.7416 -35.6611 -11.7715 -11.7276  -4.6732  -4.4689
    -3.4487  -3.2153  -2.7950  -2.6878  -0.7417   0.9784   1.0947   1.8708
     2.5106

          k = 0.3333 0.5774 0.0000 ( 11154 PWs)   bands (ev):

   -61.6842 -35.7387 -35.7338 -35.7246 -11.6614 -11.5870  -4.4688  -4.2773
    -3.7304  -3.2777  -3.2704  -3.0059  -0.5685   0.8403   1.3002   1.5093
     2.7171

     the Fermi energy is    -0.1882 ev

!    total energy              =    -496.55496859 Ry
     estimated scf accuracy    <       0.00000085 Ry
     smearing contrib. (-TS)   =      -0.00000000 Ry
     internal energy E=F+TS    =    -496.55496858 Ry

     convergence has been achieved in   7 iterations

     negative rho (up, down):  7.219E-05 0.000E+00

     Forces acting on atoms (cartesian axes, Ry/au):

     atom    1 type  1   force =     0.00000000    0.00000000    0.00000000
     atom    2 type  2   force =     0.00000000   -0.00000000   -0.17230910
     atom    3 type  2   force =     0.00000000   -0.00000000    0.17230910
     The non-local contrib.  to forces
     atom    1 type  1   force =     0.00000000    0.00000000    0.00000000
     atom    2 type  2   force =     0.00000000    0.00000000   -0.33358525
     atom    3 type  2   force =     0.00000000   -0.00000000    0.33358525
     The ionic contribution  to forces
     atom    1 type  1   force =     0.00000000   -0.00000000   -0.00000000
     atom    2 type  2   force =    -0.00000000    0.00000000   34.03761904
     atom    3 type  2   force =    -0.00000000    0.00000000  -34.03761904
     The local contribution  to forces
     atom    1 type  1   force =     0.00000000    0.00000000    0.00000000
     atom    2 type  2   force =    -0.00000000    0.00000000  -33.87947112
     atom    3 type  2   force =    -0.00000000    0.00000000   33.87947112
     The core correction contribution to forces
     atom    1 type  1   force =     0.00000000   -0.00000000    0.00000000
     atom    2 type  2   force =     0.00000000   -0.00000000    0.00642369
     atom    3 type  2   force =     0.00000000   -0.00000000   -0.00642369
     The Hubbard contrib.    to forces
     atom    1 type  1   force =     0.00000000    0.00000000    0.00000000
     atom    2 type  2   force =     0.00000000    0.00000000    0.00000000
     atom    3 type  2   force =     0.00000000    0.00000000    0.00000000
     The SCF correction term to forces
     atom    1 type  1   force =    -0.00000000   -0.00000000   -0.00000000
     atom    2 type  2   force =    -0.00000000   -0.00000000   -0.00094322
     atom    3 type  2   force =    -0.00000000   -0.00000000    0.00094322

     DFT-D3 dispersion contribution to forces:
     atom    1 type  1   force =    -0.00000000    0.00000000    0.00000000
     atom    2 type  2   force =     0.00000000   -0.00000000   -0.00235224
     atom    3 type  2   force =     0.00000000   -0.00000000    0.00235224

     Total force =     0.243682     Total SCF correction =     0.001334


     Computing stress (Cartesian axis) and pressure


     negative rho (up, down):  7.219E-05 0.000E+00
          total   stress  (Ry/bohr**3)                   (kbar)     P=      -85.07
  -0.00028784  -0.00000000   0.00000000          -42.34       -0.00        0.00
  -0.00000000  -0.00028784  -0.00000000           -0.00      -42.34       -0.00
   0.00000000  -0.00000000  -0.00115930            0.00       -0.00     -170.54


     Damped Dynamics Calculation

     Entering Dynamics:    iteration =     1

ATOMIC_POSITIONS (crystal)
Mo            0.0000000000        0.0000000000        0.5000000000
S             0.6666666667        0.3333333333        0.6031570257
S             0.6666666667        0.3333333333        0.3968429743



     Writing config-only to output data dir ./tmp/scf.save/
     NEW-OLD atomic charge density approx. for the potential

     negative rho (up, down):  7.330E-05 0.000E+00

     total cpu time spent up to now is       38.3 secs

     Self-consistent Calculation

     iteration #  1     ecut=    70.00 Ry     beta= 0.70
     Davidson diagonalization with overlap
     ethr =  1.00E-06,  avg # of iterations =  7.0

     negative rho (up, down):  7.292E-05 0.000E+00

     total cpu time spent up to now is       44.3 secs

     total energy              =    -496.57995476 Ry
     estimated scf accuracy    <       0.00088385 Ry

     iteration #  2     ecut=    70.00 Ry     beta= 0.70
     Davidson diagonalization with overlap
     ethr =  3.40E-06,  avg # of iterations =  3.2

     negative rho (up, down):  7.255E-05 0.000E+00

     total cpu time spent up to now is       49.6 secs

     total energy              =    -496.57763257 Ry
     estimated scf accuracy    <       0.03669701 Ry

     iteration #  3     ecut=    70.00 Ry     beta= 0.70
     Davidson diagonalization with overlap
     ethr =  3.40E-06,  avg # of iterations =  3.0

     negative rho (up, down):  7.244E-05 0.000E+00

     total cpu time spent up to now is       54.9 secs

     total energy              =    -496.58053789 Ry
     estimated scf accuracy    <       0.00003569 Ry

     iteration #  4     ecut=    70.00 Ry     beta= 0.70
     Davidson diagonalization with overlap
     ethr =  1.37E-07,  avg # of iterations =  2.5

     negative rho (up, down):  7.248E-05 0.000E+00

     total cpu time spent up to now is       59.9 secs

     total energy              =    -496.58054428 Ry
     estimated scf accuracy    <       0.00000766 Ry

     iteration #  5     ecut=    70.00 Ry     beta= 0.70
     Davidson diagonalization with overlap
     ethr =  2.95E-08,  avg # of iterations =  1.6

     negative rho (up, down):  7.251E-05 0.000E+00

     total cpu time spent up to now is       64.6 secs

     total energy              =    -496.58054472 Ry
     estimated scf accuracy    <       0.00000156 Ry

     iteration #  6     ecut=    70.00 Ry     beta= 0.70
     Davidson diagonalization with overlap
     ethr =  6.01E-09,  avg # of iterations =  2.1

     negative rho (up, down):  7.251E-05 0.000E+00

     total cpu time spent up to now is       69.6 secs

     End of self-consistent calculation

          k = 0.0000 0.0000 0.0000 ( 10955 PWs)   bands (ev):

   -61.7012 -35.7730 -35.5016 -35.5016 -13.7199 -13.2586  -5.4472  -3.0103
    -1.6734  -1.5723  -1.5723  -0.6356  -0.6356   1.5801   1.5801   1.8670
     1.8670

          k = 0.0000 0.1283 0.0000 ( 11034 PWs)   bands (ev):

   -61.6974 -35.7671 -35.5387 -35.5104 -13.5568 -13.1368  -5.2116  -3.0914
    -1.9931  -1.5927  -1.3948  -0.9655  -0.8873   1.0000   1.4381   1.5677
     1.9878

          k = 0.0000 0.2566 0.0000 ( 11098 PWs)   bands (ev):

   -61.6876 -35.7521 -35.6319 -35.5327 -13.1036 -12.7998  -4.6326  -3.3684
    -3.0258  -1.9500  -1.5554  -1.4001  -0.9768   0.4071   1.2189   1.4770
     2.1616

          k = 0.0000 0.3849 0.0000 ( 11116 PWs)   bands (ev):

   -61.6765 -35.7363 -35.7349 -35.5579 -12.4889 -12.3490  -4.4983  -4.0657
    -3.8464  -2.7050  -1.8628  -1.6465  -0.6707   0.7558   1.3358   1.7582
     2.2346

          k = 0.0000 0.5132 0.0000 ( 11092 PWs)   bands (ev):

   -61.6692 -35.8037 -35.7237 -35.5743 -11.9968 -11.9936  -5.2873  -4.7863
    -3.7886  -2.9144  -2.1228  -1.4474  -0.6291   1.4139   1.7119   2.0210
     2.2419

          k = 0.1111 0.1925 0.0000 ( 11068 PWs)   bands (ev):

   -61.6906 -35.7566 -35.6006 -35.5293 -13.2480 -12.9067  -4.7923  -3.2340
    -2.6877  -1.8019  -1.5343  -1.1331  -1.1260   0.4485   1.2376   1.3910
     2.1211

          k = 0.1111 0.3208 0.0000 ( 11092 PWs)   bands (ev):

   -61.6801 -35.7405 -35.6916 -35.5608 -12.7079 -12.5069  -4.2309  -3.6750
    -3.5800  -2.8132  -1.7323  -1.6263  -0.8707   0.2627   1.3932   1.5036
     2.2007

          k = 0.1111 0.4491 0.0000 ( 11121 PWs)   bands (ev):

   -61.6709 -35.7704 -35.7263 -35.5887 -12.1304 -12.0877  -4.8241  -4.4109
    -3.7245  -3.0297  -2.1681  -1.8599  -0.8190   0.8282   1.7189   1.8309
     2.2631

          k = 0.1111 0.5774 0.0000 ( 11142 PWs)   bands (ev):

   -61.6672 -35.8012 -35.7207 -35.5998 -11.8969 -11.8605  -5.2543  -4.8178
    -3.6971  -2.9618  -2.4507  -1.8253  -0.7682   1.4126   1.7839   1.8385
     2.3222

          k = 0.2222 0.3849 0.0000 ( 11120 PWs)   bands (ev):

   -61.6715 -35.7419 -35.7274 -35.6100 -12.1881 -12.1241  -4.3908  -3.9727
    -3.6721  -3.4324  -2.3403  -2.1261  -0.9075   0.4366   1.3876   1.9394
     2.3745

          k = 0.2222 0.5132 0.0000 ( 11143 PWs)   bands (ev):

   -61.6660 -35.7657 -35.7188 -35.6509 -11.8342 -11.7903  -4.7623  -4.5644
    -3.5294  -3.2689  -2.8613  -2.7128  -0.7270   1.0554   1.2133   1.9353
     2.6497

          k = 0.3333 0.5774 0.0000 ( 11154 PWs)   bands (ev):

   -61.6640 -35.7251 -35.7158 -35.7145 -11.7266 -11.6493  -4.5920  -4.3644
    -3.8070  -3.3473  -3.3105  -3.0212  -0.5501   0.9634   1.3379   1.6306
     2.8634

     the Fermi energy is    -0.1547 ev

!    total energy              =    -496.58054477 Ry
     estimated scf accuracy    <       0.00000034 Ry
     smearing contrib. (-TS)   =      -0.00000000 Ry
     internal energy E=F+TS    =    -496.58054477 Ry

     convergence has been achieved in   6 iterations

     negative rho (up, down):  7.251E-05 0.000E+00

     Forces acting on atoms (cartesian axes, Ry/au):

     atom    1 type  1   force =     0.00000000    0.00000000    0.00000000
     atom    2 type  2   force =     0.00000000    0.00000000   -0.16587939
     atom    3 type  2   force =    -0.00000000    0.00000000    0.16587939
     The non-local contrib.  to forces
     atom    1 type  1   force =     0.00000000    0.00000000    0.00000000
     atom    2 type  2   force =     0.00000000    0.00000000   -0.33291050
     atom    3 type  2   force =     0.00000000    0.00000000    0.33291050
     The ionic contribution  to forces
     atom    1 type  1   force =     0.00000000   -0.00000000    0.00000000
     atom    2 type  2   force =    -0.00000000    0.00000000   34.21296200
     atom    3 type  2   force =    -0.00000000    0.00000000  -34.21296200
     The local contribution  to forces
     atom    1 type  1   force =     0.00000000   -0.00000000    0.00000000
     atom    2 type  2   force =    -0.00000000    0.00000000  -34.04840996
     atom    3 type  2   force =    -0.00000000    0.00000000   34.04840996
     The core correction contribution to forces
     atom    1 type  1   force =    -0.00000000    0.00000000   -0.00000000
     atom    2 type  2   force =     0.00000000   -0.00000000    0.00621783
     atom    3 type  2   force =     0.00000000   -0.00000000   -0.00621783
     The Hubbard contrib.    to forces
     atom    1 type  1   force =     0.00000000    0.00000000    0.00000000
     atom    2 type  2   force =     0.00000000    0.00000000    0.00000000
     atom    3 type  2   force =     0.00000000    0.00000000    0.00000000
     The SCF correction term to forces
     atom    1 type  1   force =     0.00000000    0.00000000    0.00000000
     atom    2 type  2   force =    -0.00000000   -0.00000000   -0.00136927
     atom    3 type  2   force =    -0.00000000   -0.00000000    0.00136927

     DFT-D3 dispersion contribution to forces:
     atom    1 type  1   force =    -0.00000000    0.00000000   -0.00000000
     atom    2 type  2   force =     0.00000000   -0.00000000   -0.00236949
     atom    3 type  2   force =     0.00000000   -0.00000000    0.00236949

     Total force =     0.234589     Total SCF correction =     0.001936


     Computing stress (Cartesian axis) and pressure


     negative rho (up, down):  7.251E-05 0.000E+00
          total   stress  (Ry/bohr**3)                   (kbar)     P=      -81.36
  -0.00028108   0.00000000   0.00000000          -41.35        0.00        0.00
   0.00000000  -0.00028108   0.00000000            0.00      -41.35        0.00
   0.00000000   0.00000000  -0.00109709            0.00        0.00     -161.39


     Entering Dynamics:    iteration =     2

     <vel(dt)|acc(dt)> =   1.00000000

ATOMIC_POSITIONS (crystal)
Mo            0.0000000000        0.0000000000        0.5000000000
S             0.6666666667        0.3333333333        0.5941365267
S             0.6666666667        0.3333333333        0.4058634733



     Writing config-only to output data dir ./tmp/scf.save/
     NEW-OLD atomic charge density approx. for the potential

     negative rho (up, down):  8.175E-05 0.000E+00

     total cpu time spent up to now is       83.9 secs

     Self-consistent Calculation

     iteration #  1     ecut=    70.00 Ry     beta= 0.70
     Davidson diagonalization with overlap
     ethr =  1.00E-06,  avg # of iterations =  9.6

     negative rho (up, down):  7.830E-05 0.000E+00

     total cpu time spent up to now is       92.4 secs

     total energy              =    -496.66585752 Ry
     estimated scf accuracy    <       0.01500490 Ry

     iteration #  2     ecut=    70.00 Ry     beta= 0.70
     Davidson diagonalization with overlap
     ethr =  5.77E-05,  avg # of iterations =  3.0

     negative rho (up, down):  7.636E-05 0.000E+00

     total cpu time spent up to now is       97.7 secs

     total energy              =    -496.64393283 Ry
     estimated scf accuracy    <       0.30407039 Ry

     iteration #  3     ecut=    70.00 Ry     beta= 0.70
     Davidson diagonalization with overlap
     ethr =  5.77E-05,  avg # of iterations =  3.0

     negative rho (up, down):  7.555E-05 0.000E+00

     total cpu time spent up to now is      102.9 secs

     total energy              =    -496.67514480 Ry
     estimated scf accuracy    <       0.00045902 Ry

     iteration #  4     ecut=    70.00 Ry     beta= 0.70
     Davidson diagonalization with overlap
     ethr =  1.77E-06,  avg # of iterations =  3.3

     negative rho (up, down):  7.561E-05 0.000E+00

     total cpu time spent up to now is      108.1 secs

     total energy              =    -496.67521896 Ry
     estimated scf accuracy    <       0.00010385 Ry

     iteration #  5     ecut=    70.00 Ry     beta= 0.70
     Davidson diagonalization with overlap
     ethr =  3.99E-07,  avg # of iterations =  1.8

     negative rho (up, down):  7.573E-05 0.000E+00

     total cpu time spent up to now is      113.0 secs

     total energy              =    -496.67523016 Ry
     estimated scf accuracy    <       0.00000352 Ry

     iteration #  6     ecut=    70.00 Ry     beta= 0.70
     Davidson diagonalization with overlap
     ethr =  1.35E-08,  avg # of iterations =  2.8

     negative rho (up, down):  7.576E-05 0.000E+00

     total cpu time spent up to now is      118.0 secs

     End of self-consistent calculation

          k = 0.0000 0.0000 0.0000 ( 10955 PWs)   bands (ev):

   -61.6271 -35.7113 -35.4692 -35.4692 -14.0972 -13.3745  -5.7184  -2.8377
    -2.1431  -2.1431  -1.3038  -1.2115  -1.2115   1.8335   1.8335   1.9962
     1.9962

          k = 0.0000 0.1283 0.0000 ( 11034 PWs)   bands (ev):

   -61.6231 -35.7044 -35.5085 -35.4784 -13.9276 -13.2681  -5.4922  -3.0422
    -2.5787  -1.9700  -1.4793  -1.3892  -1.2893   1.3289   1.6825   1.7516
     2.1895

          k = 0.0000 0.2566 0.0000 ( 11098 PWs)   bands (ev):

   -61.6129 -35.6868 -35.6071 -35.5017 -13.4595 -12.9754  -4.9623  -3.5860
    -3.5533  -2.0343  -2.0222  -1.5465  -1.4334   0.8382   1.4314   1.7815
     2.5138

          k = 0.0000 0.3849 0.0000 ( 11116 PWs)   bands (ev):

   -61.6013 -35.7175 -35.6668 -35.5280 -12.8310 -12.5896  -5.0142  -4.4065
    -4.1342  -2.6037  -2.5079  -1.6078  -1.1565   1.1328   1.4393   2.2084
     2.7124

          k = 0.0000 0.5132 0.0000 ( 11092 PWs)   bands (ev):

   -61.5936 -35.7885 -35.6537 -35.5451 -12.3302 -12.2941  -5.7185  -5.0611
    -4.1401  -2.8276  -2.7793  -1.3796  -1.0089   1.6922   1.7266   2.5444
     2.7816

          k = 0.1111 0.1925 0.0000 ( 11068 PWs)   bands (ev):

   -61.6160 -35.6922 -35.5740 -35.4982 -13.6081 -13.0678  -5.0988  -3.3446
    -3.2507  -2.2770  -1.7426  -1.4622  -1.3282   0.8572   1.4756   1.6066
     2.4786

          k = 0.1111 0.3208 0.0000 ( 11092 PWs)   bands (ev):

   -61.6050 -35.6734 -35.6702 -35.5312 -13.0539 -12.7230  -4.7016  -4.0286
    -3.9112  -3.1006  -1.9060  -1.8753  -1.1877   0.6995   1.5592   1.8122
     2.7309

          k = 0.1111 0.4491 0.0000 ( 11121 PWs)   bands (ev):

   -61.5954 -35.7533 -35.6568 -35.5604 -12.4676 -12.3668  -5.2935  -4.7586
    -4.0475  -3.2443  -2.4283  -2.0614  -0.9801   1.1499   1.9210   2.1809
     2.8299

          k = 0.1111 0.5774 0.0000 ( 11142 PWs)   bands (ev):

   -61.5916 -35.7859 -35.6502 -35.5720 -12.2072 -12.1960  -5.6664  -5.1312
    -4.0743  -3.1476  -2.7500  -2.0328  -0.8326   1.5838   2.0348   2.3454
     2.8408

          k = 0.2222 0.3849 0.0000 ( 11120 PWs)   bands (ev):

   -61.5961 -35.7233 -35.6580 -35.5829 -12.5254 -12.3947  -4.9212  -4.4449
    -3.9240  -3.6658  -2.6719  -2.2153  -1.0105   0.8679   1.8072   2.0252
     2.9757

          k = 0.2222 0.5132 0.0000 ( 11143 PWs)   bands (ev):

   -61.5903 -35.7485 -35.6480 -35.6259 -12.1477 -12.1250  -5.1792  -5.0424
    -3.9072  -3.5143  -3.1690  -2.7435  -0.7306   1.3386   1.7543   2.1740
     3.2346

          k = 0.3333 0.5774 0.0000 ( 11154 PWs)   bands (ev):

   -61.5883 -35.7091 -35.6895 -35.6445 -12.0537 -11.9839  -5.1819  -4.7547
    -4.1754  -3.6994  -3.4461  -3.0290  -0.5222   1.3801   1.5301   2.1710
     3.4766

     the Fermi energy is     0.0205 ev

!    total energy              =    -496.67523067 Ry
     estimated scf accuracy    <       0.00000075 Ry
     smearing contrib. (-TS)   =      -0.00000000 Ry
     internal energy E=F+TS    =    -496.67523067 Ry

     convergence has been achieved in   6 iterations

     negative rho (up, down):  7.576E-05 0.000E+00

     Forces acting on atoms (cartesian axes, Ry/au):

     atom    1 type  1   force =     0.00000000    0.00000000    0.00000000
     atom    2 type  2   force =     0.00000000   -0.00000000   -0.12065483
     atom    3 type  2   force =    -0.00000000   -0.00000000    0.12065483
     The non-local contrib.  to forces
     atom    1 type  1   force =    -0.00000000    0.00000000    0.00000000
     atom    2 type  2   force =    -0.00000000   -0.00000000   -0.31888677
     atom    3 type  2   force =     0.00000000   -0.00000000    0.31888677
     The ionic contribution  to forces
     atom    1 type  1   force =    -0.00000000   -0.00000000   -0.00000000
     atom    2 type  2   force =    -0.00000000    0.00000000   34.87088531
     atom    3 type  2   force =    -0.00000000    0.00000000  -34.87088531
     The local contribution  to forces
     atom    1 type  1   force =    -0.00000000   -0.00000000   -0.00000000
     atom    2 type  2   force =    -0.00000000    0.00000000  -34.67402893
     atom    3 type  2   force =    -0.00000000    0.00000000   34.67402893
     The core correction contribution to forces
     atom    1 type  1   force =     0.00000000    0.00000000    0.00000000
     atom    2 type  2   force =     0.00000000   -0.00000000    0.00493524
     atom    3 type  2   force =     0.00000000   -0.00000000   -0.00493524
     The Hubbard contrib.    to forces
     atom    1 type  1   force =     0.00000000    0.00000000    0.00000000
     atom    2 type  2   force =     0.00000000    0.00000000    0.00000000
     atom    3 type  2   force =     0.00000000    0.00000000    0.00000000
     The SCF correction term to forces
     atom    1 type  1   force =    -0.00000000    0.00000000    0.00000000
     atom    2 type  2   force =     0.00000000    0.00000000   -0.00157833
     atom    3 type  2   force =     0.00000000    0.00000000    0.00157833

     DFT-D3 dispersion contribution to forces:
     atom    1 type  1   force =     0.00000000   -0.00000000   -0.00000000
     atom    2 type  2   force =    -0.00000000    0.00000000   -0.00198136
     atom    3 type  2   force =    -0.00000000    0.00000000    0.00198136

     Total force =     0.170632     Total SCF correction =     0.002232


     Computing stress (Cartesian axis) and pressure


     negative rho (up, down):  7.576E-05 0.000E+00
          total   stress  (Ry/bohr**3)                   (kbar)     P=      -57.43
  -0.00022075  -0.00000000   0.00000000          -32.47       -0.00        0.00
  -0.00000000  -0.00022075   0.00000000           -0.00      -32.47        0.00
   0.00000000   0.00000000  -0.00072976            0.00        0.00     -107.35


     Entering Dynamics:    iteration =     3

     <vel(dt)|acc(dt)> =   1.00000000

ATOMIC_POSITIONS (crystal)
Mo            0.0000000000        0.0000000000        0.5000000000
S             0.6666666667        0.3333333333        0.5823201648
S             0.6666666667        0.3333333333        0.4176798352



     Writing config-only to output data dir ./tmp/scf.save/
     NEW-OLD atomic charge density approx. for the potential

     negative rho (up, down):  8.799E-05 0.000E+00

     total cpu time spent up to now is      132.3 secs

     Self-consistent Calculation

     iteration #  1     ecut=    70.00 Ry     beta= 0.70
     Davidson diagonalization with overlap
     ethr =  1.00E-06,  avg # of iterations = 10.2

     negative rho (up, down):  8.330E-05 0.000E+00

     total cpu time spent up to now is      141.0 secs

     total energy              =    -496.72175766 Ry
     estimated scf accuracy    <       0.02004521 Ry

     iteration #  2     ecut=    70.00 Ry     beta= 0.70
     Davidson diagonalization with overlap
     ethr =  7.71E-05,  avg # of iterations =  3.0

     negative rho (up, down):  8.121E-05 0.000E+00

     total cpu time spent up to now is      146.3 secs

     total energy              =    -496.70849683 Ry
     estimated scf accuracy    <       0.16706254 Ry

     iteration #  3     ecut=    70.00 Ry     beta= 0.70
     Davidson diagonalization with overlap
     ethr =  7.71E-05,  avg # of iterations =  3.0

     negative rho (up, down):  8.015E-05 0.000E+00

     total cpu time spent up to now is      151.5 secs

     total energy              =    -496.73234174 Ry
     estimated scf accuracy    <       0.00117585 Ry

     iteration #  4     ecut=    70.00 Ry     beta= 0.70
     Davidson diagonalization with overlap
     ethr =  4.52E-06,  avg # of iterations =  2.0

     negative rho (up, down):  8.008E-05 0.000E+00

     total cpu time spent up to now is      156.4 secs

     total energy              =    -496.73246903 Ry
     estimated scf accuracy    <       0.00010666 Ry

     iteration #  5     ecut=    70.00 Ry     beta= 0.70
     Davidson diagonalization with overlap
     ethr =  4.10E-07,  avg # of iterations =  2.0

     negative rho (up, down):  8.019E-05 0.000E+00

     total cpu time spent up to now is      161.3 secs

     total energy              =    -496.73248751 Ry
     estimated scf accuracy    <       0.00000105 Ry

     iteration #  6     ecut=    70.00 Ry     beta= 0.70
     Davidson diagonalization with overlap
     ethr =  4.04E-09,  avg # of iterations =  3.9

     negative rho (up, down):  8.031E-05 0.000E+00

     total cpu time spent up to now is      166.8 secs

     End of self-consistent calculation

          k = 0.0000 0.0000 0.0000 ( 10955 PWs)   bands (ev):

   -61.5891 -35.7281 -35.5184 -35.5184 -14.7954 -13.4934  -6.3099  -3.3032
    -3.3032  -2.4838  -2.1954  -2.1954  -0.7172   2.0670   2.0670   2.3085
     2.3085

          k = 0.0000 0.1283 0.0000 ( 11034 PWs)   bands (ev):

   -61.5847 -35.7193 -35.5631 -35.5286 -14.6149 -13.4188  -6.1074  -3.6899
    -3.1778  -3.1151  -2.4720  -1.7960  -0.8179   1.8705   1.8780   2.1130
     2.3682

          k = 0.0000 0.2566 0.0000 ( 11098 PWs)   bands (ev):

   -61.5736 -35.6971 -35.6751 -35.5543 -14.1247 -13.2172  -5.7168  -4.3950
    -4.0513  -3.0356  -2.6243  -1.9268  -1.2780   1.4666   1.7371   2.0571
     2.9462

          k = 0.0000 0.3849 0.0000 ( 11116 PWs)   bands (ev):

   -61.5608 -35.8001 -35.6716 -35.5833 -13.4862 -12.9599  -5.9328  -4.8769
    -4.5959  -3.5398  -2.3269  -2.0587  -1.6722   1.5152   1.6320   2.6875
     3.3846

          k = 0.0000 0.5132 0.0000 ( 11092 PWs)   bands (ev):

   -61.5525 -35.8804 -35.6549 -35.6022 -12.9968 -12.7707  -6.3952  -5.4118
    -4.7270  -3.8210  -2.5499  -1.7132  -1.4185   1.5311   1.9812   3.1139
     3.5800

          k = 0.1111 0.1925 0.0000 ( 11068 PWs)   bands (ev):

   -61.5769 -35.7038 -35.6375 -35.5505 -14.2790 -13.2800  -5.7883  -4.2157
    -3.7067  -3.1414  -2.8129  -1.6299  -1.1074   1.4748   1.7691   1.8309
     2.8944

          k = 0.1111 0.3208 0.0000 ( 11092 PWs)   bands (ev):

   -61.5650 -35.7467 -35.6799 -35.5871 -13.7088 -13.0452  -5.6699  -4.5331
    -4.4885  -3.7466  -2.5601  -1.8726  -1.5156   1.2795   1.7504   2.1128
     3.4364

          k = 0.1111 0.4491 0.0000 ( 11121 PWs)   bands (ev):

   -61.5545 -35.8408 -35.6589 -35.6196 -13.1264 -12.8099  -6.0744  -5.3030
    -4.5646  -3.8774  -2.5337  -2.3358  -1.3579   1.5049   1.8916   2.7254
     3.5957

          k = 0.1111 0.5774 0.0000 ( 11142 PWs)   bands (ev):

   -61.5503 -35.8775 -35.6505 -35.6324 -12.8655 -12.7072  -6.2897  -5.6252
    -4.7035  -3.8691  -2.5591  -2.4491  -1.1093   1.5441   2.1595   3.1183
     3.4446

          k = 0.2222 0.3849 0.0000 ( 11120 PWs)   bands (ev):

   -61.5552 -35.8072 -35.6604 -35.6449 -13.1802 -12.8214  -5.8038  -5.2472
    -4.3381  -4.0111  -3.2207  -2.1035  -1.3893   1.4441   1.9056   2.2965
     3.7824

          k = 0.2222 0.5132 0.0000 ( 11143 PWs)   bands (ev):

   -61.5488 -35.8362 -35.6927 -35.6477 -12.7923 -12.6532  -5.8503  -5.8181
    -4.5001  -3.8089  -3.6388  -2.5725  -1.0101   1.3395   2.4185   2.5073
     3.9176

          k = 0.3333 0.5774 0.0000 ( 11154 PWs)   bands (ev):

   -61.5466 -35.7996 -35.7566 -35.6432 -12.6566 -12.5832  -6.1025  -5.2867
    -4.7677  -4.2487  -3.5784  -2.8551  -0.7165   0.9759   2.3508   2.8356
     4.1656

     the Fermi energy is    -0.1277 ev

!    total energy              =    -496.73248815 Ry
     estimated scf accuracy    <       0.00000010 Ry
     smearing contrib. (-TS)   =      -0.00000000 Ry
     internal energy E=F+TS    =    -496.73248815 Ry

     convergence has been achieved in   6 iterations

     negative rho (up, down):  8.031E-05 0.000E+00

     Forces acting on atoms (cartesian axes, Ry/au):

     atom    1 type  1   force =     0.00000000   -0.00000000    0.00000000
     atom    2 type  2   force =    -0.00000000    0.00000000   -0.00082850
     atom    3 type  2   force =    -0.00000000   -0.00000000    0.00082850
     The non-local contrib.  to forces
     atom    1 type  1   force =     0.00000000    0.00000000    0.00000000
     atom    2 type  2   force =    -0.00000000    0.00000000   -0.26869099
     atom    3 type  2   force =     0.00000000    0.00000000    0.26869099
     The ionic contribution  to forces
     atom    1 type  1   force =    -0.00000000   -0.00000000    0.00000000
     atom    2 type  2   force =     0.00000000    0.00000000   35.43899674
     atom    3 type  2   force =     0.00000000    0.00000000  -35.43899674
     The local contribution  to forces
     atom    1 type  1   force =    -0.00000000   -0.00000000   -0.00000000
     atom    2 type  2   force =    -0.00000000    0.00000000  -35.17104040
     atom    3 type  2   force =    -0.00000000    0.00000000   35.17104040
     The core correction contribution to forces
     atom    1 type  1   force =     0.00000000    0.00000000    0.00000000
     atom    2 type  2   force =     0.00000000   -0.00000000    0.00226352
     atom    3 type  2   force =     0.00000000   -0.00000000   -0.00226352
     The Hubbard contrib.    to forces
     atom    1 type  1   force =     0.00000000    0.00000000    0.00000000
     atom    2 type  2   force =     0.00000000    0.00000000    0.00000000
     atom    3 type  2   force =     0.00000000    0.00000000    0.00000000
     The SCF correction term to forces
     atom    1 type  1   force =     0.00000000    0.00000000    0.00000000
     atom    2 type  2   force =     0.00000000    0.00000000   -0.00056979
     atom    3 type  2   force =     0.00000000    0.00000000    0.00056979

     DFT-D3 dispersion contribution to forces:
     atom    1 type  1   force =    -0.00000000   -0.00000000   -0.00000000
     atom    2 type  2   force =     0.00000000    0.00000000   -0.00178758
     atom    3 type  2   force =     0.00000000    0.00000000    0.00178758

     Total force =     0.001172     Total SCF correction =     0.000806
     SCF correction compared to forces is large: reduce conv_thr to get better values


     Computing stress (Cartesian axis) and pressure


     negative rho (up, down):  8.031E-05 0.000E+00
          total   stress  (Ry/bohr**3)                   (kbar)     P=       -2.75
  -0.00002441   0.00000000  -0.00000000           -3.59        0.00       -0.00
   0.00000000  -0.00002441  -0.00000000            0.00       -3.59       -0.00
   0.00000000  -0.00000000  -0.00000716            0.00       -0.00       -1.05


     Entering Dynamics:    iteration =     4

     <vel(dt)|acc(dt)> =   1.00000000

ATOMIC_POSITIONS (crystal)
Mo            0.0000000000        0.0000000000        0.5000000000
S             0.6666666667        0.3333333333        0.5705038029
S             0.6666666667        0.3333333333        0.4294961971



     Writing config-only to output data dir ./tmp/scf.save/
     NEW-OLD atomic charge density approx. for the potential

     negative rho (up, down):  8.803E-05 0.000E+00

     total cpu time spent up to now is      177.4 secs

     Self-consistent Calculation

     iteration #  1     ecut=    70.00 Ry     beta= 0.70
     Davidson diagonalization with overlap
     ethr =  1.00E-06,  avg # of iterations = 10.2

     negative rho (up, down):  8.574E-05 0.000E+00

     total cpu time spent up to now is      180.5 secs

     total energy              =    -496.64258058 Ry
     estimated scf accuracy    <       0.01579439 Ry

     iteration #  2     ecut=    70.00 Ry     beta= 0.70
     Davidson diagonalization with overlap
     ethr =  6.07E-05,  avg # of iterations =  3.0

     negative rho (up, down):  8.406E-05 0.000E+00

     total cpu time spent up to now is      183.1 secs

     total energy              =    -496.63860189 Ry
     estimated scf accuracy    <       0.05266721 Ry

     iteration #  3     ecut=    70.00 Ry     beta= 0.70
     Davidson diagonalization with overlap
     ethr =  6.07E-05,  avg # of iterations =  2.7

     negative rho (up, down):  8.346E-05 0.000E+00

     total cpu time spent up to now is      186.0 secs

     total energy              =    -496.64910374 Ry
     estimated scf accuracy    <       0.00207720 Ry

     iteration #  4     ecut=    70.00 Ry     beta= 0.70
     Davidson diagonalization with overlap
     ethr =  7.99E-06,  avg # of iterations =  1.0

     negative rho (up, down):  8.353E-05 0.000E+00

     total cpu time spent up to now is      189.7 secs

     total energy              =    -496.64936124 Ry
     estimated scf accuracy    <       0.00007369 Ry

     iteration #  5     ecut=    70.00 Ry     beta= 0.70
     Davidson diagonalization with overlap
     ethr =  2.83E-07,  avg # of iterations =  2.7

     negative rho (up, down):  8.369E-05 0.000E+00

     total cpu time spent up to now is      193.8 secs

     total energy              =    -496.64938160 Ry
     estimated scf accuracy    <       0.00000142 Ry

     iteration #  6     ecut=    70.00 Ry     beta= 0.70
     Davidson diagonalization with overlap
     ethr =  5.47E-09,  avg # of iterations =  3.2

     negative rho (up, down):  8.375E-05 0.000E+00

     total cpu time spent up to now is      198.0 secs

     End of self-consistent calculation

          k = 0.0000 0.0000 0.0000 ( 10955 PWs)   bands (ev):

   -61.6898 -35.8893 -35.7739 -35.7739 -15.8949 -13.4798  -7.2236  -5.0077
    -5.0077  -3.3670  -3.3670  -1.8403   0.0411   1.9838   1.9838   2.9405
     2.9405

          k = 0.0000 0.1283 0.0000 ( 11034 PWs)   bands (ev):

   -61.6847 -35.8782 -35.8289 -35.7859 -15.6995 -13.4539  -7.0700  -5.2694
    -4.7846  -3.8557  -3.6388  -1.5156  -0.2099   1.8473   2.3900   2.5144
     2.6542

          k = 0.0000 0.2566 0.0000 ( 11098 PWs)   bands (ev):

   -61.6717 -35.9661 -35.8501 -35.8161 -15.1840 -13.3863  -6.9068  -5.5105
    -4.6332  -4.2005  -4.1731  -1.4714  -1.0661   2.0510   2.1217   2.1840
     3.2615

          k = 0.0000 0.3849 0.0000 ( 11116 PWs)   bands (ev):

   -61.6570 -36.1184 -35.8503 -35.8180 -14.5530 -13.3051  -7.1174  -5.2937
    -5.2848  -4.7077  -3.3682  -1.8508  -1.7792   1.4829   1.9952   3.0455
     4.0434

          k = 0.0000 0.5132 0.0000 ( 11092 PWs)   bands (ev):

   -61.6473 -36.2158 -35.8724 -35.7969 -14.1075 -13.2491  -7.2339  -5.6797
    -5.4290  -4.9913  -2.7469  -1.9701  -1.6803   1.1399   1.7180   3.5708
     4.4465

          k = 0.1111 0.1925 0.0000 ( 11068 PWs)   bands (ev):

   -61.6757 -35.9203 -35.8586 -35.8118 -15.3431 -13.4062  -6.8923  -5.5197
    -4.3815  -4.3754  -4.1426  -1.2940  -0.7862   1.7780   2.0859   2.2698
     3.1685

          k = 0.1111 0.3208 0.0000 ( 11092 PWs)   bands (ev):

   -61.6618 -36.0539 -35.8550 -35.8285 -14.7640 -13.3260  -6.9499  -5.3530
    -5.2739  -4.4444  -3.7802  -1.6896  -1.4475   1.5665   2.0688   2.2723
     4.0951

          k = 0.1111 0.4491 0.0000 ( 11121 PWs)   bands (ev):

   -61.6496 -36.1684 -35.8933 -35.8019 -14.2134 -13.2464  -7.0692  -6.0046
    -5.2266  -4.5165  -3.3396  -1.9420  -1.8316   1.2757   1.8741   3.1267
     4.4292

          k = 0.1111 0.5774 0.0000 ( 11142 PWs)   bands (ev):

   -61.6447 -36.2130 -35.9084 -35.7913 -13.9832 -13.2121  -7.0378  -6.2771
    -5.4494  -4.5132  -3.0927  -2.0075  -1.7139   0.9383   1.9567   3.6586
     4.2204

          k = 0.2222 0.3849 0.0000 ( 11120 PWs)   bands (ev):

   -61.6504 -36.1287 -35.9232 -35.8038 -14.2539 -13.2365  -6.8998  -6.2081
    -5.0036  -4.2825  -3.9164  -2.0474  -1.6495   1.3388   1.9092   2.6286
     4.6553

          k = 0.2222 0.5132 0.0000 ( 11143 PWs)   bands (ev):

   -61.6430 -36.1660 -35.9789 -35.7877 -13.9016 -13.1626  -6.8042  -6.5889
    -5.1895  -4.2131  -3.9656  -2.0830  -1.7384   0.5666   2.5426   3.2030
     4.5642

          k = 0.3333 0.5774 0.0000 ( 11154 PWs)   bands (ev):

   -61.6405 -36.1338 -36.0442 -35.7821 -13.7763 -13.1193  -7.1211  -5.8194
    -5.4974  -4.9236  -3.5837  -2.3753  -1.3448  -0.1226   3.2102   3.2139
     4.7007

     the Fermi energy is    -0.0959 ev

!    total energy              =    -496.64938192 Ry
     estimated scf accuracy    <       0.00000029 Ry
     smearing contrib. (-TS)   =      -0.00018685 Ry
     internal energy E=F+TS    =    -496.64919507 Ry

     convergence has been achieved in   6 iterations

     negative rho (up, down):  8.375E-05 0.000E+00

     Forces acting on atoms (cartesian axes, Ry/au):

     atom    1 type  1   force =     0.00000000   -0.00000000    0.00000000
     atom    2 type  2   force =     0.00000000    0.00000000    0.21150735
     atom    3 type  2   force =    -0.00000000   -0.00000000   -0.21150735
     The non-local contrib.  to forces
     atom    1 type  1   force =     0.00000000    0.00000000    0.00000000
     atom    2 type  2   force =     0.00000000   -0.00000000   -0.18651242
     atom    3 type  2   force =     0.00000000    0.00000000    0.18651242
     The ionic contribution  to forces
     atom    1 type  1   force =    -0.00000000   -0.00000000    0.00000000
     atom    2 type  2   force =     0.00000000    0.00000000   35.56154601
     atom    3 type  2   force =     0.00000000    0.00000000  -35.56154601
     The local contribution  to forces
     atom    1 type  1   force =    -0.00000000   -0.00000000   -0.00000000
     atom    2 type  2   force =     0.00000000    0.00000000  -35.15905841
     atom    3 type  2   force =    -0.00000000    0.00000000   35.15905841
     The core correction contribution to forces
     atom    1 type  1   force =     0.00000000    0.00000000    0.00000000
     atom    2 type  2   force =     0.00000000   -0.00000000   -0.00122808
     atom    3 type  2   force =     0.00000000   -0.00000000    0.00122808
     The Hubbard contrib.    to forces
     atom    1 type  1   force =     0.00000000    0.00000000    0.00000000
     atom    2 type  2   force =     0.00000000    0.00000000    0.00000000
     atom    3 type  2   force =     0.00000000    0.00000000    0.00000000
     The SCF correction term to forces
     atom    1 type  1   force =     0.00000000    0.00000000    0.00000000
     atom    2 type  2   force =     0.00000000    0.00000000   -0.00117327
     atom    3 type  2   force =     0.00000000    0.00000000    0.00117327

     DFT-D3 dispersion contribution to forces:
     atom    1 type  1   force =    -0.00000000   -0.00000000   -0.00000000
     atom    2 type  2   force =     0.00000000    0.00000000   -0.00206647
     atom    3 type  2   force =     0.00000000    0.00000000    0.00206647

     Total force =     0.299117     Total SCF correction =     0.001659


     Computing stress (Cartesian axis) and pressure


     negative rho (up, down):  8.375E-05 0.000E+00
          total   stress  (Ry/bohr**3)                   (kbar)     P=       86.78
   0.00040980  -0.00000000  -0.00000000           60.28       -0.00       -0.00
  -0.00000000   0.00040980  -0.00000000           -0.00       60.28       -0.00
   0.00000000  -0.00000000   0.00095018            0.00       -0.00      139.78


     Entering Dynamics:    iteration =     5

     <vel(dt)|acc(dt)> =  -1.00000000

ATOMIC_POSITIONS (crystal)
Mo            0.0000000000        0.0000000000        0.5000000000
S             0.6666666667        0.3333333333        0.5774181696
S             0.6666666667        0.3333333333        0.4225818304



     Writing config-only to output data dir ./tmp/scf.save/
     NEW-OLD atomic charge density approx. for the potential

     negative rho (up, down):  8.074E-05 0.000E+00

     total cpu time spent up to now is      209.5 secs

     Self-consistent Calculation

     iteration #  1     ecut=    70.00 Ry     beta= 0.70
     Davidson diagonalization with overlap
     ethr =  1.00E-06,  avg # of iterations =  9.4

     negative rho (up, down):  8.134E-05 0.000E+00

     total cpu time spent up to now is      216.3 secs

     total energy              =    -496.71693199 Ry
     estimated scf accuracy    <       0.00616356 Ry

     iteration #  2     ecut=    70.00 Ry     beta= 0.70
     Davidson diagonalization with overlap
     ethr =  2.37E-05,  avg # of iterations =  3.0

     negative rho (up, down):  8.214E-05 0.000E+00

     total cpu time spent up to now is      221.7 secs

     total energy              =    -496.71395412 Ry
     estimated scf accuracy    <       0.03483312 Ry

     iteration #  3     ecut=    70.00 Ry     beta= 0.70
     Davidson diagonalization with overlap
     ethr =  2.37E-05,  avg # of iterations =  2.8

     negative rho (up, down):  8.232E-05 0.000E+00

     total cpu time spent up to now is      226.9 secs

     total energy              =    -496.71978724 Ry
     estimated scf accuracy    <       0.00076321 Ry

     iteration #  4     ecut=    70.00 Ry     beta= 0.70
     Davidson diagonalization with overlap
     ethr =  2.94E-06,  avg # of iterations =  1.3

     negative rho (up, down):  8.224E-05 0.000E+00

     total cpu time spent up to now is      231.7 secs

     total energy              =    -496.71988756 Ry
     estimated scf accuracy    <       0.00002907 Ry

     iteration #  5     ecut=    70.00 Ry     beta= 0.70
     Davidson diagonalization with overlap
     ethr =  1.12E-07,  avg # of iterations =  2.8

     negative rho (up, down):  8.217E-05 0.000E+00

     total cpu time spent up to now is      236.7 secs

     End of self-consistent calculation

          k = 0.0000 0.0000 0.0000 ( 10955 PWs)   bands (ev):

   -61.6207 -35.7889 -35.6034 -35.6034 -15.1934 -13.5181  -6.6602  -3.9503
    -3.9503  -2.6763  -2.6763  -2.2723  -0.4341   2.0424   2.0424   2.5440
     2.5440

          k = 0.0000 0.1283 0.0000 ( 11034 PWs)   bands (ev):

   -61.6160 -35.7792 -35.6517 -35.6142 -15.0073 -13.4617  -6.4740  -4.2936
    -3.7495  -3.4077  -2.9525  -1.7843  -0.5930   1.8739   2.1191   2.3167
     2.3891

          k = 0.0000 0.2566 0.0000 ( 11098 PWs)   bands (ev):

   -61.6043 -35.7724 -35.7545 -35.6415 -14.5069 -13.3106  -6.1690  -4.8240
    -4.2959  -3.5179  -3.2130  -1.7942  -1.2099   1.7312   1.8587   2.1139
     3.0876

          k = 0.0000 0.3849 0.0000 ( 11116 PWs)   bands (ev):

   -61.5908 -35.9068 -35.7264 -35.6723 -13.8688 -13.1216  -6.4024  -5.0705
    -4.8532  -4.0253  -2.5532  -2.1476  -1.7465   1.5072   1.8045   2.8344
     3.6565

          k = 0.0000 0.5132 0.0000 ( 11092 PWs)   bands (ev):

   -61.5820 -35.9931 -35.7080 -35.6923 -13.3931 -12.9857  -6.7288  -5.5459
    -5.0162  -4.3084  -2.3613  -2.1012  -1.5055   1.3897   1.9523   3.2980
     3.9263

          k = 0.1111 0.1925 0.0000 ( 11068 PWs)   bands (ev):

   -61.6078 -35.7620 -35.7319 -35.6375 -14.6633 -13.3571  -6.2046  -4.7189
    -3.9536  -3.5721  -3.4064  -1.5647  -0.9975   1.7355   1.7791   1.9845
     3.0205

          k = 0.1111 0.3208 0.0000 ( 11092 PWs)   bands (ev):

   -61.5952 -35.8496 -35.7356 -35.6765 -14.0882 -13.1818  -6.1758  -4.8297
    -4.7934  -4.0639  -3.0060  -1.7554  -1.6161   1.4564   1.8387   2.1828
     3.7106

          k = 0.1111 0.4491 0.0000 ( 11121 PWs)   bands (ev):

   -61.5841 -35.9507 -35.7123 -35.7110 -13.5152 -13.0081  -6.4688  -5.5796
    -4.8261  -4.1761  -2.8236  -2.1823  -1.5919   1.5175   1.8517   2.8977
     3.9221

          k = 0.1111 0.5774 0.0000 ( 11142 PWs)   bands (ev):

   -61.5797 -35.9902 -35.7246 -35.7031 -13.2645 -12.9332  -6.5890  -5.8808
    -5.0123  -4.1757  -2.6861  -2.3839  -1.3294   1.3722   2.1121   3.3756
     3.7157

          k = 0.2222 0.3849 0.0000 ( 11120 PWs)   bands (ev):

   -61.5849 -35.9149 -35.7380 -35.7140 -13.5648 -13.0112  -6.2416  -5.6429
    -4.5783  -4.1481  -3.4948  -1.9686  -1.6469   1.6411   1.7370   2.4446
     4.1228

          k = 0.2222 0.5132 0.0000 ( 11143 PWs)   bands (ev):

   -61.5781 -35.9466 -35.7887 -35.6999 -13.1891 -12.8815  -6.2449  -6.1266
    -4.7839  -3.9036  -3.8683  -2.4208  -1.2634   1.1100   2.4906   2.8032
     4.1665

          k = 0.3333 0.5774 0.0000 ( 11154 PWs)   bands (ev):

   -61.5758 -35.9116 -35.8530 -35.6950 -13.0575 -12.8226  -6.5295  -5.5140
    -5.0607  -4.5200  -3.6083  -2.7058  -0.9241   0.5950   2.7000   3.0376
     4.3880

     the Fermi energy is     0.0748 ev

!    total energy              =    -496.71989513 Ry
     estimated scf accuracy    <       0.00000065 Ry
     smearing contrib. (-TS)   =      -0.00000000 Ry
     internal energy E=F+TS    =    -496.71989513 Ry

     convergence has been achieved in   5 iterations

     negative rho (up, down):  8.217E-05 0.000E+00

     Forces acting on atoms (cartesian axes, Ry/au):

     atom    1 type  1   force =     0.00000000    0.00000000    0.00000000
     atom    2 type  2   force =     0.00000000   -0.00000000    0.07552745
     atom    3 type  2   force =     0.00000000   -0.00000000   -0.07552745
     The non-local contrib.  to forces
     atom    1 type  1   force =     0.00000000    0.00000000    0.00000000
     atom    2 type  2   force =     0.00000000   -0.00000000   -0.23774791
     atom    3 type  2   force =    -0.00000000    0.00000000    0.23774791
     The ionic contribution  to forces
     atom    1 type  1   force =    -0.00000000   -0.00000000    0.00000000
     atom    2 type  2   force =     0.00000000    0.00000000   35.55047323
     atom    3 type  2   force =     0.00000000    0.00000000  -35.55047323
     The local contribution  to forces
     atom    1 type  1   force =    -0.00000000   -0.00000000   -0.00000000
     atom    2 type  2   force =    -0.00000000    0.00000000  -35.23637279
     atom    3 type  2   force =    -0.00000000    0.00000000   35.23637279
     The core correction contribution to forces
     atom    1 type  1   force =     0.00000000    0.00000000    0.00000000
     atom    2 type  2   force =     0.00000000   -0.00000000    0.00087667
     atom    3 type  2   force =     0.00000000   -0.00000000   -0.00087667
     The Hubbard contrib.    to forces
     atom    1 type  1   force =     0.00000000    0.00000000    0.00000000
     atom    2 type  2   force =     0.00000000    0.00000000    0.00000000
     atom    3 type  2   force =     0.00000000    0.00000000    0.00000000
     The SCF correction term to forces
     atom    1 type  1   force =    -0.00000000   -0.00000000   -0.00000000
     atom    2 type  2   force =     0.00000000    0.00000000    0.00021884
     atom    3 type  2   force =     0.00000000    0.00000000   -0.00021884

     DFT-D3 dispersion contribution to forces:
     atom    1 type  1   force =    -0.00000000   -0.00000000   -0.00000000
     atom    2 type  2   force =     0.00000000    0.00000000   -0.00192060
     atom    3 type  2   force =     0.00000000    0.00000000    0.00192060

     Total force =     0.106812     Total SCF correction =     0.000309


     Computing stress (Cartesian axis) and pressure


     negative rho (up, down):  8.217E-05 0.000E+00
          total   stress  (Ry/bohr**3)                   (kbar)     P=       29.34
   0.00011432   0.00000000   0.00000000           16.82        0.00        0.00
   0.00000000   0.00011432   0.00000000            0.00       16.82        0.00
  -0.00000000   0.00000000   0.00036974           -0.00        0.00       54.39


     Entering Dynamics:    iteration =     6

     <vel(dt)|acc(dt)> =   1.00000000

ATOMIC_POSITIONS (crystal)
Mo            0.0000000000        0.0000000000        0.5000000000
S             0.6666666667        0.3333333333        0.5860179726
S             0.6666666667        0.3333333333        0.4139820274



     Writing config-only to output data dir ./tmp/scf.save/
     NEW-OLD atomic charge density approx. for the potential

     negative rho (up, down):  7.756E-05 0.000E+00

     total cpu time spent up to now is      251.1 secs

     Self-consistent Calculation

     iteration #  1     ecut=    70.00 Ry     beta= 0.70
     Davidson diagonalization with overlap
     ethr =  1.00E-06,  avg # of iterations =  9.8

     negative rho (up, down):  7.852E-05 0.000E+00

     total cpu time spent up to now is      259.6 secs

     total energy              =    -496.71915662 Ry
     estimated scf accuracy    <       0.01197097 Ry

     iteration #  2     ecut=    70.00 Ry     beta= 0.70
     Davidson diagonalization with overlap
     ethr =  4.60E-05,  avg # of iterations =  3.0

     negative rho (up, down):  7.963E-05 0.000E+00

     total cpu time spent up to now is      265.0 secs

     total energy              =    -496.70687702 Ry
     estimated scf accuracy    <       0.14884331 Ry

     iteration #  3     ecut=    70.00 Ry     beta= 0.70
     Davidson diagonalization with overlap
     ethr =  4.60E-05,  avg # of iterations =  3.0

     negative rho (up, down):  7.998E-05 0.000E+00

     total cpu time spent up to now is      270.2 secs

     total energy              =    -496.72578705 Ry
     estimated scf accuracy    <       0.00090139 Ry

     iteration #  4     ecut=    70.00 Ry     beta= 0.70
     Davidson diagonalization with overlap
     ethr =  3.47E-06,  avg # of iterations =  1.3

     negative rho (up, down):  7.994E-05 0.000E+00

     total cpu time spent up to now is      275.0 secs

     total energy              =    -496.72589597 Ry
     estimated scf accuracy    <       0.00005607 Ry

     iteration #  5     ecut=    70.00 Ry     beta= 0.70
     Davidson diagonalization with overlap
     ethr =  2.16E-07,  avg # of iterations =  2.0

     negative rho (up, down):  7.986E-05 0.000E+00

     total cpu time spent up to now is      279.9 secs

     total energy              =    -496.72590562 Ry
     estimated scf accuracy    <       0.00000131 Ry

     iteration #  6     ecut=    70.00 Ry     beta= 0.70
     Davidson diagonalization with overlap
     ethr =  5.02E-09,  avg # of iterations =  3.9

     negative rho (up, down):  7.976E-05 0.000E+00

     total cpu time spent up to now is      285.3 secs

     End of self-consistent calculation

          k = 0.0000 0.0000 0.0000 ( 10955 PWs)   bands (ev):

   -61.5918 -35.7097 -35.4881 -35.4881 -14.5455 -13.4643  -6.0903  -2.8856
    -2.8856  -2.6155  -1.8620  -1.8620  -0.9168   2.0605   2.0605   2.1428
     2.1428

          k = 0.0000 0.1283 0.0000 ( 11034 PWs)   bands (ev):

   -61.5875 -35.7015 -35.5308 -35.4979 -14.3689 -13.3782  -5.8784  -3.2962
    -3.0846  -2.7047  -2.1373  -1.7204  -0.9777   1.6887   1.8554   1.9658
     2.3270

          k = 0.0000 0.2566 0.0000 ( 11098 PWs)   bands (ev):

   -61.5768 -35.6809 -35.6375 -35.5227 -13.8860 -13.1436  -5.4335  -4.1098
    -3.8863  -2.6968  -2.2418  -1.9919  -1.3293   1.2640   1.6395   1.9886
     2.8191

          k = 0.0000 0.3849 0.0000 ( 11116 PWs)   bands (ev):

   -61.5645 -35.7568 -35.6573 -35.5507 -13.2492 -12.8406  -5.6159  -4.7304
    -4.4339  -3.1968  -2.4356  -1.7388  -1.6374   1.4801   1.5009   2.5539
     3.1715

          k = 0.0000 0.5132 0.0000 ( 11092 PWs)   bands (ev):

   -61.5564 -35.8336 -35.6419 -35.5689 -12.7532 -12.6145  -6.1682  -5.3065
    -4.5282  -3.4756  -2.6619  -1.4635  -1.3860   1.6020   1.9349   2.9530
     3.3203

          k = 0.1111 0.1925 0.0000 ( 11068 PWs)   bands (ev):

   -61.5800 -35.6872 -35.6017 -35.5190 -14.0385 -13.2171  -5.5296  -3.8825
    -3.5608  -2.8428  -2.4286  -1.6253  -1.1858   1.2741   1.7152   1.7356
     2.7757

          k = 0.1111 0.3208 0.0000 ( 11092 PWs)   bands (ev):

   -61.5685 -35.7058 -35.6651 -35.5542 -13.4728 -12.9429  -5.3299  -4.3536
    -4.2892  -3.5184  -2.2946  -1.9183  -1.4304   1.1057   1.6914   2.0348
     3.2173

          k = 0.1111 0.4491 0.0000 ( 11121 PWs)   bands (ev):

   -61.5583 -35.7956 -35.6455 -35.5855 -12.8867 -12.6653  -5.8080  -5.1191
    -4.3893  -3.6555  -2.4120  -2.3579  -1.2148   1.4161   1.9189   2.5693
     3.3512

          k = 0.1111 0.5774 0.0000 ( 11142 PWs)   bands (ev):

   -61.5543 -35.8307 -35.6378 -35.5978 -12.6205 -12.5430  -6.0837  -5.4572
    -4.4904  -3.6317  -2.6574  -2.3000  -0.9906   1.5998   2.1472   2.8819
     3.2596

          k = 0.2222 0.3849 0.0000 ( 11120 PWs)   bands (ev):

   -61.5590 -35.7633 -35.6470 -35.6097 -12.9424 -12.6825  -5.5046  -4.9742
    -4.1909  -3.9042  -3.0353  -2.1706  -1.2374   1.2681   1.9798   2.1574
     3.5261

          k = 0.2222 0.5132 0.0000 ( 11143 PWs)   bands (ev):

   -61.5529 -35.7908 -35.6557 -35.6352 -12.5483 -12.4873  -5.6061  -5.5765
    -4.3027  -3.7264  -3.4827  -2.6550  -0.8803   1.4103   2.2707   2.3452
     3.7155

          k = 0.3333 0.5774 0.0000 ( 11154 PWs)   bands (ev):

   -61.5507 -35.7532 -35.7194 -35.6311 -12.4102 -12.4092  -5.7987  -5.1198
    -4.5683  -4.0641  -3.5460  -2.9369  -0.6185   1.1715   2.0862   2.6427
     3.9689

     the Fermi energy is     0.2186 ev

!    total energy              =    -496.72590598 Ry
     estimated scf accuracy    <       0.00000033 Ry
     smearing contrib. (-TS)   =      -0.00000000 Ry
     internal energy E=F+TS    =    -496.72590598 Ry

     convergence has been achieved in   6 iterations

     negative rho (up, down):  7.976E-05 0.000E+00

     Forces acting on atoms (cartesian axes, Ry/au):

     atom    1 type  1   force =     0.00000000    0.00000000    0.00000000
     atom    2 type  2   force =     0.00000000    0.00000000   -0.04729031
     atom    3 type  2   force =     0.00000000   -0.00000000    0.04729031
     The non-local contrib.  to forces
     atom    1 type  1   force =     0.00000000    0.00000000    0.00000000
     atom    2 type  2   force =    -0.00000000   -0.00000000   -0.28843112
     atom    3 type  2   force =     0.00000000   -0.00000000    0.28843112
     The ionic contribution  to forces
     atom    1 type  1   force =    -0.00000000   -0.00000000    0.00000000
     atom    2 type  2   force =     0.00000000    0.00000000   35.30343062
     atom    3 type  2   force =     0.00000000    0.00000000  -35.30343062
     The local contribution  to forces
     atom    1 type  1   force =    -0.00000000   -0.00000000   -0.00000000
     atom    2 type  2   force =    -0.00000000    0.00000000  -35.06451550
     atom    3 type  2   force =    -0.00000000    0.00000000   35.06451550
     The core correction contribution to forces
     atom    1 type  1   force =     0.00000000    0.00000000    0.00000000
     atom    2 type  2   force =     0.00000000   -0.00000000    0.00320715
     atom    3 type  2   force =     0.00000000   -0.00000000   -0.00320715
     The Hubbard contrib.    to forces
     atom    1 type  1   force =     0.00000000    0.00000000    0.00000000
     atom    2 type  2   force =     0.00000000    0.00000000    0.00000000
     atom    3 type  2   force =     0.00000000    0.00000000    0.00000000
     The SCF correction term to forces
     atom    1 type  1   force =    -0.00000000   -0.00000000   -0.00000000
     atom    2 type  2   force =    -0.00000000   -0.00000000    0.00075563
     atom    3 type  2   force =    -0.00000000   -0.00000000   -0.00075563

     DFT-D3 dispersion contribution to forces:
     atom    1 type  1   force =    -0.00000000   -0.00000000   -0.00000000
     atom    2 type  2   force =     0.00000000    0.00000000   -0.00173709
     atom    3 type  2   force =     0.00000000    0.00000000    0.00173709

     Total force =     0.066879     Total SCF correction =     0.001069


     Computing stress (Cartesian axis) and pressure


     negative rho (up, down):  7.976E-05 0.000E+00
          total   stress  (Ry/bohr**3)                   (kbar)     P=      -23.06
  -0.00010486   0.00000000   0.00000000          -15.43        0.00        0.00
   0.00000000  -0.00010486  -0.00000000            0.00      -15.43       -0.00
   0.00000000  -0.00000000  -0.00026050            0.00       -0.00      -38.32


     Entering Dynamics:    iteration =     7

     <vel(dt)|acc(dt)> =  -1.00000000

ATOMIC_POSITIONS (crystal)
Mo            0.0000000000        0.0000000000        0.5000000000
S             0.6666666667        0.3333333333        0.5845647592
S             0.6666666667        0.3333333333        0.4154352408



     Writing config-only to output data dir ./tmp/scf.save/
     NEW-OLD atomic charge density approx. for the potential

     negative rho (up, down):  8.017E-05 0.000E+00

     total cpu time spent up to now is      299.8 secs

     Self-consistent Calculation

     iteration #  1     ecut=    70.00 Ry     beta= 0.70
     Davidson diagonalization with overlap
     ethr =  1.00E-06,  avg # of iterations =  6.5

     negative rho (up, down):  7.990E-05 0.000E+00

     total cpu time spent up to now is      306.6 secs

     total energy              =    -496.72983080 Ry
     estimated scf accuracy    <       0.00023864 Ry

     iteration #  2     ecut=    70.00 Ry     beta= 0.70
     Davidson diagonalization with overlap
     ethr =  9.18E-07,  avg # of iterations =  3.0

     negative rho (up, down):  7.979E-05 0.000E+00

     total cpu time spent up to now is      312.0 secs

     total energy              =    -496.72965109 Ry
     estimated scf accuracy    <       0.00200225 Ry

     iteration #  3     ecut=    70.00 Ry     beta= 0.70
     Davidson diagonalization with overlap
     ethr =  9.18E-07,  avg # of iterations =  2.9

     negative rho (up, down):  7.976E-05 0.000E+00

     total cpu time spent up to now is      317.1 secs

     total energy              =    -496.72994439 Ry
     estimated scf accuracy    <       0.00003991 Ry

     iteration #  4     ecut=    70.00 Ry     beta= 0.70
     Davidson diagonalization with overlap
     ethr =  1.54E-07,  avg # of iterations =  1.0

     negative rho (up, down):  7.976E-05 0.000E+00

     total cpu time spent up to now is      321.9 secs

     total energy              =    -496.72994868 Ry
     estimated scf accuracy    <       0.00000145 Ry

     iteration #  5     ecut=    70.00 Ry     beta= 0.70
     Davidson diagonalization with overlap
     ethr =  5.57E-09,  avg # of iterations =  2.3

     negative rho (up, down):  7.976E-05 0.000E+00

     total cpu time spent up to now is      327.0 secs

     End of self-consistent calculation

          k = 0.0000 0.0000 0.0000 ( 10955 PWs)   bands (ev):

   -61.5873 -35.7132 -35.4959 -35.4959 -14.6390 -13.4762  -6.1717  -3.0422
    -3.0422  -2.5659  -1.9892  -1.9892  -0.8391   2.0661   2.0661   2.2071
     2.2071

          k = 0.0000 0.1283 0.0000 ( 11034 PWs)   bands (ev):

   -61.5830 -35.7048 -35.5394 -35.5059 -14.4609 -13.3945  -5.9633  -3.4444
    -3.1130  -2.8588  -2.2653  -1.7574  -0.9152   1.7599   1.8675   2.0233
     2.3462

          k = 0.0000 0.2566 0.0000 ( 11098 PWs)   bands (ev):

   -61.5721 -35.6836 -35.6481 -35.5310 -13.9751 -13.1723  -5.5386  -4.2180
    -3.9485  -2.8266  -2.3857  -1.9694  -1.3084   1.3443   1.6789   2.0188
     2.8714

          k = 0.0000 0.3849 0.0000 ( 11116 PWs)   bands (ev):

   -61.5596 -35.7695 -35.6593 -35.5594 -13.3375 -12.8866  -5.7362  -4.7874
    -4.4944  -3.3285  -2.3950  -1.8591  -1.6483   1.5091   1.5421   2.6094
     3.2564

          k = 0.0000 0.5132 0.0000 ( 11092 PWs)   bands (ev):

   -61.5514 -35.8476 -35.6434 -35.5779 -12.8437 -12.6747  -6.2547  -5.3478
    -4.6038  -3.6083  -2.6203  -1.5572  -1.3951   1.5783   1.9595   3.0193
     3.4226

          k = 0.1111 0.1925 0.0000 ( 11068 PWs)   bands (ev):

   -61.5754 -35.6900 -35.6116 -35.5273 -14.1283 -13.2418  -5.6254  -4.0086
    -3.6136  -2.9564  -2.5730  -1.6321  -1.1547   1.3535   1.7520   1.7613
     2.8250

          k = 0.1111 0.3208 0.0000 ( 11092 PWs)   bands (ev):

   -61.5637 -35.7176 -35.6672 -35.5630 -13.5608 -12.9825  -5.4588  -4.4200
    -4.3643  -3.6054  -2.3912  -1.9045  -1.4644   1.1771   1.7155   2.0686
     3.3050

          k = 0.1111 0.4491 0.0000 ( 11121 PWs)   bands (ev):

   -61.5534 -35.8090 -35.6471 -35.5948 -12.9759 -12.7210  -5.9093  -5.1887
    -4.4558  -3.7408  -2.4227  -2.3858  -1.2670   1.4567   1.9111   2.6338
     3.4478

          k = 0.1111 0.5774 0.0000 ( 11142 PWs)   bands (ev):

   -61.5493 -35.8447 -35.6392 -35.6073 -12.7115 -12.6063  -6.1625  -5.5206
    -4.5715  -3.7243  -2.6218  -2.3555  -1.0321   1.5852   2.1572   2.9781
     3.3326

          k = 0.2222 0.3849 0.0000 ( 11120 PWs)   bands (ev):

   -61.5541 -35.7762 -35.6486 -35.6194 -13.0309 -12.7360  -5.6187  -5.0782
    -4.2455  -3.9459  -3.1057  -2.1473  -1.2921   1.3395   1.9569   2.2153
     3.6275

          k = 0.2222 0.5132 0.0000 ( 11143 PWs)   bands (ev):

   -61.5479 -35.8042 -35.6661 -35.6364 -12.6390 -12.5513  -5.6871  -5.6810
    -4.3781  -3.7594  -3.5421  -2.6253  -0.9248   1.3931   2.3652   2.3760
     3.7974

          k = 0.3333 0.5774 0.0000 ( 11154 PWs)   bands (ev):

   -61.5457 -35.7670 -35.7299 -35.6322 -12.5017 -12.4763  -5.9156  -5.1846
    -4.6442  -4.1344  -3.5592  -2.9073  -0.6510   1.1044   2.1907   2.7224
     4.0499

     the Fermi energy is    -0.2343 ev

!    total energy              =    -496.72994904 Ry
     estimated scf accuracy    <       0.00000002 Ry
     smearing contrib. (-TS)   =      -0.00000000 Ry
     internal energy E=F+TS    =    -496.72994904 Ry

     convergence has been achieved in   5 iterations

     negative rho (up, down):  7.976E-05 0.000E+00

     Forces acting on atoms (cartesian axes, Ry/au):

     atom    1 type  1   force =     0.00000000   -0.00000000    0.00000000
     atom    2 type  2   force =     0.00000000   -0.00000000   -0.03009727
     atom    3 type  2   force =     0.00000000    0.00000000    0.03009727
     The non-local contrib.  to forces
     atom    1 type  1   force =     0.00000000    0.00000000    0.00000000
     atom    2 type  2   force =     0.00000000    0.00000000   -0.28100115
     atom    3 type  2   force =     0.00000000   -0.00000000    0.28100115
     The ionic contribution  to forces
     atom    1 type  1   force =    -0.00000000   -0.00000000    0.00000000
     atom    2 type  2   force =     0.00000000    0.00000000   35.36169650
     atom    3 type  2   force =     0.00000000    0.00000000  -35.36169650
     The local contribution  to forces
     atom    1 type  1   force =    -0.00000000   -0.00000000   -0.00000000
     atom    2 type  2   force =    -0.00000000    0.00000000  -35.11178702
     atom    3 type  2   force =    -0.00000000    0.00000000   35.11178702
     The core correction contribution to forces
     atom    1 type  1   force =     0.00000000    0.00000000    0.00000000
     atom    2 type  2   force =     0.00000000   -0.00000000    0.00284590
     atom    3 type  2   force =     0.00000000   -0.00000000   -0.00284590
     The Hubbard contrib.    to forces
     atom    1 type  1   force =     0.00000000    0.00000000    0.00000000
     atom    2 type  2   force =     0.00000000    0.00000000    0.00000000
     atom    3 type  2   force =     0.00000000    0.00000000    0.00000000
     The SCF correction term to forces
     atom    1 type  1   force =     0.00000000    0.00000000    0.00000000
     atom    2 type  2   force =     0.00000000    0.00000000   -0.00010310
     atom    3 type  2   force =     0.00000000    0.00000000    0.00010310

     DFT-D3 dispersion contribution to forces:
     atom    1 type  1   force =    -0.00000000   -0.00000000   -0.00000000
     atom    2 type  2   force =     0.00000000    0.00000000   -0.00174839
     atom    3 type  2   force =     0.00000000    0.00000000    0.00174839

     Total force =     0.042564     Total SCF correction =     0.000146


     Computing stress (Cartesian axis) and pressure


     negative rho (up, down):  7.976E-05 0.000E+00
          total   stress  (Ry/bohr**3)                   (kbar)     P=      -15.45
  -0.00007541  -0.00000000   0.00000000          -11.09       -0.00        0.00
  -0.00000000  -0.00007541   0.00000000           -0.00      -11.09        0.00
   0.00000000   0.00000000  -0.00016426            0.00        0.00      -24.16


     Entering Dynamics:    iteration =     8

     <vel(dt)|acc(dt)> =   1.00000000

ATOMIC_POSITIONS (crystal)
Mo            0.0000000000        0.0000000000        0.5000000000
S             0.6666666667        0.3333333333        0.5819951104
S             0.6666666667        0.3333333333        0.4180048896



     Writing config-only to output data dir ./tmp/scf.save/
     NEW-OLD atomic charge density approx. for the potential

     negative rho (up, down):  8.085E-05 0.000E+00

     total cpu time spent up to now is      341.4 secs

     Self-consistent Calculation

     iteration #  1     ecut=    70.00 Ry     beta= 0.70
     Davidson diagonalization with overlap
     ethr =  1.00E-06,  avg # of iterations =  7.6

     negative rho (up, down):  8.065E-05 0.000E+00

     total cpu time spent up to now is      348.5 secs

     total energy              =    -496.73195174 Ry
     estimated scf accuracy    <       0.00096043 Ry

     iteration #  2     ecut=    70.00 Ry     beta= 0.70
     Davidson diagonalization with overlap
     ethr =  3.69E-06,  avg # of iterations =  3.0

     negative rho (up, down):  8.045E-05 0.000E+00

     total cpu time spent up to now is      352.5 secs

     total energy              =    -496.73129296 Ry
     estimated scf accuracy    <       0.00791475 Ry

     iteration #  3     ecut=    70.00 Ry     beta= 0.70
     Davidson diagonalization with overlap
     ethr =  3.69E-06,  avg # of iterations =  3.0

     negative rho (up, down):  8.041E-05 0.000E+00

     total cpu time spent up to now is      355.6 secs

     total energy              =    -496.73244583 Ry
     estimated scf accuracy    <       0.00008205 Ry

     iteration #  4     ecut=    70.00 Ry     beta= 0.70
     Davidson diagonalization with overlap
     ethr =  3.16E-07,  avg # of iterations =  1.2

     negative rho (up, down):  8.045E-05 0.000E+00

     total cpu time spent up to now is      358.0 secs

     total energy              =    -496.73245526 Ry
     estimated scf accuracy    <       0.00000479 Ry

     iteration #  5     ecut=    70.00 Ry     beta= 0.70
     Davidson diagonalization with overlap
     ethr =  1.84E-08,  avg # of iterations =  2.0

     negative rho (up, down):  8.046E-05 0.000E+00

     total cpu time spent up to now is      360.0 secs

     End of self-consistent calculation

          k = 0.0000 0.0000 0.0000 ( 10955 PWs)   bands (ev):

   -61.5903 -35.7308 -35.5226 -35.5226 -14.8185 -13.4948  -6.3304  -3.3422
    -3.3422  -2.4706  -2.2254  -2.2254  -0.6985   2.0672   2.0672   2.3242
     2.3242

          k = 0.0000 0.1283 0.0000 ( 11034 PWs)   bands (ev):

   -61.5859 -35.7219 -35.5676 -35.5329 -14.6377 -13.4214  -6.1289  -3.7264
    -3.1886  -3.1534  -2.5020  -1.7987  -0.8028   1.8796   1.8872   2.1267
     2.3714

          k = 0.0000 0.2566 0.0000 ( 11098 PWs)   bands (ev):

   -61.5747 -35.6995 -35.6801 -35.5587 -14.1469 -13.2229  -5.7435  -4.4208
    -4.0660  -3.0658  -2.6599  -1.9190  -1.2729   1.4848   1.7459   2.0626
     2.9572

          k = 0.0000 0.3849 0.0000 ( 11116 PWs)   bands (ev):

   -61.5619 -35.8057 -35.6739 -35.5879 -13.5083 -12.9698  -5.9615  -4.8891
    -4.6107  -3.5704  -2.3156  -2.0883  -1.6756   1.5160   1.6451   2.6987
     3.4036

          k = 0.0000 0.5132 0.0000 ( 11092 PWs)   bands (ev):

   -61.5536 -35.8863 -35.6571 -35.6068 -13.0196 -12.7841  -6.4154  -5.4202
    -4.7448  -3.8517  -2.5382  -1.7361  -1.4220   1.5236   1.9832   3.1276
     3.6035

          k = 0.1111 0.1925 0.0000 ( 11068 PWs)   bands (ev):

   -61.5781 -35.7063 -35.6424 -35.5549 -14.3013 -13.2847  -5.8127  -4.2462
    -3.7205  -3.1682  -2.8487  -1.6274  -1.0998   1.4929   1.7715   1.8416
     2.9045

          k = 0.1111 0.3208 0.0000 ( 11092 PWs)   bands (ev):

   -61.5661 -35.7521 -35.6823 -35.5916 -13.7308 -13.0536  -5.7009  -4.5499
    -4.5065  -3.7668  -2.5857  -1.8661  -1.5222   1.2941   1.7560   2.1191
     3.4557

          k = 0.1111 0.4491 0.0000 ( 11121 PWs)   bands (ev):

   -61.5555 -35.8465 -35.6611 -35.6243 -13.1488 -12.8221  -6.0984  -5.3193
    -4.5803  -3.8966  -2.5501  -2.3267  -1.3713   1.5107   1.8888   2.7386
     3.6177

          k = 0.1111 0.5774 0.0000 ( 11142 PWs)   bands (ev):

   -61.5514 -35.8834 -35.6527 -35.6371 -12.8885 -12.7212  -6.3078  -5.6402
    -4.7225  -3.8892  -2.5485  -2.4625  -1.1210   1.5367   2.1590   3.1384
     3.4617

          k = 0.2222 0.3849 0.0000 ( 11120 PWs)   bands (ev):

   -61.5563 -35.8127 -35.6626 -35.6497 -13.2024 -12.8331  -5.8307  -5.2716
    -4.3517  -4.0197  -3.2370  -2.0955  -1.4040   1.4593   1.8970   2.3082
     3.8053

          k = 0.2222 0.5132 0.0000 ( 11143 PWs)   bands (ev):

   -61.5499 -35.8419 -35.6977 -35.6498 -12.8152 -12.6675  -5.8747  -5.8368
    -4.5176  -3.8150  -3.6525  -2.5634  -1.0235   1.3296   2.4246   2.5282
     3.9351

          k = 0.3333 0.5774 0.0000 ( 11154 PWs)   bands (ev):

   -61.5477 -35.8054 -35.7616 -35.6453 -12.6798 -12.5982  -6.1293  -5.3007
    -4.7853  -4.2653  -3.5801  -2.8460  -0.7270   0.9554   2.3746   2.8513
     4.1820

     the Fermi energy is    -0.1127 ev

!    total energy              =    -496.73245622 Ry
     estimated scf accuracy    <       0.00000007 Ry
     smearing contrib. (-TS)   =      -0.00000000 Ry
     internal energy E=F+TS    =    -496.73245622 Ry

     convergence has been achieved in   5 iterations

     negative rho (up, down):  8.046E-05 0.000E+00

     Forces acting on atoms (cartesian axes, Ry/au):

     atom    1 type  1   force =     0.00000000   -0.00000000    0.00000000
     atom    2 type  2   force =    -0.00000000   -0.00000000    0.00348201
     atom    3 type  2   force =     0.00000000    0.00000000   -0.00348201
     The non-local contrib.  to forces
     atom    1 type  1   force =    -0.00000000    0.00000000    0.00000000
     atom    2 type  2   force =     0.00000000    0.00000000   -0.26679671
     atom    3 type  2   force =     0.00000000   -0.00000000    0.26679671
     The ionic contribution  to forces
     atom    1 type  1   force =    -0.00000000   -0.00000000    0.00000000
     atom    2 type  2   force =     0.00000000    0.00000000   35.44887070
     atom    3 type  2   force =     0.00000000    0.00000000  -35.44887070
     The local contribution  to forces
     atom    1 type  1   force =    -0.00000000   -0.00000000   -0.00000000
     atom    2 type  2   force =    -0.00000000    0.00000000  -35.17905166
     atom    3 type  2   force =    -0.00000000    0.00000000   35.17905166
     The core correction contribution to forces
     atom    1 type  1   force =     0.00000000    0.00000000    0.00000000
     atom    2 type  2   force =     0.00000000   -0.00000000    0.00217113
     atom    3 type  2   force =     0.00000000   -0.00000000   -0.00217113
     The Hubbard contrib.    to forces
     atom    1 type  1   force =     0.00000000    0.00000000    0.00000000
     atom    2 type  2   force =     0.00000000    0.00000000    0.00000000
     atom    3 type  2   force =     0.00000000    0.00000000    0.00000000
     The SCF correction term to forces
     atom    1 type  1   force =     0.00000000    0.00000000    0.00000000
     atom    2 type  2   force =    -0.00000000   -0.00000000    0.00008353
     atom    3 type  2   force =    -0.00000000   -0.00000000   -0.00008353

     DFT-D3 dispersion contribution to forces:
     atom    1 type  1   force =    -0.00000000   -0.00000000   -0.00000000
     atom    2 type  2   force =     0.00000000    0.00000000   -0.00179498
     atom    3 type  2   force =     0.00000000    0.00000000    0.00179498

     Total force =     0.004924     Total SCF correction =     0.000118


     Computing stress (Cartesian axis) and pressure


     negative rho (up, down):  8.046E-05 0.000E+00
          total   stress  (Ry/bohr**3)                   (kbar)     P=       -0.68
  -0.00001582  -0.00000000   0.00000000           -2.33       -0.00        0.00
  -0.00000000  -0.00001582   0.00000000           -0.00       -2.33        0.00
   0.00000000   0.00000000   0.00001772            0.00        0.00        2.61


     Entering Dynamics:    iteration =     9

     <vel(dt)|acc(dt)> =  -1.00000000

ATOMIC_POSITIONS (crystal)
Mo            0.0000000000        0.0000000000        0.5000000000
S             0.6666666667        0.3333333333        0.5821120502
S             0.6666666667        0.3333333333        0.4178879498



     Writing config-only to output data dir ./tmp/scf.save/
     NEW-OLD atomic charge density approx. for the potential

     negative rho (up, down):  8.038E-05 0.000E+00

     total cpu time spent up to now is      367.1 secs

     Self-consistent Calculation

     iteration #  1     ecut=    70.00 Ry     beta= 0.70
     Davidson diagonalization with overlap
     ethr =  1.00E-06,  avg # of iterations =  3.0

     Threshold (ethr) on eigenvalues was too large:
     Diagonalizing with lowered threshold

     Davidson diagonalization with overlap
     ethr =  1.01E-08,  avg # of iterations =  4.0

     negative rho (up, down):  8.038E-05 0.000E+00

     total cpu time spent up to now is      374.4 secs

     total energy              =    -496.73247801 Ry
     estimated scf accuracy    <       0.00000317 Ry

     iteration #  2     ecut=    70.00 Ry     beta= 0.70
     Davidson diagonalization with overlap
     ethr =  1.22E-08,  avg # of iterations =  3.0

     negative rho (up, down):  8.040E-05 0.000E+00

     total cpu time spent up to now is      378.7 secs

     total energy              =    -496.73247559 Ry
     estimated scf accuracy    <       0.00003183 Ry

     iteration #  3     ecut=    70.00 Ry     beta= 0.70
     Davidson diagonalization with overlap
     ethr =  1.22E-08,  avg # of iterations =  3.0

     negative rho (up, down):  8.041E-05 0.000E+00

     total cpu time spent up to now is      382.8 secs

     End of self-consistent calculation

          k = 0.0000 0.0000 0.0000 ( 10955 PWs)   bands (ev):

   -61.5900 -35.7301 -35.5211 -35.5211 -14.8106 -13.4949  -6.3233  -3.3283
    -3.3283  -2.4760  -2.2149  -2.2149  -0.7057   2.0667   2.0667   2.3181
     2.3181

          k = 0.0000 0.1283 0.0000 ( 11034 PWs)   bands (ev):

   -61.5856 -35.7213 -35.5660 -35.5313 -14.6300 -13.4210  -6.1215  -3.7134
    -3.1851  -3.1398  -2.4915  -1.7983  -0.8087   1.8786   1.8808   2.1214
     2.3699

          k = 0.0000 0.2566 0.0000 ( 11098 PWs)   bands (ev):

   -61.5745 -35.6989 -35.6783 -35.5571 -14.1394 -13.2214  -5.7342  -4.4118
    -4.0612  -3.0552  -2.6473  -1.9225  -1.2751   1.4779   1.7424   2.0603
     2.9528

          k = 0.0000 0.3849 0.0000 ( 11116 PWs)   bands (ev):

   -61.5617 -35.8037 -35.6734 -35.5862 -13.5008 -12.9668  -5.9515  -4.8852
    -4.6058  -3.5597  -2.3203  -2.0779  -1.6747   1.5156   1.6400   2.6943
     3.3964

          k = 0.0000 0.5132 0.0000 ( 11092 PWs)   bands (ev):

   -61.5533 -35.8842 -35.6566 -35.6052 -13.0118 -12.7798  -6.4085  -5.4176
    -4.7387  -3.8410  -2.5430  -1.7283  -1.4211   1.5263   1.9822   3.1223
     3.5946

          k = 0.1111 0.1925 0.0000 ( 11068 PWs)   bands (ev):

   -61.5778 -35.7057 -35.6406 -35.5533 -14.2937 -13.2836  -5.8042  -4.2355
    -3.7160  -3.1589  -2.8360  -1.6289  -1.1029   1.4860   1.7703   1.8374
     2.9005

          k = 0.1111 0.3208 0.0000 ( 11092 PWs)   bands (ev):

   -61.5659 -35.7502 -35.6817 -35.5900 -13.7233 -13.0511  -5.6900  -4.5442
    -4.5004  -3.7599  -2.5768  -1.8691  -1.5201   1.2885   1.7537   2.1165
     3.4483

          k = 0.1111 0.4491 0.0000 ( 11121 PWs)   bands (ev):

   -61.5553 -35.8445 -35.6606 -35.6226 -13.1412 -12.8183  -6.0901  -5.3139
    -4.5751  -3.8901  -2.5446  -2.3306  -1.3667   1.5084   1.8896   2.7335
     3.6094

          k = 0.1111 0.5774 0.0000 ( 11142 PWs)   bands (ev):

   -61.5511 -35.8813 -35.6522 -35.6354 -12.8807 -12.7167  -6.3017  -5.6352
    -4.7160  -3.8824  -2.5529  -2.4582  -1.1170   1.5393   2.1590   3.1308
     3.4551

          k = 0.2222 0.3849 0.0000 ( 11120 PWs)   bands (ev):

   -61.5561 -35.8107 -35.6621 -35.6480 -13.1948 -12.8294  -5.8214  -5.2632
    -4.3472  -4.0171  -3.2315  -2.0990  -1.3989   1.4535   1.9000   2.3036
     3.7967

          k = 0.2222 0.5132 0.0000 ( 11143 PWs)   bands (ev):

   -61.5497 -35.8399 -35.6959 -35.6493 -12.8074 -12.6629  -5.8663  -5.8305
    -4.5116  -3.8133  -3.6480  -2.5672  -1.0188   1.3330   2.4223   2.5202
     3.9285

          k = 0.3333 0.5774 0.0000 ( 11154 PWs)   bands (ev):

   -61.5475 -35.8033 -35.7598 -35.6449 -12.6719 -12.5933  -6.1200  -5.2962
    -4.7794  -4.2597  -3.5800  -2.8498  -0.7233   0.9626   2.3656   2.8455
     4.1758

     the Fermi energy is    -0.1184 ev

!    total energy              =    -496.73247982 Ry
     estimated scf accuracy    <       0.00000011 Ry
     smearing contrib. (-TS)   =      -0.00000000 Ry
     internal energy E=F+TS    =    -496.73247982 Ry

     convergence has been achieved in   3 iterations

     negative rho (up, down):  8.041E-05 0.000E+00

     Forces acting on atoms (cartesian axes, Ry/au):

     atom    1 type  1   force =     0.00000000    0.00000000    0.00000000
     atom    2 type  2   force =    -0.00000000   -0.00000000    0.00202148
     atom    3 type  2   force =     0.00000000   -0.00000000   -0.00202148
     The non-local contrib.  to forces
     atom    1 type  1   force =     0.00000000   -0.00000000    0.00000000
     atom    2 type  2   force =     0.00000000    0.00000000   -0.26730024
     atom    3 type  2   force =     0.00000000    0.00000000    0.26730024
     The ionic contribution  to forces
     atom    1 type  1   force =    -0.00000000   -0.00000000    0.00000000
     atom    2 type  2   force =     0.00000000    0.00000000   35.44535772
     atom    3 type  2   force =     0.00000000    0.00000000  -35.44535772
     The local contribution  to forces
     atom    1 type  1   force =    -0.00000000   -0.00000000   -0.00000000
     atom    2 type  2   force =    -0.00000000    0.00000000  -35.17575855
     atom    3 type  2   force =    -0.00000000    0.00000000   35.17575855
     The core correction contribution to forces
     atom    1 type  1   force =     0.00000000    0.00000000    0.00000000
     atom    2 type  2   force =     0.00000000   -0.00000000    0.00220228
     atom    3 type  2   force =     0.00000000   -0.00000000   -0.00220228
     The Hubbard contrib.    to forces
     atom    1 type  1   force =     0.00000000    0.00000000    0.00000000
     atom    2 type  2   force =     0.00000000    0.00000000    0.00000000
     atom    3 type  2   force =     0.00000000    0.00000000    0.00000000
     The SCF correction term to forces
     atom    1 type  1   force =     0.00000000    0.00000000   -0.00000000
     atom    2 type  2   force =     0.00000000   -0.00000000   -0.00068745
     atom    3 type  2   force =     0.00000000   -0.00000000    0.00068745

     DFT-D3 dispersion contribution to forces:
     atom    1 type  1   force =    -0.00000000   -0.00000000   -0.00000000
     atom    2 type  2   force =     0.00000000    0.00000000   -0.00179228
     atom    3 type  2   force =     0.00000000    0.00000000    0.00179228

     Total force =     0.002859     Total SCF correction =     0.000972
     SCF correction compared to forces is large: reduce conv_thr to get better values


     Computing stress (Cartesian axis) and pressure


     negative rho (up, down):  8.041E-05 0.000E+00
          total   stress  (Ry/bohr**3)                   (kbar)     P=       -1.40
  -0.00001856   0.00000000   0.00000000           -2.73        0.00        0.00
   0.00000000  -0.00001856   0.00000000            0.00       -2.73        0.00
   0.00000000   0.00000000   0.00000857            0.00        0.00        1.26


     Entering Dynamics:    iteration =    10

     <vel(dt)|acc(dt)> =   1.00000000

ATOMIC_POSITIONS (crystal)
Mo            0.0000000000        0.0000000000        0.5000000000
S             0.6666666667        0.3333333333        0.5823000211
S             0.6666666667        0.3333333333        0.4176999789



     Writing config-only to output data dir ./tmp/scf.save/
     NEW-OLD atomic charge density approx. for the potential

     negative rho (up, down):  8.028E-05 0.000E+00

     total cpu time spent up to now is      394.2 secs

     Self-consistent Calculation

     iteration #  1     ecut=    70.00 Ry     beta= 0.70
     Davidson diagonalization with overlap
     ethr =  1.00E-06,  avg # of iterations =  4.0

     Threshold (ethr) on eigenvalues was too large:
     Diagonalizing with lowered threshold

     Davidson diagonalization with overlap
     ethr =  1.44E-08,  avg # of iterations =  4.0

     negative rho (up, down):  8.031E-05 0.000E+00

     total cpu time spent up to now is      402.9 secs

     total energy              =    -496.73248865 Ry
     estimated scf accuracy    <       0.00000212 Ry

     iteration #  2     ecut=    70.00 Ry     beta= 0.70
     Davidson diagonalization with overlap
     ethr =  8.15E-09,  avg # of iterations =  2.0

     negative rho (up, down):  8.032E-05 0.000E+00

     total cpu time spent up to now is      407.9 secs

     total energy              =    -496.73248857 Ry
     estimated scf accuracy    <       0.00000168 Ry

     iteration #  3     ecut=    70.00 Ry     beta= 0.70
     Davidson diagonalization with overlap
     ethr =  6.45E-09,  avg # of iterations =  2.1

     negative rho (up, down):  8.031E-05 0.000E+00

     total cpu time spent up to now is      412.9 secs

     total energy              =    -496.73248883 Ry
     estimated scf accuracy    <       0.00000355 Ry

     iteration #  4     ecut=    70.00 Ry     beta= 0.70
     Davidson diagonalization with overlap
     ethr =  6.45E-09,  avg # of iterations =  2.0

     negative rho (up, down):  8.032E-05 0.000E+00

     total cpu time spent up to now is      417.7 secs

     End of self-consistent calculation

          k = 0.0000 0.0000 0.0000 ( 10955 PWs)   bands (ev):

   -61.5908 -35.7298 -35.5203 -35.5203 -14.7980 -13.4944  -6.3123  -3.3070
    -3.3070  -2.4839  -2.1985  -2.1985  -0.7170   2.0660   2.0660   2.3085
     2.3085

          k = 0.0000 0.1283 0.0000 ( 11034 PWs)   bands (ev):

   -61.5864 -35.7210 -35.5650 -35.5304 -14.6175 -13.4200  -6.1099  -3.6935
    -3.1795  -3.1189  -2.4751  -1.7972  -0.8180   1.8705   1.8770   2.1128
     2.3673

          k = 0.0000 0.2566 0.0000 ( 11098 PWs)   bands (ev):

   -61.5753 -35.6987 -35.6771 -35.5562 -14.1273 -13.2185  -5.7197  -4.3978
    -4.0533  -3.0387  -2.6279  -1.9272  -1.2788   1.4667   1.7365   2.0563
     2.9458

          k = 0.0000 0.3849 0.0000 ( 11116 PWs)   bands (ev):

   -61.5625 -35.8021 -35.6733 -35.5852 -13.4888 -12.9615  -5.9358  -4.8786
    -4.5979  -3.5429  -2.3270  -2.0617  -1.6737   1.5140   1.6316   2.6870
     3.3848

          k = 0.0000 0.5132 0.0000 ( 11092 PWs)   bands (ev):

   -61.5542 -35.8824 -35.6566 -35.6041 -12.9994 -12.7727  -6.3975  -5.4132
    -4.7292  -3.8241  -2.5500  -1.7157  -1.4199   1.5291   1.9800   3.1136
     3.5804

          k = 0.1111 0.1925 0.0000 ( 11068 PWs)   bands (ev):

   -61.5787 -35.7055 -35.6395 -35.5524 -14.2815 -13.2813  -5.7910  -4.2189
    -3.7086  -3.1442  -2.8165  -1.6306  -1.1080   1.4748   1.7681   1.8305
     2.8940

          k = 0.1111 0.3208 0.0000 ( 11092 PWs)   bands (ev):

   -61.5667 -35.7487 -35.6816 -35.5890 -13.7113 -13.0468  -5.6730  -4.5352
    -4.4907  -3.7490  -2.5629  -1.8731  -1.5173   1.2793   1.7495   2.1120
     3.4365

          k = 0.1111 0.4491 0.0000 ( 11121 PWs)   bands (ev):

   -61.5562 -35.8428 -35.6605 -35.6215 -13.1290 -12.8117  -6.0770  -5.3050
    -4.5667  -3.8796  -2.5358  -2.3361  -1.3600   1.5040   1.8900   2.7251
     3.5960

          k = 0.1111 0.5774 0.0000 ( 11142 PWs)   bands (ev):

   -61.5520 -35.8795 -35.6522 -35.6343 -12.8681 -12.7092  -6.2919  -5.6271
    -4.7058  -3.8714  -2.5593  -2.4509  -1.1113   1.5422   2.1581   3.1186
     3.4444

          k = 0.2222 0.3849 0.0000 ( 11120 PWs)   bands (ev):

   -61.5569 -35.8091 -35.6621 -35.6468 -13.1827 -12.8232  -5.8067  -5.2498
    -4.3399  -4.0126  -3.2227  -2.1039  -1.3916   1.4438   1.9036   2.2961
     3.7826

          k = 0.2222 0.5132 0.0000 ( 11143 PWs)   bands (ev):

   -61.5506 -35.8382 -35.6947 -35.6493 -12.7950 -12.6552  -5.8529  -5.8203
    -4.5023  -3.8102  -3.6407  -2.5728  -1.0123   1.3375   2.4175   2.5076
     3.9174

          k = 0.3333 0.5774 0.0000 ( 11154 PWs)   bands (ev):

   -61.5483 -35.8016 -35.7586 -35.6449 -12.6593 -12.5853  -6.1053  -5.2885
    -4.7699  -4.2508  -3.5794  -2.8554  -0.7186   0.9731   2.3513   2.8352
     4.1652

     the Fermi energy is    -0.1282 ev

!    total energy              =    -496.73248928 Ry
     estimated scf accuracy    <       0.00000001 Ry
     smearing contrib. (-TS)   =      -0.00000000 Ry
     internal energy E=F+TS    =    -496.73248928 Ry

     convergence has been achieved in   4 iterations

     negative rho (up, down):  8.032E-05 0.000E+00

     Forces acting on atoms (cartesian axes, Ry/au):

     atom    1 type  1   force =     0.00000000    0.00000000    0.00000000
     atom    2 type  2   force =     0.00000000   -0.00000000   -0.00054081
     atom    3 type  2   force =    -0.00000000    0.00000000    0.00054081
     The non-local contrib.  to forces
     atom    1 type  1   force =     0.00000000    0.00000000    0.00000000
     atom    2 type  2   force =     0.00000000    0.00000000   -0.26855643
     atom    3 type  2   force =     0.00000000    0.00000000    0.26855643
     The ionic contribution  to forces
     atom    1 type  1   force =    -0.00000000   -0.00000000    0.00000000
     atom    2 type  2   force =     0.00000000    0.00000000   35.43961852
     atom    3 type  2   force =     0.00000000    0.00000000  -35.43961852
     The local contribution  to forces
     atom    1 type  1   force =    -0.00000000   -0.00000000   -0.00000000
     atom    2 type  2   force =    -0.00000000    0.00000000  -35.17217661
     atom    3 type  2   force =    -0.00000000    0.00000000   35.17217661
     The core correction contribution to forces
     atom    1 type  1   force =     0.00000000    0.00000000    0.00000000
     atom    2 type  2   force =     0.00000000   -0.00000000    0.00225430
     atom    3 type  2   force =     0.00000000   -0.00000000   -0.00225430
     The Hubbard contrib.    to forces
     atom    1 type  1   force =     0.00000000    0.00000000    0.00000000
     atom    2 type  2   force =     0.00000000    0.00000000    0.00000000
     atom    3 type  2   force =     0.00000000    0.00000000    0.00000000
     The SCF correction term to forces
     atom    1 type  1   force =     0.00000000   -0.00000000    0.00000000
     atom    2 type  2   force =    -0.00000000    0.00000000    0.00010744
     atom    3 type  2   force =     0.00000000    0.00000000   -0.00010744

     DFT-D3 dispersion contribution to forces:
     atom    1 type  1   force =    -0.00000000   -0.00000000   -0.00000000
     atom    2 type  2   force =     0.00000000    0.00000000   -0.00178803
     atom    3 type  2   force =     0.00000000    0.00000000    0.00178803

     Total force =     0.000765     Total SCF correction =     0.000152
     SCF correction compared to forces is large: reduce conv_thr to get better values


     Computing stress (Cartesian axis) and pressure


     negative rho (up, down):  8.032E-05 0.000E+00
          total   stress  (Ry/bohr**3)                   (kbar)     P=       -2.64
  -0.00002426   0.00000000   0.00000000           -3.57        0.00        0.00
   0.00000000  -0.00002426   0.00000000            0.00       -3.57        0.00
   0.00000000  -0.00000000  -0.00000529            0.00       -0.00       -0.78


     Damped Dynamics: convergence achieved in  10 steps

     End of damped dynamics calculation

     Final energy =    -496.7324892823 Ry

Begin final coordinates
     new unit-cell volume =   1122.88447 a.u.^3 (   166.39431 Ang^3 )
     density =      1.59743 g/cm^3

CELL_PARAMETERS (angstrom)
   3.180000000   0.000000000   0.000000000
  -1.590000000   2.753960784   0.000000000
   0.000000000   0.000000000  19.000000000

ATOMIC_POSITIONS (crystal)
Mo            0.0000000000        0.0000000000        0.5000000000
S             0.6666666667        0.3333333333        0.5823000211
S             0.6666666667        0.3333333333        0.4176999789
End final coordinates



     Writing all to output data dir ./tmp/scf.save/
 
     init_run     :      1.85s CPU      2.30s WALL (       1 calls)
     electrons    :    237.84s CPU    291.81s WALL (      11 calls)
     update_pot   :     11.87s CPU     14.55s WALL (      10 calls)
     forces       :     16.94s CPU     21.50s WALL (      11 calls)
     force_dftd3  :      0.18s CPU      0.18s WALL (      11 calls)
     stress       :     73.77s CPU     88.29s WALL (      11 calls)
     stres_dftd3  :      0.17s CPU      0.18s WALL (      11 calls)

     Called by init_run:
     wfcinit      :      0.31s CPU      0.36s WALL (       1 calls)
     potinit      :      0.51s CPU      0.57s WALL (       1 calls)
     hinit0       :      0.56s CPU      0.71s WALL (       1 calls)

     Called by electrons:
     c_bands      :    116.40s CPU    122.96s WALL (      62 calls)
     sum_band     :     67.59s CPU     91.80s WALL (      62 calls)
     v_of_rho     :     12.19s CPU     13.14s WALL (      70 calls)
     newd         :     39.20s CPU     65.12s WALL (      70 calls)
     PAW_pot      :      8.80s CPU      8.85s WALL (      80 calls)
     mix_rho      :      1.76s CPU      1.80s WALL (      62 calls)
     energy_dftd3 :      0.22s CPU      0.22s WALL (      11 calls)

     Called by c_bands:
     init_us_2    :      2.55s CPU      2.58s WALL (    1884 calls)
     init_us_2:cp :      2.54s CPU      2.58s WALL (    1884 calls)
     cegterg      :    107.19s CPU    113.71s WALL (     744 calls)

     Called by *egterg:
     cdiaghg      :      1.26s CPU      1.28s WALL (    3146 calls)
     h_psi        :     92.83s CPU     99.29s WALL (    3314 calls)
     s_psi        :      2.01s CPU      2.03s WALL (    3314 calls)
     g_psi        :      0.22s CPU      0.22s WALL (    2558 calls)

     Called by h_psi:
     h_psi:calbec :      3.57s CPU      3.62s WALL (    3314 calls)
     vloc_psi     :     85.69s CPU     92.07s WALL (    3314 calls)
     add_vuspsi   :      2.85s CPU      2.89s WALL (    3314 calls)

     General routines
     calbec       :      5.90s CPU      5.99s WALL (    4838 calls)
     fft          :     16.50s CPU     20.18s WALL (    1176 calls)
     ffts         :      0.14s CPU      0.15s WALL (     132 calls)
     fftw         :     45.38s CPU     51.33s WALL (   92256 calls)
     interpolate  :      0.82s CPU      0.84s WALL (      70 calls)
 
     Parallel routines
 
     PWSCF        :   5m49.60s CPU   7m 9.42s WALL

 
   This run was terminated on:  12:43:33  15Jul2025            

=------------------------------------------------------------------------------=
   JOB DONE.
=------------------------------------------------------------------------------=
