
     Program PWSCF v.7.2 starts on 15Jul2025 at 12:30:51 

     This program is part of the open-source Quantum ESPRESSO suite
     for quantum simulation of materials; please cite
         "P. Giannozzi et al., J. Phys.:Condens. Matter 21 395502 (2009);
         "P. Giannozzi et al., J. Phys.:Condens. Matter 29 465901 (2017);
         "P. Giannozzi et al., J. Chem. Phys. 152 154105 (2020);
          URL http://www.quantum-espresso.org", 
     in publications or presentations arising from this work. More details at
     http://www.quantum-espresso.org/quote

     Parallel version (MPI), running on     4 processors

     MPI processes distributed on     1 nodes
     24901 MiB available memory on the printing compute node when the environment starts
 
     Waiting for input...
     Reading input from standard input

     Current dimensions of program PWSCF are:
     Max number of different atomic species (ntypx) = 10
     Max number of k-points (npk) =  40000
     Max angular momentum in pseudopotentials (lmaxx) =  4

     File ./tmp/scf.md deleted, as requested

     File ./tmp/scf.bfgs deleted, as requested
     file Mo.pbe-spn-kjpaw_psl.1.0.0.UPF: wavefunction(s)  4S 4D renormalized
     file S.pbe-n-kjpaw_psl.1.0.0.UPF: wavefunction(s)  3S 3P renormalized
     Message from routine setup:
     using ibrav=0 with symmetry is DISCOURAGED, use correct ibrav instead
     Message from routine setup:
     Dynamics, you should have no symmetries
 
     R & G space division:  proc/nbgrp/npool/nimage =       4
     Subspace diagonalization in iterative solution of the eigenvalue problem:
     a serial algorithm will be used

 
     Parallelization info
     --------------------
     sticks:   dense  smooth     PW     G-vecs:    dense   smooth      PW
     Min         433     170     49                87273    22030    3489
     Max         434     172     50                87292    22048    3512
     Sum        1735     685    199               349137    88163   14017
 
     Using Slab Decomposition
 


     bravais-lattice index     =            0
     lattice parameter (alat)  =       5.9904  a.u.
     unit-cell volume          =    1115.8334 (a.u.)^3
     number of atoms/cell      =            3
     number of atomic types    =            2
     number of electrons       =        26.00
     number of Kohn-Sham states=           17
     kinetic-energy cutoff     =      70.0000  Ry
     charge density cutoff     =     700.0000  Ry
     scf convergence threshold =      1.0E-06
     mixing beta               =       0.7000
     number of iterations used =            8  plain     mixing
     energy convergence thresh.=      1.0E-04
     force convergence thresh. =      1.0E-03
     Exchange-correlation= SLA  PW   PBX  PBC
                           (   1   4   3   4   0   0   0)
     nstep                     =          100


     celldm(1)=   5.990432  celldm(2)=   0.000000  celldm(3)=   0.000000
     celldm(4)=   0.000000  celldm(5)=   0.000000  celldm(6)=   0.000000

     crystal axes: (cart. coord. in units of alat)
               a(1) = (   1.000000   0.000000   0.000000 )  
               a(2) = (  -0.500000   0.866025   0.000000 )  
               a(3) = (   0.000000   0.000000   5.993691 )  

     reciprocal axes: (cart. coord. in units 2 pi/alat)
               b(1) = (  1.000000  0.577350  0.000000 )  
               b(2) = (  0.000000  1.154701  0.000000 )  
               b(3) = (  0.000000  0.000000  0.166842 )  


     PseudoPot. # 1 for Mo read from file:
     /shared/ESPRESSO/PSLIBRARY/1.0.0/pbe/PSEUDOPOTENTIALS/Mo.pbe-spn-kjpaw_psl.1.0.0.UPF
     MD5 check sum: 4396e0c640fcce5c25f020efccf1ab12
     Pseudo is Projector augmented-wave + core cor, Zval = 14.0
     Generated using &quot;atomic&quot; code by A. Dal Corso  v.6.3
     Shape of augmentation charge: PSQ
     Using radial grid of 1229 points,  6 beta functions with: 
                l(1) =   0
                l(2) =   0
                l(3) =   1
                l(4) =   1
                l(5) =   2
                l(6) =   2
     Q(r) pseudized with 0 coefficients 


     PseudoPot. # 2 for S  read from file:
     /shared/ESPRESSO/PSLIBRARY/1.0.0/pbe/PSEUDOPOTENTIALS/S.pbe-n-kjpaw_psl.1.0.0.UPF
     MD5 check sum: c08f931834bcc19553f8bde8f1a3adc5
     Pseudo is Projector augmented-wave + core cor, Zval =  6.0
     Generated using "atomic" code by A. Dal Corso  (Quantum ESPRESSO distribution)
     Shape of augmentation charge: PSQ
     Using radial grid of 1151 points,  6 beta functions with: 
                l(1) =   0
                l(2) =   0
                l(3) =   1
                l(4) =   1
                l(5) =   2
                l(6) =   2
     Q(r) pseudized with 0 coefficients 


     atomic species   valence    mass     pseudopotential
        Mo            14.00    95.94000     Mo( 1.00)
        S              6.00    32.06500     S ( 1.00)

     12 Sym. Ops. (no inversion) found



   Cartesian axes

     site n.     atom                  positions (alat units)
         1           Mo  tau(   1) = (   0.0000000   0.0000000   2.9968454  )
         2           S   tau(   2) = (   0.5000000   0.2886751   3.6277603  )
         3           S   tau(   3) = (   0.5000000   0.2886751   2.3659306  )

     --------------------------------------------
     DFT-D3 Dispersion Correction (3-body terms):
     --------------------------------------------
       Reference C6 values for interpolation: 

         atom   Coordination number   C6
         S          0.000           268.01
         S          0.995           261.99
         S          1.990           251.62
         Mo         0.000          1691.79
         Mo         1.942          1004.01
         Mo        11.056           674.22

       Values used:

         atom   Coordination number  R0_AB[au]  C6      C8
         Mo         9.234            3.547    674.22  77634.20
         S          3.187            3.128    251.62  12327.25
         S          3.187            3.128    251.62  12327.25

         Molecular C6 ( Ry / a.u.^6 ) =      3323.66


     number of k points=    12  Gaussian smearing, width (Ry)=  0.0073
                       cart. coord. in units 2pi/alat
        k(    1) = (   0.0000000   0.0000000   0.0000000), wk =   0.0246914
        k(    2) = (   0.0000000   0.1283001   0.0000000), wk =   0.1481481
        k(    3) = (   0.0000000   0.2566001   0.0000000), wk =   0.1481481
        k(    4) = (   0.0000000   0.3849002   0.0000000), wk =   0.1481481
        k(    5) = (   0.0000000   0.5132002   0.0000000), wk =   0.1481481
        k(    6) = (   0.1111111   0.1924501   0.0000000), wk =   0.1481481
        k(    7) = (   0.1111111   0.3207501   0.0000000), wk =   0.2962963
        k(    8) = (   0.1111111   0.4490502   0.0000000), wk =   0.2962963
        k(    9) = (   0.1111111   0.5773503   0.0000000), wk =   0.1481481
        k(   10) = (   0.2222222   0.3849002   0.0000000), wk =   0.1481481
        k(   11) = (   0.2222222   0.5132002   0.0000000), wk =   0.2962963
        k(   12) = (   0.3333333   0.5773503   0.0000000), wk =   0.0493827

     Dense  grid:   349137 G-vectors     FFT dimensions: (  54,  54, 320)

     Smooth grid:    88163 G-vectors     FFT dimensions: (  32,  32, 192)

     Estimated max dynamical RAM per process >     338.03 MB

     Estimated total dynamical RAM >       1.32 GB

     Initial potential from superposition of free atoms

     starting charge      25.9991, renormalised to      26.0000

     negative rho (up, down):  5.279E-05 0.000E+00
     Starting wfcs are   18 randomized atomic wfcs
     Checking if some PAW data can be deallocated... 

     total cpu time spent up to now is        2.7 secs

     Self-consistent Calculation

     iteration #  1     ecut=    70.00 Ry     beta= 0.70
     Davidson diagonalization with overlap
     ethr =  1.00E-02,  avg # of iterations =  2.0

     Threshold (ethr) on eigenvalues was too large:
     Diagonalizing with lowered threshold

     Davidson diagonalization with overlap
     ethr =  2.01E-04,  avg # of iterations =  3.8

     negative rho (up, down):  6.376E-05 0.000E+00

     total cpu time spent up to now is        6.8 secs

     total energy              =    -496.51723603 Ry
     estimated scf accuracy    <       0.09185665 Ry

     iteration #  2     ecut=    70.00 Ry     beta= 0.70
     Davidson diagonalization with overlap
     ethr =  3.53E-04,  avg # of iterations =  3.0

     negative rho (up, down):  6.531E-05 0.000E+00

     total cpu time spent up to now is        9.1 secs

     total energy              =    -496.41995080 Ry
     estimated scf accuracy    <       0.97509604 Ry

     iteration #  3     ecut=    70.00 Ry     beta= 0.70
     Davidson diagonalization with overlap
     ethr =  3.53E-04,  avg # of iterations =  2.8

     negative rho (up, down):  6.753E-05 0.000E+00

     total cpu time spent up to now is       11.5 secs

     total energy              =    -496.52422075 Ry
     estimated scf accuracy    <       0.37945719 Ry

     iteration #  4     ecut=    70.00 Ry     beta= 0.70
     Davidson diagonalization with overlap
     ethr =  3.53E-04,  avg # of iterations =  1.8

     negative rho (up, down):  6.992E-05 0.000E+00

     total cpu time spent up to now is       14.3 secs

     total energy              =    -496.55652156 Ry
     estimated scf accuracy    <       0.00182218 Ry

     iteration #  5     ecut=    70.00 Ry     beta= 0.70
     Davidson diagonalization with overlap
     ethr =  7.01E-06,  avg # of iterations =  2.8

     negative rho (up, down):  7.124E-05 0.000E+00

     total cpu time spent up to now is       19.3 secs

     total energy              =    -496.55693345 Ry
     estimated scf accuracy    <       0.00010819 Ry

     iteration #  6     ecut=    70.00 Ry     beta= 0.70
     Davidson diagonalization with overlap
     ethr =  4.16E-07,  avg # of iterations =  2.8

     negative rho (up, down):  7.222E-05 0.000E+00

     total cpu time spent up to now is       24.8 secs

     total energy              =    -496.55694431 Ry
     estimated scf accuracy    <       0.00001991 Ry

     iteration #  7     ecut=    70.00 Ry     beta= 0.70
     Davidson diagonalization with overlap
     ethr =  7.66E-08,  avg # of iterations =  2.3

     negative rho (up, down):  7.234E-05 0.000E+00

     total cpu time spent up to now is       30.2 secs

     total energy              =    -496.55694989 Ry
     estimated scf accuracy    <       0.00000128 Ry

     iteration #  8     ecut=    70.00 Ry     beta= 0.70
     Davidson diagonalization with overlap
     ethr =  4.93E-09,  avg # of iterations =  2.1

     negative rho (up, down):  7.235E-05 0.000E+00

     total cpu time spent up to now is       35.2 secs

     End of self-consistent calculation

          k = 0.0000 0.0000 0.0000 ( 10913 PWs)   bands (ev):

   -61.6705 -35.7473 -35.4582 -35.4582 -13.6444 -13.2263  -5.3908  -3.0310
    -1.7414  -1.4285  -1.4285  -0.4622  -0.4622   1.6011   1.6011   1.9002
     1.9002

          k = 0.0000 0.1283 0.0000 ( 10942 PWs)   bands (ev):

   -61.6665 -35.7413 -35.4963 -35.4673 -13.4802 -13.0999  -5.1508  -3.0928
    -1.8454  -1.6420  -1.2453  -0.8189  -0.7120   0.9897   1.4559   1.5803
     2.0054

          k = 0.0000 0.2566 0.0000 ( 11028 PWs)   bands (ev):

   -61.6563 -35.7262 -35.5918 -35.4902 -13.0234 -12.7492  -4.5586  -3.3180
    -2.8820  -1.8796  -1.5640  -1.2219  -0.8152   0.3514   1.2325   1.4536
     2.1468

          k = 0.0000 0.3849 0.0000 ( 11058 PWs)   bands (ev):

   -61.6448 -35.7089 -35.6989 -35.5160 -12.4015 -12.2781  -4.3833  -3.9784
    -3.7571  -2.6967  -1.6831  -1.6413  -0.5199   0.7132   1.3728   1.6984
     2.1923

          k = 0.0000 0.5132 0.0000 ( 11034 PWs)   bands (ev):

   -61.6372 -35.7679 -35.6977 -35.5329 -11.9076 -11.8979  -5.1918  -4.7212
    -3.6977  -2.9043  -1.9426  -1.4430  -0.5014   1.3870   1.7842   1.9431
     2.1856

          k = 0.1111 0.1925 0.0000 ( 10990 PWs)   bands (ev):

   -61.6594 -35.7308 -35.5597 -35.4867 -13.1691 -12.8607  -4.7229  -3.2055
    -2.5386  -1.6647  -1.5465  -0.9897  -0.9820   0.4044   1.2453   1.3917
     2.1020

          k = 0.1111 0.3208 0.0000 ( 11031 PWs)   bands (ev):

   -61.6485 -35.7146 -35.6530 -35.5190 -12.6235 -12.4437  -4.1347  -3.5572
    -3.5002  -2.7359  -1.6902  -1.5078  -0.7488   0.1991   1.4146   1.4805
     2.1398

          k = 0.1111 0.4491 0.0000 ( 11057 PWs)   bands (ev):

   -61.6390 -35.7337 -35.7003 -35.5476 -12.0374 -12.0041  -4.7173  -4.3278
    -3.6319  -2.9855  -2.0440  -1.8019  -0.7472   0.7991   1.6615   1.8713
     2.1904

          k = 0.1111 0.5774 0.0000 ( 11082 PWs)   bands (ev):

   -61.6352 -35.7653 -35.6947 -35.5589 -11.8028 -11.7622  -5.1627  -4.7481
    -3.5988  -2.9337  -2.3088  -1.7578  -0.7213   1.4133   1.7080   1.8570
     2.2548

          k = 0.2222 0.3849 0.0000 ( 11046 PWs)   bands (ev):

   -61.6397 -35.7046 -35.7014 -35.5694 -12.0963 -12.0430  -4.2682  -3.8620
    -3.5865  -3.3670  -2.2468  -2.0566  -0.8637   0.3764   1.3360   1.9781
     2.2951

          k = 0.2222 0.5132 0.0000 ( 11059 PWs)   bands (ev):

   -61.6339 -35.7290 -35.6927 -35.6114 -11.7382 -11.6909  -4.6653  -4.4611
    -3.4227  -3.1955  -2.7697  -2.6633  -0.7082   1.0257   1.1314   1.9361
     2.5739

          k = 0.3333 0.5774 0.0000 ( 11088 PWs)   bands (ev):

   -61.6319 -35.6897 -35.6867 -35.6772 -11.6254 -11.5470  -4.4597  -4.2662
    -3.7178  -3.2635  -3.2392  -2.9828  -0.5339   0.8713   1.3605   1.5581
     2.7844

     the Fermi energy is    -0.1430 ev

!    total energy              =    -496.55694982 Ry
     estimated scf accuracy    <       0.00000026 Ry
     smearing contrib. (-TS)   =      -0.00000001 Ry
     internal energy E=F+TS    =    -496.55694981 Ry

     convergence has been achieved in   8 iterations

     negative rho (up, down):  7.235E-05 0.000E+00

     Forces acting on atoms (cartesian axes, Ry/au):

     atom    1 type  1   force =     0.00000000    0.00000000    0.00000000
     atom    2 type  2   force =     0.00000000    0.00000000   -0.17153426
     atom    3 type  2   force =     0.00000000    0.00000000    0.17153426
     The non-local contrib.  to forces
     atom    1 type  1   force =     0.00000000    0.00000000    0.00000000
     atom    2 type  2   force =    -0.00000000    0.00000000   -0.33303077
     atom    3 type  2   force =     0.00000000   -0.00000000    0.33303077
     The ionic contribution  to forces
     atom    1 type  1   force =     0.00000000   -0.00000000    0.00000000
     atom    2 type  2   force =    -0.00000000    0.00000000   34.26611889
     atom    3 type  2   force =    -0.00000000    0.00000000  -34.26611889
     The local contribution  to forces
     atom    1 type  1   force =     0.00000000   -0.00000000    0.00000000
     atom    2 type  2   force =    -0.00000000    0.00000000  -34.10786704
     atom    3 type  2   force =    -0.00000000    0.00000000   34.10786704
     The core correction contribution to forces
     atom    1 type  1   force =     0.00000000    0.00000000    0.00000000
     atom    2 type  2   force =     0.00000000   -0.00000000    0.00638641
     atom    3 type  2   force =     0.00000000   -0.00000000   -0.00638641
     The Hubbard contrib.    to forces
     atom    1 type  1   force =     0.00000000    0.00000000    0.00000000
     atom    2 type  2   force =     0.00000000    0.00000000    0.00000000
     atom    3 type  2   force =     0.00000000    0.00000000    0.00000000
     The SCF correction term to forces
     atom    1 type  1   force =     0.00000000   -0.00000000    0.00000000
     atom    2 type  2   force =     0.00000000    0.00000000   -0.00076701
     atom    3 type  2   force =     0.00000000    0.00000000    0.00076701

     DFT-D3 dispersion contribution to forces:
     atom    1 type  1   force =    -0.00000000    0.00000000    0.00000000
     atom    2 type  2   force =     0.00000000   -0.00000000   -0.00237473
     atom    3 type  2   force =     0.00000000   -0.00000000    0.00237473

     Total force =     0.242586     Total SCF correction =     0.001085


     Computing stress (Cartesian axis) and pressure


     negative rho (up, down):  7.235E-05 0.000E+00
          total   stress  (Ry/bohr**3)                   (kbar)     P=      -84.03
  -0.00027468   0.00000000   0.00000000          -40.41        0.00        0.00
   0.00000000  -0.00027468   0.00000000            0.00      -40.41        0.00
   0.00000000   0.00000000  -0.00116423            0.00        0.00     -171.26


     Damped Dynamics Calculation

     Entering Dynamics:    iteration =     1

ATOMIC_POSITIONS (crystal)
Mo            0.0000000000        0.0000000000        0.5000000000
S             0.6666666667        0.3333333333        0.6031664966
S             0.6666666667        0.3333333333        0.3968335034



     Writing config-only to output data dir ./tmp/scf.save/
     NEW-OLD atomic charge density approx. for the potential

     negative rho (up, down):  7.328E-05 0.000E+00

     total cpu time spent up to now is       48.0 secs

     Self-consistent Calculation

     iteration #  1     ecut=    70.00 Ry     beta= 0.70
     Davidson diagonalization with overlap
     ethr =  1.00E-06,  avg # of iterations =  7.0

     negative rho (up, down):  7.293E-05 0.000E+00

     total cpu time spent up to now is       54.9 secs

     total energy              =    -496.58169378 Ry
     estimated scf accuracy    <       0.00098040 Ry

     iteration #  2     ecut=    70.00 Ry     beta= 0.70
     Davidson diagonalization with overlap
     ethr =  3.77E-06,  avg # of iterations =  3.2

     negative rho (up, down):  7.254E-05 0.000E+00

     total cpu time spent up to now is       60.1 secs

     total energy              =    -496.57907744 Ry
     estimated scf accuracy    <       0.04166295 Ry

     iteration #  3     ecut=    70.00 Ry     beta= 0.70
     Davidson diagonalization with overlap
     ethr =  3.77E-06,  avg # of iterations =  3.0

     negative rho (up, down):  7.251E-05 0.000E+00

     total cpu time spent up to now is       65.2 secs

     total energy              =    -496.58235258 Ry
     estimated scf accuracy    <       0.00003082 Ry

     iteration #  4     ecut=    70.00 Ry     beta= 0.70
     Davidson diagonalization with overlap
     ethr =  1.19E-07,  avg # of iterations =  2.9

     negative rho (up, down):  7.254E-05 0.000E+00

     total cpu time spent up to now is       70.1 secs

     total energy              =    -496.58235907 Ry
     estimated scf accuracy    <       0.00000816 Ry

     iteration #  5     ecut=    70.00 Ry     beta= 0.70
     Davidson diagonalization with overlap
     ethr =  3.14E-08,  avg # of iterations =  1.7

     negative rho (up, down):  7.253E-05 0.000E+00

     total cpu time spent up to now is       74.9 secs

     total energy              =    -496.58235950 Ry
     estimated scf accuracy    <       0.00000178 Ry

     iteration #  6     ecut=    70.00 Ry     beta= 0.70
     Davidson diagonalization with overlap
     ethr =  6.84E-09,  avg # of iterations =  2.0

     negative rho (up, down):  7.253E-05 0.000E+00

     total cpu time spent up to now is       79.7 secs

     End of self-consistent calculation

          k = 0.0000 0.0000 0.0000 ( 10913 PWs)   bands (ev):

   -61.6515 -35.7274 -35.4472 -35.4472 -13.7173 -13.2527  -5.4385  -2.9992
    -1.6629  -1.5278  -1.5278  -0.5746  -0.5746   1.6460   1.6460   1.9349
     1.9349

          k = 0.0000 0.1283 0.0000 ( 10942 PWs)   bands (ev):

   -61.6475 -35.7212 -35.4857 -35.4563 -13.5518 -13.1290  -5.2002  -3.0790
    -1.9515  -1.5784  -1.3472  -0.9113  -0.8293   1.0541   1.5010   1.6299
     2.0556

          k = 0.0000 0.2566 0.0000 ( 11028 PWs)   bands (ev):

   -61.6373 -35.7056 -35.5821 -35.4794 -13.0918 -12.7862  -4.6154  -3.3533
    -2.9914  -1.9133  -1.5339  -1.3479  -0.9217   0.4437   1.2773   1.5321
     2.2274

          k = 0.0000 0.3849 0.0000 ( 11058 PWs)   bands (ev):

   -61.6256 -35.6901 -35.6878 -35.5055 -12.4662 -12.3268  -4.4815  -4.0530
    -3.8219  -2.6829  -1.8154  -1.6240  -0.6124   0.7963   1.3991   1.8094
     2.2969

          k = 0.0000 0.5132 0.0000 ( 11034 PWs)   bands (ev):

   -61.6180 -35.7597 -35.6762 -35.5224 -11.9668 -11.9603  -5.2827  -4.7830
    -3.7684  -2.8955  -2.0779  -1.4205  -0.5733   1.4640   1.7867   2.0708
     2.3017

          k = 0.1111 0.1925 0.0000 ( 10990 PWs)   bands (ev):

   -61.6404 -35.7104 -35.5496 -35.4759 -13.2384 -12.8951  -4.7764  -3.2199
    -2.6507  -1.7567  -1.5127  -1.0821  -1.0755   0.4890   1.2948   1.4491
     2.1854

          k = 0.1111 0.3208 0.0000 ( 11031 PWs)   bands (ev):

   -61.6294 -35.6937 -35.6438 -35.5084 -12.6894 -12.4879  -4.2104  -3.6461
    -3.5639  -2.7846  -1.7054  -1.5831  -0.8203   0.2947   1.4543   1.5578
     2.2594

          k = 0.1111 0.4491 0.0000 ( 11057 PWs)   bands (ev):

   -61.6198 -35.7252 -35.6789 -35.5373 -12.1004 -12.0599  -4.8129  -4.4018
    -3.7000  -3.0083  -2.1306  -1.8303  -0.7755   0.8720   1.7686   1.9018
     2.3202

          k = 0.1111 0.5774 0.0000 ( 11082 PWs)   bands (ev):

   -61.6160 -35.7571 -35.6731 -35.5487 -11.8644 -11.8241  -5.2508  -4.8148
    -3.6751  -2.9410  -2.4151  -1.7919  -0.7280   1.4694   1.8310   1.9054
     2.3802

          k = 0.2222 0.3849 0.0000 ( 11046 PWs)   bands (ev):

   -61.6205 -35.6958 -35.6800 -35.5593 -12.1595 -12.0972  -4.3745  -3.9558
    -3.6426  -3.4147  -2.3129  -2.0931  -0.8704   0.4709   1.4330   2.0121
     2.4334

          k = 0.2222 0.5132 0.0000 ( 11059 PWs)   bands (ev):

   -61.6146 -35.7204 -35.6711 -35.6017 -11.8004 -11.7526  -4.7539  -4.5560
    -3.5025  -3.2488  -2.8352  -2.6880  -0.6923   1.1036   1.2498   2.0020
     2.7144

          k = 0.3333 0.5774 0.0000 ( 11088 PWs)   bands (ev):

   -61.6126 -35.6784 -35.6680 -35.6674 -11.6901 -11.6083  -4.5825  -4.3530
    -3.7937  -3.3150  -3.2957  -2.9979  -0.5144   0.9941   1.3993   1.6807
     2.9324

     the Fermi energy is    -0.1214 ev

!    total energy              =    -496.58235961 Ry
     estimated scf accuracy    <       0.00000032 Ry
     smearing contrib. (-TS)   =      -0.00000000 Ry
     internal energy E=F+TS    =    -496.58235961 Ry

     convergence has been achieved in   6 iterations

     negative rho (up, down):  7.253E-05 0.000E+00

     Forces acting on atoms (cartesian axes, Ry/au):

     atom    1 type  1   force =     0.00000000    0.00000000    0.00000000
     atom    2 type  2   force =     0.00000000    0.00000000   -0.16551297
     atom    3 type  2   force =     0.00000000   -0.00000000    0.16551297
     The non-local contrib.  to forces
     atom    1 type  1   force =     0.00000000    0.00000000    0.00000000
     atom    2 type  2   force =     0.00000000    0.00000000   -0.33230332
     atom    3 type  2   force =     0.00000000    0.00000000    0.33230332
     The ionic contribution  to forces
     atom    1 type  1   force =     0.00000000   -0.00000000    0.00000000
     atom    2 type  2   force =    -0.00000000    0.00000000   34.44265128
     atom    3 type  2   force =    -0.00000000    0.00000000  -34.44265128
     The local contribution  to forces
     atom    1 type  1   force =     0.00000000   -0.00000000    0.00000000
     atom    2 type  2   force =    -0.00000000    0.00000000  -34.27832571
     atom    3 type  2   force =    -0.00000000    0.00000000   34.27832571
     The core correction contribution to forces
     atom    1 type  1   force =    -0.00000000   -0.00000000   -0.00000000
     atom    2 type  2   force =     0.00000000   -0.00000000    0.00617284
     atom    3 type  2   force =     0.00000000   -0.00000000   -0.00617284
     The Hubbard contrib.    to forces
     atom    1 type  1   force =     0.00000000    0.00000000    0.00000000
     atom    2 type  2   force =     0.00000000    0.00000000    0.00000000
     atom    3 type  2   force =     0.00000000    0.00000000    0.00000000
     The SCF correction term to forces
     atom    1 type  1   force =    -0.00000000   -0.00000000    0.00000000
     atom    2 type  2   force =     0.00000000    0.00000000   -0.00131857
     atom    3 type  2   force =     0.00000000    0.00000000    0.00131857

     DFT-D3 dispersion contribution to forces:
     atom    1 type  1   force =    -0.00000000    0.00000000   -0.00000000
     atom    2 type  2   force =     0.00000000   -0.00000000   -0.00238948
     atom    3 type  2   force =     0.00000000   -0.00000000    0.00238948

     Total force =     0.234071     Total SCF correction =     0.001865


     Computing stress (Cartesian axis) and pressure


     negative rho (up, down):  7.253E-05 0.000E+00
          total   stress  (Ry/bohr**3)                   (kbar)     P=      -80.25
  -0.00026741   0.00000000   0.00000000          -39.34        0.00        0.00
   0.00000000  -0.00026741   0.00000000            0.00      -39.34        0.00
   0.00000000  -0.00000000  -0.00110173            0.00       -0.00     -162.07


     Entering Dynamics:    iteration =     2

     <vel(dt)|acc(dt)> =   1.00000000

ATOMIC_POSITIONS (crystal)
Mo            0.0000000000       -0.0000000000        0.5000000000
S             0.6666666667        0.3333333333        0.5941554686
S             0.6666666667        0.3333333333        0.4058445314



     Writing config-only to output data dir ./tmp/scf.save/
     NEW-OLD atomic charge density approx. for the potential

     negative rho (up, down):  8.157E-05 0.000E+00

     total cpu time spent up to now is       94.0 secs

     Self-consistent Calculation

     iteration #  1     ecut=    70.00 Ry     beta= 0.70
     Davidson diagonalization with overlap
     ethr =  1.00E-06,  avg # of iterations =  9.6

     negative rho (up, down):  7.799E-05 0.000E+00

     total cpu time spent up to now is      102.1 secs

     total energy              =    -496.66710832 Ry
     estimated scf accuracy    <       0.01510639 Ry

     iteration #  2     ecut=    70.00 Ry     beta= 0.70
     Davidson diagonalization with overlap
     ethr =  5.81E-05,  avg # of iterations =  3.0

     negative rho (up, down):  7.598E-05 0.000E+00

     total cpu time spent up to now is      107.4 secs

     total energy              =    -496.64499939 Ry
     estimated scf accuracy    <       0.30667780 Ry

     iteration #  3     ecut=    70.00 Ry     beta= 0.70
     Davidson diagonalization with overlap
     ethr =  5.81E-05,  avg # of iterations =  3.0

     negative rho (up, down):  7.521E-05 0.000E+00

     total cpu time spent up to now is      112.5 secs

     total energy              =    -496.67647086 Ry
     estimated scf accuracy    <       0.00045420 Ry

     iteration #  4     ecut=    70.00 Ry     beta= 0.70
     Davidson diagonalization with overlap
     ethr =  1.75E-06,  avg # of iterations =  3.3

     negative rho (up, down):  7.530E-05 0.000E+00

     total cpu time spent up to now is      117.6 secs

     total energy              =    -496.67654515 Ry
     estimated scf accuracy    <       0.00010479 Ry

     iteration #  5     ecut=    70.00 Ry     beta= 0.70
     Davidson diagonalization with overlap
     ethr =  4.03E-07,  avg # of iterations =  1.8

     negative rho (up, down):  7.543E-05 0.000E+00

     total cpu time spent up to now is      122.3 secs

     total energy              =    -496.67655634 Ry
     estimated scf accuracy    <       0.00000369 Ry

     iteration #  6     ecut=    70.00 Ry     beta= 0.70
     Davidson diagonalization with overlap
     ethr =  1.42E-08,  avg # of iterations =  2.7

     negative rho (up, down):  7.545E-05 0.000E+00

     total cpu time spent up to now is      127.2 secs

     End of self-consistent calculation

          k = 0.0000 0.0000 0.0000 ( 10913 PWs)   bands (ev):

   -61.5778 -35.6672 -35.4156 -35.4156 -14.0953 -13.3684  -5.7109  -2.8269
    -2.0990  -2.0990  -1.2930  -1.1544  -1.1544   1.8972   1.8972   2.0627
     2.0627

          k = 0.0000 0.1283 0.0000 ( 10942 PWs)   bands (ev):

   -61.5737 -35.6601 -35.4563 -35.4251 -13.9234 -13.2602  -5.4821  -3.0293
    -2.5380  -1.9230  -1.4256  -1.3397  -1.2746   1.3813   1.7436   1.8139
     2.2570

          k = 0.0000 0.2566 0.0000 ( 11028 PWs)   bands (ev):

   -61.5630 -35.6418 -35.5582 -35.4492 -13.4483 -12.9626  -4.9469  -3.5712
    -3.5202  -2.0012  -1.9745  -1.4930  -1.4119   0.8747   1.4890   1.8394
     2.5809

          k = 0.0000 0.3849 0.0000 ( 11058 PWs)   bands (ev):

   -61.5509 -35.6723 -35.6211 -35.4764 -12.8091 -12.5694  -5.0008  -4.3964
    -4.1089  -2.5823  -2.4652  -1.5849  -1.0992   1.1739   1.5017   2.2640
     2.7765

          k = 0.0000 0.5132 0.0000 ( 11034 PWs)   bands (ev):

   -61.5430 -35.7458 -35.6075 -35.4940 -12.2979 -12.2676  -5.7151  -5.0589
    -4.1210  -2.8098  -2.7392  -1.3519  -0.9531   1.7654   1.7808   2.5979
     2.8432

          k = 0.1111 0.1925 0.0000 ( 10990 PWs)   bands (ev):

   -61.5662 -35.6474 -35.5240 -35.4455 -13.5992 -13.0566  -5.0845  -3.3305
    -3.2153  -2.2349  -1.6938  -1.4168  -1.3053   0.8969   1.5320   1.6655
     2.5449

          k = 0.1111 0.3208 0.0000 ( 11031 PWs)   bands (ev):

   -61.5549 -35.6279 -35.6235 -35.4796 -13.0360 -12.7055  -4.6849  -3.9986
    -3.8963  -3.0733  -1.8740  -1.8371  -1.1440   0.7326   1.6198   1.8683
     2.7934

          k = 0.1111 0.4491 0.0000 ( 11057 PWs)   bands (ev):

   -61.5448 -35.7094 -35.6107 -35.5099 -12.4384 -12.3420  -5.2845  -4.7512
    -4.0235  -3.2205  -2.3981  -2.0292  -0.9378   1.1950   1.9928   2.2332
     2.8906

          k = 0.1111 0.5774 0.0000 ( 11082 PWs)   bands (ev):

   -61.5409 -35.7430 -35.6039 -35.5218 -12.1786 -12.1607  -5.6639  -5.1289
    -4.0540  -3.1201  -2.7264  -1.9974  -0.7923   1.6467   2.1025   2.3945
     2.9023

          k = 0.2222 0.3849 0.0000 ( 11046 PWs)   bands (ev):

   -61.5456 -35.6784 -35.6119 -35.5332 -12.4976 -12.3704  -4.9081  -4.4302
    -3.8936  -3.6505  -2.6456  -2.1840  -0.9722   0.9034   1.8543   2.1003
     3.0400

          k = 0.2222 0.5132 0.0000 ( 11059 PWs)   bands (ev):

   -61.5395 -35.7044 -35.6015 -35.5776 -12.1177 -12.0883  -5.1723  -5.0359
    -3.8824  -3.4965  -3.1428  -2.7201  -0.6935   1.3927   1.7916   2.2442
     3.3062

          k = 0.3333 0.5774 0.0000 ( 11088 PWs)   bands (ev):

   -61.5374 -35.6636 -35.6434 -35.5979 -12.0213 -11.9440  -5.1761  -4.7453
    -4.1629  -3.6680  -3.4307  -3.0079  -0.4848   1.4475   1.5611   2.2267
     3.5546

     the Fermi energy is     0.0965 ev

!    total energy              =    -496.67655687 Ry
     estimated scf accuracy    <       0.00000077 Ry
     smearing contrib. (-TS)   =      -0.00000000 Ry
     internal energy E=F+TS    =    -496.67655687 Ry

     convergence has been achieved in   6 iterations

     negative rho (up, down):  7.545E-05 0.000E+00

     Forces acting on atoms (cartesian axes, Ry/au):

     atom    1 type  1   force =     0.00000000    0.00000000    0.00000000
     atom    2 type  2   force =     0.00000000    0.00000000   -0.11977506
     atom    3 type  2   force =     0.00000000    0.00000000    0.11977506
     The non-local contrib.  to forces
     atom    1 type  1   force =     0.00000000   -0.00000000    0.00000000
     atom    2 type  2   force =     0.00000000   -0.00000000   -0.31790229
     atom    3 type  2   force =     0.00000000    0.00000000    0.31790229
     The ionic contribution  to forces
     atom    1 type  1   force =    -0.00000000   -0.00000000   -0.00000000
     atom    2 type  2   force =     0.00000000   -0.00000000   35.10841296
     atom    3 type  2   force =     0.00000000   -0.00000000  -35.10841296
     The local contribution  to forces
     atom    1 type  1   force =    -0.00000000    0.00000000   -0.00000000
     atom    2 type  2   force =    -0.00000000    0.00000000  -34.91154477
     atom    3 type  2   force =    -0.00000000    0.00000000   34.91154477
     The core correction contribution to forces
     atom    1 type  1   force =     0.00000000   -0.00000000    0.00000000
     atom    2 type  2   force =     0.00000000   -0.00000000    0.00486970
     atom    3 type  2   force =     0.00000000   -0.00000000   -0.00486970
     The Hubbard contrib.    to forces
     atom    1 type  1   force =     0.00000000    0.00000000    0.00000000
     atom    2 type  2   force =     0.00000000    0.00000000    0.00000000
     atom    3 type  2   force =     0.00000000    0.00000000    0.00000000
     The SCF correction term to forces
     atom    1 type  1   force =     0.00000000    0.00000000    0.00000000
     atom    2 type  2   force =    -0.00000000   -0.00000000   -0.00162013
     atom    3 type  2   force =     0.00000000    0.00000000    0.00162013

     DFT-D3 dispersion contribution to forces:
     atom    1 type  1   force =     0.00000000   -0.00000000   -0.00000000
     atom    2 type  2   force =    -0.00000000    0.00000000   -0.00199053
     atom    3 type  2   force =     0.00000000    0.00000000    0.00199053

     Total force =     0.169388     Total SCF correction =     0.002291


     Computing stress (Cartesian axis) and pressure


     negative rho (up, down):  7.545E-05 0.000E+00
          total   stress  (Ry/bohr**3)                   (kbar)     P=      -55.79
  -0.00020421  -0.00000000   0.00000000          -30.04       -0.00        0.00
  -0.00000000  -0.00020421   0.00000000           -0.00      -30.04        0.00
   0.00000000  -0.00000000  -0.00072930            0.00       -0.00     -107.28


     Entering Dynamics:    iteration =     3

     <vel(dt)|acc(dt)> =   1.00000000

ATOMIC_POSITIONS (crystal)
Mo            0.0000000000       -0.0000000000        0.5000000000
S             0.6666666667        0.3333333333        0.5823391066
S             0.6666666667        0.3333333333        0.4176608934



     Writing config-only to output data dir ./tmp/scf.save/
     NEW-OLD atomic charge density approx. for the potential

     negative rho (up, down):  8.798E-05 0.000E+00

     total cpu time spent up to now is      141.5 secs

     Self-consistent Calculation

     iteration #  1     ecut=    70.00 Ry     beta= 0.70
     Davidson diagonalization with overlap
     ethr =  1.00E-06,  avg # of iterations = 10.2

     negative rho (up, down):  8.323E-05 0.000E+00

     total cpu time spent up to now is      149.8 secs

     total energy              =    -496.72164679 Ry
     estimated scf accuracy    <       0.02033839 Ry

     iteration #  2     ecut=    70.00 Ry     beta= 0.70
     Davidson diagonalization with overlap
     ethr =  7.82E-05,  avg # of iterations =  3.0

     negative rho (up, down):  8.112E-05 0.000E+00

     total cpu time spent up to now is      155.0 secs

     total energy              =    -496.70818665 Ry
     estimated scf accuracy    <       0.17012152 Ry

     iteration #  3     ecut=    70.00 Ry     beta= 0.70
     Davidson diagonalization with overlap
     ethr =  7.82E-05,  avg # of iterations =  3.0

     negative rho (up, down):  8.002E-05 0.000E+00

     total cpu time spent up to now is      160.1 secs

     total energy              =    -496.73242582 Ry
     estimated scf accuracy    <       0.00116495 Ry

     iteration #  4     ecut=    70.00 Ry     beta= 0.70
     Davidson diagonalization with overlap
     ethr =  4.48E-06,  avg # of iterations =  2.1

     negative rho (up, down):  7.994E-05 0.000E+00

     total cpu time spent up to now is      164.8 secs

     total energy              =    -496.73255158 Ry
     estimated scf accuracy    <       0.00010400 Ry

     iteration #  5     ecut=    70.00 Ry     beta= 0.70
     Davidson diagonalization with overlap
     ethr =  4.00E-07,  avg # of iterations =  2.0

     negative rho (up, down):  8.006E-05 0.000E+00

     total cpu time spent up to now is      169.6 secs

     total energy              =    -496.73256986 Ry
     estimated scf accuracy    <       0.00000104 Ry

     iteration #  6     ecut=    70.00 Ry     beta= 0.70
     Davidson diagonalization with overlap
     ethr =  4.00E-09,  avg # of iterations =  3.8

     negative rho (up, down):  8.020E-05 0.000E+00

     total cpu time spent up to now is      174.9 secs

     End of self-consistent calculation

          k = 0.0000 0.0000 0.0000 ( 10913 PWs)   bands (ev):

   -61.5412 -35.6876 -35.4667 -35.4667 -14.7943 -13.4865  -6.3071  -3.2642
    -3.2642  -2.4743  -2.1478  -2.1478  -0.7044   2.1302   2.1302   2.3709
     2.3709

          k = 0.0000 0.1283 0.0000 ( 10942 PWs)   bands (ev):

   -61.5366 -35.6785 -35.5130 -35.4772 -14.6113 -13.4108  -6.1022  -3.6546
    -3.1593  -3.0734  -2.4279  -1.7617  -0.8008   1.9219   1.9388   2.1729
     2.4341

          k = 0.0000 0.2566 0.0000 ( 11028 PWs)   bands (ev):

   -61.5250 -35.6554 -35.6288 -35.5037 -14.1138 -13.2059  -5.7078  -4.3651
    -4.0385  -2.9977  -2.5761  -1.8999  -1.2559   1.5045   1.7942   2.1176
     3.0150

          k = 0.0000 0.3849 0.0000 ( 11058 PWs)   bands (ev):

   -61.5117 -35.7580 -35.6290 -35.5338 -13.4648 -12.9441  -5.9260  -4.8710
    -4.5711  -3.5071  -2.3072  -2.0045  -1.6498   1.5759   1.6770   2.7484
     3.4525

          k = 0.0000 0.5132 0.0000 ( 11034 PWs)   bands (ev):

   -61.5030 -35.8409 -35.6117 -35.5533 -12.9657 -12.7514  -6.3942  -5.4111
    -4.7115  -3.7909  -2.5338  -1.6577  -1.3897   1.6007   2.0462   3.1707
     3.6459

          k = 0.1111 0.1925 0.0000 ( 10990 PWs)   bands (ev):

   -61.5285 -35.6624 -35.5899 -35.4999 -14.2704 -13.2698  -5.7797  -4.1848
    -3.6916  -3.1074  -2.7673  -1.5949  -1.0852   1.5153   1.8276   1.8864
     2.9632

          k = 0.1111 0.3208 0.0000 ( 11031 PWs)   bands (ev):

   -61.5160 -35.7028 -35.6377 -35.5377 -13.6912 -13.0310  -5.6606  -4.5041
    -4.4759  -3.7251  -2.5181  -1.8418  -1.4864   1.3180   1.8085   2.1709
     3.5051

          k = 0.1111 0.4491 0.0000 ( 11057 PWs)   bands (ev):

   -61.5050 -35.8000 -35.6158 -35.5713 -13.0981 -12.7912  -6.0699  -5.2983
    -4.5427  -3.8563  -2.4975  -2.3130  -1.3197   1.5576   1.9610   2.7826
     3.6603

          k = 0.1111 0.5774 0.0000 ( 11082 PWs)   bands (ev):

   -61.5007 -35.8379 -35.6071 -35.5845 -12.8317 -12.6864  -6.2888  -5.6244
    -4.6877  -3.8458  -2.5413  -2.4105  -1.0694   1.6137   2.2314   3.1736
     3.5063

          k = 0.2222 0.3849 0.0000 ( 11046 PWs)   bands (ev):

   -61.5059 -35.7652 -35.6174 -35.5975 -13.1529 -12.8028  -5.7968  -5.2384
    -4.3073  -3.9992  -3.1957  -2.0750  -1.3525   1.4842   1.9822   2.3477
     3.8533

          k = 0.2222 0.5132 0.0000 ( 11059 PWs)   bands (ev):

   -61.4992 -35.7951 -35.6469 -35.6042 -12.7571 -12.6310  -5.8494  -5.8138
    -4.4794  -3.7934  -3.6124  -2.5513  -0.9712   1.4070   2.4877   2.5475
     3.9973

          k = 0.3333 0.5774 0.0000 ( 11088 PWs)   bands (ev):

   -61.4969 -35.7572 -35.7130 -35.5996 -12.6184 -12.5593  -6.1045  -5.2796
    -4.7568  -4.2196  -3.5614  -2.8369  -0.6768   1.0466   2.3830   2.9033
     4.2562

     the Fermi energy is    -0.0405 ev

!    total energy              =    -496.73257051 Ry
     estimated scf accuracy    <       0.00000009 Ry
     smearing contrib. (-TS)   =      -0.00000000 Ry
     internal energy E=F+TS    =    -496.73257051 Ry

     convergence has been achieved in   6 iterations

     negative rho (up, down):  8.020E-05 0.000E+00

     Forces acting on atoms (cartesian axes, Ry/au):

     atom    1 type  1   force =     0.00000000    0.00000000    0.00000000
     atom    2 type  2   force =     0.00000000   -0.00000000    0.00135810
     atom    3 type  2   force =     0.00000000   -0.00000000   -0.00135810
     The non-local contrib.  to forces
     atom    1 type  1   force =     0.00000000   -0.00000000    0.00000000
     atom    2 type  2   force =    -0.00000000   -0.00000000   -0.26682546
     atom    3 type  2   force =     0.00000000   -0.00000000    0.26682546
     The ionic contribution  to forces
     atom    1 type  1   force =    -0.00000000    0.00000000    0.00000000
     atom    2 type  2   force =     0.00000000   -0.00000000   35.68691757
     atom    3 type  2   force =     0.00000000   -0.00000000  -35.68691757
     The local contribution  to forces
     atom    1 type  1   force =    -0.00000000    0.00000000   -0.00000000
     atom    2 type  2   force =    -0.00000000    0.00000000  -35.41860503
     atom    3 type  2   force =    -0.00000000    0.00000000   35.41860503
     The core correction contribution to forces
     atom    1 type  1   force =     0.00000000   -0.00000000    0.00000000
     atom    2 type  2   force =     0.00000000   -0.00000000    0.00215470
     atom    3 type  2   force =     0.00000000   -0.00000000   -0.00215470
     The Hubbard contrib.    to forces
     atom    1 type  1   force =     0.00000000    0.00000000    0.00000000
     atom    2 type  2   force =     0.00000000    0.00000000    0.00000000
     atom    3 type  2   force =     0.00000000    0.00000000    0.00000000
     The SCF correction term to forces
     atom    1 type  1   force =     0.00000000    0.00000000   -0.00000000
     atom    2 type  2   force =     0.00000000   -0.00000000   -0.00049643
     atom    3 type  2   force =     0.00000000   -0.00000000    0.00049643

     DFT-D3 dispersion contribution to forces:
     atom    1 type  1   force =    -0.00000000    0.00000000   -0.00000000
     atom    2 type  2   force =     0.00000000   -0.00000000   -0.00178724
     atom    3 type  2   force =     0.00000000   -0.00000000    0.00178724

     Total force =     0.001921     Total SCF correction =     0.000702
     SCF correction compared to forces is large: reduce conv_thr to get better values


     Computing stress (Cartesian axis) and pressure


     negative rho (up, down):  8.020E-05 0.000E+00
          total   stress  (Ry/bohr**3)                   (kbar)     P=        0.02
  -0.00000199   0.00000000  -0.00000000           -0.29        0.00       -0.00
   0.00000000  -0.00000199   0.00000000            0.00       -0.29        0.00
   0.00000000   0.00000000   0.00000435            0.00        0.00        0.64


     Entering Dynamics:    iteration =     4

     <vel(dt)|acc(dt)> =  -1.00000000

ATOMIC_POSITIONS (crystal)
Mo            0.0000000000       -0.0000000000        0.5000000000
S             0.6666666667        0.3333333333        0.5823972476
S             0.6666666667        0.3333333333        0.4176027524



     Writing config-only to output data dir ./tmp/scf.save/
     NEW-OLD atomic charge density approx. for the potential

     negative rho (up, down):  8.017E-05 0.000E+00

     total cpu time spent up to now is      183.0 secs

     Self-consistent Calculation

     iteration #  1     ecut=    70.00 Ry     beta= 0.70
     Davidson diagonalization with overlap
     ethr =  1.00E-06,  avg # of iterations =  2.0

     Threshold (ethr) on eigenvalues was too large:
     Diagonalizing with lowered threshold

     Davidson diagonalization with overlap
     ethr =  8.79E-09,  avg # of iterations =  4.0

     negative rho (up, down):  8.021E-05 0.000E+00

     total cpu time spent up to now is      186.7 secs

     End of self-consistent calculation

          k = 0.0000 0.0000 0.0000 ( 10913 PWs)   bands (ev):

   -61.5453 -35.6907 -35.4701 -35.4701 -14.7917 -13.4872  -6.3049  -3.2600
    -3.2600  -2.4773  -2.1447  -2.1447  -0.7096   2.1283   2.1283   2.3665
     2.3665

          k = 0.0000 0.1283 0.0000 ( 10942 PWs)   bands (ev):

   -61.5407 -35.6817 -35.5163 -35.4806 -14.6087 -13.4114  -6.0999  -3.6507
    -3.1590  -3.0693  -2.4247  -1.7622  -0.8054   1.9171   1.9365   2.1687
     2.4316

          k = 0.0000 0.2566 0.0000 ( 11028 PWs)   bands (ev):

   -61.5290 -35.6586 -35.6320 -35.5071 -14.1113 -13.2060  -5.7047  -4.3626
    -4.0375  -2.9945  -2.5722  -1.9019  -1.2590   1.4992   1.7905   2.1144
     3.0111

          k = 0.0000 0.3849 0.0000 ( 11058 PWs)   bands (ev):

   -61.5158 -35.7611 -35.6322 -35.5371 -13.4623 -12.9435  -5.9229  -4.8703
    -4.5698  -3.5038  -2.3098  -2.0013  -1.6516   1.5730   1.6723   2.7442
     3.4472

          k = 0.0000 0.5132 0.0000 ( 11034 PWs)   bands (ev):

   -61.5071 -35.8440 -35.6150 -35.5566 -12.9631 -12.7502  -6.3924  -5.4110
    -4.7098  -3.7875  -2.5365  -1.6552  -1.3913   1.5986   2.0428   3.1661
     3.6398

          k = 0.1111 0.1925 0.0000 ( 10990 PWs)   bands (ev):

   -61.5326 -35.6656 -35.5932 -35.5032 -14.2679 -13.2700  -5.7769  -4.1817
    -3.6908  -3.1046  -2.7635  -1.5961  -1.0886   1.5102   1.8249   1.8824
     2.9595

          k = 0.1111 0.3208 0.0000 ( 11031 PWs)   bands (ev):

   -61.5201 -35.7060 -35.6408 -35.5410 -13.6887 -13.0306  -5.6570  -4.5026
    -4.4744  -3.7232  -2.5157  -1.8436  -1.4876   1.3131   1.8049   2.1674
     3.4997

          k = 0.1111 0.4491 0.0000 ( 11057 PWs)   bands (ev):

   -61.5091 -35.8031 -35.6190 -35.5746 -13.0956 -12.7901  -6.0675  -5.2971
    -4.5412  -3.8546  -2.4963  -2.3153  -1.3198   1.5537   1.9585   2.7780
     3.6544

          k = 0.1111 0.5774 0.0000 ( 11082 PWs)   bands (ev):

   -61.5048 -35.8410 -35.6104 -35.5878 -12.8290 -12.6850  -6.2873  -5.6234
    -4.6858  -3.8440  -2.5438  -2.4095  -1.0698   1.6117   2.2283   3.1680
     3.5011

          k = 0.2222 0.3849 0.0000 ( 11046 PWs)   bands (ev):

   -61.5099 -35.7683 -35.6206 -35.6008 -13.1504 -12.8018  -5.7940  -5.2360
    -4.3059  -3.9990  -3.1946  -2.0770  -1.3526   1.4792   1.9804   2.3433
     3.8470

          k = 0.2222 0.5132 0.0000 ( 11059 PWs)   bands (ev):

   -61.5033 -35.7983 -35.6502 -35.6074 -12.7544 -12.6297  -5.8469  -5.8122
    -4.4776  -3.7936  -3.6114  -2.5536  -0.9717   1.4056   2.4836   2.5418
     3.9917

          k = 0.3333 0.5774 0.0000 ( 11088 PWs)   bands (ev):

   -61.5009 -35.7603 -35.7163 -35.6028 -12.6157 -12.5578  -6.1017  -5.2786
    -4.7556  -4.2177  -3.5622  -2.8392  -0.6780   1.0471   2.3769   2.8976
     4.2505

     the Fermi energy is    -0.0460 ev

!    total energy              =    -496.73257359 Ry
     estimated scf accuracy    <       0.00000099 Ry
     smearing contrib. (-TS)   =      -0.00000000 Ry
     internal energy E=F+TS    =    -496.73257359 Ry

     convergence has been achieved in   1 iterations

     negative rho (up, down):  8.021E-05 0.000E+00

     Forces acting on atoms (cartesian axes, Ry/au):

     atom    1 type  1   force =     0.00000000   -0.00000000    0.00000000
     atom    2 type  2   force =     0.00000000    0.00000000    0.00010776
     atom    3 type  2   force =     0.00000000    0.00000000   -0.00010776
     The non-local contrib.  to forces
     atom    1 type  1   force =     0.00000000   -0.00000000    0.00000000
     atom    2 type  2   force =     0.00000000    0.00000000   -0.26703818
     atom    3 type  2   force =     0.00000000    0.00000000    0.26703818
     The ionic contribution  to forces
     atom    1 type  1   force =    -0.00000000    0.00000000    0.00000000
     atom    2 type  2   force =     0.00000000   -0.00000000   35.68506935
     atom    3 type  2   force =     0.00000000    0.00000000  -35.68506935
     The local contribution  to forces
     atom    1 type  1   force =    -0.00000000    0.00000000   -0.00000000
     atom    2 type  2   force =    -0.00000000    0.00000000  -35.42024418
     atom    3 type  2   force =    -0.00000000    0.00000000   35.42024418
     The core correction contribution to forces
     atom    1 type  1   force =     0.00000000   -0.00000000    0.00000000
     atom    2 type  2   force =     0.00000000   -0.00000000    0.00214997
     atom    3 type  2   force =     0.00000000   -0.00000000   -0.00214997
     The Hubbard contrib.    to forces
     atom    1 type  1   force =     0.00000000    0.00000000    0.00000000
     atom    2 type  2   force =     0.00000000    0.00000000    0.00000000
     atom    3 type  2   force =     0.00000000    0.00000000    0.00000000
     The SCF correction term to forces
     atom    1 type  1   force =    -0.00000000    0.00000000    0.00000000
     atom    2 type  2   force =     0.00000000   -0.00000000    0.00195677
     atom    3 type  2   force =     0.00000000   -0.00000000   -0.00195677

     DFT-D3 dispersion contribution to forces:
     atom    1 type  1   force =    -0.00000000    0.00000000   -0.00000000
     atom    2 type  2   force =     0.00000000   -0.00000000   -0.00178597
     atom    3 type  2   force =     0.00000000   -0.00000000    0.00178597

     Total force =     0.000152     Total SCF correction =     0.002767
     SCF correction compared to forces is large: reduce conv_thr to get better values


     Computing stress (Cartesian axis) and pressure


     negative rho (up, down):  8.021E-05 0.000E+00
          total   stress  (Ry/bohr**3)                   (kbar)     P=       -0.43
  -0.00000540   0.00000000   0.00000000           -0.79        0.00        0.00
  -0.00000000  -0.00000540   0.00000000           -0.00       -0.79        0.00
  -0.00000000   0.00000000   0.00000192           -0.00        0.00        0.28


     Damped Dynamics: convergence achieved in   4 steps

     End of damped dynamics calculation

     Final energy =    -496.7325735852 Ry

Begin final coordinates
     new unit-cell volume =   1115.83340 a.u.^3 (   165.34945 Ang^3 )
     density =      1.60752 g/cm^3

CELL_PARAMETERS (angstrom)
   3.170000000   0.000000000   0.000000000
  -1.585000000   2.745300530   0.000000000
   0.000000000   0.000000000  19.000000000

ATOMIC_POSITIONS (crystal)
Mo            0.0000000000       -0.0000000000        0.5000000000
S             0.6666666667        0.3333333333        0.5823972476
S             0.6666666667        0.3333333333        0.4176027524
End final coordinates



     Writing all to output data dir ./tmp/scf.save/
 
     init_run     :      2.02s CPU      2.52s WALL (       1 calls)
     electrons    :    109.42s CPU    134.68s WALL (       5 calls)
     update_pot   :      4.72s CPU      5.80s WALL (       4 calls)
     forces       :      8.45s CPU     10.48s WALL (       5 calls)
     force_dftd3  :      0.10s CPU      0.12s WALL (       5 calls)
     stress       :     31.09s CPU     36.89s WALL (       5 calls)
     stres_dftd3  :      0.08s CPU      0.08s WALL (       5 calls)

     Called by init_run:
     wfcinit      :      0.28s CPU      0.34s WALL (       1 calls)
     potinit      :      0.53s CPU      0.61s WALL (       1 calls)
     hinit0       :      0.65s CPU      0.80s WALL (       1 calls)

     Called by electrons:
     c_bands      :     50.30s CPU     53.41s WALL (      29 calls)
     sum_band     :     31.59s CPU     43.14s WALL (      29 calls)
     v_of_rho     :      5.80s CPU      6.23s WALL (      32 calls)
     newd         :     20.02s CPU     31.72s WALL (      32 calls)
     PAW_pot      :      4.62s CPU      4.65s WALL (      36 calls)
     mix_rho      :      0.80s CPU      0.83s WALL (      29 calls)
     energy_dftd3 :      0.10s CPU      0.10s WALL (       5 calls)

     Called by c_bands:
     init_us_2    :      1.09s CPU      1.12s WALL (     876 calls)
     init_us_2:cp :      1.08s CPU      1.11s WALL (     876 calls)
     cegterg      :     45.82s CPU     48.88s WALL (     348 calls)

     Called by *egterg:
     cdiaghg      :      0.57s CPU      0.58s WALL (    1434 calls)
     h_psi        :     39.09s CPU     42.12s WALL (    1518 calls)
     s_psi        :      0.88s CPU      0.90s WALL (    1518 calls)
     g_psi        :      0.10s CPU      0.10s WALL (    1158 calls)

     Called by h_psi:
     h_psi:calbec :      1.65s CPU      1.69s WALL (    1518 calls)
     vloc_psi     :     35.95s CPU     38.91s WALL (    1518 calls)
     add_vuspsi   :      1.19s CPU      1.22s WALL (    1518 calls)

     General routines
     calbec       :      7.35s CPU      7.47s WALL (    2214 calls)
     fft          :      7.51s CPU      9.34s WALL (     537 calls)
     ffts         :      0.06s CPU      0.07s WALL (      61 calls)
     fftw         :     18.61s CPU     21.29s WALL (   42004 calls)
     interpolate  :      0.36s CPU      0.37s WALL (      32 calls)
 
     Parallel routines
 
     PWSCF        :   2m38.81s CPU   3m14.98s WALL

 
   This run was terminated on:  12:34: 6  15Jul2025            

=------------------------------------------------------------------------------=
   JOB DONE.
=------------------------------------------------------------------------------=
