
     Program PWSCF v.7.2 starts on 15Jul2025 at 12:15:31 

     This program is part of the open-source Quantum ESPRESSO suite
     for quantum simulation of materials; please cite
         "P. Giannozzi et al., J. Phys.:Condens. Matter 21 395502 (2009);
         "P. Giannozzi et al., J. Phys.:Condens. Matter 29 465901 (2017);
         "P. Giannozzi et al., J. Chem. Phys. 152 154105 (2020);
          URL http://www.quantum-espresso.org", 
     in publications or presentations arising from this work. More details at
     http://www.quantum-espresso.org/quote

     Parallel version (MPI), running on     4 processors

     MPI processes distributed on     1 nodes
     23223 MiB available memory on the printing compute node when the environment starts
 
     Waiting for input...
     Reading input from standard input

     Current dimensions of program PWSCF are:
     Max number of different atomic species (ntypx) = 10
     Max number of k-points (npk) =  40000
     Max angular momentum in pseudopotentials (lmaxx) =  4
     file Mo.pbe-spn-kjpaw_psl.1.0.0.UPF: wavefunction(s)  4S 4D renormalized
     file S.pbe-n-kjpaw_psl.1.0.0.UPF: wavefunction(s)  3S 3P renormalized
     Message from routine setup:
     using ibrav=0 with symmetry is DISCOURAGED, use correct ibrav instead
     Message from routine setup:
     Dynamics, you should have no symmetries
 
     R & G space division:  proc/nbgrp/npool/nimage =       4
     Subspace diagonalization in iterative solution of the eigenvalue problem:
     a serial algorithm will be used

 
     Parallelization info
     --------------------
     sticks:   dense  smooth     PW     G-vecs:    dense   smooth      PW
     Min         430     168     49                86163    21754    3467
     Max         431     169     50                86167    21787    3488
     Sum        1723     673    199               344661    87059   13921
 
     Using Slab Decomposition
 


     bravais-lattice index     =            0
     lattice parameter (alat)  =       5.9526  a.u.
     unit-cell volume          =    1101.7979 (a.u.)^3
     number of atoms/cell      =            3
     number of atomic types    =            2
     number of electrons       =        26.00
     number of Kohn-Sham states=           17
     kinetic-energy cutoff     =      70.0000  Ry
     charge density cutoff     =     700.0000  Ry
     scf convergence threshold =      1.0E-06
     mixing beta               =       0.7000
     number of iterations used =            8  plain     mixing
     energy convergence thresh.=      1.0E-04
     force convergence thresh. =      1.0E-03
     Exchange-correlation= SLA  PW   PBX  PBC
                           (   1   4   3   4   0   0   0)
     nstep                     =          100


     celldm(1)=   5.952637  celldm(2)=   0.000000  celldm(3)=   0.000000
     celldm(4)=   0.000000  celldm(5)=   0.000000  celldm(6)=   0.000000

     crystal axes: (cart. coord. in units of alat)
               a(1) = (   1.000000   0.000000   0.000000 )  
               a(2) = (  -0.500000   0.866025   0.000000 )  
               a(3) = (   0.000000   0.000000   6.031746 )  

     reciprocal axes: (cart. coord. in units 2 pi/alat)
               b(1) = (  1.000000  0.577350  0.000000 )  
               b(2) = (  0.000000  1.154701  0.000000 )  
               b(3) = (  0.000000  0.000000  0.165789 )  


     PseudoPot. # 1 for Mo read from file:
     /shared/ESPRESSO/PSLIBRARY/1.0.0/pbe/PSEUDOPOTENTIALS/Mo.pbe-spn-kjpaw_psl.1.0.0.UPF
     MD5 check sum: 4396e0c640fcce5c25f020efccf1ab12
     Pseudo is Projector augmented-wave + core cor, Zval = 14.0
     Generated using &quot;atomic&quot; code by A. Dal Corso  v.6.3
     Shape of augmentation charge: PSQ
     Using radial grid of 1229 points,  6 beta functions with: 
                l(1) =   0
                l(2) =   0
                l(3) =   1
                l(4) =   1
                l(5) =   2
                l(6) =   2
     Q(r) pseudized with 0 coefficients 


     PseudoPot. # 2 for S  read from file:
     /shared/ESPRESSO/PSLIBRARY/1.0.0/pbe/PSEUDOPOTENTIALS/S.pbe-n-kjpaw_psl.1.0.0.UPF
     MD5 check sum: c08f931834bcc19553f8bde8f1a3adc5
     Pseudo is Projector augmented-wave + core cor, Zval =  6.0
     Generated using "atomic" code by A. Dal Corso  (Quantum ESPRESSO distribution)
     Shape of augmentation charge: PSQ
     Using radial grid of 1151 points,  6 beta functions with: 
                l(1) =   0
                l(2) =   0
                l(3) =   1
                l(4) =   1
                l(5) =   2
                l(6) =   2
     Q(r) pseudized with 0 coefficients 


     atomic species   valence    mass     pseudopotential
        Mo            14.00    95.94000     Mo( 1.00)
        S              6.00    32.06500     S ( 1.00)

     12 Sym. Ops. (no inversion) found



   Cartesian axes

     site n.     atom                  positions (alat units)
         1           Mo  tau(   1) = (   0.0000000   0.0000000   3.0158730  )
         2           S   tau(   2) = (   0.5000000   0.2886751   3.6507937  )
         3           S   tau(   3) = (   0.5000000   0.2886751   2.3809524  )

     --------------------------------------------
     DFT-D3 Dispersion Correction (3-body terms):
     --------------------------------------------
       Reference C6 values for interpolation: 

         atom   Coordination number   C6
         S          0.000           268.01
         S          0.995           261.99
         S          1.990           251.62
         Mo         0.000          1691.79
         Mo         1.942          1004.01
         Mo        11.056           674.22

       Values used:

         atom   Coordination number  R0_AB[au]  C6      C8
         Mo         9.416            3.547    674.22  77634.20
         S          3.254            3.128    251.62  12327.25
         S          3.254            3.128    251.62  12327.25

         Molecular C6 ( Ry / a.u.^6 ) =      3323.66


     number of k points=    12  Gaussian smearing, width (Ry)=  0.0073
                       cart. coord. in units 2pi/alat
        k(    1) = (   0.0000000   0.0000000   0.0000000), wk =   0.0246914
        k(    2) = (   0.0000000   0.1283001   0.0000000), wk =   0.1481481
        k(    3) = (   0.0000000   0.2566001   0.0000000), wk =   0.1481481
        k(    4) = (   0.0000000   0.3849002   0.0000000), wk =   0.1481481
        k(    5) = (   0.0000000   0.5132002   0.0000000), wk =   0.1481481
        k(    6) = (   0.1111111   0.1924501   0.0000000), wk =   0.1481481
        k(    7) = (   0.1111111   0.3207501   0.0000000), wk =   0.2962963
        k(    8) = (   0.1111111   0.4490502   0.0000000), wk =   0.2962963
        k(    9) = (   0.1111111   0.5773503   0.0000000), wk =   0.1481481
        k(   10) = (   0.2222222   0.3849002   0.0000000), wk =   0.1481481
        k(   11) = (   0.2222222   0.5132002   0.0000000), wk =   0.2962963
        k(   12) = (   0.3333333   0.5773503   0.0000000), wk =   0.0493827

     Dense  grid:   344661 G-vectors     FFT dimensions: (  54,  54, 320)

     Smooth grid:    87059 G-vectors     FFT dimensions: (  32,  32, 192)

     Estimated max dynamical RAM per process >     333.92 MB

     Estimated total dynamical RAM >       1.30 GB

     Initial potential from superposition of free atoms

     starting charge      25.9991, renormalised to      26.0000

     negative rho (up, down):  5.311E-05 0.000E+00
     Starting wfcs are   18 randomized atomic wfcs
     Checking if some PAW data can be deallocated... 

     total cpu time spent up to now is        7.0 secs

     Self-consistent Calculation

     iteration #  1     ecut=    70.00 Ry     beta= 0.70
     Davidson diagonalization with overlap
     ethr =  1.00E-02,  avg # of iterations =  2.0

     Threshold (ethr) on eigenvalues was too large:
     Diagonalizing with lowered threshold

     Davidson diagonalization with overlap
     ethr =  2.27E-04,  avg # of iterations =  3.4

     negative rho (up, down):  6.315E-05 0.000E+00

     total cpu time spent up to now is       23.7 secs

     total energy              =    -496.51476295 Ry
     estimated scf accuracy    <       0.09979710 Ry

     iteration #  2     ecut=    70.00 Ry     beta= 0.70
     Davidson diagonalization with overlap
     ethr =  3.84E-04,  avg # of iterations =  3.0

     negative rho (up, down):  6.409E-05 0.000E+00

     total cpu time spent up to now is       33.9 secs

     total energy              =    -496.39276702 Ry
     estimated scf accuracy    <       1.36221825 Ry

     iteration #  3     ecut=    70.00 Ry     beta= 0.70
     Davidson diagonalization with overlap
     ethr =  3.84E-04,  avg # of iterations =  3.0

     negative rho (up, down):  6.609E-05 0.000E+00

     total cpu time spent up to now is       42.9 secs

     total energy              =    -496.53447591 Ry
     estimated scf accuracy    <       0.28151611 Ry

     iteration #  4     ecut=    70.00 Ry     beta= 0.70
     Davidson diagonalization with overlap
     ethr =  3.84E-04,  avg # of iterations =  1.7

     negative rho (up, down):  6.958E-05 0.000E+00

     total cpu time spent up to now is       51.5 secs

     total energy              =    -496.56013488 Ry
     estimated scf accuracy    <       0.00226344 Ry

     iteration #  5     ecut=    70.00 Ry     beta= 0.70
     Davidson diagonalization with overlap
     ethr =  8.71E-06,  avg # of iterations =  2.2

     negative rho (up, down):  7.120E-05 0.000E+00

     total cpu time spent up to now is       60.3 secs

     total energy              =    -496.56059049 Ry
     estimated scf accuracy    <       0.00009822 Ry

     iteration #  6     ecut=    70.00 Ry     beta= 0.70
     Davidson diagonalization with overlap
     ethr =  3.78E-07,  avg # of iterations =  3.2

     negative rho (up, down):  7.237E-05 0.000E+00

     total cpu time spent up to now is       70.1 secs

     total energy              =    -496.56060446 Ry
     estimated scf accuracy    <       0.00001867 Ry

     iteration #  7     ecut=    70.00 Ry     beta= 0.70
     Davidson diagonalization with overlap
     ethr =  7.18E-08,  avg # of iterations =  2.2

     negative rho (up, down):  7.248E-05 0.000E+00

     total cpu time spent up to now is       79.9 secs

     total energy              =    -496.56060964 Ry
     estimated scf accuracy    <       0.00000156 Ry

     iteration #  8     ecut=    70.00 Ry     beta= 0.70
     Davidson diagonalization with overlap
     ethr =  5.99E-09,  avg # of iterations =  2.0

     negative rho (up, down):  7.250E-05 0.000E+00

     total cpu time spent up to now is       89.1 secs

     End of self-consistent calculation

          k = 0.0000 0.0000 0.0000 ( 10817 PWs)   bands (ev):

   -61.5691 -35.6539 -35.3471 -35.3471 -13.6398 -13.2153  -5.3728  -3.0085
    -1.7202  -1.3392  -1.3392  -0.3373  -0.3373   1.7369   1.7369   2.0394
     2.0394

          k = 0.0000 0.1283 0.0000 ( 10841 PWs)   bands (ev):

   -61.5647 -35.6474 -35.3880 -35.3568 -13.4708 -13.0849  -5.1276  -3.0677
    -1.7637  -1.6113  -1.1494  -0.7077  -0.5931   1.1013   1.5853   1.7070
     2.1440

          k = 0.0000 0.2566 0.0000 ( 10874 PWs)   bands (ev):

   -61.5537 -35.6311 -35.4902 -35.3813 -13.0001 -12.7225  -4.5233  -3.2877
    -2.8122  -1.8036  -1.5205  -1.1145  -0.7035   0.4263   1.3520   1.5644
     2.2806

          k = 0.0000 0.3849 0.0000 ( 10894 PWs)   bands (ev):

   -61.5410 -35.6126 -35.6048 -35.4089 -12.3560 -12.2332  -4.3484  -3.9520
    -3.7079  -2.6517  -1.5961  -1.5853  -0.4016   0.7955   1.5021   1.8003
     2.3187

          k = 0.0000 0.5132 0.0000 ( 10942 PWs)   bands (ev):

   -61.5328 -35.6786 -35.6004 -35.4269 -11.8459 -11.8304  -5.1826  -4.7146
    -3.6574  -2.8655  -1.8501  -1.3883  -0.3885   1.4870   1.9372   2.0423
     2.3068

          k = 0.1111 0.1925 0.0000 ( 10854 PWs)   bands (ev):

   -61.5570 -35.6361 -35.4558 -35.3776 -13.1504 -12.8378  -4.6906  -3.1771
    -2.4638  -1.5722  -1.5041  -0.8858  -0.8776   0.4880   1.3623   1.5097
     2.2323

          k = 0.1111 0.3208 0.0000 ( 10900 PWs)   bands (ev):

   -61.5452 -35.6186 -35.5557 -35.4121 -12.5865 -12.4055  -4.0921  -3.4993
    -3.4676  -2.6772  -1.6371  -1.4185  -0.6453   0.2641   1.5391   1.5897
     2.2577

          k = 0.1111 0.4491 0.0000 ( 10904 PWs)   bands (ev):

   -61.5347 -35.6420 -35.6033 -35.4427 -11.9768 -11.9472  -4.6942  -4.3092
    -3.5826  -2.9425  -1.9659  -1.7435  -0.6586   0.8877   1.7614   2.0149
     2.3049

          k = 0.1111 0.5774 0.0000 ( 10922 PWs)   bands (ev):

   -61.5306 -35.6758 -35.5972 -35.4548 -11.7361 -11.6885  -5.1558  -4.7425
    -3.5545  -2.8918  -2.2348  -1.6910  -0.6395   1.5253   1.8029   1.9934
     2.3711

          k = 0.2222 0.3849 0.0000 ( 10882 PWs)   bands (ev):

   -61.5355 -35.6108 -35.6044 -35.4661 -12.0386 -11.9881  -4.2344  -3.8275
    -3.5271  -3.3302  -2.1911  -1.9893  -0.7896   0.4457   1.4275   2.1246
     2.4125

          k = 0.2222 0.5132 0.0000 ( 10932 PWs)   bands (ev):

   -61.5292 -35.6369 -35.5951 -35.5110 -11.6686 -11.6145  -4.6483  -4.4444
    -3.3680  -3.1541  -2.7168  -2.6126  -0.6390   1.1214   1.2053   2.0688
     2.7025

          k = 0.3333 0.5774 0.0000 ( 10950 PWs)   bands (ev):

   -61.5270 -35.5919 -35.5916 -35.5815 -11.5501 -11.4635  -4.4403  -4.2430
    -3.6912  -3.2341  -3.1732  -2.9344  -0.4624   0.9335   1.4821   1.6576
     2.9211

     the Fermi energy is    -0.0497 ev

!    total energy              =    -496.56060962 Ry
     estimated scf accuracy    <       0.00000024 Ry
     smearing contrib. (-TS)   =      -0.00000006 Ry
     internal energy E=F+TS    =    -496.56060956 Ry

     convergence has been achieved in   8 iterations

     negative rho (up, down):  7.250E-05 0.000E+00

     Forces acting on atoms (cartesian axes, Ry/au):

     atom    1 type  1   force =     0.00000000    0.00000000    0.00000000
     atom    2 type  2   force =     0.00000000    0.00000000   -0.17081593
     atom    3 type  2   force =     0.00000000    0.00000000    0.17081593
     The non-local contrib.  to forces
     atom    1 type  1   force =     0.00000000    0.00000000    0.00000000
     atom    2 type  2   force =     0.00000000    0.00000000   -0.33189627
     atom    3 type  2   force =     0.00000000    0.00000000    0.33189627
     The ionic contribution  to forces
     atom    1 type  1   force =     0.00000000   -0.00000000    0.00000000
     atom    2 type  2   force =    -0.00000000    0.00000000   34.72951705
     atom    3 type  2   force =    -0.00000000    0.00000000  -34.72951705
     The local contribution  to forces
     atom    1 type  1   force =    -0.00000000   -0.00000000    0.00000000
     atom    2 type  2   force =    -0.00000000    0.00000000  -34.57159238
     atom    3 type  2   force =    -0.00000000    0.00000000   34.57159238
     The core correction contribution to forces
     atom    1 type  1   force =     0.00000000   -0.00000000   -0.00000000
     atom    2 type  2   force =     0.00000000   -0.00000000    0.00630174
     atom    3 type  2   force =     0.00000000   -0.00000000   -0.00630174
     The Hubbard contrib.    to forces
     atom    1 type  1   force =     0.00000000    0.00000000    0.00000000
     atom    2 type  2   force =     0.00000000    0.00000000    0.00000000
     atom    3 type  2   force =     0.00000000    0.00000000    0.00000000
     The SCF correction term to forces
     atom    1 type  1   force =     0.00000000    0.00000000   -0.00000000
     atom    2 type  2   force =    -0.00000000   -0.00000000   -0.00072914
     atom    3 type  2   force =    -0.00000000   -0.00000000    0.00072914

     DFT-D3 dispersion contribution to forces:
     atom    1 type  1   force =    -0.00000000    0.00000000    0.00000000
     atom    2 type  2   force =     0.00000000   -0.00000000   -0.00241693
     atom    3 type  2   force =     0.00000000   -0.00000000    0.00241693

     Total force =     0.241570     Total SCF correction =     0.001031


     Computing stress (Cartesian axis) and pressure


     negative rho (up, down):  7.250E-05 0.000E+00
          total   stress  (Ry/bohr**3)                   (kbar)     P=      -81.79
  -0.00024686   0.00000000  -0.00000000          -36.31        0.00       -0.00
   0.00000000  -0.00024686   0.00000000            0.00      -36.31        0.00
  -0.00000000   0.00000000  -0.00117430           -0.00        0.00     -172.75


     Damped Dynamics Calculation

     Entering Dynamics:    iteration =     1

ATOMIC_POSITIONS (crystal)
Mo            0.0000000000        0.0000000000        0.5000000000
S             0.6666666667        0.3333333333        0.6031752767
S             0.6666666667        0.3333333333        0.3968247233



     Writing config-only to output data dir ./tmp/scf.save/
     NEW-OLD atomic charge density approx. for the potential

     negative rho (up, down):  7.339E-05 0.000E+00

     total cpu time spent up to now is      113.3 secs

     Self-consistent Calculation

     iteration #  1     ecut=    70.00 Ry     beta= 0.70
     Davidson diagonalization with overlap
     ethr =  1.00E-06,  avg # of iterations =  7.0

     negative rho (up, down):  7.296E-05 0.000E+00

     total cpu time spent up to now is      120.7 secs

     total energy              =    -496.58512310 Ry
     estimated scf accuracy    <       0.00098956 Ry

     iteration #  2     ecut=    70.00 Ry     beta= 0.70
     Davidson diagonalization with overlap
     ethr =  3.81E-06,  avg # of iterations =  3.2

     negative rho (up, down):  7.253E-05 0.000E+00

     total cpu time spent up to now is      124.5 secs

     total energy              =    -496.58248240 Ry
     estimated scf accuracy    <       0.04203620 Ry

     iteration #  3     ecut=    70.00 Ry     beta= 0.70
     Davidson diagonalization with overlap
     ethr =  3.81E-06,  avg # of iterations =  3.0

     negative rho (up, down):  7.249E-05 0.000E+00

     total cpu time spent up to now is      127.8 secs

     total energy              =    -496.58578931 Ry
     estimated scf accuracy    <       0.00003009 Ry

     iteration #  4     ecut=    70.00 Ry     beta= 0.70
     Davidson diagonalization with overlap
     ethr =  1.16E-07,  avg # of iterations =  2.8

     negative rho (up, down):  7.251E-05 0.000E+00

     total cpu time spent up to now is      130.3 secs

     total energy              =    -496.58579582 Ry
     estimated scf accuracy    <       0.00000833 Ry

     iteration #  5     ecut=    70.00 Ry     beta= 0.70
     Davidson diagonalization with overlap
     ethr =  3.20E-08,  avg # of iterations =  1.6

     negative rho (up, down):  7.250E-05 0.000E+00

     total cpu time spent up to now is      132.5 secs

     total energy              =    -496.58579624 Ry
     estimated scf accuracy    <       0.00000182 Ry

     iteration #  6     ecut=    70.00 Ry     beta= 0.70
     Davidson diagonalization with overlap
     ethr =  7.01E-09,  avg # of iterations =  2.0

     negative rho (up, down):  7.251E-05 0.000E+00

     total cpu time spent up to now is      134.7 secs

     End of self-consistent calculation

          k = 0.0000 0.0000 0.0000 ( 10817 PWs)   bands (ev):

   -61.5505 -35.6348 -35.3365 -35.3365 -13.7130 -13.2415  -5.4208  -2.9767
    -1.6418  -1.4381  -1.4381  -0.4509  -0.4509   1.7806   1.7806   2.0734
     2.0734

          k = 0.0000 0.1283 0.0000 ( 10841 PWs)   bands (ev):

   -61.5461 -35.6281 -35.3777 -35.3463 -13.5427 -13.1139  -5.1772  -3.0539
    -1.8679  -1.5495  -1.2511  -0.8013  -0.7118   1.1647   1.6294   1.7566
     2.1940

          k = 0.0000 0.2566 0.0000 ( 10874 PWs)   bands (ev):

   -61.5350 -35.6113 -35.4809 -35.3709 -13.0687 -12.7596  -4.5805  -3.3231
    -2.9219  -1.8384  -1.4906  -1.2420  -0.8101   0.5183   1.3963   1.6441
     2.3615

          k = 0.0000 0.3849 0.0000 ( 10894 PWs)   bands (ev):

   -61.5223 -35.5965 -35.5922 -35.3987 -12.4210 -12.2825  -4.4477  -4.0276
    -3.7720  -2.6380  -1.7192  -1.5786  -0.4943   0.8784   1.5280   1.9131
     2.4237

          k = 0.0000 0.5132 0.0000 ( 10942 PWs)   bands (ev):

   -61.5140 -35.6710 -35.5797 -35.4168 -11.9062 -11.8932  -5.2738  -4.7768
    -3.7281  -2.8571  -1.9870  -1.3656  -0.4603   1.5649   1.9391   2.1714
     2.4233

          k = 0.1111 0.1925 0.0000 ( 10854 PWs)   bands (ev):

   -61.5383 -35.6164 -35.4462 -35.3672 -13.2199 -12.8723  -4.7443  -3.1916
    -2.5761  -1.6652  -1.4695  -0.9786  -0.9730   0.5719   1.4113   1.5675
     2.3164

          k = 0.1111 0.3208 0.0000 ( 10900 PWs)   bands (ev):

   -61.5264 -35.5985 -35.5470 -35.4020 -12.6526 -12.4502  -4.1691  -3.5875
    -3.5318  -2.7264  -1.6514  -1.4955  -0.7179   0.3597   1.5785   1.6677
     2.3786

          k = 0.1111 0.4491 0.0000 ( 10904 PWs)   bands (ev):

   -61.5159 -35.6341 -35.5826 -35.4328 -12.0401 -12.0040  -4.7906  -4.3838
    -3.6506  -2.9649  -2.0546  -1.7708  -0.6873   0.9605   1.8693   2.0460
     2.4361

          k = 0.1111 0.5774 0.0000 ( 10922 PWs)   bands (ev):

   -61.5117 -35.6681 -35.5763 -35.4450 -11.7990 -11.7507  -5.2442  -4.8093
    -3.6311  -2.8989  -2.3431  -1.7243  -0.6463   1.5838   1.9264   2.0417
     2.4979

          k = 0.2222 0.3849 0.0000 ( 10882 PWs)   bands (ev):

   -61.5167 -35.6026 -35.5838 -35.4564 -12.1021 -12.0432  -4.3418  -3.9220
    -3.5827  -3.3788  -2.2578  -2.0264  -0.7954   0.5403   1.5248   2.1598
     2.5530

          k = 0.2222 0.5132 0.0000 ( 10932 PWs)   bands (ev):

   -61.5103 -35.6289 -35.5742 -35.5017 -11.7321 -11.6764  -4.7373  -4.5397
    -3.4485  -3.2084  -2.7822  -2.6377  -0.6221   1.2008   1.3236   2.1369
     2.8457

          k = 0.3333 0.5774 0.0000 ( 10950 PWs)   bands (ev):

   -61.5081 -35.5838 -35.5722 -35.5709 -11.6163 -11.5251  -4.5642  -4.3306
    -3.7672  -3.2661  -3.2492  -2.9504  -0.4423   1.0560   1.5235   1.7821
     3.0727

     the Fermi energy is    -0.0475 ev

!    total energy              =    -496.58579635 Ry
     estimated scf accuracy    <       0.00000032 Ry
     smearing contrib. (-TS)   =      -0.00000000 Ry
     internal energy E=F+TS    =    -496.58579635 Ry

     convergence has been achieved in   6 iterations

     negative rho (up, down):  7.251E-05 0.000E+00

     Forces acting on atoms (cartesian axes, Ry/au):

     atom    1 type  1   force =     0.00000000   -0.00000000    0.00000000
     atom    2 type  2   force =     0.00000000    0.00000000   -0.16465983
     atom    3 type  2   force =     0.00000000    0.00000000    0.16465983
     The non-local contrib.  to forces
     atom    1 type  1   force =     0.00000000    0.00000000    0.00000000
     atom    2 type  2   force =     0.00000000    0.00000000   -0.33101233
     atom    3 type  2   force =     0.00000000   -0.00000000    0.33101233
     The ionic contribution  to forces
     atom    1 type  1   force =     0.00000000   -0.00000000    0.00000000
     atom    2 type  2   force =    -0.00000000    0.00000000   34.90929375
     atom    3 type  2   force =     0.00000000   -0.00000000  -34.90929375
     The local contribution  to forces
     atom    1 type  1   force =    -0.00000000    0.00000000    0.00000000
     atom    2 type  2   force =    -0.00000000    0.00000000  -34.74526543
     atom    3 type  2   force =    -0.00000000    0.00000000   34.74526543
     The core correction contribution to forces
     atom    1 type  1   force =     0.00000000   -0.00000000   -0.00000000
     atom    2 type  2   force =     0.00000000   -0.00000000    0.00607990
     atom    3 type  2   force =     0.00000000   -0.00000000   -0.00607990
     The Hubbard contrib.    to forces
     atom    1 type  1   force =     0.00000000    0.00000000    0.00000000
     atom    2 type  2   force =     0.00000000    0.00000000    0.00000000
     atom    3 type  2   force =     0.00000000    0.00000000    0.00000000
     The SCF correction term to forces
     atom    1 type  1   force =     0.00000000    0.00000000   -0.00000000
     atom    2 type  2   force =     0.00000000    0.00000000   -0.00132949
     atom    3 type  2   force =    -0.00000000    0.00000000    0.00132949

     DFT-D3 dispersion contribution to forces:
     atom    1 type  1   force =    -0.00000000    0.00000000   -0.00000000
     atom    2 type  2   force =     0.00000000   -0.00000000   -0.00242623
     atom    3 type  2   force =     0.00000000   -0.00000000    0.00242623

     Total force =     0.232864     Total SCF correction =     0.001880


     Computing stress (Cartesian axis) and pressure


     negative rho (up, down):  7.251E-05 0.000E+00
          total   stress  (Ry/bohr**3)                   (kbar)     P=      -77.82
  -0.00023841   0.00000000   0.00000000          -35.07        0.00        0.00
   0.00000000  -0.00023841   0.00000000            0.00      -35.07        0.00
   0.00000000  -0.00000000  -0.00111015            0.00       -0.00     -163.31


     Entering Dynamics:    iteration =     2

     <vel(dt)|acc(dt)> =   1.00000000

ATOMIC_POSITIONS (crystal)
Mo            0.0000000000        0.0000000000        0.5000000000
S             0.6666666667        0.3333333333        0.5941730288
S             0.6666666667        0.3333333333        0.4058269712



     Writing config-only to output data dir ./tmp/scf.save/
     NEW-OLD atomic charge density approx. for the potential

     negative rho (up, down):  8.262E-05 0.000E+00

     total cpu time spent up to now is      141.9 secs

     Self-consistent Calculation

     iteration #  1     ecut=    70.00 Ry     beta= 0.70
     Davidson diagonalization with overlap
     ethr =  1.00E-06,  avg # of iterations =  9.7

     negative rho (up, down):  7.920E-05 0.000E+00

     total cpu time spent up to now is      145.5 secs

     total energy              =    -496.66937544 Ry
     estimated scf accuracy    <       0.01537246 Ry

     iteration #  2     ecut=    70.00 Ry     beta= 0.70
     Davidson diagonalization with overlap
     ethr =  5.91E-05,  avg # of iterations =  3.0

     negative rho (up, down):  7.726E-05 0.000E+00

     total cpu time spent up to now is      147.6 secs

     total energy              =    -496.64681749 Ry
     estimated scf accuracy    <       0.31299667 Ry

     iteration #  3     ecut=    70.00 Ry     beta= 0.70
     Davidson diagonalization with overlap
     ethr =  5.91E-05,  avg # of iterations =  3.0

     negative rho (up, down):  7.642E-05 0.000E+00

     total cpu time spent up to now is      150.0 secs

     total energy              =    -496.67893097 Ry
     estimated scf accuracy    <       0.00045239 Ry

     iteration #  4     ecut=    70.00 Ry     beta= 0.70
     Davidson diagonalization with overlap
     ethr =  1.74E-06,  avg # of iterations =  3.3

     negative rho (up, down):  7.650E-05 0.000E+00

     total cpu time spent up to now is      153.0 secs

     total energy              =    -496.67900520 Ry
     estimated scf accuracy    <       0.00010346 Ry

     iteration #  5     ecut=    70.00 Ry     beta= 0.70
     Davidson diagonalization with overlap
     ethr =  3.98E-07,  avg # of iterations =  1.8

     negative rho (up, down):  7.664E-05 0.000E+00

     total cpu time spent up to now is      157.1 secs

     total energy              =    -496.67901624 Ry
     estimated scf accuracy    <       0.00000368 Ry

     iteration #  6     ecut=    70.00 Ry     beta= 0.70
     Davidson diagonalization with overlap
     ethr =  1.42E-08,  avg # of iterations =  2.6

     negative rho (up, down):  7.666E-05 0.000E+00

     total cpu time spent up to now is      161.2 secs

     End of self-consistent calculation

          k = 0.0000 0.0000 0.0000 ( 10817 PWs)   bands (ev):

   -61.4781 -35.5781 -35.3067 -35.3067 -14.0933 -13.3570  -5.6965  -2.8050
    -2.0115  -2.0115  -1.2714  -1.0397  -1.0397   2.0276   2.0276   2.1981
     2.1981

          k = 0.0000 0.1283 0.0000 ( 10841 PWs)   bands (ev):

   -61.4735 -35.5704 -35.3503 -35.3169 -13.9165 -13.2454  -5.4624  -3.0035
    -2.4574  -1.8296  -1.3177  -1.2452  -1.2397   1.4887   1.8682   1.9407
     2.3945

          k = 0.0000 0.2566 0.0000 ( 10874 PWs)   bands (ev):

   -61.4619 -35.5508 -35.4594 -35.3425 -13.4273 -12.9378  -4.9166  -3.5424
    -3.4541  -1.9338  -1.8790  -1.3859  -1.3687   0.9493   1.6065   1.9571
     2.7176

          k = 0.0000 0.3849 0.0000 ( 10894 PWs)   bands (ev):

   -61.4487 -35.5814 -35.5284 -35.3716 -12.7660 -12.5298  -4.9750  -4.3772
    -4.0581  -2.5385  -2.3798  -1.5389  -0.9841   1.2573   1.6285   2.3769
     2.9073

          k = 0.0000 0.5132 0.0000 ( 10942 PWs)   bands (ev):

   -61.4401 -35.6599 -35.5138 -35.3904 -12.2334 -12.2148  -5.7097  -5.0553
    -4.0835  -2.7735  -2.6592  -1.2957  -0.8408   1.8898   1.9143   2.7062
     2.9691

          k = 0.1111 0.1925 0.0000 ( 10854 PWs)   bands (ev):

   -61.4655 -35.5567 -35.4227 -35.3387 -13.5829 -13.0351  -5.0562  -3.3027
    -3.1449  -2.1505  -1.5972  -1.3248  -1.2585   0.9782   1.6468   1.7854
     2.6799

          k = 0.1111 0.3208 0.0000 ( 10900 PWs)   bands (ev):

   -61.4530 -35.5357 -35.5292 -35.3751 -13.0013 -12.6712  -4.6525  -3.9385
    -3.8676  -3.0187  -1.8113  -1.7596  -1.0547   0.7998   1.7428   1.9822
     2.9209

          k = 0.1111 0.4491 0.0000 ( 10904 PWs)   bands (ev):

   -61.4421 -35.6210 -35.5172 -35.4074 -12.3805 -12.2927  -5.2675  -4.7373
    -3.9758  -3.1736  -2.3366  -1.9650  -0.8524   1.2860   2.1387   2.3394
     3.0143

          k = 0.1111 0.5774 0.0000 ( 10922 PWs)   bands (ev):

   -61.4378 -35.6569 -35.5099 -35.4202 -12.1217 -12.0900  -5.6603  -5.1253
    -4.0140  -3.0660  -2.6780  -1.9264  -0.7108   1.7734   2.2399   2.4943
     3.0272

          k = 0.2222 0.3849 0.0000 ( 10882 PWs)   bands (ev):

   -61.4429 -35.5878 -35.5186 -35.4324 -12.4424 -12.3225  -4.8829  -4.4017
    -3.8324  -3.6202  -2.5936  -2.1205  -0.8954   0.9755   1.9498   2.2527
     3.1710

          k = 0.2222 0.5132 0.0000 ( 10932 PWs)   bands (ev):

   -61.4363 -35.6156 -35.5074 -35.4800 -12.0580 -12.0149  -5.1597  -5.0241
    -3.8334  -3.4613  -3.0903  -2.6726  -0.6193   1.5015   1.8675   2.3871
     3.4521

          k = 0.3333 0.5774 0.0000 ( 10950 PWs)   bands (ev):

   -61.4340 -35.5719 -35.5504 -35.5035 -11.9568 -11.8638  -5.1660  -4.7275
    -4.1388  -3.6048  -3.4002  -2.9648  -0.4099   1.5834   1.6240   2.3397
     3.7135

     the Fermi energy is     0.2515 ev

!    total energy              =    -496.67901673 Ry
     estimated scf accuracy    <       0.00000078 Ry
     smearing contrib. (-TS)   =      -0.00000000 Ry
     internal energy E=F+TS    =    -496.67901673 Ry

     convergence has been achieved in   6 iterations

     negative rho (up, down):  7.666E-05 0.000E+00

     Forces acting on atoms (cartesian axes, Ry/au):

     atom    1 type  1   force =     0.00000000   -0.00000000    0.00000000
     atom    2 type  2   force =     0.00000000   -0.00000000   -0.11778056
     atom    3 type  2   force =     0.00000000    0.00000000    0.11778056
     The non-local contrib.  to forces
     atom    1 type  1   force =     0.00000000    0.00000000    0.00000000
     atom    2 type  2   force =     0.00000000    0.00000000   -0.31578380
     atom    3 type  2   force =     0.00000000    0.00000000    0.31578380
     The ionic contribution  to forces
     atom    1 type  1   force =     0.00000000    0.00000000   -0.00000000
     atom    2 type  2   force =    -0.00000000    0.00000000   35.59145541
     atom    3 type  2   force =    -0.00000000    0.00000000  -35.59145541
     The local contribution  to forces
     atom    1 type  1   force =    -0.00000000   -0.00000000   -0.00000000
     atom    2 type  2   force =    -0.00000000    0.00000000  -35.39457439
     atom    3 type  2   force =    -0.00000000    0.00000000   35.39457439
     The core correction contribution to forces
     atom    1 type  1   force =     0.00000000    0.00000000    0.00000000
     atom    2 type  2   force =     0.00000000   -0.00000000    0.00473069
     atom    3 type  2   force =     0.00000000   -0.00000000   -0.00473069
     The Hubbard contrib.    to forces
     atom    1 type  1   force =     0.00000000    0.00000000    0.00000000
     atom    2 type  2   force =     0.00000000    0.00000000    0.00000000
     atom    3 type  2   force =     0.00000000    0.00000000    0.00000000
     The SCF correction term to forces
     atom    1 type  1   force =    -0.00000000   -0.00000000   -0.00000000
     atom    2 type  2   force =    -0.00000000   -0.00000000   -0.00160439
     atom    3 type  2   force =     0.00000000   -0.00000000    0.00160439

     DFT-D3 dispersion contribution to forces:
     atom    1 type  1   force =     0.00000000   -0.00000000   -0.00000000
     atom    2 type  2   force =    -0.00000000    0.00000000   -0.00200408
     atom    3 type  2   force =    -0.00000000    0.00000000    0.00200408

     Total force =     0.166567     Total SCF correction =     0.002269


     Computing stress (Cartesian axis) and pressure


     negative rho (up, down):  7.666E-05 0.000E+00
          total   stress  (Ry/bohr**3)                   (kbar)     P=      -52.23
  -0.00016936   0.00000000   0.00000000          -24.91        0.00        0.00
   0.00000000  -0.00016936   0.00000000            0.00      -24.91        0.00
   0.00000000  -0.00000000  -0.00072652            0.00       -0.00     -106.87


     Entering Dynamics:    iteration =     3

     <vel(dt)|acc(dt)> =   1.00000000

ATOMIC_POSITIONS (crystal)
Mo            0.0000000000        0.0000000000        0.5000000000
S             0.6666666667        0.3333333333        0.5823566669
S             0.6666666667        0.3333333333        0.4176433331



     Writing config-only to output data dir ./tmp/scf.save/
     NEW-OLD atomic charge density approx. for the potential

     negative rho (up, down):  8.838E-05 0.000E+00

     total cpu time spent up to now is      174.4 secs

     Self-consistent Calculation

     iteration #  1     ecut=    70.00 Ry     beta= 0.70
     Davidson diagonalization with overlap
     ethr =  1.00E-06,  avg # of iterations = 10.2

     negative rho (up, down):  8.344E-05 0.000E+00

     total cpu time spent up to now is      182.5 secs

     total energy              =    -496.72095675 Ry
     estimated scf accuracy    <       0.02090086 Ry

     iteration #  2     ecut=    70.00 Ry     beta= 0.70
     Davidson diagonalization with overlap
     ethr =  8.04E-05,  avg # of iterations =  3.0

     negative rho (up, down):  8.116E-05 0.000E+00

     total cpu time spent up to now is      187.6 secs

     total energy              =    -496.70709334 Ry
     estimated scf accuracy    <       0.17598020 Ry

     iteration #  3     ecut=    70.00 Ry     beta= 0.70
     Davidson diagonalization with overlap
     ethr =  8.04E-05,  avg # of iterations =  3.0

     negative rho (up, down):  8.009E-05 0.000E+00

     total cpu time spent up to now is      193.1 secs

     total energy              =    -496.73210714 Ry
     estimated scf accuracy    <       0.00111124 Ry

     iteration #  4     ecut=    70.00 Ry     beta= 0.70
     Davidson diagonalization with overlap
     ethr =  4.27E-06,  avg # of iterations =  2.2

     negative rho (up, down):  8.002E-05 0.000E+00

     total cpu time spent up to now is      198.5 secs

     total energy              =    -496.73222976 Ry
     estimated scf accuracy    <       0.00010884 Ry

     iteration #  5     ecut=    70.00 Ry     beta= 0.70
     Davidson diagonalization with overlap
     ethr =  4.19E-07,  avg # of iterations =  2.0

     negative rho (up, down):  8.018E-05 0.000E+00

     total cpu time spent up to now is      203.7 secs

     End of self-consistent calculation

          k = 0.0000 0.0000 0.0000 ( 10817 PWs)   bands (ev):

   -61.4431 -35.6038 -35.3602 -35.3602 -14.7903 -13.4700  -6.2988  -3.1837
    -3.1837  -2.4511  -2.0491  -2.0491  -0.6755   2.2618   2.2618   2.5019
     2.5019

          k = 0.0000 0.1283 0.0000 ( 10841 PWs)   bands (ev):

   -61.4381 -35.5940 -35.4097 -35.3714 -14.6021 -13.3920  -6.0891  -3.5814
    -3.1203  -2.9875  -2.3363  -1.6879  -0.7635   2.0301   2.0654   2.2985
     2.5712

          k = 0.0000 0.2566 0.0000 ( 10874 PWs)   bands (ev):

   -61.4254 -35.5691 -35.5335 -35.3998 -14.0899 -13.1805  -5.6876  -4.3020
    -4.0104  -2.9189  -2.4765  -1.8411  -1.2080   1.5844   1.9136   2.2436
     3.1582

          k = 0.0000 0.3849 0.0000 ( 10894 PWs)   bands (ev):

   -61.4109 -35.6715 -35.5407 -35.4318 -13.4192 -12.9097  -5.9104  -4.8566
    -4.5181  -3.4386  -2.2635  -1.8926  -1.6008   1.7021   1.7709   2.8750
     3.5940

          k = 0.0000 0.5132 0.0000 ( 10942 PWs)   bands (ev):

   -61.4015 -35.7600 -35.5221 -35.4525 -12.9006 -12.7098  -6.3902  -5.4073
    -4.6782  -3.7279  -2.4976  -1.5430  -1.3275   1.7448   2.1796   3.2881
     3.7833

          k = 0.1111 0.1925 0.0000 ( 10854 PWs)   bands (ev):

   -61.4293 -35.5767 -35.4920 -35.3956 -14.2512 -13.2465  -5.7599  -4.1199
    -3.6594  -3.0361  -2.6732  -1.5199  -1.0369   1.6011   1.9495   2.0023
     3.1063

          k = 0.1111 0.3208 0.0000 ( 10900 PWs)   bands (ev):

   -61.4157 -35.6126 -35.5500 -35.4360 -13.6536 -12.9996  -5.6400  -4.4486
    -4.4423  -3.6790  -2.4318  -1.7751  -1.4231   1.3982   1.9297   2.2918
     3.6482

          k = 0.1111 0.4491 0.0000 ( 10904 PWs)   bands (ev):

   -61.4037 -35.7163 -35.5265 -35.4718 -13.0386 -12.7509  -6.0587  -5.2867
    -4.4960  -3.8116  -2.4220  -2.2629  -1.2386   1.6657   2.1059   2.9013
     3.7949

          k = 0.1111 0.5774 0.0000 ( 10922 PWs)   bands (ev):

   -61.3989 -35.7568 -35.5172 -35.4860 -12.7607 -12.6418  -6.2848  -5.6205
    -4.6539  -3.7964  -2.5013  -2.3300  -0.9854   1.7572   2.3800   3.2881
     3.6347

          k = 0.2222 0.3849 0.0000 ( 10882 PWs)   bands (ev):

   -61.4046 -35.6791 -35.5282 -35.4999 -13.0956 -12.7627  -5.7806  -5.2187
    -4.2418  -3.9727  -3.1432  -2.0131  -1.2749   1.5684   2.1406   2.4539
     4.0010

          k = 0.2222 0.5132 0.0000 ( 10932 PWs)   bands (ev):

   -61.3973 -35.7111 -35.5528 -35.5140 -12.6831 -12.5835  -5.8457  -5.8030
    -4.4355  -3.7594  -3.5560  -2.5043  -0.8897   1.5457   2.6317   2.6317
     4.1627

          k = 0.3333 0.5774 0.0000 ( 10950 PWs)   bands (ev):

   -61.3948 -35.6705 -35.6235 -35.5090 -12.5382 -12.5082  -6.1069  -5.2634
    -4.7325  -4.1577  -3.5243  -2.7963  -0.5939   1.1930   2.4511   3.0431
     4.4440

     the Fermi energy is     0.1403 ev

!    total energy              =    -496.73224836 Ry
     estimated scf accuracy    <       0.00000097 Ry
     smearing contrib. (-TS)   =      -0.00000000 Ry
     internal energy E=F+TS    =    -496.73224836 Ry

     convergence has been achieved in   5 iterations

     negative rho (up, down):  8.018E-05 0.000E+00

     Forces acting on atoms (cartesian axes, Ry/au):

     atom    1 type  1   force =     0.00000000    0.00000000    0.00000000
     atom    2 type  2   force =     0.00000000   -0.00000000    0.00559145
     atom    3 type  2   force =    -0.00000000   -0.00000000   -0.00559145
     The non-local contrib.  to forces
     atom    1 type  1   force =     0.00000000   -0.00000000    0.00000000
     atom    2 type  2   force =     0.00000000   -0.00000000   -0.26282819
     atom    3 type  2   force =     0.00000000    0.00000000    0.26282819
     The ionic contribution  to forces
     atom    1 type  1   force =     0.00000000   -0.00000000    0.00000000
     atom    2 type  2   force =    -0.00000000    0.00000000   36.19050852
     atom    3 type  2   force =    -0.00000000    0.00000000  -36.19050852
     The local contribution  to forces
     atom    1 type  1   force =    -0.00000000   -0.00000000   -0.00000000
     atom    2 type  2   force =    -0.00000000    0.00000000  -35.92175877
     atom    3 type  2   force =    -0.00000000    0.00000000   35.92175877
     The core correction contribution to forces
     atom    1 type  1   force =     0.00000000    0.00000000    0.00000000
     atom    2 type  2   force =     0.00000000   -0.00000000    0.00191955
     atom    3 type  2   force =     0.00000000   -0.00000000   -0.00191955
     The Hubbard contrib.    to forces
     atom    1 type  1   force =     0.00000000    0.00000000    0.00000000
     atom    2 type  2   force =     0.00000000    0.00000000    0.00000000
     atom    3 type  2   force =     0.00000000    0.00000000    0.00000000
     The SCF correction term to forces
     atom    1 type  1   force =     0.00000000    0.00000000    0.00000000
     atom    2 type  2   force =    -0.00000000   -0.00000000   -0.00046658
     atom    3 type  2   force =    -0.00000000   -0.00000000    0.00046658

     DFT-D3 dispersion contribution to forces:
     atom    1 type  1   force =     0.00000000   -0.00000000   -0.00000000
     atom    2 type  2   force =    -0.00000000    0.00000000   -0.00178307
     atom    3 type  2   force =    -0.00000000    0.00000000    0.00178307

     Total force =     0.007908     Total SCF correction =     0.000660


     Computing stress (Cartesian axis) and pressure


     negative rho (up, down):  8.018E-05 0.000E+00
          total   stress  (Ry/bohr**3)                   (kbar)     P=        6.25
   0.00004768  -0.00000000   0.00000000            7.01       -0.00        0.00
  -0.00000000   0.00004768   0.00000000           -0.00        7.01        0.00
   0.00000000   0.00000000   0.00003219            0.00        0.00        4.73


     Entering Dynamics:    iteration =     4

     <vel(dt)|acc(dt)> =  -1.00000000

ATOMIC_POSITIONS (crystal)
Mo            0.0000000000        0.0000000000        0.5000000000
S             0.6666666667        0.3333333333        0.5825916960
S             0.6666666667        0.3333333333        0.4174083040



     Writing config-only to output data dir ./tmp/scf.save/
     NEW-OLD atomic charge density approx. for the potential

     negative rho (up, down):  8.001E-05 0.000E+00

     total cpu time spent up to now is      220.7 secs

     Self-consistent Calculation

     iteration #  1     ecut=    70.00 Ry     beta= 0.70
     Davidson diagonalization with overlap
     ethr =  1.00E-06,  avg # of iterations =  4.5

     Threshold (ethr) on eigenvalues was too large:
     Diagonalizing with lowered threshold

     Davidson diagonalization with overlap
     ethr =  2.06E-08,  avg # of iterations =  3.7

     negative rho (up, down):  8.014E-05 0.000E+00

     total cpu time spent up to now is      230.7 secs

     total energy              =    -496.73232187 Ry
     estimated scf accuracy    <       0.00000571 Ry

     iteration #  2     ecut=    70.00 Ry     beta= 0.70
     Davidson diagonalization with overlap
     ethr =  2.20E-08,  avg # of iterations =  3.0

     negative rho (up, down):  8.017E-05 0.000E+00

     total cpu time spent up to now is      236.4 secs

     total energy              =    -496.73231849 Ry
     estimated scf accuracy    <       0.00003569 Ry

     iteration #  3     ecut=    70.00 Ry     beta= 0.70
     Davidson diagonalization with overlap
     ethr =  2.20E-08,  avg # of iterations =  2.8

     negative rho (up, down):  8.019E-05 0.000E+00

     total cpu time spent up to now is      241.9 secs

     total energy              =    -496.73232434 Ry
     estimated scf accuracy    <       0.00000142 Ry

     iteration #  4     ecut=    70.00 Ry     beta= 0.70
     Davidson diagonalization with overlap
     ethr =  5.45E-09,  avg # of iterations =  1.1

     negative rho (up, down):  8.020E-05 0.000E+00

     total cpu time spent up to now is      247.1 secs

     End of self-consistent calculation

          k = 0.0000 0.0000 0.0000 ( 10817 PWs)   bands (ev):

   -61.4444 -35.6046 -35.3595 -35.3595 -14.7775 -13.4721  -6.2876  -3.1593
    -3.1593  -2.4635  -2.0305  -2.0305  -0.6923   2.2586   2.2586   2.4876
     2.4876

          k = 0.0000 0.1283 0.0000 ( 10841 PWs)   bands (ev):

   -61.4394 -35.5949 -35.4090 -35.3708 -14.5895 -13.3933  -6.0772  -3.5589
    -3.1166  -2.9636  -2.3176  -1.6876  -0.7777   2.0151   2.0612   2.2856
     2.5658

          k = 0.0000 0.2566 0.0000 ( 10874 PWs)   bands (ev):

   -61.4267 -35.5701 -35.5324 -35.3990 -14.0778 -13.1796  -5.6717  -4.2871
    -4.0030  -2.9000  -2.4545  -1.8492  -1.2151   1.5681   1.9041   2.2363
     3.1471

          k = 0.0000 0.3849 0.0000 ( 10894 PWs)   bands (ev):

   -61.4123 -35.6700 -35.5418 -35.4310 -13.4072 -12.9057  -5.8930  -4.8507
    -4.5109  -3.4195  -2.2743  -1.8748  -1.6021   1.6983   1.7577   2.8633
     3.5771

          k = 0.0000 0.5132 0.0000 ( 10942 PWs)   bands (ev):

   -61.4028 -35.7582 -35.5233 -35.4517 -12.8880 -12.7032  -6.3790  -5.4041
    -4.6686  -3.7087  -2.5087  -1.5300  -1.3289   1.7470   2.1736   3.2748
     3.7632

          k = 0.1111 0.1925 0.0000 ( 10854 PWs)   bands (ev):

   -61.4306 -35.5776 -35.4910 -35.3949 -14.2390 -13.2462  -5.7457  -4.1017
    -3.6529  -3.0197  -2.6511  -1.5239  -1.0459   1.5849   1.9446   1.9916
     3.0958

          k = 0.1111 0.3208 0.0000 ( 10900 PWs)   bands (ev):

   -61.4170 -35.6112 -35.5511 -35.4352 -13.6416 -12.9967  -5.6210  -4.4389
    -4.4338  -3.6674  -2.4176  -1.7822  -1.4213   1.3838   1.9227   2.2840
     3.6308

          k = 0.1111 0.4491 0.0000 ( 10904 PWs)   bands (ev):

   -61.4050 -35.7146 -35.5277 -35.4709 -13.0263 -12.7451  -6.0447  -5.2780
    -4.4880  -3.8006  -2.4141  -2.2719  -1.2325   1.6570   2.1049   2.8883
     3.7757

          k = 0.1111 0.5774 0.0000 ( 10922 PWs)   bands (ev):

   -61.4003 -35.7550 -35.5184 -35.4850 -12.7480 -12.6347  -6.2750  -5.6129
    -4.6434  -3.7847  -2.5116  -2.3239  -0.9807   1.7583   2.3764   3.2701
     3.6195

          k = 0.2222 0.3849 0.0000 ( 10882 PWs)   bands (ev):

   -61.4059 -35.6776 -35.5294 -35.4989 -13.0835 -12.7573  -5.7645  -5.2041
    -4.2355  -3.9694  -3.1349  -2.0214  -1.2681   1.5537   2.1430   2.4421
     3.9810

          k = 0.2222 0.5132 0.0000 ( 10932 PWs)   bands (ev):

   -61.3987 -35.7094 -35.5517 -35.5152 -12.6705 -12.5763  -5.8312  -5.7928
    -4.4261  -3.7579  -3.5495  -2.5136  -0.8842   1.5480   2.6136   2.6240
     4.1464

          k = 0.3333 0.5774 0.0000 ( 10950 PWs)   bands (ev):

   -61.3962 -35.6687 -35.6225 -35.5103 -12.5254 -12.5005  -6.0906  -5.2563
    -4.7232  -4.1491  -3.5260  -2.8055  -0.5905   1.2034   2.4311   3.0275
     4.4279

     the Fermi energy is     0.1254 ev

!    total energy              =    -496.73232449 Ry
     estimated scf accuracy    <       0.00000004 Ry
     smearing contrib. (-TS)   =      -0.00000000 Ry
     internal energy E=F+TS    =    -496.73232449 Ry

     convergence has been achieved in   4 iterations

     negative rho (up, down):  8.020E-05 0.000E+00

     Forces acting on atoms (cartesian axes, Ry/au):

     atom    1 type  1   force =     0.00000000    0.00000000    0.00000000
     atom    2 type  2   force =     0.00000000   -0.00000000    0.00291109
     atom    3 type  2   force =     0.00000000   -0.00000000   -0.00291109
     The non-local contrib.  to forces
     atom    1 type  1   force =    -0.00000000    0.00000000    0.00000000
     atom    2 type  2   force =     0.00000000   -0.00000000   -0.26428853
     atom    3 type  2   force =     0.00000000   -0.00000000    0.26428853
     The ionic contribution  to forces
     atom    1 type  1   force =     0.00000000   -0.00000000    0.00000000
     atom    2 type  2   force =    -0.00000000    0.00000000   36.18260164
     atom    3 type  2   force =    -0.00000000    0.00000000  -36.18260164
     The local contribution  to forces
     atom    1 type  1   force =    -0.00000000   -0.00000000   -0.00000000
     atom    2 type  2   force =    -0.00000000    0.00000000  -35.91547993
     atom    3 type  2   force =    -0.00000000    0.00000000   35.91547993
     The core correction contribution to forces
     atom    1 type  1   force =     0.00000000    0.00000000    0.00000000
     atom    2 type  2   force =     0.00000000   -0.00000000    0.00199266
     atom    3 type  2   force =     0.00000000   -0.00000000   -0.00199266
     The Hubbard contrib.    to forces
     atom    1 type  1   force =     0.00000000    0.00000000    0.00000000
     atom    2 type  2   force =     0.00000000    0.00000000    0.00000000
     atom    3 type  2   force =     0.00000000    0.00000000    0.00000000
     The SCF correction term to forces
     atom    1 type  1   force =     0.00000000   -0.00000000   -0.00000000
     atom    2 type  2   force =    -0.00000000   -0.00000000   -0.00013665
     atom    3 type  2   force =    -0.00000000    0.00000000    0.00013665

     DFT-D3 dispersion contribution to forces:
     atom    1 type  1   force =    -0.00000000   -0.00000000   -0.00000000
     atom    2 type  2   force =     0.00000000    0.00000000   -0.00177809
     atom    3 type  2   force =     0.00000000    0.00000000    0.00177809

     Total force =     0.004117     Total SCF correction =     0.000193


     Computing stress (Cartesian axis) and pressure


     negative rho (up, down):  8.020E-05 0.000E+00
          total   stress  (Ry/bohr**3)                   (kbar)     P=        4.46
   0.00003909  -0.00000000  -0.00000000            5.75       -0.00       -0.00
  -0.00000000   0.00003909   0.00000000           -0.00        5.75        0.00
   0.00000000  -0.00000000   0.00001276            0.00       -0.00        1.88


     Entering Dynamics:    iteration =     5

     <vel(dt)|acc(dt)> =   1.00000000

ATOMIC_POSITIONS (crystal)
Mo            0.0000000000        0.0000000000        0.5000000000
S             0.6666666667        0.3333333333        0.5829387501
S             0.6666666667        0.3333333333        0.4170612499



     Writing config-only to output data dir ./tmp/scf.save/
     NEW-OLD atomic charge density approx. for the potential

     negative rho (up, down):  7.996E-05 0.000E+00

     total cpu time spent up to now is      263.8 secs

     Self-consistent Calculation

     iteration #  1     ecut=    70.00 Ry     beta= 0.70
     Davidson diagonalization with overlap
     ethr =  1.00E-06,  avg # of iterations =  5.0

     Threshold (ethr) on eigenvalues was too large:
     Diagonalizing with lowered threshold

     Davidson diagonalization with overlap
     ethr =  4.96E-08,  avg # of iterations =  2.0

     negative rho (up, down):  8.001E-05 0.000E+00

     total cpu time spent up to now is      273.6 secs

     total energy              =    -496.73232796 Ry
     estimated scf accuracy    <       0.00001314 Ry

     iteration #  2     ecut=    70.00 Ry     beta= 0.70
     Davidson diagonalization with overlap
     ethr =  5.05E-08,  avg # of iterations =  3.0

     negative rho (up, down):  8.004E-05 0.000E+00

     total cpu time spent up to now is      278.8 secs

     total energy              =    -496.73231970 Ry
     estimated scf accuracy    <       0.00008813 Ry

     iteration #  3     ecut=    70.00 Ry     beta= 0.70
     Davidson diagonalization with overlap
     ethr =  5.05E-08,  avg # of iterations =  2.7

     negative rho (up, down):  8.004E-05 0.000E+00

     total cpu time spent up to now is      284.0 secs

     total energy              =    -496.73233379 Ry
     estimated scf accuracy    <       0.00000292 Ry

     iteration #  4     ecut=    70.00 Ry     beta= 0.70
     Davidson diagonalization with overlap
     ethr =  1.12E-08,  avg # of iterations =  1.2

     negative rho (up, down):  8.004E-05 0.000E+00

     total cpu time spent up to now is      288.8 secs

     End of self-consistent calculation

          k = 0.0000 0.0000 0.0000 ( 10817 PWs)   bands (ev):

   -61.4435 -35.6015 -35.3554 -35.3554 -14.7530 -13.4702  -6.2653  -3.1176
    -3.1176  -2.4769  -1.9974  -1.9974  -0.7118   2.2589   2.2589   2.4714
     2.4714

          k = 0.0000 0.1283 0.0000 ( 10841 PWs)   bands (ev):

   -61.4386 -35.5918 -35.4046 -35.3665 -14.5655 -13.3901  -6.0539  -3.5198
    -3.1064  -2.9226  -2.2845  -1.6815  -0.7934   1.9976   2.0599   2.2713
     2.5627

          k = 0.0000 0.2566 0.0000 ( 10874 PWs)   bands (ev):

   -61.4259 -35.5673 -35.5274 -35.3947 -14.0545 -13.1730  -5.6429  -4.2592
    -3.9869  -2.8666  -2.4165  -1.8561  -1.2202   1.5487   1.8949   2.2304
     3.1354

          k = 0.0000 0.3849 0.0000 ( 10894 PWs)   bands (ev):

   -61.4115 -35.6644 -35.5392 -35.4265 -13.3840 -12.8943  -5.8618  -4.8369
    -4.4950  -3.3858  -2.2854  -1.8432  -1.5983   1.6976   1.7433   2.8510
     3.5567

          k = 0.0000 0.5132 0.0000 ( 10942 PWs)   bands (ev):

   -61.4021 -35.7523 -35.5208 -35.4472 -12.8639 -12.6880  -6.3572  -5.3946
    -4.6493  -3.6748  -2.5202  -1.5057  -1.3252   1.7550   2.1697   3.2601
     3.7381

          k = 0.1111 0.1925 0.0000 ( 10854 PWs)   bands (ev):

   -61.4297 -35.5747 -35.4862 -35.3906 -14.2155 -13.2408  -5.7194  -4.0689
    -3.6383  -2.9901  -2.6128  -1.5245  -1.0537   1.5657   1.9423   1.9807
     3.0849

          k = 0.1111 0.3208 0.0000 ( 10900 PWs)   bands (ev):

   -61.4162 -35.6059 -35.5484 -35.4307 -13.6185 -12.9871  -5.5873  -4.4195
    -4.4159  -3.6449  -2.3913  -1.7877  -1.4128   1.3674   1.9175   2.2772
     3.6099

          k = 0.1111 0.4491 0.0000 ( 10904 PWs)   bands (ev):

   -61.4043 -35.7088 -35.5251 -35.4663 -13.0027 -12.7311  -6.0187  -5.2602
    -4.4710  -3.7792  -2.3971  -2.2803  -1.2177   1.6490   2.1086   2.8739
     3.7523

          k = 0.1111 0.5774 0.0000 ( 10922 PWs)   bands (ev):

   -61.3996 -35.7490 -35.5159 -35.4804 -12.7238 -12.6187  -6.2554  -5.5966
    -4.6226  -3.7620  -2.5219  -2.3098  -0.9682   1.7650   2.3761   3.2478
     3.6023

          k = 0.2222 0.3849 0.0000 ( 10882 PWs)   bands (ev):

   -61.4052 -35.6719 -35.5269 -35.4942 -13.0602 -12.7439  -5.7352  -5.1773
    -4.2211  -3.9595  -3.1172  -2.0289  -1.2523   1.5370   2.1516   2.4294
     3.9562

          k = 0.2222 0.5132 0.0000 ( 10932 PWs)   bands (ev):

   -61.3980 -35.7036 -35.5468 -35.5128 -12.6463 -12.5601  -5.8043  -5.7724
    -4.4070  -3.7507  -3.5348  -2.5224  -0.8704   1.5565   2.5912   2.6176
     4.1273

          k = 0.3333 0.5774 0.0000 ( 10950 PWs)   bands (ev):

   -61.3955 -35.6627 -35.6175 -35.5079 -12.5010 -12.4834  -6.0609  -5.2407
    -4.7041  -4.1312  -3.5238  -2.8141  -0.5800   1.2246   2.4060   3.0090
     4.4092

     the Fermi energy is     0.1082 ev

!    total energy              =    -496.73233409 Ry
     estimated scf accuracy    <       0.00000009 Ry
     smearing contrib. (-TS)   =      -0.00000000 Ry
     internal energy E=F+TS    =    -496.73233409 Ry

     convergence has been achieved in   4 iterations

     negative rho (up, down):  8.004E-05 0.000E+00

     Forces acting on atoms (cartesian axes, Ry/au):

     atom    1 type  1   force =     0.00000000   -0.00000000    0.00000000
     atom    2 type  2   force =     0.00000000    0.00000000   -0.00189227
     atom    3 type  2   force =     0.00000000   -0.00000000    0.00189227
     The non-local contrib.  to forces
     atom    1 type  1   force =     0.00000000    0.00000000    0.00000000
     atom    2 type  2   force =     0.00000000   -0.00000000   -0.26635088
     atom    3 type  2   force =    -0.00000000   -0.00000000    0.26635088
     The ionic contribution  to forces
     atom    1 type  1   force =    -0.00000000   -0.00000000    0.00000000
     atom    2 type  2   force =    -0.00000000    0.00000000   36.17059794
     atom    3 type  2   force =    -0.00000000    0.00000000  -36.17059794
     The local contribution  to forces
     atom    1 type  1   force =    -0.00000000   -0.00000000   -0.00000000
     atom    2 type  2   force =    -0.00000000    0.00000000  -35.90624256
     atom    3 type  2   force =    -0.00000000    0.00000000   35.90624256
     The core correction contribution to forces
     atom    1 type  1   force =     0.00000000    0.00000000    0.00000000
     atom    2 type  2   force =     0.00000000   -0.00000000    0.00208925
     atom    3 type  2   force =     0.00000000   -0.00000000   -0.00208925
     The Hubbard contrib.    to forces
     atom    1 type  1   force =     0.00000000    0.00000000    0.00000000
     atom    2 type  2   force =     0.00000000    0.00000000    0.00000000
     atom    3 type  2   force =     0.00000000    0.00000000    0.00000000
     The SCF correction term to forces
     atom    1 type  1   force =     0.00000000   -0.00000000   -0.00000000
     atom    2 type  2   force =    -0.00000000    0.00000000   -0.00021488
     atom    3 type  2   force =    -0.00000000    0.00000000    0.00021488

     DFT-D3 dispersion contribution to forces:
     atom    1 type  1   force =    -0.00000000   -0.00000000   -0.00000000
     atom    2 type  2   force =     0.00000000    0.00000000   -0.00177114
     atom    3 type  2   force =     0.00000000    0.00000000    0.00177114

     Total force =     0.002676     Total SCF correction =     0.000304
     SCF correction compared to forces is large: reduce conv_thr to get better values


     Computing stress (Cartesian axis) and pressure


     negative rho (up, down):  8.004E-05 0.000E+00
          total   stress  (Ry/bohr**3)                   (kbar)     P=        2.29
   0.00003003  -0.00000000   0.00000000            4.42       -0.00        0.00
  -0.00000000   0.00003003   0.00000000           -0.00        4.42        0.00
   0.00000000   0.00000000  -0.00001341            0.00        0.00       -1.97


     Entering Dynamics:    iteration =     6

     <vel(dt)|acc(dt)> =  -1.00000000

ATOMIC_POSITIONS (crystal)
Mo            0.0000000000        0.0000000000        0.5000000000
S             0.6666666667        0.3333333333        0.5828787483
S             0.6666666667        0.3333333333        0.4171212517



     Writing config-only to output data dir ./tmp/scf.save/
     NEW-OLD atomic charge density approx. for the potential

     negative rho (up, down):  8.008E-05 0.000E+00

     total cpu time spent up to now is      304.1 secs

     Self-consistent Calculation

     iteration #  1     ecut=    70.00 Ry     beta= 0.70
     Davidson diagonalization with overlap
     ethr =  1.00E-06,  avg # of iterations =  2.0

     Threshold (ethr) on eigenvalues was too large:
     Diagonalizing with lowered threshold

     Davidson diagonalization with overlap
     ethr =  1.06E-08,  avg # of iterations =  4.0

     negative rho (up, down):  8.009E-05 0.000E+00

     total cpu time spent up to now is      313.7 secs

     total energy              =    -496.73233836 Ry
     estimated scf accuracy    <       0.00000396 Ry

     iteration #  2     ecut=    70.00 Ry     beta= 0.70
     Davidson diagonalization with overlap
     ethr =  1.52E-08,  avg # of iterations =  3.0

     negative rho (up, down):  8.007E-05 0.000E+00

     total cpu time spent up to now is      319.4 secs

     total energy              =    -496.73233478 Ry
     estimated scf accuracy    <       0.00005200 Ry

     iteration #  3     ecut=    70.00 Ry     beta= 0.70
     Davidson diagonalization with overlap
     ethr =  1.52E-08,  avg # of iterations =  3.0

     negative rho (up, down):  8.007E-05 0.000E+00

     total cpu time spent up to now is      324.9 secs

     End of self-consistent calculation

          k = 0.0000 0.0000 0.0000 ( 10817 PWs)   bands (ev):

   -61.4438 -35.6021 -35.3562 -35.3562 -14.7565 -13.4697  -6.2685  -3.1244
    -3.1244  -2.4738  -2.0027  -2.0027  -0.7081   2.2594   2.2594   2.4748
     2.4748

          k = 0.0000 0.1283 0.0000 ( 10841 PWs)   bands (ev):

   -61.4388 -35.5924 -35.4054 -35.3673 -14.5689 -13.3899  -6.0573  -3.5260
    -3.1075  -2.9293  -2.2897  -1.6819  -0.7903   2.0012   2.0606   2.2743
     2.5638

          k = 0.0000 0.2566 0.0000 ( 10874 PWs)   bands (ev):

   -61.4262 -35.5678 -35.5283 -35.3955 -14.0577 -13.1733  -5.6473  -4.2635
    -3.9890  -2.8719  -2.4225  -1.8542  -1.2190   1.5525   1.8969   2.2318
     3.1379

          k = 0.0000 0.3849 0.0000 ( 10894 PWs)   bands (ev):

   -61.4118 -35.6654 -35.5397 -35.4273 -13.3872 -12.8955  -5.8666  -4.8387
    -4.4971  -3.3911  -2.2828  -1.8480  -1.5985   1.6980   1.7462   2.8535
     3.5607

          k = 0.0000 0.5132 0.0000 ( 10942 PWs)   bands (ev):

   -61.4023 -35.7533 -35.5213 -35.4480 -12.8673 -12.6898  -6.3603  -5.3956
    -4.6521  -3.6801  -2.5175  -1.5092  -1.3254   1.7538   2.1707   3.2632
     3.7429

          k = 0.1111 0.1925 0.0000 ( 10854 PWs)   bands (ev):

   -61.4300 -35.5753 -35.4870 -35.3914 -14.2188 -13.2409  -5.7233  -4.0740
    -3.6402  -2.9947  -2.6189  -1.5237  -1.0520   1.5695   1.9431   1.9831
     3.0873

          k = 0.1111 0.3208 0.0000 ( 10900 PWs)   bands (ev):

   -61.4165 -35.6068 -35.5489 -35.4316 -13.6217 -12.9880  -5.5926  -4.4222
    -4.4184  -3.6482  -2.3953  -1.7860  -1.4139   1.3707   1.9188   2.2787
     3.6139

          k = 0.1111 0.4491 0.0000 ( 10904 PWs)   bands (ev):

   -61.4045 -35.7099 -35.5256 -35.4672 -13.0060 -12.7327  -6.0226  -5.2626
    -4.4734  -3.7823  -2.3994  -2.2781  -1.2198   1.6507   2.1082   2.8768
     3.7567

          k = 0.1111 0.5774 0.0000 ( 10922 PWs)   bands (ev):

   -61.3998 -35.7501 -35.5164 -35.4812 -12.7272 -12.6207  -6.2582  -5.5988
    -4.6256  -3.7654  -2.5195  -2.3115  -0.9699   1.7640   2.3764   3.2521
     3.6057

          k = 0.2222 0.3849 0.0000 ( 10882 PWs)   bands (ev):

   -61.4054 -35.6729 -35.5274 -35.4951 -13.0634 -12.7455  -5.7397  -5.1814
    -4.2229  -3.9606  -3.1196  -2.0269  -1.2547   1.5403   2.1504   2.4320
     3.9609

          k = 0.2222 0.5132 0.0000 ( 10932 PWs)   bands (ev):

   -61.3982 -35.7046 -35.5477 -35.5133 -12.6497 -12.5621  -5.8084  -5.7753
    -4.4097  -3.7513  -3.5367  -2.5202  -0.8724   1.5553   2.5955   2.6189
     4.1310

          k = 0.3333 0.5774 0.0000 ( 10950 PWs)   bands (ev):

   -61.3957 -35.6638 -35.6184 -35.5084 -12.5044 -12.4856  -6.0655  -5.2428
    -4.7067  -4.1337  -3.5235  -2.8120  -0.5815   1.2212   2.4108   3.0125
     4.4128

     the Fermi energy is     0.1115 ev

!    total energy              =    -496.73234106 Ry
     estimated scf accuracy    <       0.00000002 Ry
     smearing contrib. (-TS)   =      -0.00000000 Ry
     internal energy E=F+TS    =    -496.73234106 Ry

     convergence has been achieved in   3 iterations

     negative rho (up, down):  8.007E-05 0.000E+00

     Forces acting on atoms (cartesian axes, Ry/au):

     atom    1 type  1   force =     0.00000000    0.00000000    0.00000000
     atom    2 type  2   force =     0.00000000    0.00000000   -0.00110845
     atom    3 type  2   force =     0.00000000    0.00000000    0.00110845
     The non-local contrib.  to forces
     atom    1 type  1   force =     0.00000000   -0.00000000    0.00000000
     atom    2 type  2   force =     0.00000000   -0.00000000   -0.26602793
     atom    3 type  2   force =    -0.00000000    0.00000000    0.26602793
     The ionic contribution  to forces
     atom    1 type  1   force =    -0.00000000   -0.00000000    0.00000000
     atom    2 type  2   force =    -0.00000000    0.00000000   36.17270110
     atom    3 type  2   force =    -0.00000000    0.00000000  -36.17270110
     The local contribution  to forces
     atom    1 type  1   force =    -0.00000000   -0.00000000   -0.00000000
     atom    2 type  2   force =    -0.00000000    0.00000000  -35.90825093
     atom    3 type  2   force =    -0.00000000    0.00000000   35.90825093
     The core correction contribution to forces
     atom    1 type  1   force =     0.00000000    0.00000000    0.00000000
     atom    2 type  2   force =     0.00000000   -0.00000000    0.00207103
     atom    3 type  2   force =     0.00000000   -0.00000000   -0.00207103
     The Hubbard contrib.    to forces
     atom    1 type  1   force =     0.00000000    0.00000000    0.00000000
     atom    2 type  2   force =     0.00000000    0.00000000    0.00000000
     atom    3 type  2   force =     0.00000000    0.00000000    0.00000000
     The SCF correction term to forces
     atom    1 type  1   force =    -0.00000000    0.00000000    0.00000000
     atom    2 type  2   force =     0.00000000   -0.00000000    0.00017059
     atom    3 type  2   force =     0.00000000   -0.00000000   -0.00017059

     DFT-D3 dispersion contribution to forces:
     atom    1 type  1   force =    -0.00000000   -0.00000000   -0.00000000
     atom    2 type  2   force =     0.00000000    0.00000000   -0.00177231
     atom    3 type  2   force =     0.00000000    0.00000000    0.00177231

     Total force =     0.001568     Total SCF correction =     0.000241
     SCF correction compared to forces is large: reduce conv_thr to get better values


     Computing stress (Cartesian axis) and pressure


     negative rho (up, down):  8.007E-05 0.000E+00
          total   stress  (Ry/bohr**3)                   (kbar)     P=        2.62
   0.00003129  -0.00000000   0.00000000            4.60       -0.00        0.00
  -0.00000000   0.00003129  -0.00000000           -0.00        4.60       -0.00
   0.00000000  -0.00000000  -0.00000907            0.00       -0.00       -1.33


     Entering Dynamics:    iteration =     7

     <vel(dt)|acc(dt)> =   1.00000000

ATOMIC_POSITIONS (crystal)
Mo            0.0000000000        0.0000000000        0.5000000000
S             0.6666666667        0.3333333333        0.5827815078
S             0.6666666667        0.3333333333        0.4172184922



     Writing config-only to output data dir ./tmp/scf.save/
     NEW-OLD atomic charge density approx. for the potential

     negative rho (up, down):  8.013E-05 0.000E+00

     total cpu time spent up to now is      340.6 secs

     Self-consistent Calculation

     iteration #  1     ecut=    70.00 Ry     beta= 0.70
     Davidson diagonalization with overlap
     ethr =  1.00E-06,  avg # of iterations =  3.0

     Threshold (ethr) on eigenvalues was too large:
     Diagonalizing with lowered threshold

     Davidson diagonalization with overlap
     ethr =  6.58E-09,  avg # of iterations =  4.1

     negative rho (up, down):  8.013E-05 0.000E+00

     total cpu time spent up to now is      346.1 secs

     total energy              =    -496.73234371 Ry
     estimated scf accuracy    <       0.00000178 Ry

     iteration #  2     ecut=    70.00 Ry     beta= 0.70
     Davidson diagonalization with overlap
     ethr =  6.84E-09,  avg # of iterations =  3.0

     negative rho (up, down):  8.012E-05 0.000E+00

     total cpu time spent up to now is      348.4 secs

     total energy              =    -496.73234239 Ry
     estimated scf accuracy    <       0.00001651 Ry

     iteration #  3     ecut=    70.00 Ry     beta= 0.70
     Davidson diagonalization with overlap
     ethr =  6.84E-09,  avg # of iterations =  3.0

     negative rho (up, down):  8.012E-05 0.000E+00

     total cpu time spent up to now is      350.8 secs

     End of self-consistent calculation

          k = 0.0000 0.0000 0.0000 ( 10817 PWs)   bands (ev):

   -61.4447 -35.6036 -35.3580 -35.3580 -14.7636 -13.4705  -6.2751  -3.1366
    -3.1366  -2.4702  -2.0124  -2.0124  -0.7030   2.2590   2.2590   2.4790
     2.4790

          k = 0.0000 0.1283 0.0000 ( 10841 PWs)   bands (ev):

   -61.4397 -35.5939 -35.4073 -35.3692 -14.5759 -13.3910  -6.0642  -3.5375
    -3.1107  -2.9412  -2.2994  -1.6839  -0.7863   2.0058   2.0606   2.2780
     2.5643

          k = 0.0000 0.2566 0.0000 ( 10874 PWs)   bands (ev):

   -61.4271 -35.5693 -35.5304 -35.3974 -14.0645 -13.1754  -5.6557  -4.2717
    -3.9939  -2.8817  -2.4337  -1.8524  -1.2180   1.5576   1.8991   2.2330
     3.1409

          k = 0.0000 0.3849 0.0000 ( 10894 PWs)   bands (ev):

   -61.4126 -35.6676 -35.5411 -35.4293 -13.3939 -12.8989  -5.8757  -4.8428
    -4.5019  -3.4010  -2.2798  -1.8572  -1.6001   1.6977   1.7498   2.8566
     3.5661

          k = 0.0000 0.5132 0.0000 ( 10942 PWs)   bands (ev):

   -61.4032 -35.7557 -35.5226 -35.4500 -12.8743 -12.6943  -6.3667  -5.3985
    -4.6578  -3.6900  -2.5145  -1.5162  -1.3268   1.7509   2.1712   3.2669
     3.7496

          k = 0.1111 0.1925 0.0000 ( 10854 PWs)   bands (ev):

   -61.4309 -35.5767 -35.4891 -35.3933 -14.2256 -13.2427  -5.7311  -4.0837
    -3.6446  -3.0034  -2.6301  -1.5237  -1.0502   1.5745   1.9433   1.9858
     3.0900

          k = 0.1111 0.3208 0.0000 ( 10900 PWs)   bands (ev):

   -61.4174 -35.6090 -35.5503 -35.4335 -13.6284 -12.9909  -5.6024  -4.4279
    -4.4237  -3.6549  -2.4030  -1.7847  -1.4168   1.3749   1.9197   2.2802
     3.6195

          k = 0.1111 0.4491 0.0000 ( 10904 PWs)   bands (ev):

   -61.4054 -35.7122 -35.5270 -35.4692 -13.0128 -12.7369  -6.0302  -5.2679
    -4.4784  -3.7887  -2.4044  -2.2760  -1.2244   1.6525   2.1066   2.8805
     3.7629

          k = 0.1111 0.5774 0.0000 ( 10922 PWs)   bands (ev):

   -61.4007 -35.7525 -35.5177 -35.4832 -12.7342 -12.6254  -6.2640  -5.6036
    -4.6318  -3.7721  -2.5168  -2.3157  -0.9739   1.7616   2.3759   3.2580
     3.6101

          k = 0.2222 0.3849 0.0000 ( 10882 PWs)   bands (ev):

   -61.4063 -35.6752 -35.5287 -35.4971 -13.0702 -12.7494  -5.7482  -5.1892
    -4.2272  -3.9637  -3.1249  -2.0250  -1.2596   1.5446   2.1474   2.4352
     3.9674

          k = 0.2222 0.5132 0.0000 ( 10932 PWs)   bands (ev):

   -61.3991 -35.7069 -35.5497 -35.5146 -12.6567 -12.5669  -5.8162  -5.7813
    -4.4153  -3.7536  -3.5411  -2.5179  -0.8768   1.5524   2.6015   2.6202
     4.1359

          k = 0.3333 0.5774 0.0000 ( 10950 PWs)   bands (ev):

   -61.3966 -35.6661 -35.6205 -35.5097 -12.5115 -12.4906  -6.0741  -5.2474
    -4.7124  -4.1390  -3.5243  -2.8098  -0.5850   1.2147   2.4175   3.0172
     4.4175

     the Fermi energy is     0.1158 ev

!    total energy              =    -496.73234462 Ry
     estimated scf accuracy    <       0.00000014 Ry
     smearing contrib. (-TS)   =      -0.00000000 Ry
     internal energy E=F+TS    =    -496.73234462 Ry

     convergence has been achieved in   3 iterations

     negative rho (up, down):  8.012E-05 0.000E+00

     Forces acting on atoms (cartesian axes, Ry/au):

     atom    1 type  1   force =     0.00000000   -0.00000000    0.00000000
     atom    2 type  2   force =     0.00000000    0.00000000    0.00008966
     atom    3 type  2   force =    -0.00000000   -0.00000000   -0.00008966
     The non-local contrib.  to forces
     atom    1 type  1   force =     0.00000000   -0.00000000    0.00000000
     atom    2 type  2   force =     0.00000000   -0.00000000   -0.26555169
     atom    3 type  2   force =     0.00000000    0.00000000    0.26555169
     The ionic contribution  to forces
     atom    1 type  1   force =    -0.00000000   -0.00000000    0.00000000
     atom    2 type  2   force =     0.00000000    0.00000000   36.17608484
     atom    3 type  2   force =     0.00000000    0.00000000  -36.17608484
     The local contribution  to forces
     atom    1 type  1   force =    -0.00000000   -0.00000000   -0.00000000
     atom    2 type  2   force =    -0.00000000    0.00000000  -35.91153497
     atom    3 type  2   force =    -0.00000000    0.00000000   35.91153497
     The core correction contribution to forces
     atom    1 type  1   force =     0.00000000    0.00000000    0.00000000
     atom    2 type  2   force =     0.00000000   -0.00000000    0.00204329
     atom    3 type  2   force =     0.00000000   -0.00000000   -0.00204329
     The Hubbard contrib.    to forces
     atom    1 type  1   force =     0.00000000    0.00000000    0.00000000
     atom    2 type  2   force =     0.00000000    0.00000000    0.00000000
     atom    3 type  2   force =     0.00000000    0.00000000    0.00000000
     The SCF correction term to forces
     atom    1 type  1   force =     0.00000000    0.00000000    0.00000000
     atom    2 type  2   force =    -0.00000000   -0.00000000    0.00082242
     atom    3 type  2   force =    -0.00000000   -0.00000000   -0.00082242

     DFT-D3 dispersion contribution to forces:
     atom    1 type  1   force =    -0.00000000   -0.00000000   -0.00000000
     atom    2 type  2   force =     0.00000000    0.00000000   -0.00177423
     atom    3 type  2   force =     0.00000000    0.00000000    0.00177423

     Total force =     0.000127     Total SCF correction =     0.001163
     SCF correction compared to forces is large: reduce conv_thr to get better values


     Computing stress (Cartesian axis) and pressure


     negative rho (up, down):  8.012E-05 0.000E+00
          total   stress  (Ry/bohr**3)                   (kbar)     P=        3.22
   0.00003342   0.00000000   0.00000000            4.92        0.00        0.00
   0.00000000   0.00003342  -0.00000000            0.00        4.92       -0.00
   0.00000000   0.00000000  -0.00000127            0.00        0.00       -0.19


     Damped Dynamics: convergence achieved in   7 steps

     End of damped dynamics calculation

     Final energy =    -496.7323446213 Ry

Begin final coordinates
     new unit-cell volume =   1101.79790 a.u.^3 (   163.26960 Ang^3 )
     density =      1.62800 g/cm^3

CELL_PARAMETERS (angstrom)
   3.150000000   0.000000000   0.000000000
  -1.575000000   2.727980022   0.000000000
   0.000000000   0.000000000  19.000000000

ATOMIC_POSITIONS (crystal)
Mo            0.0000000000        0.0000000000        0.5000000000
S             0.6666666667        0.3333333333        0.5827815078
S             0.6666666667        0.3333333333        0.4172184922
End final coordinates



     Writing all to output data dir ./tmp/scf.save/
 
     init_run     :      5.29s CPU      6.43s WALL (       1 calls)
     electrons    :    189.56s CPU    234.93s WALL (       8 calls)
     update_pot   :      8.50s CPU     10.60s WALL (       7 calls)
     forces       :     14.73s CPU     18.25s WALL (       8 calls)
     force_dftd3  :      0.21s CPU      0.27s WALL (       8 calls)
     stress       :     67.81s CPU     78.66s WALL (       8 calls)
     stres_dftd3  :      0.15s CPU      0.15s WALL (       8 calls)

     Called by init_run:
     wfcinit      :      0.96s CPU      1.17s WALL (       1 calls)
     potinit      :      1.25s CPU      1.39s WALL (       1 calls)
     hinit0       :      1.15s CPU      1.39s WALL (       1 calls)

     Called by electrons:
     c_bands      :     81.42s CPU     88.00s WALL (      44 calls)
     sum_band     :     59.90s CPU     82.57s WALL (      44 calls)
     v_of_rho     :      9.60s CPU     10.61s WALL (      47 calls)
     newd         :     36.93s CPU     54.95s WALL (      47 calls)
     PAW_pot      :      8.95s CPU      9.22s WALL (      54 calls)
     mix_rho      :      1.28s CPU      1.34s WALL (      44 calls)
     energy_dftd3 :      0.17s CPU      0.17s WALL (       8 calls)

     Called by c_bands:
     init_us_2    :      1.88s CPU      1.93s WALL (    1344 calls)
     init_us_2:cp :      1.87s CPU      1.92s WALL (    1344 calls)
     cegterg      :     72.49s CPU     79.01s WALL (     528 calls)

     Called by *egterg:
     cdiaghg      :      0.85s CPU      0.87s WALL (    2067 calls)
     h_psi        :     61.91s CPU     68.38s WALL (    2223 calls)
     s_psi        :      1.42s CPU      1.45s WALL (    2223 calls)
     g_psi        :      0.14s CPU      0.14s WALL (    1683 calls)

     Called by h_psi:
     h_psi:calbec :      2.74s CPU      2.90s WALL (    2223 calls)
     vloc_psi     :     56.78s CPU     63.03s WALL (    2223 calls)
     add_vuspsi   :      1.95s CPU      2.01s WALL (    2223 calls)

     General routines
     calbec       :      7.56s CPU      7.97s WALL (    3315 calls)
     fft          :     13.37s CPU     16.98s WALL (     807 calls)
     ffts         :      0.12s CPU      0.13s WALL (      91 calls)
     fftw         :     33.87s CPU     39.84s WALL (   61096 calls)
     interpolate  :      0.63s CPU      0.68s WALL (      47 calls)
 
     Parallel routines
 
     PWSCF        :   4m52.05s CPU   5m57.82s WALL

 
   This run was terminated on:  12:21:29  15Jul2025            

=------------------------------------------------------------------------------=
   JOB DONE.
=------------------------------------------------------------------------------=
