
     Program PWSCF v.7.2 starts on 23Jul2025 at 12:52: 4 

     This program is part of the open-source Quantum ESPRESSO suite
     for quantum simulation of materials; please cite
         "P. Giannozzi et al., J. Phys.:Condens. Matter 21 395502 (2009);
         "P. Giannozzi et al., J. Phys.:Condens. Matter 29 465901 (2017);
         "P. Giannozzi et al., J. Chem. Phys. 152 154105 (2020);
          URL http://www.quantum-espresso.org", 
     in publications or presentations arising from this work. More details at
     http://www.quantum-espresso.org/quote

     Parallel version (MPI), running on    16 processors

     MPI processes distributed on     1 nodes
     13785 MiB available memory on the printing compute node when the environment starts
 
     Waiting for input...
     Reading input from standard input

     Current dimensions of program PWSCF are:
     Max number of different atomic species (ntypx) = 10
     Max number of k-points (npk) =  40000
     Max angular momentum in pseudopotentials (lmaxx) =  4
     file Co.pbe-n-kjpaw_psl.1.0.0.UPF: wavefunction(s)  4S 3D renormalized
     Message from routine setup:
     using ibrav=0 with symmetry is DISCOURAGED, use correct ibrav instead
 
     R & G space division:  proc/nbgrp/npool/nimage =      16
     Subspace diagonalization in iterative solution of the eigenvalue problem:
     a serial algorithm will be used

 
     Parallelization info
     --------------------
     sticks:   dense  smooth     PW     G-vecs:    dense   smooth      PW
     Min          64      26      7                10182     2582     435
     Max          65      27      8                10205     2595     466
     Sum        1027     421    121               163013    41407    7237
 
     Using Slab Decomposition
 


     bravais-lattice index     =            0
     lattice parameter (alat)  =       4.6068  a.u.
     unit-cell volume          =     520.9788 (a.u.)^3
     number of atoms/cell      =            1
     number of atomic types    =            1
     number of electrons       =         9.00
     number of Kohn-Sham states=            9
     kinetic-energy cutoff     =      70.0000  Ry
     charge density cutoff     =     700.0000  Ry
     scf convergence threshold =      1.0E-06
     mixing beta               =       0.7000
     number of iterations used =            8  plain     mixing
     Exchange-correlation= SLA  PW   PBX  PBC
                           (   1   4   3   4   0   0   0)

     celldm(1)=   4.606803  celldm(2)=   0.000000  celldm(3)=   0.000000
     celldm(4)=   0.000000  celldm(5)=   0.000000  celldm(6)=   0.000000

     crystal axes: (cart. coord. in units of alat)
               a(1) = (   1.000000   0.000000   0.000000 )  
               a(2) = (   0.500000   0.866025   0.000000 )  
               a(3) = (   0.000000   0.000000   6.153050 )  

     reciprocal axes: (cart. coord. in units 2 pi/alat)
               b(1) = (  1.000000 -0.577350  0.000000 )  
               b(2) = (  0.000000  1.154701  0.000000 )  
               b(3) = (  0.000000  0.000000  0.162521 )  


     PseudoPot. # 1 for Co read from file:
     /shared/ESPRESSO/PSLIBRARY/1.0.0/pbe/PSEUDOPOTENTIALS/Co.pbe-n-kjpaw_psl.1.0.0.UPF
     MD5 check sum: 17e7ab8db721b244d1352252ea6cb8e7
     Pseudo is Projector augmented-wave + core cor, Zval =  9.0
     Generated using "atomic" code by A. Dal Corso  (Quantum ESPRESSO distribution)
     Shape of augmentation charge: PSQ
     Using radial grid of 1193 points,  6 beta functions with: 
                l(1) =   0
                l(2) =   0
                l(3) =   1
                l(4) =   1
                l(5) =   2
                l(6) =   2
     Q(r) pseudized with 0 coefficients 


     atomic species   valence    mass     pseudopotential
        Co             9.00    58.93320     Co( 1.00)

     Starting magnetic structure 
     atomic species   magnetization
        Co           0.800

     24 Sym. Ops., with inversion, found



   Cartesian axes

     site n.     atom                  positions (alat units)
         1           Co  tau(   1) = (   0.0000000   0.0000000   3.0765251  )

     --------------------------------------------
     DFT-D3 Dispersion Correction (3-body terms):
     --------------------------------------------
       Reference C6 values for interpolation: 

         atom   Coordination number   C6
         Co         0.000          1065.56
         Co         1.715           373.09
         Co         2.926           296.13
         Co         7.779           236.57

       Values used:

         atom   Coordination number  R0_AB[au]  C6      C8
         Co         4.930            3.243    296.13  26037.62

         Molecular C6 ( Ry / a.u.^6 ) =       296.13


     number of k points=    19  Gaussian smearing, width (Ry)=  0.0073
                       cart. coord. in units 2pi/alat
        k(    1) = (   0.0000000   0.0000000   0.0000000), wk =   0.0069444
        k(    2) = (   0.0000000   0.0962250   0.0000000), wk =   0.0416667
        k(    3) = (   0.0000000   0.1924501   0.0000000), wk =   0.0416667
        k(    4) = (   0.0000000   0.2886751   0.0000000), wk =   0.0416667
        k(    5) = (   0.0000000   0.3849002   0.0000000), wk =   0.0416667
        k(    6) = (   0.0000000   0.4811252   0.0000000), wk =   0.0416667
        k(    7) = (   0.0000000  -0.5773503   0.0000000), wk =   0.0208333
        k(    8) = (   0.0833333   0.1443376   0.0000000), wk =   0.0416667
        k(    9) = (   0.0833333   0.2405626   0.0000000), wk =   0.0833333
        k(   10) = (   0.0833333   0.3367877   0.0000000), wk =   0.0833333
        k(   11) = (   0.0833333   0.4330127   0.0000000), wk =   0.0833333
        k(   12) = (   0.0833333  -0.6254628   0.0000000), wk =   0.0833333
        k(   13) = (   0.1666667   0.2886751   0.0000000), wk =   0.0416667
        k(   14) = (   0.1666667   0.3849002   0.0000000), wk =   0.0833333
        k(   15) = (   0.1666667  -0.6735753   0.0000000), wk =   0.0833333
        k(   16) = (   0.1666667  -0.5773503   0.0000000), wk =   0.0416667
        k(   17) = (   0.2500000  -0.7216878   0.0000000), wk =   0.0416667
        k(   18) = (   0.2500000  -0.6254628   0.0000000), wk =   0.0833333
        k(   19) = (   0.3333333  -0.5773503   0.0000000), wk =   0.0138889

     Dense  grid:   163013 G-vectors     FFT dimensions: (  40,  40, 240)

     Smooth grid:    41407 G-vectors     FFT dimensions: (  25,  25, 160)

     Estimated max dynamical RAM per process >      45.25 MB

     Estimated total dynamical RAM >     724.01 MB
     Generating pointlists ...
     new r_m :   0.4125 (alat units)  1.9003 (a.u.) for type    1

     Initial potential from superposition of free atoms

     starting charge       8.9997, renormalised to       9.0000

     negative rho (up, down):  9.421E-06 1.047E-06
     Starting wfcs are    9 randomized atomic wfcs
     Checking if some PAW data can be deallocated... 

     total cpu time spent up to now is        0.5 secs

     Self-consistent Calculation

     iteration #  1     ecut=    70.00 Ry     beta= 0.70
     Davidson diagonalization with overlap
     ethr =  1.00E-02,  avg # of iterations =  5.1

     negative rho (up, down):  1.213E-06 8.918E-09

     total cpu time spent up to now is        1.0 secs

     total energy              =    -161.86401043 Ry
     estimated scf accuracy    <       0.36029707 Ry

     total magnetization       =     2.83 Bohr mag/cell
     absolute magnetization    =     2.83 Bohr mag/cell

     iteration #  2     ecut=    70.00 Ry     beta= 0.70
     Davidson diagonalization with overlap
     ethr =  4.00E-03,  avg # of iterations =  1.4

     negative rho (up, down):  2.255E-07 7.022E-11

     total cpu time spent up to now is        1.3 secs

     total energy              =    -161.89204586 Ry
     estimated scf accuracy    <       0.11555497 Ry

     total magnetization       =     2.44 Bohr mag/cell
     absolute magnetization    =     2.46 Bohr mag/cell

     iteration #  3     ecut=    70.00 Ry     beta= 0.70
     Davidson diagonalization with overlap
     ethr =  1.28E-03,  avg # of iterations =  2.4

     negative rho (up, down):  4.495E-07 3.337E-08

     total cpu time spent up to now is        1.7 secs

     total energy              =    -161.91058011 Ry
     estimated scf accuracy    <       0.39787524 Ry

     total magnetization       =     1.85 Bohr mag/cell
     absolute magnetization    =     1.88 Bohr mag/cell

     iteration #  4     ecut=    70.00 Ry     beta= 0.70
     Davidson diagonalization with overlap
     ethr =  1.28E-03,  avg # of iterations =  2.4

     negative rho (up, down):  8.681E-07 2.141E-08

     total cpu time spent up to now is        2.1 secs

     total energy              =    -161.95799381 Ry
     estimated scf accuracy    <       0.00624343 Ry

     total magnetization       =     1.85 Bohr mag/cell
     absolute magnetization    =     2.04 Bohr mag/cell

     iteration #  5     ecut=    70.00 Ry     beta= 0.70
     Davidson diagonalization with overlap
     ethr =  6.94E-05,  avg # of iterations =  5.5

     negative rho (up, down):  1.462E-06 1.847E-07

     total cpu time spent up to now is        2.5 secs

     total energy              =    -161.95881094 Ry
     estimated scf accuracy    <       0.00061278 Ry

     total magnetization       =     1.85 Bohr mag/cell
     absolute magnetization    =     2.07 Bohr mag/cell

     iteration #  6     ecut=    70.00 Ry     beta= 0.70
     Davidson diagonalization with overlap
     ethr =  6.81E-06,  avg # of iterations =  3.8

     negative rho (up, down):  3.008E-06 7.079E-07

     total cpu time spent up to now is        2.9 secs

     total energy              =    -161.95893015 Ry
     estimated scf accuracy    <       0.00002005 Ry

     total magnetization       =     1.85 Bohr mag/cell
     absolute magnetization    =     2.07 Bohr mag/cell

     iteration #  7     ecut=    70.00 Ry     beta= 0.70
     Davidson diagonalization with overlap
     c_bands:  1 eigenvalues not converged
     ethr =  2.23E-07,  avg # of iterations =  3.2

     negative rho (up, down):  3.118E-06 6.470E-07

     total cpu time spent up to now is        3.2 secs

     total energy              =    -161.95894267 Ry
     estimated scf accuracy    <       0.00000410 Ry

     total magnetization       =     1.85 Bohr mag/cell
     absolute magnetization    =     2.07 Bohr mag/cell

     iteration #  8     ecut=    70.00 Ry     beta= 0.70
     Davidson diagonalization with overlap
     ethr =  4.55E-08,  avg # of iterations =  2.3

     negative rho (up, down):  2.713E-06 5.550E-07

     total cpu time spent up to now is        3.6 secs

     total energy              =    -161.95894702 Ry
     estimated scf accuracy    <       0.00000196 Ry

     total magnetization       =     1.85 Bohr mag/cell
     absolute magnetization    =     2.08 Bohr mag/cell

     iteration #  9     ecut=    70.00 Ry     beta= 0.70
     Davidson diagonalization with overlap
     ethr =  2.17E-08,  avg # of iterations =  1.8

     negative rho (up, down):  2.806E-06 5.931E-07
 
     Magnetic moment per site  (integrated on atomic sphere of radius R)
     atom   1 (R=0.413)  charge=  7.3663  magn=  1.9334

     total cpu time spent up to now is        3.9 secs

     End of self-consistent calculation

 ------ SPIN UP ------------


          k = 0.0000 0.0000 0.0000 (  5127 PWs)   bands (ev):

    -8.3325  -5.0959  -4.5949  -4.5949  -3.6336  -3.6336  -1.8914   2.2761
     3.1742

          k = 0.0000 0.0962 0.0000 (  5131 PWs)   bands (ev):

    -8.0731  -5.0214  -4.6772  -4.4782  -3.9429  -3.6570  -1.4223   2.5024
     3.4212

          k = 0.0000 0.1925 0.0000 (  5117 PWs)   bands (ev):

    -7.3541  -4.8533  -4.8029  -4.4808  -4.1501  -3.7206  -0.3829   3.1812
     4.1549

          k = 0.0000 0.2887 0.0000 (  5119 PWs)   bands (ev):

    -6.5311  -4.9726  -4.8007  -4.4034  -3.8067  -3.6779   1.0041   4.3134
     5.3590

          k = 0.0000 0.3849 0.0000 (  5164 PWs)   bands (ev):

    -6.3336  -5.3490  -4.4308  -3.8920  -3.2195  -3.1731   2.7185   5.8801
     7.0162

          k = 0.0000 0.4811 0.0000 (  5156 PWs)   bands (ev):

    -6.4502  -5.5832  -4.2024  -3.9540  -2.7791  -1.2805   4.7248   6.1203
     8.1254

          k = 0.0000-0.5774 0.0000 (  5184 PWs)   bands (ev):

    -6.5126  -5.6625  -4.1242  -3.9766  -2.6289   0.0383   4.4931   6.3014
     8.6051

          k = 0.0833 0.1443 0.0000 (  5120 PWs)   bands (ev):

    -7.5775  -4.8780  -4.8308  -4.3299  -4.2342  -3.7082  -0.6968   2.9549
     3.9117

          k = 0.0833 0.2406 0.0000 (  5147 PWs)   bands (ev):

    -6.7258  -5.0142  -4.7891  -4.6077  -3.8030  -3.7506   0.4815   3.8614
     4.8801

          k = 0.0833 0.3368 0.0000 (  5143 PWs)   bands (ev):

    -6.1596  -5.1797  -4.7615  -4.1692  -3.9139  -2.9922   2.0172   5.2200
     6.3116

          k = 0.0833 0.4330 0.0000 (  5156 PWs)   bands (ev):

    -6.2309  -5.4543  -4.3261  -4.0104  -3.4791  -1.6421   3.8876   6.8792
     7.8501

          k = 0.0833-0.6255 0.0000 (  5157 PWs)   bands (ev):

    -6.3531  -5.5949  -4.1430  -4.0662  -3.0667   0.1596   5.1037   5.9440
     9.3593

          k = 0.1667 0.2887 0.0000 (  5140 PWs)   bands (ev):

    -5.8704  -5.2714  -5.0875  -4.3324  -3.9569  -2.9238   1.7854   4.9978
     6.0769

          k = 0.1667 0.3849 0.0000 (  5152 PWs)   bands (ev):

    -5.6961  -5.3061  -4.8721  -4.1336  -4.0480  -1.5748   3.4739   6.5777
     7.7820

          k = 0.1667-0.6736 0.0000 (  5158 PWs)   bands (ev):

    -5.8995  -5.4301  -4.3052  -4.2747  -3.8215   0.2995   5.4957   6.7114
     8.7770

          k = 0.1667-0.5774 0.0000 (  5186 PWs)   bands (ev):

    -5.9782  -5.4688  -4.3289  -4.1160  -3.7258   1.7828   4.8265   7.1669
     9.1822

          k = 0.2500-0.7217 0.0000 (  5166 PWs)   bands (ev):

    -5.4122  -5.3210  -4.8069  -4.4055  -3.9995   0.3430   5.3304   8.2621
     8.9516

          k = 0.2500-0.6255 0.0000 (  5184 PWs)   bands (ev):

    -5.4256  -5.2634  -4.6238  -4.4750  -4.0790   2.5764   6.0419   7.4616
     8.6587

          k = 0.3333-0.5774 0.0000 (  5196 PWs)   bands (ev):

    -4.9775  -4.9775  -4.9112  -4.9112  -4.1339   4.9749   4.9749   6.7792
     8.9897

 ------ SPIN DOWN ----------


          k = 0.0000 0.0000 0.0000 (  5127 PWs)   bands (ev):

    -8.1285  -3.4314  -2.8838  -2.8838  -1.9198  -1.4156  -1.4156   2.2088
     3.0144

          k = 0.0000 0.0962 0.0000 (  5131 PWs)   bands (ev):

    -7.8633  -3.3412  -2.9881  -2.7552  -2.3501  -1.4433  -0.8510   2.4323
     3.2692

          k = 0.0000 0.1925 0.0000 (  5117 PWs)   bands (ev):

    -7.1042  -3.2618  -3.0645  -2.8740  -2.3922  -1.5185   0.1137   3.1034
     4.0183

          k = 0.0000 0.2887 0.0000 (  5119 PWs)   bands (ev):

    -6.0350  -3.3996  -3.3202  -2.7208  -1.8656  -1.6202   1.3859   4.2237
     5.2333

          k = 0.0000 0.3849 0.0000 (  5164 PWs)   bands (ev):

    -5.2990  -3.6596  -2.7642  -2.3618  -1.7207  -1.2963   3.0020   5.7816
     6.8940

          k = 0.0000 0.4811 0.0000 (  5156 PWs)   bands (ev):

    -5.2202  -3.8714  -2.1046  -1.7936  -1.1481  -0.8464   4.9398   6.6515
     8.0717

          k = 0.0000-0.5774 0.0000 (  5184 PWs)   bands (ev):

    -5.2519  -3.9433  -2.0071  -1.8201  -0.6735  -0.0530   5.2864   6.5036
     8.6523

          k = 0.0833 0.1443 0.0000 (  5120 PWs)   bands (ev):

    -7.3483  -3.1821  -3.1723  -2.7348  -2.4920  -1.5046  -0.1686   2.8797
     3.7709

          k = 0.0833 0.2406 0.0000 (  5147 PWs)   bands (ev):

    -6.3989  -3.4602  -3.1531  -2.8689  -1.9978  -1.6186   0.9102   3.7764
     4.7523

          k = 0.0833 0.3368 0.0000 (  5143 PWs)   bands (ev):

    -5.3676  -3.4999  -3.4407  -2.5049  -1.7524  -1.3426   2.3454   5.1227
     6.1906

          k = 0.0833 0.4330 0.0000 (  5156 PWs)   bands (ev):

    -5.0393  -3.7421  -2.5167  -2.1645  -1.8694  -0.5163   4.1373   6.8388
     8.0199

          k = 0.0833-0.6255 0.0000 (  5157 PWs)   bands (ev):

    -5.0876  -3.8656  -2.0250  -1.9372  -1.5838   0.6142   5.7966   6.1545
     9.3965

          k = 0.1667 0.2887 0.0000 (  5140 PWs)   bands (ev):

    -5.3492  -3.7551  -3.4110  -2.5624  -1.8073  -1.3086   2.1365   4.9027
     5.9558

          k = 0.1667 0.3849 0.0000 (  5152 PWs)   bands (ev):

    -4.5438  -3.6326  -3.5869  -2.2368  -2.0262  -0.3158   3.7554   6.4768
     7.6140

          k = 0.1667-0.6736 0.0000 (  5158 PWs)   bands (ev):

    -4.6097  -3.6765  -2.7629  -2.2037  -2.0175   1.0947   5.7307   7.2161
     8.6985

          k = 0.1667-0.5774 0.0000 (  5186 PWs)   bands (ev):

    -4.6811  -3.7015  -2.3574  -2.2728  -1.9726   2.2575   5.5513   7.4294
     9.2113

          k = 0.2500-0.7217 0.0000 (  5166 PWs)   bands (ev):

    -4.0176  -3.5903  -3.5526  -2.3656  -2.0298   1.2317   5.5775   8.2294
     9.3384

          k = 0.2500-0.6255 0.0000 (  5184 PWs)   bands (ev):

    -4.0938  -3.4490  -3.1395  -2.6418  -1.9556   3.1765   6.5890   7.7194
     9.1059

          k = 0.3333-0.5774 0.0000 (  5196 PWs)   bands (ev):

    -3.5859  -3.5859  -3.0850  -3.0850  -1.9441   5.4516   5.4516   7.3978
     9.4211

     the Fermi energy is    -2.2790 ev

!    total energy              =    -161.95894771 Ry
     total all-electron energy =     -2786.802624 Ry
     estimated scf accuracy    <       0.00000012 Ry
     smearing contrib. (-TS)   =      -0.00059016 Ry
     internal energy E=F+TS    =    -161.95835756 Ry

     The total energy is F=E-TS. E is the sum of the following terms:
     one-electron contribution =    -214.82026539 Ry
     hartree contribution      =     115.19748171 Ry
     xc contribution           =     -32.51791704 Ry
     ewald contribution        =      56.73658780 Ry
     DFT-D3 Dispersion         =      -0.00688204 Ry
     one-center paw contrib.   =     -86.54736259 Ry

     total magnetization       =     1.85 Bohr mag/cell
     absolute magnetization    =     2.08 Bohr mag/cell

     convergence has been achieved in   9 iterations

     negative rho (up, down):  2.806E-06 5.931E-07

     Forces acting on atoms (cartesian axes, Ry/au):

     atom    1 type  1   force =     0.00000000    0.00000000    0.00000000
     The non-local contrib.  to forces
     atom    1 type  1   force =     0.00000000   -0.00000000    0.00000000
     The ionic contribution  to forces
     atom    1 type  1   force =     0.00000000    0.00000000   -0.00000000
     The local contribution  to forces
     atom    1 type  1   force =    -0.00000000   -0.00000000    0.00000000
     The core correction contribution to forces
     atom    1 type  1   force =    -0.00000000   -0.00000000    0.00000000
     The Hubbard contrib.    to forces
     atom    1 type  1   force =     0.00000000    0.00000000    0.00000000
     The SCF correction term to forces
     atom    1 type  1   force =    -0.00000000    0.00000000    0.00000000

     DFT-D3 dispersion contribution to forces:
     atom    1 type  1   force =     0.00000000    0.00000000    0.00000000

     Total force =     0.000000     Total SCF correction =     0.000000


     Computing stress (Cartesian axis) and pressure


     negative rho (up, down):  2.806E-06 5.931E-07
          total   stress  (Ry/bohr**3)                   (kbar)     P=      -21.67
  -0.00022393   0.00000000   0.00000000          -32.94        0.00        0.00
   0.00000000  -0.00022393   0.00000000            0.00      -32.94        0.00
   0.00000000   0.00000000   0.00000591            0.00        0.00        0.87


     Writing all to output data dir ./tmp/scf.save/
 
     init_run     :      0.34s CPU      0.41s WALL (       1 calls)
     electrons    :      3.22s CPU      3.39s WALL (       1 calls)
     forces       :      0.14s CPU      0.14s WALL (       1 calls)
     force_dftd3  :      0.01s CPU      0.01s WALL (       1 calls)
     stress       :      0.32s CPU      0.34s WALL (       1 calls)
     stres_dftd3  :      0.01s CPU      0.01s WALL (       1 calls)

     Called by init_run:
     wfcinit      :      0.04s CPU      0.05s WALL (       1 calls)
     potinit      :      0.10s CPU      0.13s WALL (       1 calls)
     hinit0       :      0.09s CPU      0.12s WALL (       1 calls)

     Called by electrons:
     c_bands      :      1.40s CPU      1.49s WALL (       9 calls)
     sum_band     :      0.70s CPU      0.73s WALL (       9 calls)
     v_of_rho     :      0.14s CPU      0.18s WALL (      10 calls)
     newd         :      0.30s CPU      0.32s WALL (      10 calls)
     PAW_pot      :      0.74s CPU      0.75s WALL (      10 calls)
     mix_rho      :      0.02s CPU      0.02s WALL (       9 calls)
     energy_dftd3 :      0.01s CPU      0.01s WALL (       1 calls)

     Called by c_bands:
     init_us_2    :      0.03s CPU      0.03s WALL (     798 calls)
     init_us_2:cp :      0.03s CPU      0.03s WALL (     798 calls)
     cegterg      :      1.06s CPU      1.13s WALL (     342 calls)

     Called by *egterg:
     cdiaghg      :      0.09s CPU      0.10s WALL (    1410 calls)
     h_psi        :      0.90s CPU      0.96s WALL (    1448 calls)
     s_psi        :      0.01s CPU      0.01s WALL (    1448 calls)
     g_psi        :      0.00s CPU      0.00s WALL (    1068 calls)

     Called by h_psi:
     h_psi:calbec :      0.03s CPU      0.03s WALL (    1448 calls)
     vloc_psi     :      0.85s CPU      0.91s WALL (    1448 calls)
     add_vuspsi   :      0.01s CPU      0.01s WALL (    1448 calls)

     General routines
     calbec       :      0.05s CPU      0.05s WALL (    1980 calls)
     fft          :      0.13s CPU      0.19s WALL (     288 calls)
     ffts         :      0.00s CPU      0.00s WALL (      38 calls)
     fftw         :      0.87s CPU      0.93s WALL (   19258 calls)
     interpolate  :      0.01s CPU      0.01s WALL (      20 calls)
 
     Parallel routines
 
     PWSCF        :      4.15s CPU      4.47s WALL

 
   This run was terminated on:  12:52: 9  23Jul2025            

=------------------------------------------------------------------------------=
   JOB DONE.
=------------------------------------------------------------------------------=
