
     Program PWSCF v.7.2 starts on  6Jun2025 at 13:47:56 

     This program is part of the open-source Quantum ESPRESSO suite
     for quantum simulation of materials; please cite
         "P. Giannozzi et al., J. Phys.:Condens. Matter 21 395502 (2009);
         "P. Giannozzi et al., J. Phys.:Condens. Matter 29 465901 (2017);
         "P. Giannozzi et al., J. Chem. Phys. 152 154105 (2020);
          URL http://www.quantum-espresso.org", 
     in publications or presentations arising from this work. More details at
     http://www.quantum-espresso.org/quote

     Parallel version (MPI), running on    16 processors

     MPI processes distributed on     1 nodes
     39836 MiB available memory on the printing compute node when the environment starts
 
     Waiting for input...
     Reading input from standard input

     Current dimensions of program PWSCF are:
     Max number of different atomic species (ntypx) = 10
     Max number of k-points (npk) =  40000
     Max angular momentum in pseudopotentials (lmaxx) =  4
     file Mo.pbe-spn-kjpaw_psl.1.0.0.UPF: wavefunction(s)  4S 4D renormalized
     file S.pbe-n-kjpaw_psl.1.0.0.UPF: wavefunction(s)  3S 3P renormalized
     Message from routine setup:
     using ibrav=0 with symmetry is DISCOURAGED, use correct ibrav instead
 
     R & G space division:  proc/nbgrp/npool/nimage =      16
     Subspace diagonalization in iterative solution of the eigenvalue problem:
     a serial algorithm will be used

 
     Parallelization info
     --------------------
     sticks:   dense  smooth     PW     G-vecs:    dense   smooth      PW
     Min          51      51     15                 5667     5667     875
     Max          52      52     16                 5682     5682     884
     Sum         823     823    241                90725    90725   14045
 
     Using Slab Decomposition
 


     bravais-lattice index     =            0
     lattice parameter (alat)  =       6.0849  a.u.
     unit-cell volume          =     938.6213 (a.u.)^3
     number of atoms/cell      =            3
     number of atomic types    =            2
     number of electrons       =        26.00
     number of Kohn-Sham states=           17
     kinetic-energy cutoff     =      80.0000  Ry
     charge density cutoff     =     320.0000  Ry
     scf convergence threshold =      1.0E-06
     mixing beta               =       0.7000
     number of iterations used =            8  plain     mixing
     Exchange-correlation= SLA  PW   PBX  PBC
                           (   1   4   3   4   0   0   0)

     celldm(1)=   6.084918  celldm(2)=   0.000000  celldm(3)=   0.000000
     celldm(4)=   0.000000  celldm(5)=   0.000000  celldm(6)=   0.000000

     crystal axes: (cart. coord. in units of alat)
               a(1) = (   1.000000   0.000000   0.000000 )  
               a(2) = (  -0.500000   0.866025   0.000000 )  
               a(3) = (   0.000000   0.000000   4.810559 )  

     reciprocal axes: (cart. coord. in units 2 pi/alat)
               b(1) = (  1.000000  0.577350  0.000000 )  
               b(2) = (  0.000000  1.154701  0.000000 )  
               b(3) = (  0.000000  0.000000  0.207876 )  


     PseudoPot. # 1 for Mo read from file:
     /shared/ESPRESSO/PSLIBRARY/1.0.0/pbe/PSEUDOPOTENTIALS/Mo.pbe-spn-kjpaw_psl.1.0.0.UPF
     MD5 check sum: 4396e0c640fcce5c25f020efccf1ab12
     Pseudo is Projector augmented-wave + core cor, Zval = 14.0
     Generated using &quot;atomic&quot; code by A. Dal Corso  v.6.3
     Shape of augmentation charge: PSQ
     Using radial grid of 1229 points,  6 beta functions with: 
                l(1) =   0
                l(2) =   0
                l(3) =   1
                l(4) =   1
                l(5) =   2
                l(6) =   2
     Q(r) pseudized with 0 coefficients 


     PseudoPot. # 2 for S  read from file:
     /shared/ESPRESSO/PSLIBRARY/1.0.0/pbe/PSEUDOPOTENTIALS/S.pbe-n-kjpaw_psl.1.0.0.UPF
     MD5 check sum: c08f931834bcc19553f8bde8f1a3adc5
     Pseudo is Projector augmented-wave + core cor, Zval =  6.0
     Generated using "atomic" code by A. Dal Corso  (Quantum ESPRESSO distribution)
     Shape of augmentation charge: PSQ
     Using radial grid of 1151 points,  6 beta functions with: 
                l(1) =   0
                l(2) =   0
                l(3) =   1
                l(4) =   1
                l(5) =   2
                l(6) =   2
     Q(r) pseudized with 0 coefficients 


     atomic species   valence    mass     pseudopotential
        Mo            14.00    95.94000     Mo( 1.00)
        S              6.00    32.06500     S ( 1.00)

     12 Sym. Ops. (no inversion) found



   Cartesian axes

     site n.     atom                  positions (alat units)
         1           Mo  tau(   1) = (   0.0000000   0.0000000   2.4052795  )
         2           S   tau(   2) = (   0.5000000   0.2886751   2.9006211  )
         3           S   tau(   3) = (   0.5000000   0.2886751   1.9099379  )

     number of k points=    10  Fermi-Dirac smearing, width (Ry)=  0.0070
                       cart. coord. in units 2pi/alat
        k(    1) = (   0.0000000   0.0000000   0.0000000), wk =   0.0312500
        k(    2) = (   0.0000000   0.1443376   0.0000000), wk =   0.1875000
        k(    3) = (   0.0000000   0.2886751   0.0000000), wk =   0.1875000
        k(    4) = (   0.0000000   0.4330127   0.0000000), wk =   0.1875000
        k(    5) = (   0.0000000  -0.5773503   0.0000000), wk =   0.0937500
        k(    6) = (   0.1250000   0.2165064   0.0000000), wk =   0.1875000
        k(    7) = (   0.1250000   0.3608439   0.0000000), wk =   0.3750000
        k(    8) = (   0.1250000   0.5051815   0.0000000), wk =   0.3750000
        k(    9) = (   0.2500000   0.4330127   0.0000000), wk =   0.1875000
        k(   10) = (   0.2500000   0.5773503   0.0000000), wk =   0.1875000

     Dense  grid:    90725 G-vectors     FFT dimensions: (  36,  36, 180)

     Estimated max dynamical RAM per process >      26.47 MB

     Estimated total dynamical RAM >     423.58 MB

     Initial potential from superposition of free atoms

     starting charge      25.9991, renormalised to      26.0000

     negative rho (up, down):  3.995E-04 0.000E+00
     Starting wfcs are   18 randomized atomic wfcs
     Checking if some PAW data can be deallocated... 

     total cpu time spent up to now is        0.6 secs

     Self-consistent Calculation

     iteration #  1     ecut=    80.00 Ry     beta= 0.70
     Davidson diagonalization with overlap
     ethr =  1.00E-02,  avg # of iterations =  2.3

     Threshold (ethr) on eigenvalues was too large:
     Diagonalizing with lowered threshold

     Davidson diagonalization with overlap
     ethr =  2.49E-04,  avg # of iterations =  3.7

     negative rho (up, down):  4.728E-04 0.000E+00

     total cpu time spent up to now is        1.6 secs

     total energy              =    -496.65932021 Ry
     estimated scf accuracy    <       0.09922676 Ry

     iteration #  2     ecut=    80.00 Ry     beta= 0.70
     Davidson diagonalization with overlap
     ethr =  3.82E-04,  avg # of iterations =  3.0

     negative rho (up, down):  4.557E-04 0.000E+00

     total cpu time spent up to now is        2.0 secs

     total energy              =    -496.64658454 Ry
     estimated scf accuracy    <       0.16673832 Ry

     iteration #  3     ecut=    80.00 Ry     beta= 0.70
     Davidson diagonalization with overlap
     ethr =  3.82E-04,  avg # of iterations =  2.2

     negative rho (up, down):  4.549E-04 0.000E+00

     total cpu time spent up to now is        2.4 secs

     total energy              =    -496.67315985 Ry
     estimated scf accuracy    <       0.16086451 Ry

     iteration #  4     ecut=    80.00 Ry     beta= 0.70
     Davidson diagonalization with overlap
     ethr =  3.82E-04,  avg # of iterations =  1.6

     negative rho (up, down):  4.691E-04 0.000E+00

     total cpu time spent up to now is        2.9 secs

     total energy              =    -496.69363641 Ry
     estimated scf accuracy    <       0.00057603 Ry

     iteration #  5     ecut=    80.00 Ry     beta= 0.70
     Davidson diagonalization with overlap
     ethr =  2.22E-06,  avg # of iterations =  3.8

     negative rho (up, down):  4.712E-04 0.000E+00

     total cpu time spent up to now is        3.4 secs

     total energy              =    -496.69391727 Ry
     estimated scf accuracy    <       0.00013140 Ry

     iteration #  6     ecut=    80.00 Ry     beta= 0.70
     Davidson diagonalization with overlap
     ethr =  5.05E-07,  avg # of iterations =  1.5

     negative rho (up, down):  4.726E-04 0.000E+00

     total cpu time spent up to now is        3.8 secs

     total energy              =    -496.69392595 Ry
     estimated scf accuracy    <       0.00001266 Ry

     iteration #  7     ecut=    80.00 Ry     beta= 0.70
     Davidson diagonalization with overlap
     ethr =  4.87E-08,  avg # of iterations =  2.2

     negative rho (up, down):  4.730E-04 0.000E+00

     total cpu time spent up to now is        4.2 secs

     End of self-consistent calculation

          k = 0.0000 0.0000 0.0000 ( 11309 PWs)   bands (ev):

   -60.6191 -34.7211 -34.5462 -34.5462 -13.5224 -12.3496  -5.0595  -2.1011
    -2.1011  -1.4268  -1.0699  -1.0699   0.2951   2.9767   2.9767   3.1461
     3.1461

          k = 0.0000 0.1443 0.0000 ( 11375 PWs)   bands (ev):

   -60.6146 -34.7119 -34.5941 -34.5573 -13.3101 -12.2550  -4.8135  -2.5734
    -2.1384  -1.8822  -1.3934  -0.7370   0.1645   2.6721   2.7735   2.9281
     3.3146

          k = 0.0000 0.2887 0.0000 ( 11351 PWs)   bands (ev):

   -60.6035 -34.7080 -34.6897 -34.5837 -12.7499 -12.0071  -4.4185  -3.3495
    -3.0787  -2.0050  -1.3400  -1.0097  -0.3647   2.3832   2.5556   3.0840
     3.9006

          k = 0.0000 0.4330 0.0000 ( 11345 PWs)   bands (ev):

   -60.5925 -34.8199 -34.6675 -34.6100 -12.0913 -11.7234  -4.8629  -3.9255
    -3.4741  -2.4839  -1.4039  -0.8094  -0.5395   2.4226   2.6714   3.7530
     4.2734

          k = 0.0000-0.5774 0.0000 ( 11324 PWs)   bands (ev):

   -60.5879 -34.8656 -34.6582 -34.6209 -11.7734 -11.5921  -5.2112  -4.2825
    -3.5647  -2.6578  -1.5348  -0.6123  -0.2782   2.4685   2.9400   4.0288
     4.3828

          k = 0.1250 0.2165 0.0000 ( 11365 PWs)   bands (ev):

   -60.6068 -34.6963 -34.6696 -34.5813 -12.9225 -12.0824  -4.4502  -3.1674
    -2.6757  -2.1909  -1.5750  -0.6227  -0.1812   2.3011   2.6743   2.7078
     3.8773

          k = 0.1250 0.3608 0.0000 ( 11342 PWs)   bands (ev):

   -60.5957 -34.7708 -34.6740 -34.6193 -12.3023 -11.8076  -4.4899  -3.5782
    -3.3764  -2.6957  -1.5139  -0.9780  -0.4282   2.2419   2.6958   3.1570
     4.3520

          k = 0.1250 0.5052 0.0000 ( 11344 PWs)   bands (ev):

   -60.5879 -34.8409 -34.6582 -34.6465 -11.7870 -11.5841  -4.9234  -4.3157
    -3.4532  -2.7116  -1.5271  -1.4441  -0.1164   2.4615   2.9550   3.7508
     4.3745

          k = 0.2500 0.4330 0.0000 ( 11319 PWs)   bands (ev):

   -60.5879 -34.8067 -34.6816 -34.6583 -11.8004 -11.5761  -4.5536  -4.3439
    -3.1823  -2.7874  -2.4515  -1.3150  -0.1352   2.3943   3.0042   3.2880
     4.6443

          k = 0.2500 0.5774 0.0000 ( 11310 PWs)   bands (ev):

   -60.5846 -34.8104 -34.7185 -34.6517 -11.5724 -11.4677  -4.7097  -4.4195
    -3.4025  -2.7920  -2.5728  -1.6887   0.2163   2.1160   3.3472   3.4946
     4.7759

     the Fermi energy is     1.1697 ev

!    total energy              =    -496.69392931 Ry
     total all-electron energy =     -9695.024144 Ry
     estimated scf accuracy    <       0.00000016 Ry
     smearing contrib. (-TS)   =      -0.00000282 Ry
     internal energy E=F+TS    =    -496.69392649 Ry

     The total energy is F=E-TS. E is the sum of the following terms:
     one-electron contribution =    -724.23166974 Ry
     hartree contribution      =     365.83593683 Ry
     xc contribution           =     -29.59333273 Ry
     ewald contribution        =     210.91964189 Ry
     one-center paw contrib.   =    -319.62450273 Ry

     convergence has been achieved in   7 iterations

     negative rho (up, down):  4.730E-04 0.000E+00

     Forces acting on atoms (cartesian axes, Ry/au):

     atom    1 type  1   force =     0.00000000    0.00000000    0.00000000
     atom    2 type  2   force =     0.00000000    0.00000000   -0.02920232
     atom    3 type  2   force =     0.00000000   -0.00000000    0.02920232
     The non-local contrib.  to forces
     atom    1 type  1   force =     0.00000000    0.00000000    0.00000000
     atom    2 type  2   force =     0.00000000    0.00000000   -0.28473348
     atom    3 type  2   force =     0.00000000   -0.00000000    0.28473348
     The ionic contribution  to forces
     atom    1 type  1   force =     0.00000000   -0.00000000    0.00000000
     atom    2 type  2   force =    -0.00000000    0.00000000   32.09246378
     atom    3 type  2   force =    -0.00000000    0.00000000  -32.09246378
     The local contribution  to forces
     atom    1 type  1   force =     0.00000000   -0.00000000    0.00000000
     atom    2 type  2   force =    -0.00000000    0.00000000  -31.83974006
     atom    3 type  2   force =    -0.00000000    0.00000000   31.83974006
     The core correction contribution to forces
     atom    1 type  1   force =    -0.00000000   -0.00000000   -0.00000000
     atom    2 type  2   force =     0.00000000   -0.00000000    0.00309978
     atom    3 type  2   force =     0.00000000   -0.00000000   -0.00309978
     The Hubbard contrib.    to forces
     atom    1 type  1   force =     0.00000000    0.00000000    0.00000000
     atom    2 type  2   force =     0.00000000    0.00000000    0.00000000
     atom    3 type  2   force =     0.00000000    0.00000000    0.00000000
     The SCF correction term to forces
     atom    1 type  1   force =     0.00000000    0.00000000   -0.00000000
     atom    2 type  2   force =    -0.00000000   -0.00000000   -0.00029233
     atom    3 type  2   force =    -0.00000000   -0.00000000    0.00029233

     Total force =     0.041298     Total SCF correction =     0.000413


     Computing stress (Cartesian axis) and pressure


     negative rho (up, down):  4.730E-04 0.000E+00
          total   stress  (Ry/bohr**3)                   (kbar)     P=      -22.27
  -0.00013388   0.00000000  -0.00000000          -19.69        0.00       -0.00
   0.00000000  -0.00013388   0.00000000            0.00      -19.69        0.00
   0.00000000   0.00000000  -0.00018648            0.00        0.00      -27.43


     Writing all to output data dir ./tmp/scf.save/
 
     init_run     :      0.41s CPU      0.47s WALL (       1 calls)
     electrons    :      3.23s CPU      3.60s WALL (       1 calls)
     forces       :      0.19s CPU      0.19s WALL (       1 calls)
     stress       :      0.70s CPU      0.71s WALL (       1 calls)

     Called by init_run:
     wfcinit      :      0.05s CPU      0.05s WALL (       1 calls)
     potinit      :      0.10s CPU      0.11s WALL (       1 calls)
     hinit0       :      0.20s CPU      0.22s WALL (       1 calls)

     Called by electrons:
     c_bands      :      1.71s CPU      1.96s WALL (       8 calls)
     sum_band     :      0.53s CPU      0.61s WALL (       8 calls)
     v_of_rho     :      0.04s CPU      0.05s WALL (       8 calls)
     newd         :      0.30s CPU      0.32s WALL (       8 calls)
     PAW_pot      :      0.74s CPU      0.76s WALL (       8 calls)
     mix_rho      :      0.01s CPU      0.01s WALL (       8 calls)

     Called by c_bands:
     init_us_2    :      0.04s CPU      0.04s WALL (     190 calls)
     init_us_2:cp :      0.04s CPU      0.04s WALL (     190 calls)
     cegterg      :      1.21s CPU      1.46s WALL (      80 calls)

     Called by *egterg:
     cdiaghg      :      0.08s CPU      0.08s WALL (     273 calls)
     h_psi        :      0.97s CPU      1.19s WALL (     293 calls)
     s_psi        :      0.02s CPU      0.02s WALL (     293 calls)
     g_psi        :      0.00s CPU      0.00s WALL (     203 calls)

     Called by h_psi:
     h_psi:calbec :      0.07s CPU      0.08s WALL (     293 calls)
     vloc_psi     :      0.86s CPU      1.07s WALL (     293 calls)
     add_vuspsi   :      0.03s CPU      0.03s WALL (     293 calls)

     General routines
     calbec       :      0.23s CPU      0.25s WALL (     423 calls)
     fft          :      0.09s CPU      0.12s WALL (     114 calls)
     ffts         :      0.00s CPU      0.00s WALL (       8 calls)
     fftw         :      0.91s CPU      1.13s WALL (    8702 calls)
 
     Parallel routines
 
     PWSCF        :      4.70s CPU      5.20s WALL

 
   This run was terminated on:  13:48: 1   6Jun2025            

=------------------------------------------------------------------------------=
   JOB DONE.
=------------------------------------------------------------------------------=
