
     Program PWSCF v.7.2 starts on  6Jun2025 at 13:47:33 

     This program is part of the open-source Quantum ESPRESSO suite
     for quantum simulation of materials; please cite
         "P. Giannozzi et al., J. Phys.:Condens. Matter 21 395502 (2009);
         "P. Giannozzi et al., J. Phys.:Condens. Matter 29 465901 (2017);
         "P. Giannozzi et al., J. Chem. Phys. 152 154105 (2020);
          URL http://www.quantum-espresso.org", 
     in publications or presentations arising from this work. More details at
     http://www.quantum-espresso.org/quote

     Parallel version (MPI), running on    16 processors

     MPI processes distributed on     1 nodes
     38993 MiB available memory on the printing compute node when the environment starts
 
     Waiting for input...
     Reading input from standard input

     Current dimensions of program PWSCF are:
     Max number of different atomic species (ntypx) = 10
     Max number of k-points (npk) =  40000
     Max angular momentum in pseudopotentials (lmaxx) =  4
     file Mo.pbe-spn-kjpaw_psl.1.0.0.UPF: wavefunction(s)  4S 4D renormalized
     file S.pbe-n-kjpaw_psl.1.0.0.UPF: wavefunction(s)  3S 3P renormalized
     Message from routine setup:
     using ibrav=0 with symmetry is DISCOURAGED, use correct ibrav instead
 
     R & G space division:  proc/nbgrp/npool/nimage =      16
     Subspace diagonalization in iterative solution of the eigenvalue problem:
     a serial algorithm will be used

 
     Parallelization info
     --------------------
     sticks:   dense  smooth     PW     G-vecs:    dense   smooth      PW
     Min          49      49     13                 5487     5487     835
     Max          50      50     14                 5500     5500     852
     Sum         793     793    223                87875    87875   13523
 
     Using Slab Decomposition
 


     bravais-lattice index     =            0
     lattice parameter (alat)  =       5.9904  a.u.
     unit-cell volume          =     909.6979 (a.u.)^3
     number of atoms/cell      =            3
     number of atomic types    =            2
     number of electrons       =        26.00
     number of Kohn-Sham states=           17
     kinetic-energy cutoff     =      80.0000  Ry
     charge density cutoff     =     320.0000  Ry
     scf convergence threshold =      1.0E-06
     mixing beta               =       0.7000
     number of iterations used =            8  plain     mixing
     Exchange-correlation= SLA  PW   PBX  PBC
                           (   1   4   3   4   0   0   0)

     celldm(1)=   5.990432  celldm(2)=   0.000000  celldm(3)=   0.000000
     celldm(4)=   0.000000  celldm(5)=   0.000000  celldm(6)=   0.000000

     crystal axes: (cart. coord. in units of alat)
               a(1) = (   1.000000   0.000000   0.000000 )  
               a(2) = (  -0.500000   0.866025   0.000000 )  
               a(3) = (   0.000000   0.000000   4.886435 )  

     reciprocal axes: (cart. coord. in units 2 pi/alat)
               b(1) = (  1.000000  0.577350  0.000000 )  
               b(2) = (  0.000000  1.154701  0.000000 )  
               b(3) = (  0.000000  0.000000  0.204648 )  


     PseudoPot. # 1 for Mo read from file:
     /shared/ESPRESSO/PSLIBRARY/1.0.0/pbe/PSEUDOPOTENTIALS/Mo.pbe-spn-kjpaw_psl.1.0.0.UPF
     MD5 check sum: 4396e0c640fcce5c25f020efccf1ab12
     Pseudo is Projector augmented-wave + core cor, Zval = 14.0
     Generated using &quot;atomic&quot; code by A. Dal Corso  v.6.3
     Shape of augmentation charge: PSQ
     Using radial grid of 1229 points,  6 beta functions with: 
                l(1) =   0
                l(2) =   0
                l(3) =   1
                l(4) =   1
                l(5) =   2
                l(6) =   2
     Q(r) pseudized with 0 coefficients 


     PseudoPot. # 2 for S  read from file:
     /shared/ESPRESSO/PSLIBRARY/1.0.0/pbe/PSEUDOPOTENTIALS/S.pbe-n-kjpaw_psl.1.0.0.UPF
     MD5 check sum: c08f931834bcc19553f8bde8f1a3adc5
     Pseudo is Projector augmented-wave + core cor, Zval =  6.0
     Generated using "atomic" code by A. Dal Corso  (Quantum ESPRESSO distribution)
     Shape of augmentation charge: PSQ
     Using radial grid of 1151 points,  6 beta functions with: 
                l(1) =   0
                l(2) =   0
                l(3) =   1
                l(4) =   1
                l(5) =   2
                l(6) =   2
     Q(r) pseudized with 0 coefficients 


     atomic species   valence    mass     pseudopotential
        Mo            14.00    95.94000     Mo( 1.00)
        S              6.00    32.06500     S ( 1.00)

     12 Sym. Ops. (no inversion) found



   Cartesian axes

     site n.     atom                  positions (alat units)
         1           Mo  tau(   1) = (   0.0000000   0.0000000   2.4432177  )
         2           S   tau(   2) = (   0.5000000   0.2886751   2.9463722  )
         3           S   tau(   3) = (   0.5000000   0.2886751   1.9400631  )

     number of k points=    10  Fermi-Dirac smearing, width (Ry)=  0.0070
                       cart. coord. in units 2pi/alat
        k(    1) = (   0.0000000   0.0000000   0.0000000), wk =   0.0312500
        k(    2) = (   0.0000000   0.1443376   0.0000000), wk =   0.1875000
        k(    3) = (   0.0000000   0.2886751   0.0000000), wk =   0.1875000
        k(    4) = (   0.0000000   0.4330127   0.0000000), wk =   0.1875000
        k(    5) = (   0.0000000  -0.5773503   0.0000000), wk =   0.0937500
        k(    6) = (   0.1250000   0.2165064   0.0000000), wk =   0.1875000
        k(    7) = (   0.1250000   0.3608439   0.0000000), wk =   0.3750000
        k(    8) = (   0.1250000   0.5051815   0.0000000), wk =   0.3750000
        k(    9) = (   0.2500000   0.4330127   0.0000000), wk =   0.1875000
        k(   10) = (   0.2500000   0.5773503   0.0000000), wk =   0.1875000

     Dense  grid:    87875 G-vectors     FFT dimensions: (  36,  36, 180)

     Estimated max dynamical RAM per process >      25.76 MB

     Estimated total dynamical RAM >     412.17 MB

     Initial potential from superposition of free atoms

     starting charge      25.9991, renormalised to      26.0000

     negative rho (up, down):  3.937E-04 0.000E+00
     Starting wfcs are   18 randomized atomic wfcs
     Checking if some PAW data can be deallocated... 

     total cpu time spent up to now is        1.1 secs

     Self-consistent Calculation

     iteration #  1     ecut=    80.00 Ry     beta= 0.70
     Davidson diagonalization with overlap
     ethr =  1.00E-02,  avg # of iterations =  2.3

     Threshold (ethr) on eigenvalues was too large:
     Diagonalizing with lowered threshold

     Davidson diagonalization with overlap
     ethr =  2.93E-04,  avg # of iterations =  3.6

     negative rho (up, down):  4.657E-04 0.000E+00

     total cpu time spent up to now is        1.9 secs

     total energy              =    -496.65187653 Ry
     estimated scf accuracy    <       0.11421985 Ry

     iteration #  2     ecut=    80.00 Ry     beta= 0.70
     Davidson diagonalization with overlap
     ethr =  4.39E-04,  avg # of iterations =  3.0

     negative rho (up, down):  4.447E-04 0.000E+00

     total cpu time spent up to now is        2.4 secs

     total energy              =    -496.61841725 Ry
     estimated scf accuracy    <       0.33512739 Ry

     iteration #  3     ecut=    80.00 Ry     beta= 0.70
     Davidson diagonalization with overlap
     ethr =  4.39E-04,  avg # of iterations =  2.7

     negative rho (up, down):  4.421E-04 0.000E+00

     total cpu time spent up to now is        2.8 secs

     total energy              =    -496.67803296 Ry
     estimated scf accuracy    <       0.13328191 Ry

     iteration #  4     ecut=    80.00 Ry     beta= 0.70
     Davidson diagonalization with overlap
     ethr =  4.39E-04,  avg # of iterations =  1.6

     negative rho (up, down):  4.607E-04 0.000E+00

     total cpu time spent up to now is        3.2 secs

     total energy              =    -496.69567361 Ry
     estimated scf accuracy    <       0.00061270 Ry

     iteration #  5     ecut=    80.00 Ry     beta= 0.70
     Davidson diagonalization with overlap
     ethr =  2.36E-06,  avg # of iterations =  3.8

     negative rho (up, down):  4.636E-04 0.000E+00

     total cpu time spent up to now is        3.7 secs

     total energy              =    -496.69594927 Ry
     estimated scf accuracy    <       0.00010659 Ry

     iteration #  6     ecut=    80.00 Ry     beta= 0.70
     Davidson diagonalization with overlap
     ethr =  4.10E-07,  avg # of iterations =  2.1

     negative rho (up, down):  4.657E-04 0.000E+00

     total cpu time spent up to now is        4.1 secs

     total energy              =    -496.69595901 Ry
     estimated scf accuracy    <       0.00000982 Ry

     iteration #  7     ecut=    80.00 Ry     beta= 0.70
     Davidson diagonalization with overlap
     ethr =  3.78E-08,  avg # of iterations =  2.2

     negative rho (up, down):  4.660E-04 0.000E+00

     total cpu time spent up to now is        4.5 secs

     End of self-consistent calculation

          k = 0.0000 0.0000 0.0000 ( 11081 PWs)   bands (ev):

   -60.3496 -34.4858 -34.2593 -34.2593 -13.4882 -12.2824  -5.0139  -1.8823
    -1.8823  -1.3417  -0.8060  -0.8060   0.3979   3.3223   3.3223   3.4895
     3.4895

          k = 0.0000 0.1443 0.0000 ( 11043 PWs)   bands (ev):

   -60.3439 -34.4748 -34.3159 -34.2722 -13.2602 -12.1804  -4.7537  -2.3762
    -2.0215  -1.6473  -1.1499  -0.5318   0.2907   2.9516   3.1051   3.2569
     3.6755

          k = 0.0000 0.2887 0.0000 ( 10999 PWs)   bands (ev):

   -60.3302 -34.4507 -34.4481 -34.3034 -12.6561 -11.9120  -4.3433  -3.1782
    -2.9911  -1.7956  -1.0677  -0.8502  -0.2222   2.6076   2.8724   3.4170
     4.2741

          k = 0.0000 0.4330 0.0000 ( 10981 PWs)   bands (ev):

   -60.3165 -34.5827 -34.4213 -34.3343 -11.9377 -11.6024  -4.8100  -3.8756
    -3.3405  -2.2987  -1.2791  -0.5124  -0.3857   2.7706   2.9617   4.0844
     4.6396

          k = 0.0000-0.5774 0.0000 ( 10954 PWs)   bands (ev):

   -60.3108 -34.6366 -34.4101 -34.3470 -11.5857 -11.4580  -5.1827  -4.2514
    -3.4634  -2.4810  -1.4203  -0.3140  -0.1009   2.8512   3.3123   4.3441
     4.7425

          k = 0.1250 0.2165 0.0000 ( 11023 PWs)   bands (ev):

   -60.3343 -34.4559 -34.4053 -34.3006 -12.8427 -11.9937  -4.3730  -2.9913
    -2.5735  -2.0101  -1.3215  -0.4142  -0.0302   2.5295   2.9804   3.0276
     4.2520

          k = 0.1250 0.3608 0.0000 ( 11013 PWs)   bands (ev):

   -60.3205 -34.5249 -34.4292 -34.3454 -12.1691 -11.6944  -4.4193  -3.4942
    -3.2079  -2.5724  -1.3096  -0.7977  -0.2268   2.4730   3.0432   3.4741
     4.7227

          k = 0.1250 0.5052 0.0000 ( 10950 PWs)   bands (ev):

   -60.3108 -34.6074 -34.4102 -34.3775 -11.6013 -11.4484  -4.8812  -4.2741
    -3.3314  -2.5762  -1.3222  -1.3079   0.1069   2.8013   3.3375   4.0545
     4.7318

          k = 0.2500 0.4330 0.0000 ( 10967 PWs)   bands (ev):

   -60.3108 -34.5671 -34.4192 -34.4102 -11.6167 -11.4388  -4.4957  -4.2911
    -3.0091  -2.6920  -2.3166  -1.1548   0.0799   2.6935   3.3984   3.5474
     5.0537

          k = 0.2500 0.5774 0.0000 ( 10968 PWs)   bands (ev):

   -60.3068 -34.5713 -34.4629 -34.4023 -11.3628 -11.3177  -4.6820  -4.3650
    -3.2873  -2.6327  -2.4590  -1.5582   0.4413   2.4894   3.5644   3.8636
     5.2277

     the Fermi energy is     1.4086 ev

!    total energy              =    -496.69596200 Ry
     total all-electron energy =     -9695.026177 Ry
     estimated scf accuracy    <       0.00000047 Ry
     smearing contrib. (-TS)   =      -0.00000174 Ry
     internal energy E=F+TS    =    -496.69596026 Ry

     The total energy is F=E-TS. E is the sum of the following terms:
     one-electron contribution =    -744.45726936 Ry
     hartree contribution      =     376.16814800 Ry
     xc contribution           =     -29.66348552 Ry
     ewald contribution        =     220.88691077 Ry
     one-center paw contrib.   =    -319.63026415 Ry

     convergence has been achieved in   7 iterations

     negative rho (up, down):  4.660E-04 0.000E+00

     Forces acting on atoms (cartesian axes, Ry/au):

     atom    1 type  1   force =     0.00000000    0.00000000    0.00000000
     atom    2 type  2   force =     0.00000000    0.00000000   -0.01864307
     atom    3 type  2   force =     0.00000000    0.00000000    0.01864307
     The non-local contrib.  to forces
     atom    1 type  1   force =     0.00000000    0.00000000    0.00000000
     atom    2 type  2   force =    -0.00000000   -0.00000000   -0.27599928
     atom    3 type  2   force =     0.00000000    0.00000000    0.27599928
     The ionic contribution  to forces
     atom    1 type  1   force =     0.00000000   -0.00000000    0.00000000
     atom    2 type  2   force =    -0.00000000    0.00000000   33.23199150
     atom    3 type  2   force =    -0.00000000    0.00000000  -33.23199150
     The local contribution  to forces
     atom    1 type  1   force =     0.00000000   -0.00000000    0.00000000
     atom    2 type  2   force =    -0.00000000    0.00000000  -32.97682600
     atom    3 type  2   force =    -0.00000000    0.00000000   32.97682600
     The core correction contribution to forces
     atom    1 type  1   force =     0.00000000   -0.00000000   -0.00000000
     atom    2 type  2   force =     0.00000000   -0.00000000    0.00258643
     atom    3 type  2   force =     0.00000000   -0.00000000   -0.00258643
     The Hubbard contrib.    to forces
     atom    1 type  1   force =     0.00000000    0.00000000    0.00000000
     atom    2 type  2   force =     0.00000000    0.00000000    0.00000000
     atom    3 type  2   force =     0.00000000    0.00000000    0.00000000
     The SCF correction term to forces
     atom    1 type  1   force =    -0.00000000   -0.00000000   -0.00000000
     atom    2 type  2   force =    -0.00000000   -0.00000000   -0.00039573
     atom    3 type  2   force =    -0.00000000   -0.00000000    0.00039573

     Total force =     0.026365     Total SCF correction =     0.000560


     Computing stress (Cartesian axis) and pressure


     negative rho (up, down):  4.660E-04 0.000E+00
          total   stress  (Ry/bohr**3)                   (kbar)     P=       -6.42
  -0.00000425   0.00000000  -0.00000000           -0.63        0.00       -0.00
   0.00000000  -0.00000425   0.00000000            0.00       -0.63        0.00
   0.00000000   0.00000000  -0.00012240            0.00        0.00      -18.01


     Writing all to output data dir ./tmp/scf.save/
 
     init_run     :      0.45s CPU      0.54s WALL (       1 calls)
     electrons    :      3.08s CPU      3.37s WALL (       1 calls)
     forces       :      0.17s CPU      0.18s WALL (       1 calls)
     stress       :      0.38s CPU      0.39s WALL (       1 calls)

     Called by init_run:
     wfcinit      :      0.05s CPU      0.07s WALL (       1 calls)
     potinit      :      0.13s CPU      0.14s WALL (       1 calls)
     hinit0       :      0.19s CPU      0.24s WALL (       1 calls)

     Called by electrons:
     c_bands      :      1.74s CPU      1.90s WALL (       8 calls)
     sum_band     :      0.53s CPU      0.61s WALL (       8 calls)
     v_of_rho     :      0.05s CPU      0.06s WALL (       8 calls)
     newd         :      0.32s CPU      0.34s WALL (       8 calls)
     PAW_pot      :      0.54s CPU      0.58s WALL (       8 calls)
     mix_rho      :      0.01s CPU      0.01s WALL (       8 calls)

     Called by c_bands:
     init_us_2    :      0.03s CPU      0.04s WALL (     190 calls)
     init_us_2:cp :      0.03s CPU      0.04s WALL (     190 calls)
     cegterg      :      1.20s CPU      1.36s WALL (      80 calls)

     Called by *egterg:
     cdiaghg      :      0.08s CPU      0.08s WALL (     283 calls)
     h_psi        :      0.95s CPU      1.10s WALL (     303 calls)
     s_psi        :      0.02s CPU      0.02s WALL (     303 calls)
     g_psi        :      0.00s CPU      0.00s WALL (     213 calls)

     Called by h_psi:
     h_psi:calbec :      0.08s CPU      0.09s WALL (     303 calls)
     vloc_psi     :      0.84s CPU      0.97s WALL (     303 calls)
     add_vuspsi   :      0.02s CPU      0.03s WALL (     303 calls)

     General routines
     calbec       :      0.13s CPU      0.15s WALL (     433 calls)
     fft          :      0.07s CPU      0.11s WALL (     114 calls)
     ffts         :      0.00s CPU      0.00s WALL (       8 calls)
     fftw         :      0.90s CPU      1.05s WALL (    8790 calls)
 
     Parallel routines
 
     PWSCF        :      4.63s CPU      5.12s WALL

 
   This run was terminated on:  13:47:38   6Jun2025            

=------------------------------------------------------------------------------=
   JOB DONE.
=------------------------------------------------------------------------------=
