
     Program PWSCF v.7.2 starts on  6Jun2025 at 13:48: 4 

     This program is part of the open-source Quantum ESPRESSO suite
     for quantum simulation of materials; please cite
         "P. Giannozzi et al., J. Phys.:Condens. Matter 21 395502 (2009);
         "P. Giannozzi et al., J. Phys.:Condens. Matter 29 465901 (2017);
         "P. Giannozzi et al., J. Chem. Phys. 152 154105 (2020);
          URL http://www.quantum-espresso.org", 
     in publications or presentations arising from this work. More details at
     http://www.quantum-espresso.org/quote

     Parallel version (MPI), running on    16 processors

     MPI processes distributed on     1 nodes
     40140 MiB available memory on the printing compute node when the environment starts
 
     Waiting for input...
     Reading input from standard input

     Current dimensions of program PWSCF are:
     Max number of different atomic species (ntypx) = 10
     Max number of k-points (npk) =  40000
     Max angular momentum in pseudopotentials (lmaxx) =  4
     file Mo.pbe-spn-kjpaw_psl.1.0.0.UPF: wavefunction(s)  4S 4D renormalized
     file S.pbe-n-kjpaw_psl.1.0.0.UPF: wavefunction(s)  3S 3P renormalized
     Message from routine setup:
     using ibrav=0 with symmetry is DISCOURAGED, use correct ibrav instead
 
     R & G space division:  proc/nbgrp/npool/nimage =      16
     Subspace diagonalization in iterative solution of the eigenvalue problem:
     a serial algorithm will be used

 
     Parallelization info
     --------------------
     sticks:   dense  smooth     PW     G-vecs:    dense   smooth      PW
     Min          51      51     15                 5735     5735     883
     Max          52      52     16                 5760     5760     896
     Sum         823     823    241                91937    91937   14201
 
     Using Slab Decomposition
 


     bravais-lattice index     =            0
     lattice parameter (alat)  =       6.1227  a.u.
     unit-cell volume          =     950.3174 (a.u.)^3
     number of atoms/cell      =            3
     number of atomic types    =            2
     number of electrons       =        26.00
     number of Kohn-Sham states=           17
     kinetic-energy cutoff     =      80.0000  Ry
     charge density cutoff     =     320.0000  Ry
     scf convergence threshold =      1.0E-06
     mixing beta               =       0.7000
     number of iterations used =            8  plain     mixing
     Exchange-correlation= SLA  PW   PBX  PBC
                           (   1   4   3   4   0   0   0)

     celldm(1)=   6.122713  celldm(2)=   0.000000  celldm(3)=   0.000000
     celldm(4)=   0.000000  celldm(5)=   0.000000  celldm(6)=   0.000000

     crystal axes: (cart. coord. in units of alat)
               a(1) = (   1.000000   0.000000   0.000000 )  
               a(2) = (  -0.500000   0.866025   0.000000 )  
               a(3) = (   0.000000   0.000000   4.780864 )  

     reciprocal axes: (cart. coord. in units 2 pi/alat)
               b(1) = (  1.000000  0.577350  0.000000 )  
               b(2) = (  0.000000  1.154701  0.000000 )  
               b(3) = (  0.000000  0.000000  0.209167 )  


     PseudoPot. # 1 for Mo read from file:
     /shared/ESPRESSO/PSLIBRARY/1.0.0/pbe/PSEUDOPOTENTIALS/Mo.pbe-spn-kjpaw_psl.1.0.0.UPF
     MD5 check sum: 4396e0c640fcce5c25f020efccf1ab12
     Pseudo is Projector augmented-wave + core cor, Zval = 14.0
     Generated using &quot;atomic&quot; code by A. Dal Corso  v.6.3
     Shape of augmentation charge: PSQ
     Using radial grid of 1229 points,  6 beta functions with: 
                l(1) =   0
                l(2) =   0
                l(3) =   1
                l(4) =   1
                l(5) =   2
                l(6) =   2
     Q(r) pseudized with 0 coefficients 


     PseudoPot. # 2 for S  read from file:
     /shared/ESPRESSO/PSLIBRARY/1.0.0/pbe/PSEUDOPOTENTIALS/S.pbe-n-kjpaw_psl.1.0.0.UPF
     MD5 check sum: c08f931834bcc19553f8bde8f1a3adc5
     Pseudo is Projector augmented-wave + core cor, Zval =  6.0
     Generated using "atomic" code by A. Dal Corso  (Quantum ESPRESSO distribution)
     Shape of augmentation charge: PSQ
     Using radial grid of 1151 points,  6 beta functions with: 
                l(1) =   0
                l(2) =   0
                l(3) =   1
                l(4) =   1
                l(5) =   2
                l(6) =   2
     Q(r) pseudized with 0 coefficients 


     atomic species   valence    mass     pseudopotential
        Mo            14.00    95.94000     Mo( 1.00)
        S              6.00    32.06500     S ( 1.00)

     12 Sym. Ops. (no inversion) found



   Cartesian axes

     site n.     atom                  positions (alat units)
         1           Mo  tau(   1) = (   0.0000000   0.0000000   2.3904321  )
         2           S   tau(   2) = (   0.5000000   0.2886751   2.8827160  )
         3           S   tau(   3) = (   0.5000000   0.2886751   1.8981481  )

     number of k points=    10  Fermi-Dirac smearing, width (Ry)=  0.0070
                       cart. coord. in units 2pi/alat
        k(    1) = (   0.0000000   0.0000000   0.0000000), wk =   0.0312500
        k(    2) = (   0.0000000   0.1443376   0.0000000), wk =   0.1875000
        k(    3) = (   0.0000000   0.2886751   0.0000000), wk =   0.1875000
        k(    4) = (   0.0000000   0.4330127   0.0000000), wk =   0.1875000
        k(    5) = (   0.0000000  -0.5773503   0.0000000), wk =   0.0937500
        k(    6) = (   0.1250000   0.2165064   0.0000000), wk =   0.1875000
        k(    7) = (   0.1250000   0.3608439   0.0000000), wk =   0.3750000
        k(    8) = (   0.1250000   0.5051815   0.0000000), wk =   0.3750000
        k(    9) = (   0.2500000   0.4330127   0.0000000), wk =   0.1875000
        k(   10) = (   0.2500000   0.5773503   0.0000000), wk =   0.1875000

     Dense  grid:    91937 G-vectors     FFT dimensions: (  36,  36, 180)

     Estimated max dynamical RAM per process >      26.75 MB

     Estimated total dynamical RAM >     428.04 MB

     Initial potential from superposition of free atoms

     starting charge      25.9991, renormalised to      26.0000

     negative rho (up, down):  4.017E-04 0.000E+00
     Starting wfcs are   18 randomized atomic wfcs
     Checking if some PAW data can be deallocated... 

     total cpu time spent up to now is        0.5 secs

     Self-consistent Calculation

     iteration #  1     ecut=    80.00 Ry     beta= 0.70
     Davidson diagonalization with overlap
     ethr =  1.00E-02,  avg # of iterations =  2.3

     Threshold (ethr) on eigenvalues was too large:
     Diagonalizing with lowered threshold

     Davidson diagonalization with overlap
     ethr =  2.35E-04,  avg # of iterations =  3.8

     negative rho (up, down):  4.770E-04 0.000E+00

     total cpu time spent up to now is        1.0 secs

     total energy              =    -496.66036404 Ry
     estimated scf accuracy    <       0.09445849 Ry

     iteration #  2     ecut=    80.00 Ry     beta= 0.70
     Davidson diagonalization with overlap
     ethr =  3.63E-04,  avg # of iterations =  3.0

     negative rho (up, down):  4.634E-04 0.000E+00

     total cpu time spent up to now is        1.3 secs

     total energy              =    -496.65591986 Ry
     estimated scf accuracy    <       0.11804957 Ry

     iteration #  3     ecut=    80.00 Ry     beta= 0.70
     Davidson diagonalization with overlap
     ethr =  3.63E-04,  avg # of iterations =  2.1

     negative rho (up, down):  4.629E-04 0.000E+00

     total cpu time spent up to now is        1.6 secs

     total energy              =    -496.67167943 Ry
     estimated scf accuracy    <       0.15914227 Ry

     iteration #  4     ecut=    80.00 Ry     beta= 0.70
     Davidson diagonalization with overlap
     ethr =  3.63E-04,  avg # of iterations =  1.7

     negative rho (up, down):  4.741E-04 0.000E+00

     total cpu time spent up to now is        1.9 secs

     total energy              =    -496.69181485 Ry
     estimated scf accuracy    <       0.00059210 Ry

     iteration #  5     ecut=    80.00 Ry     beta= 0.70
     Davidson diagonalization with overlap
     ethr =  2.28E-06,  avg # of iterations =  3.9

     negative rho (up, down):  4.750E-04 0.000E+00

     total cpu time spent up to now is        2.2 secs

     total energy              =    -496.69208796 Ry
     estimated scf accuracy    <       0.00014643 Ry

     iteration #  6     ecut=    80.00 Ry     beta= 0.70
     Davidson diagonalization with overlap
     ethr =  5.63E-07,  avg # of iterations =  1.2

     negative rho (up, down):  4.755E-04 0.000E+00

     total cpu time spent up to now is        2.5 secs

     total energy              =    -496.69209771 Ry
     estimated scf accuracy    <       0.00001255 Ry

     iteration #  7     ecut=    80.00 Ry     beta= 0.70
     Davidson diagonalization with overlap
     ethr =  4.83E-08,  avg # of iterations =  2.3

     negative rho (up, down):  4.755E-04 0.000E+00

     total cpu time spent up to now is        2.8 secs

     End of self-consistent calculation

          k = 0.0000 0.0000 0.0000 ( 11489 PWs)   bands (ev):

   -60.7242 -34.8135 -34.6573 -34.6573 -13.5364 -12.3764  -5.0767  -2.1855
    -2.1855  -1.4598  -1.1707  -1.1707   0.2525   2.8436   2.8436   3.0138
     3.0138

          k = 0.0000 0.1443 0.0000 ( 11487 PWs)   bands (ev):

   -60.7200 -34.8050 -34.7019 -34.6676 -13.3301 -12.2847  -4.8361  -2.6494
    -2.1852  -1.9726  -1.4865  -0.8139   0.1131   2.5639   2.6456   2.8012
     3.1755

          k = 0.0000 0.2887 0.0000 ( 11505 PWs)   bands (ev):

   -60.7099 -34.8084 -34.7843 -34.6924 -12.7867 -12.0446  -4.4471  -3.4149
    -3.1132  -2.0850  -1.4443  -1.0704  -0.4208   2.2940   2.4328   2.9546
     3.7560

          k = 0.0000 0.4330 0.0000 ( 11489 PWs)   bands (ev):

   -60.6997 -34.9131 -34.7637 -34.7170 -12.1507 -11.7708  -4.8833  -3.9449
    -3.5256  -2.5545  -1.4520  -0.9233  -0.5988   2.2883   2.5558   3.6224
     4.1309

          k = 0.0000-0.5774 0.0000 ( 11520 PWs)   bands (ev):

   -60.6955 -34.9560 -34.7551 -34.7272 -11.8455 -11.6444  -5.2225  -4.2945
    -3.6047  -2.7252  -1.5790  -0.7270  -0.3459   2.3217   2.7925   3.9030
     4.2426

          k = 0.1250 0.2165 0.0000 ( 11493 PWs)   bands (ev):

   -60.7129 -34.7904 -34.7725 -34.6901 -12.9540 -12.1175  -4.4795  -3.2350
    -2.7164  -2.2597  -1.6724  -0.7016  -0.2406   2.2108   2.5557   2.5841
     3.7321

          k = 0.1250 0.3608 0.0000 ( 11491 PWs)   bands (ev):

   -60.7027 -34.8673 -34.7697 -34.7256 -12.3540 -11.8521  -4.5169  -3.6108
    -3.4406  -2.7433  -1.5948  -1.0465  -0.5040   2.1489   2.5620   3.0331
     4.2072

          k = 0.1250 0.5052 0.0000 ( 11476 PWs)   bands (ev):

   -60.6955 -34.9328 -34.7551 -34.7511 -11.8583 -11.6370  -4.9399  -4.3319
    -3.5006  -2.7638  -1.6066  -1.4963  -0.2020   2.3270   2.8083   3.6303
     4.2345

          k = 0.2500 0.4330 0.0000 ( 11477 PWs)   bands (ev):

   -60.6955 -34.9009 -34.7839 -34.7551 -11.8710 -11.6296  -4.5760  -4.3642
    -3.2484  -2.8247  -2.5041  -1.3762  -0.2188   2.2729   2.8559   3.1845
     4.4853

          k = 0.2500 0.5774 0.0000 ( 11466 PWs)   bands (ev):

   -60.6926 -34.9044 -34.8184 -34.7490 -11.6525 -11.5258  -4.7205  -4.4411
    -3.4478  -2.8523  -2.6171  -1.7387   0.1281   1.9714   3.2601   3.3502
     4.6005

     the Fermi energy is     1.0731 ev

!    total energy              =    -496.69210080 Ry
     total all-electron energy =     -9695.022315 Ry
     estimated scf accuracy    <       0.00000013 Ry
     smearing contrib. (-TS)   =      -0.00000370 Ry
     internal energy E=F+TS    =    -496.69209709 Ry

     The total energy is F=E-TS. E is the sum of the following terms:
     one-electron contribution =    -716.42196840 Ry
     hartree contribution      =     361.84664032 Ry
     xc contribution           =     -29.56644243 Ry
     ewald contribution        =     207.07200690 Ry
     one-center paw contrib.   =    -319.62233348 Ry

     convergence has been achieved in   7 iterations

     negative rho (up, down):  4.755E-04 0.000E+00

     Forces acting on atoms (cartesian axes, Ry/au):

     atom    1 type  1   force =     0.00000000    0.00000000    0.00000000
     atom    2 type  2   force =     0.00000000   -0.00000000   -0.03292700
     atom    3 type  2   force =     0.00000000    0.00000000    0.03292700
     The non-local contrib.  to forces
     atom    1 type  1   force =     0.00000000    0.00000000    0.00000000
     atom    2 type  2   force =     0.00000000    0.00000000   -0.28792284
     atom    3 type  2   force =     0.00000000   -0.00000000    0.28792284
     The ionic contribution  to forces
     atom    1 type  1   force =     0.00000000   -0.00000000    0.00000000
     atom    2 type  2   force =    -0.00000000    0.00000000   31.65143052
     atom    3 type  2   force =    -0.00000000    0.00000000  -31.65143052
     The local contribution  to forces
     atom    1 type  1   force =     0.00000000    0.00000000    0.00000000
     atom    2 type  2   force =    -0.00000000    0.00000000  -31.39954852
     atom    3 type  2   force =    -0.00000000    0.00000000   31.39954852
     The core correction contribution to forces
     atom    1 type  1   force =     0.00000000    0.00000000   -0.00000000
     atom    2 type  2   force =     0.00000000   -0.00000000    0.00329566
     atom    3 type  2   force =     0.00000000   -0.00000000   -0.00329566
     The Hubbard contrib.    to forces
     atom    1 type  1   force =     0.00000000    0.00000000    0.00000000
     atom    2 type  2   force =     0.00000000    0.00000000    0.00000000
     atom    3 type  2   force =     0.00000000    0.00000000    0.00000000
     The SCF correction term to forces
     atom    1 type  1   force =    -0.00000000   -0.00000000    0.00000000
     atom    2 type  2   force =    -0.00000000   -0.00000000   -0.00018183
     atom    3 type  2   force =    -0.00000000   -0.00000000    0.00018183

     Total force =     0.046566     Total SCF correction =     0.000257


     Computing stress (Cartesian axis) and pressure


     negative rho (up, down):  4.755E-04 0.000E+00
          total   stress  (Ry/bohr**3)                   (kbar)     P=      -27.90
  -0.00018019  -0.00000000   0.00000000          -26.51       -0.00        0.00
  -0.00000000  -0.00018019   0.00000000           -0.00      -26.51        0.00
   0.00000000   0.00000000  -0.00020862            0.00        0.00      -30.69


     Writing all to output data dir ./tmp/scf.save/
 
     init_run     :      0.24s CPU      0.31s WALL (       1 calls)
     electrons    :      2.22s CPU      2.30s WALL (       1 calls)
     forces       :      0.11s CPU      0.11s WALL (       1 calls)
     stress       :      0.37s CPU      0.38s WALL (       1 calls)

     Called by init_run:
     wfcinit      :      0.04s CPU      0.04s WALL (       1 calls)
     potinit      :      0.05s CPU      0.08s WALL (       1 calls)
     hinit0       :      0.09s CPU      0.13s WALL (       1 calls)

     Called by electrons:
     c_bands      :      1.35s CPU      1.38s WALL (       8 calls)
     sum_band     :      0.38s CPU      0.40s WALL (       8 calls)
     v_of_rho     :      0.03s CPU      0.03s WALL (       8 calls)
     newd         :      0.21s CPU      0.22s WALL (       8 calls)
     PAW_pot      :      0.30s CPU      0.34s WALL (       8 calls)
     mix_rho      :      0.01s CPU      0.01s WALL (       8 calls)

     Called by c_bands:
     init_us_2    :      0.03s CPU      0.03s WALL (     190 calls)
     init_us_2:cp :      0.03s CPU      0.03s WALL (     190 calls)
     cegterg      :      0.78s CPU      0.81s WALL (      80 calls)

     Called by *egterg:
     cdiaghg      :      0.07s CPU      0.07s WALL (     273 calls)
     h_psi        :      0.63s CPU      0.65s WALL (     293 calls)
     s_psi        :      0.02s CPU      0.02s WALL (     293 calls)
     g_psi        :      0.00s CPU      0.00s WALL (     203 calls)

     Called by h_psi:
     h_psi:calbec :      0.04s CPU      0.04s WALL (     293 calls)
     vloc_psi     :      0.56s CPU      0.58s WALL (     293 calls)
     add_vuspsi   :      0.02s CPU      0.02s WALL (     293 calls)

     General routines
     calbec       :      0.06s CPU      0.06s WALL (     423 calls)
     fft          :      0.03s CPU      0.06s WALL (     114 calls)
     ffts         :      0.00s CPU      0.00s WALL (       8 calls)
     fftw         :      0.56s CPU      0.59s WALL (    8692 calls)
 
     Parallel routines
 
     PWSCF        :      3.08s CPU      3.32s WALL

 
   This run was terminated on:  13:48: 7   6Jun2025            

=------------------------------------------------------------------------------=
   JOB DONE.
=------------------------------------------------------------------------------=
