
     Program PWSCF v.7.2 starts on  6Jun2025 at 13:47:57 

     This program is part of the open-source Quantum ESPRESSO suite
     for quantum simulation of materials; please cite
         "P. Giannozzi et al., J. Phys.:Condens. Matter 21 395502 (2009);
         "P. Giannozzi et al., J. Phys.:Condens. Matter 29 465901 (2017);
         "P. Giannozzi et al., J. Chem. Phys. 152 154105 (2020);
          URL http://www.quantum-espresso.org", 
     in publications or presentations arising from this work. More details at
     http://www.quantum-espresso.org/quote

     Parallel version (MPI), running on    16 processors

     MPI processes distributed on     1 nodes
     38773 MiB available memory on the printing compute node when the environment starts
 
     Waiting for input...
     Reading input from standard input

     Current dimensions of program PWSCF are:
     Max number of different atomic species (ntypx) = 10
     Max number of k-points (npk) =  40000
     Max angular momentum in pseudopotentials (lmaxx) =  4
     file Mo.pbe-spn-kjpaw_psl.1.0.0.UPF: wavefunction(s)  4S 4D renormalized
     file S.pbe-n-kjpaw_psl.1.0.0.UPF: wavefunction(s)  3S 3P renormalized
     Message from routine setup:
     using ibrav=0 with symmetry is DISCOURAGED, use correct ibrav instead
 
     R & G space division:  proc/nbgrp/npool/nimage =      16
     Subspace diagonalization in iterative solution of the eigenvalue problem:
     a serial algorithm will be used

 
     Parallelization info
     --------------------
     sticks:   dense  smooth     PW     G-vecs:    dense   smooth      PW
     Min          51      51     15                 5705     5705     881
     Max          52      52     16                 5724     5724     892
     Sum         823     823    241                91409    91409   14153
 
     Using Slab Decomposition
 


     bravais-lattice index     =            0
     lattice parameter (alat)  =       6.1038  a.u.
     unit-cell volume          =     944.4603 (a.u.)^3
     number of atoms/cell      =            3
     number of atomic types    =            2
     number of electrons       =        26.00
     number of Kohn-Sham states=           17
     kinetic-energy cutoff     =      80.0000  Ry
     charge density cutoff     =     320.0000  Ry
     scf convergence threshold =      1.0E-06
     mixing beta               =       0.7000
     number of iterations used =            8  plain     mixing
     Exchange-correlation= SLA  PW   PBX  PBC
                           (   1   4   3   4   0   0   0)

     celldm(1)=   6.103815  celldm(2)=   0.000000  celldm(3)=   0.000000
     celldm(4)=   0.000000  celldm(5)=   0.000000  celldm(6)=   0.000000

     crystal axes: (cart. coord. in units of alat)
               a(1) = (   1.000000   0.000000   0.000000 )  
               a(2) = (  -0.500000   0.866025   0.000000 )  
               a(3) = (   0.000000   0.000000   4.795666 )  

     reciprocal axes: (cart. coord. in units 2 pi/alat)
               b(1) = (  1.000000  0.577350  0.000000 )  
               b(2) = (  0.000000  1.154701  0.000000 )  
               b(3) = (  0.000000  0.000000  0.208522 )  


     PseudoPot. # 1 for Mo read from file:
     /shared/ESPRESSO/PSLIBRARY/1.0.0/pbe/PSEUDOPOTENTIALS/Mo.pbe-spn-kjpaw_psl.1.0.0.UPF
     MD5 check sum: 4396e0c640fcce5c25f020efccf1ab12
     Pseudo is Projector augmented-wave + core cor, Zval = 14.0
     Generated using &quot;atomic&quot; code by A. Dal Corso  v.6.3
     Shape of augmentation charge: PSQ
     Using radial grid of 1229 points,  6 beta functions with: 
                l(1) =   0
                l(2) =   0
                l(3) =   1
                l(4) =   1
                l(5) =   2
                l(6) =   2
     Q(r) pseudized with 0 coefficients 


     PseudoPot. # 2 for S  read from file:
     /shared/ESPRESSO/PSLIBRARY/1.0.0/pbe/PSEUDOPOTENTIALS/S.pbe-n-kjpaw_psl.1.0.0.UPF
     MD5 check sum: c08f931834bcc19553f8bde8f1a3adc5
     Pseudo is Projector augmented-wave + core cor, Zval =  6.0
     Generated using "atomic" code by A. Dal Corso  (Quantum ESPRESSO distribution)
     Shape of augmentation charge: PSQ
     Using radial grid of 1151 points,  6 beta functions with: 
                l(1) =   0
                l(2) =   0
                l(3) =   1
                l(4) =   1
                l(5) =   2
                l(6) =   2
     Q(r) pseudized with 0 coefficients 


     atomic species   valence    mass     pseudopotential
        Mo            14.00    95.94000     Mo( 1.00)
        S              6.00    32.06500     S ( 1.00)

     12 Sym. Ops. (no inversion) found



   Cartesian axes

     site n.     atom                  positions (alat units)
         1           Mo  tau(   1) = (   0.0000000   0.0000000   2.3978328  )
         2           S   tau(   2) = (   0.5000000   0.2886751   2.8916409  )
         3           S   tau(   3) = (   0.5000000   0.2886751   1.9040248  )

     number of k points=    10  Fermi-Dirac smearing, width (Ry)=  0.0070
                       cart. coord. in units 2pi/alat
        k(    1) = (   0.0000000   0.0000000   0.0000000), wk =   0.0312500
        k(    2) = (   0.0000000   0.1443376   0.0000000), wk =   0.1875000
        k(    3) = (   0.0000000   0.2886751   0.0000000), wk =   0.1875000
        k(    4) = (   0.0000000   0.4330127   0.0000000), wk =   0.1875000
        k(    5) = (   0.0000000  -0.5773503   0.0000000), wk =   0.0937500
        k(    6) = (   0.1250000   0.2165064   0.0000000), wk =   0.1875000
        k(    7) = (   0.1250000   0.3608439   0.0000000), wk =   0.3750000
        k(    8) = (   0.1250000   0.5051815   0.0000000), wk =   0.3750000
        k(    9) = (   0.2500000   0.4330127   0.0000000), wk =   0.1875000
        k(   10) = (   0.2500000   0.5773503   0.0000000), wk =   0.1875000

     Dense  grid:    91409 G-vectors     FFT dimensions: (  36,  36, 180)

     Estimated max dynamical RAM per process >      26.65 MB

     Estimated total dynamical RAM >     426.40 MB

     Initial potential from superposition of free atoms

     starting charge      25.9991, renormalised to      26.0000

     negative rho (up, down):  3.975E-04 0.000E+00
     Starting wfcs are   18 randomized atomic wfcs
     Checking if some PAW data can be deallocated... 

     total cpu time spent up to now is        1.3 secs

     Self-consistent Calculation

     iteration #  1     ecut=    80.00 Ry     beta= 0.70
     Davidson diagonalization with overlap
     ethr =  1.00E-02,  avg # of iterations =  2.3

     Threshold (ethr) on eigenvalues was too large:
     Diagonalizing with lowered threshold

     Davidson diagonalization with overlap
     ethr =  2.41E-04,  avg # of iterations =  3.7

     negative rho (up, down):  4.713E-04 0.000E+00

     total cpu time spent up to now is        2.1 secs

     total energy              =    -496.66006383 Ry
     estimated scf accuracy    <       0.09671518 Ry

     iteration #  2     ecut=    80.00 Ry     beta= 0.70
     Davidson diagonalization with overlap
     ethr =  3.72E-04,  avg # of iterations =  3.0

     negative rho (up, down):  4.588E-04 0.000E+00

     total cpu time spent up to now is        2.6 secs

     total energy              =    -496.65212237 Ry
     estimated scf accuracy    <       0.13796561 Ry

     iteration #  3     ecut=    80.00 Ry     beta= 0.70
     Davidson diagonalization with overlap
     ethr =  3.72E-04,  avg # of iterations =  2.1

     negative rho (up, down):  4.585E-04 0.000E+00

     total cpu time spent up to now is        3.0 secs

     total energy              =    -496.67229690 Ry
     estimated scf accuracy    <       0.16184723 Ry

     iteration #  4     ecut=    80.00 Ry     beta= 0.70
     Davidson diagonalization with overlap
     ethr =  3.72E-04,  avg # of iterations =  1.7

     negative rho (up, down):  4.697E-04 0.000E+00

     total cpu time spent up to now is        3.4 secs

     total energy              =    -496.69279922 Ry
     estimated scf accuracy    <       0.00056698 Ry

     iteration #  5     ecut=    80.00 Ry     beta= 0.70
     Davidson diagonalization with overlap
     ethr =  2.18E-06,  avg # of iterations =  4.0

     negative rho (up, down):  4.708E-04 0.000E+00

     total cpu time spent up to now is        3.9 secs

     total energy              =    -496.69307083 Ry
     estimated scf accuracy    <       0.00014430 Ry

     iteration #  6     ecut=    80.00 Ry     beta= 0.70
     Davidson diagonalization with overlap
     ethr =  5.55E-07,  avg # of iterations =  1.2

     negative rho (up, down):  4.716E-04 0.000E+00

     total cpu time spent up to now is        4.3 secs

     total energy              =    -496.69307957 Ry
     estimated scf accuracy    <       0.00001336 Ry

     iteration #  7     ecut=    80.00 Ry     beta= 0.70
     Davidson diagonalization with overlap
     ethr =  5.14E-08,  avg # of iterations =  2.2

     negative rho (up, down):  4.717E-04 0.000E+00

     total cpu time spent up to now is        4.7 secs

     End of self-consistent calculation

          k = 0.0000 0.0000 0.0000 ( 11429 PWs)   bands (ev):

   -60.6719 -34.7674 -34.6020 -34.6020 -13.5293 -12.3629  -5.0681  -2.1435
    -2.1435  -1.4433  -1.1206  -1.1206   0.2739   2.9099   2.9099   3.0797
     3.0797

          k = 0.0000 0.1443 0.0000 ( 11433 PWs)   bands (ev):

   -60.6675 -34.7586 -34.6482 -34.6126 -13.3200 -12.2698  -4.8248  -2.6116
    -2.1617  -1.9276  -1.4402  -0.7757   0.1389   2.6178   2.7093   2.8644
     3.2447

          k = 0.0000 0.2887 0.0000 ( 11433 PWs)   bands (ev):

   -60.6569 -34.7584 -34.7372 -34.6383 -12.7683 -12.0258  -4.4328  -3.3823
    -3.0959  -2.0452  -1.3924  -1.0402  -0.3928   2.3387   2.4940   3.0190
     3.8280

          k = 0.0000 0.4330 0.0000 ( 11409 PWs)   bands (ev):

   -60.6463 -34.8666 -34.7157 -34.6637 -12.1211 -11.7471  -4.8731  -3.9352
    -3.4999  -2.5194  -1.4280  -0.8666  -0.5693   2.3552   2.6136   3.6876
     4.2020

          k = 0.0000-0.5774 0.0000 ( 11408 PWs)   bands (ev):

   -60.6419 -34.9109 -34.7068 -34.6742 -11.8096 -11.6182  -5.2168  -4.2885
    -3.5847  -2.6917  -1.5569  -0.6699  -0.3122   2.3947   2.8661   3.9659
     4.3125

          k = 0.1250 0.2165 0.0000 ( 11431 PWs)   bands (ev):

   -60.6600 -34.7435 -34.7212 -34.6359 -12.9382 -12.0999  -4.4649  -3.2014
    -2.6960  -2.2255  -1.6239  -0.6624  -0.2109   2.2560   2.6148   2.6457
     3.8044

          k = 0.1250 0.3608 0.0000 ( 11419 PWs)   bands (ev):

   -60.6494 -34.8192 -34.7220 -34.6726 -12.3281 -11.8298  -4.5035  -3.5945
    -3.4086  -2.7196  -1.5544  -1.0124  -0.4663   2.1955   2.6286   3.0949
     4.2794

          k = 0.1250 0.5052 0.0000 ( 11415 PWs)   bands (ev):

   -60.6419 -34.8870 -34.7068 -34.6990 -11.8228 -11.6106  -4.9316  -4.3238
    -3.4769  -2.7378  -1.5669  -1.4702  -0.1594   2.3942   2.8813   3.6905
     4.3043

          k = 0.2500 0.4330 0.0000 ( 11393 PWs)   bands (ev):

   -60.6419 -34.8539 -34.7329 -34.7068 -11.8358 -11.6029  -4.5648  -4.3541
    -3.2155  -2.8060  -2.4778  -1.3457  -0.1771   2.3338   2.9295   3.2363
     4.5645

          k = 0.2500 0.5774 0.0000 ( 11372 PWs)   bands (ev):

   -60.6388 -34.8575 -34.7686 -34.7005 -11.6126 -11.4968  -4.7150  -4.4303
    -3.4251  -2.8223  -2.5950  -1.7137   0.1721   2.0434   3.3037   3.4222
     4.6878

     the Fermi energy is     1.1214 ev

!    total energy              =    -496.69308288 Ry
     total all-electron energy =     -9695.023298 Ry
     estimated scf accuracy    <       0.00000014 Ry
     smearing contrib. (-TS)   =      -0.00000322 Ry
     internal energy E=F+TS    =    -496.69307967 Ry

     The total energy is F=E-TS. E is the sum of the following terms:
     one-electron contribution =    -720.30773674 Ry
     hartree contribution      =     363.83175601 Ry
     xc contribution           =     -29.57982290 Ry
     ewald contribution        =     208.98613166 Ry
     one-center paw contrib.   =    -319.62340769 Ry

     convergence has been achieved in   7 iterations

     negative rho (up, down):  4.717E-04 0.000E+00

     Forces acting on atoms (cartesian axes, Ry/au):

     atom    1 type  1   force =     0.00000000    0.00000000    0.00000000
     atom    2 type  2   force =     0.00000000   -0.00000000   -0.03107998
     atom    3 type  2   force =     0.00000000   -0.00000000    0.03107998
     The non-local contrib.  to forces
     atom    1 type  1   force =     0.00000000    0.00000000    0.00000000
     atom    2 type  2   force =     0.00000000    0.00000000   -0.28630375
     atom    3 type  2   force =     0.00000000   -0.00000000    0.28630375
     The ionic contribution  to forces
     atom    1 type  1   force =     0.00000000   -0.00000000   -0.00000000
     atom    2 type  2   force =    -0.00000000    0.00000000   31.87091656
     atom    3 type  2   force =    -0.00000000    0.00000000  -31.87091656
     The local contribution  to forces
     atom    1 type  1   force =     0.00000000    0.00000000    0.00000000
     atom    2 type  2   force =    -0.00000000    0.00000000  -31.61870326
     atom    3 type  2   force =    -0.00000000    0.00000000   31.61870326
     The core correction contribution to forces
     atom    1 type  1   force =    -0.00000000    0.00000000   -0.00000000
     atom    2 type  2   force =     0.00000000   -0.00000000    0.00319694
     atom    3 type  2   force =     0.00000000   -0.00000000   -0.00319694
     The Hubbard contrib.    to forces
     atom    1 type  1   force =     0.00000000    0.00000000    0.00000000
     atom    2 type  2   force =     0.00000000    0.00000000    0.00000000
     atom    3 type  2   force =     0.00000000    0.00000000    0.00000000
     The SCF correction term to forces
     atom    1 type  1   force =    -0.00000000    0.00000000    0.00000000
     atom    2 type  2   force =    -0.00000000   -0.00000000   -0.00018647
     atom    3 type  2   force =    -0.00000000   -0.00000000    0.00018647

     Total force =     0.043954     Total SCF correction =     0.000264


     Computing stress (Cartesian axis) and pressure


     negative rho (up, down):  4.717E-04 0.000E+00
          total   stress  (Ry/bohr**3)                   (kbar)     P=      -25.14
  -0.00015742   0.00000000   0.00000000          -23.16        0.00        0.00
   0.00000000  -0.00015742   0.00000000            0.00      -23.16        0.00
   0.00000000   0.00000000  -0.00019778            0.00        0.00      -29.09


     Writing all to output data dir ./tmp/scf.save/
 
     init_run     :      0.68s CPU      0.95s WALL (       1 calls)
     electrons    :      3.09s CPU      3.42s WALL (       1 calls)
     forces       :      0.11s CPU      0.11s WALL (       1 calls)
     stress       :      0.38s CPU      0.38s WALL (       1 calls)

     Called by init_run:
     wfcinit      :      0.06s CPU      0.07s WALL (       1 calls)
     potinit      :      0.12s CPU      0.14s WALL (       1 calls)
     hinit0       :      0.41s CPU      0.64s WALL (       1 calls)

     Called by electrons:
     c_bands      :      1.84s CPU      2.01s WALL (       8 calls)
     sum_band     :      0.49s CPU      0.62s WALL (       8 calls)
     v_of_rho     :      0.04s CPU      0.05s WALL (       8 calls)
     newd         :      0.30s CPU      0.32s WALL (       8 calls)
     PAW_pot      :      0.51s CPU      0.54s WALL (       8 calls)
     mix_rho      :      0.01s CPU      0.01s WALL (       8 calls)

     Called by c_bands:
     init_us_2    :      0.04s CPU      0.04s WALL (     190 calls)
     init_us_2:cp :      0.04s CPU      0.04s WALL (     190 calls)
     cegterg      :      1.31s CPU      1.47s WALL (      80 calls)

     Called by *egterg:
     cdiaghg      :      0.07s CPU      0.08s WALL (     272 calls)
     h_psi        :      1.05s CPU      1.19s WALL (     292 calls)
     s_psi        :      0.02s CPU      0.02s WALL (     292 calls)
     g_psi        :      0.00s CPU      0.00s WALL (     202 calls)

     Called by h_psi:
     h_psi:calbec :      0.09s CPU      0.10s WALL (     292 calls)
     vloc_psi     :      0.93s CPU      1.05s WALL (     292 calls)
     add_vuspsi   :      0.02s CPU      0.03s WALL (     292 calls)

     General routines
     calbec       :      0.11s CPU      0.13s WALL (     422 calls)
     fft          :      0.06s CPU      0.11s WALL (     114 calls)
     ffts         :      0.00s CPU      0.00s WALL (       8 calls)
     fftw         :      0.99s CPU      1.13s WALL (    8696 calls)
 
     Parallel routines
 
     PWSCF        :      4.54s CPU      5.24s WALL

 
   This run was terminated on:  13:48: 2   6Jun2025            

=------------------------------------------------------------------------------=
   JOB DONE.
=------------------------------------------------------------------------------=
