
     Program PWSCF v.7.2 starts on  6Jun2025 at 13:47:25 

     This program is part of the open-source Quantum ESPRESSO suite
     for quantum simulation of materials; please cite
         "P. Giannozzi et al., J. Phys.:Condens. Matter 21 395502 (2009);
         "P. Giannozzi et al., J. Phys.:Condens. Matter 29 465901 (2017);
         "P. Giannozzi et al., J. Chem. Phys. 152 154105 (2020);
          URL http://www.quantum-espresso.org", 
     in publications or presentations arising from this work. More details at
     http://www.quantum-espresso.org/quote

     Parallel version (MPI), running on    16 processors

     MPI processes distributed on     1 nodes
     39757 MiB available memory on the printing compute node when the environment starts
 
     Waiting for input...
     Reading input from standard input

     Current dimensions of program PWSCF are:
     Max number of different atomic species (ntypx) = 10
     Max number of k-points (npk) =  40000
     Max angular momentum in pseudopotentials (lmaxx) =  4
     file Mo.pbe-spn-kjpaw_psl.1.0.0.UPF: wavefunction(s)  4S 4D renormalized
     file S.pbe-n-kjpaw_psl.1.0.0.UPF: wavefunction(s)  3S 3P renormalized
     Message from routine setup:
     using ibrav=0 with symmetry is DISCOURAGED, use correct ibrav instead
 
     R & G space division:  proc/nbgrp/npool/nimage =      16
     Subspace diagonalization in iterative solution of the eigenvalue problem:
     a serial algorithm will be used

 
     Parallelization info
     --------------------
     sticks:   dense  smooth     PW     G-vecs:    dense   smooth      PW
     Min          48      48     13                 5384     5384     827
     Max          49      49     14                 5403     5403     842
     Sum         769     769    223                86291    86291   13355
 
     Using Slab Decomposition
 


     bravais-lattice index     =            0
     lattice parameter (alat)  =       5.9337  a.u.
     unit-cell volume          =     892.5611 (a.u.)^3
     number of atoms/cell      =            3
     number of atomic types    =            2
     number of electrons       =        26.00
     number of Kohn-Sham states=           17
     kinetic-energy cutoff     =      80.0000  Ry
     charge density cutoff     =     320.0000  Ry
     scf convergence threshold =      1.0E-06
     mixing beta               =       0.7000
     number of iterations used =            8  plain     mixing
     Exchange-correlation= SLA  PW   PBX  PBC
                           (   1   4   3   4   0   0   0)

     celldm(1)=   5.933740  celldm(2)=   0.000000  celldm(3)=   0.000000
     celldm(4)=   0.000000  celldm(5)=   0.000000  celldm(6)=   0.000000

     crystal axes: (cart. coord. in units of alat)
               a(1) = (   1.000000   0.000000   0.000000 )  
               a(2) = (  -0.500000   0.866025   0.000000 )  
               a(3) = (   0.000000   0.000000   4.933121 )  

     reciprocal axes: (cart. coord. in units 2 pi/alat)
               b(1) = (  1.000000  0.577350  0.000000 )  
               b(2) = (  0.000000  1.154701  0.000000 )  
               b(3) = (  0.000000  0.000000  0.202711 )  


     PseudoPot. # 1 for Mo read from file:
     /shared/ESPRESSO/PSLIBRARY/1.0.0/pbe/PSEUDOPOTENTIALS/Mo.pbe-spn-kjpaw_psl.1.0.0.UPF
     MD5 check sum: 4396e0c640fcce5c25f020efccf1ab12
     Pseudo is Projector augmented-wave + core cor, Zval = 14.0
     Generated using &quot;atomic&quot; code by A. Dal Corso  v.6.3
     Shape of augmentation charge: PSQ
     Using radial grid of 1229 points,  6 beta functions with: 
                l(1) =   0
                l(2) =   0
                l(3) =   1
                l(4) =   1
                l(5) =   2
                l(6) =   2
     Q(r) pseudized with 0 coefficients 


     PseudoPot. # 2 for S  read from file:
     /shared/ESPRESSO/PSLIBRARY/1.0.0/pbe/PSEUDOPOTENTIALS/S.pbe-n-kjpaw_psl.1.0.0.UPF
     MD5 check sum: c08f931834bcc19553f8bde8f1a3adc5
     Pseudo is Projector augmented-wave + core cor, Zval =  6.0
     Generated using "atomic" code by A. Dal Corso  (Quantum ESPRESSO distribution)
     Shape of augmentation charge: PSQ
     Using radial grid of 1151 points,  6 beta functions with: 
                l(1) =   0
                l(2) =   0
                l(3) =   1
                l(4) =   1
                l(5) =   2
                l(6) =   2
     Q(r) pseudized with 0 coefficients 


     atomic species   valence    mass     pseudopotential
        Mo            14.00    95.94000     Mo( 1.00)
        S              6.00    32.06500     S ( 1.00)

     12 Sym. Ops. (no inversion) found



   Cartesian axes

     site n.     atom                  positions (alat units)
         1           Mo  tau(   1) = (   0.0000000   0.0000000   2.4665605  )
         2           S   tau(   2) = (   0.5000000   0.2886751   2.9745223  )
         3           S   tau(   3) = (   0.5000000   0.2886751   1.9585987  )

     number of k points=    10  Fermi-Dirac smearing, width (Ry)=  0.0070
                       cart. coord. in units 2pi/alat
        k(    1) = (   0.0000000   0.0000000   0.0000000), wk =   0.0312500
        k(    2) = (   0.0000000   0.1443376   0.0000000), wk =   0.1875000
        k(    3) = (   0.0000000   0.2886751   0.0000000), wk =   0.1875000
        k(    4) = (   0.0000000   0.4330127   0.0000000), wk =   0.1875000
        k(    5) = (   0.0000000  -0.5773503   0.0000000), wk =   0.0937500
        k(    6) = (   0.1250000   0.2165064   0.0000000), wk =   0.1875000
        k(    7) = (   0.1250000   0.3608439   0.0000000), wk =   0.3750000
        k(    8) = (   0.1250000   0.5051815   0.0000000), wk =   0.3750000
        k(    9) = (   0.2500000   0.4330127   0.0000000), wk =   0.1875000
        k(   10) = (   0.2500000   0.5773503   0.0000000), wk =   0.1875000

     Dense  grid:    86291 G-vectors     FFT dimensions: (  36,  36, 180)

     Estimated max dynamical RAM per process >      25.37 MB

     Estimated total dynamical RAM >     405.90 MB

     Initial potential from superposition of free atoms

     starting charge      25.9991, renormalised to      26.0000

     negative rho (up, down):  3.871E-04 0.000E+00
     Starting wfcs are   18 randomized atomic wfcs
     Checking if some PAW data can be deallocated... 

     total cpu time spent up to now is        0.6 secs

     Self-consistent Calculation

     iteration #  1     ecut=    80.00 Ry     beta= 0.70
     Davidson diagonalization with overlap
     ethr =  1.00E-02,  avg # of iterations =  2.3

     Threshold (ethr) on eigenvalues was too large:
     Diagonalizing with lowered threshold

     Davidson diagonalization with overlap
     ethr =  3.30E-04,  avg # of iterations =  3.6

     negative rho (up, down):  4.564E-04 0.000E+00

     total cpu time spent up to now is        1.3 secs

     total energy              =    -496.64380370 Ry
     estimated scf accuracy    <       0.12559666 Ry

     iteration #  2     ecut=    80.00 Ry     beta= 0.70
     Davidson diagonalization with overlap
     ethr =  4.83E-04,  avg # of iterations =  3.0

     negative rho (up, down):  4.296E-04 0.000E+00

     total cpu time spent up to now is        1.7 secs

     total energy              =    -496.59607080 Ry
     estimated scf accuracy    <       0.47592954 Ry

     iteration #  3     ecut=    80.00 Ry     beta= 0.70
     Davidson diagonalization with overlap
     ethr =  4.83E-04,  avg # of iterations =  2.8

     negative rho (up, down):  4.264E-04 0.000E+00

     total cpu time spent up to now is        2.2 secs

     total energy              =    -496.67980069 Ry
     estimated scf accuracy    <       0.11204109 Ry

     iteration #  4     ecut=    80.00 Ry     beta= 0.70
     Davidson diagonalization with overlap
     ethr =  4.31E-04,  avg # of iterations =  1.1

     negative rho (up, down):  4.492E-04 0.000E+00

     total cpu time spent up to now is        2.6 secs

     total energy              =    -496.69496124 Ry
     estimated scf accuracy    <       0.00064425 Ry

     iteration #  5     ecut=    80.00 Ry     beta= 0.70
     Davidson diagonalization with overlap
     ethr =  2.48E-06,  avg # of iterations =  4.3

     negative rho (up, down):  4.526E-04 0.000E+00

     total cpu time spent up to now is        3.1 secs

     total energy              =    -496.69528197 Ry
     estimated scf accuracy    <       0.00012033 Ry

     iteration #  6     ecut=    80.00 Ry     beta= 0.70
     Davidson diagonalization with overlap
     ethr =  4.63E-07,  avg # of iterations =  2.0

     negative rho (up, down):  4.557E-04 0.000E+00

     total cpu time spent up to now is        3.5 secs

     total energy              =    -496.69529343 Ry
     estimated scf accuracy    <       0.00000761 Ry

     iteration #  7     ecut=    80.00 Ry     beta= 0.70
     Davidson diagonalization with overlap
     ethr =  2.93E-08,  avg # of iterations =  3.1

     negative rho (up, down):  4.562E-04 0.000E+00

     total cpu time spent up to now is        3.9 secs

     total energy              =    -496.69529686 Ry
     estimated scf accuracy    <       0.00000118 Ry

     iteration #  8     ecut=    80.00 Ry     beta= 0.70
     Davidson diagonalization with overlap
     ethr =  4.55E-09,  avg # of iterations =  1.7

     negative rho (up, down):  4.561E-04 0.000E+00

     total cpu time spent up to now is        4.3 secs

     End of self-consistent calculation

          k = 0.0000 0.0000 0.0000 ( 10913 PWs)   bands (ev):

   -60.1819 -34.3405 -34.0795 -34.0795 -13.4699 -12.2435  -4.9858  -1.7464
    -1.7464  -1.2899  -0.6397  -0.6397   0.4568   3.5381   3.5381   3.7040
     3.7040

          k = 0.0000 0.1443 0.0000 ( 10839 PWs)   bands (ev):

   -60.1754 -34.3282 -34.1423 -34.0938 -13.2320 -12.1369  -4.7164  -2.2538
    -1.9525  -1.5010  -0.9967  -0.4005   0.3647   3.1252   3.3120   3.4615
     3.9008

          k = 0.0000 0.2887 0.0000 ( 10833 PWs)   bands (ev):

   -60.1599 -34.2984 -34.2913 -34.1281 -12.6003 -11.8556  -4.2967  -3.0710
    -2.9386  -1.6639  -0.8973  -0.7500  -0.1354   2.7430   3.0689   3.6231
     4.5064

          k = 0.0000 0.4330 0.0000 ( 10746 PWs)   bands (ev):

   -60.1442 -34.4371 -34.2684 -34.1622 -11.8437 -11.5297  -4.7780  -3.8457
    -3.2582  -2.1822  -1.2017  -0.3268  -0.2898   2.9880   3.1364   4.2861
     4.8660

          k = 0.0000-0.5774 0.0000 ( 10746 PWs)   bands (ev):

   -60.1377 -34.4966 -34.2560 -34.1762 -11.4693 -11.3768  -5.1666  -4.2331
    -3.4027  -2.3698  -1.3500  -0.1283   0.0107   3.0920   3.5372   4.5329
     4.9643

          k = 0.1250 0.2165 0.0000 ( 10827 PWs)   bands (ev):

   -60.1644 -34.3072 -34.2411 -34.1251 -12.7958 -11.9413  -4.3248  -2.8816
    -2.5130  -1.8962  -1.1635  -0.2823   0.0616   2.6681   3.1701   3.2267
     4.4845

          k = 0.1250 0.3608 0.0000 ( 10784 PWs)   bands (ev):

   -60.1488 -34.3732 -34.2772 -34.1746 -12.0883 -11.6265  -4.3757  -3.4433
    -3.1023  -2.4963  -1.1870  -0.6842  -0.0978   2.6107   3.2601   3.6692
     4.9508

          k = 0.1250 0.5052 0.0000 ( 10760 PWs)   bands (ev):

   -60.1377 -34.4644 -34.2560 -34.2100 -11.4863 -11.3662  -4.8564  -4.2494
    -3.2572  -2.4926  -1.2229  -1.1958   0.2468   3.0071   3.5781   4.2382
     4.9506

          k = 0.2500 0.4330 0.0000 ( 10770 PWs)   bands (ev):

   -60.1377 -34.4197 -34.2562 -34.2560 -11.5030 -11.3554  -4.4605  -4.2590
    -2.9008  -2.6344  -2.2341  -1.0545   0.2125   2.8700   3.6508   3.7033
     5.3073

          k = 0.2500 0.5774 0.0000 ( 10772 PWs)   bands (ev):

   -60.1331 -34.4244 -34.3046 -34.2472 -11.2321 -11.2260  -4.6662  -4.3331
    -3.2181  -2.5318  -2.3897  -1.4768   0.5789   2.7216   3.6940   4.0903
     5.5075

     the Fermi energy is     1.5490 ev

!    total energy              =    -496.69529676 Ry
     total all-electron energy =     -9695.025511 Ry
     estimated scf accuracy    <       0.00000023 Ry
     smearing contrib. (-TS)   =      -0.00000150 Ry
     internal energy E=F+TS    =    -496.69529526 Ry

     The total energy is F=E-TS. E is the sum of the following terms:
     one-electron contribution =    -757.08778274 Ry
     hartree contribution      =     382.61726429 Ry
     xc contribution           =     -29.70742210 Ry
     ewald contribution        =     227.11661508 Ry
     one-center paw contrib.   =    -319.63396979 Ry

     convergence has been achieved in   8 iterations

     negative rho (up, down):  4.561E-04 0.000E+00

     Forces acting on atoms (cartesian axes, Ry/au):

     atom    1 type  1   force =     0.00000000    0.00000000    0.00000000
     atom    2 type  2   force =     0.00000000   -0.00000000   -0.01130001
     atom    3 type  2   force =    -0.00000000   -0.00000000    0.01130001
     The non-local contrib.  to forces
     atom    1 type  1   force =     0.00000000   -0.00000000    0.00000000
     atom    2 type  2   force =     0.00000000    0.00000000   -0.27043395
     atom    3 type  2   force =     0.00000000    0.00000000    0.27043395
     The ionic contribution  to forces
     atom    1 type  1   force =     0.00000000   -0.00000000    0.00000000
     atom    2 type  2   force =    -0.00000000    0.00000000   33.94207497
     atom    3 type  2   force =    -0.00000000    0.00000000  -33.94207497
     The local contribution  to forces
     atom    1 type  1   force =    -0.00000000    0.00000000    0.00000000
     atom    2 type  2   force =    -0.00000000    0.00000000  -33.68457982
     atom    3 type  2   force =    -0.00000000    0.00000000   33.68457982
     The core correction contribution to forces
     atom    1 type  1   force =    -0.00000000    0.00000000   -0.00000000
     atom    2 type  2   force =     0.00000000   -0.00000000    0.00226696
     atom    3 type  2   force =     0.00000000   -0.00000000   -0.00226696
     The Hubbard contrib.    to forces
     atom    1 type  1   force =     0.00000000    0.00000000    0.00000000
     atom    2 type  2   force =     0.00000000    0.00000000    0.00000000
     atom    3 type  2   force =     0.00000000    0.00000000    0.00000000
     The SCF correction term to forces
     atom    1 type  1   force =    -0.00000000   -0.00000000    0.00000000
     atom    2 type  2   force =     0.00000000    0.00000000   -0.00062817
     atom    3 type  2   force =     0.00000000    0.00000000    0.00062817

     Total force =     0.015981     Total SCF correction =     0.000888


     Computing stress (Cartesian axis) and pressure


     negative rho (up, down):  4.561E-04 0.000E+00
          total   stress  (Ry/bohr**3)                   (kbar)     P=        4.36
   0.00008344   0.00000000   0.00000000           12.27        0.00        0.00
   0.00000000   0.00008344  -0.00000000            0.00       12.27       -0.00
   0.00000000   0.00000000  -0.00007788            0.00        0.00      -11.46


     Writing all to output data dir ./tmp/scf.save/
 
     init_run     :      0.37s CPU      0.45s WALL (       1 calls)
     electrons    :      3.38s CPU      3.71s WALL (       1 calls)
     forces       :      0.18s CPU      0.18s WALL (       1 calls)
     stress       :      0.64s CPU      0.65s WALL (       1 calls)

     Called by init_run:
     wfcinit      :      0.05s CPU      0.05s WALL (       1 calls)
     potinit      :      0.11s CPU      0.12s WALL (       1 calls)
     hinit0       :      0.15s CPU      0.20s WALL (       1 calls)

     Called by electrons:
     c_bands      :      1.92s CPU      2.10s WALL (       9 calls)
     sum_band     :      0.54s CPU      0.66s WALL (       9 calls)
     v_of_rho     :      0.05s CPU      0.06s WALL (       9 calls)
     newd         :      0.33s CPU      0.35s WALL (       9 calls)
     PAW_pot      :      0.61s CPU      0.64s WALL (       9 calls)
     mix_rho      :      0.01s CPU      0.01s WALL (       9 calls)

     Called by c_bands:
     init_us_2    :      0.04s CPU      0.05s WALL (     210 calls)
     init_us_2:cp :      0.04s CPU      0.04s WALL (     210 calls)
     cegterg      :      1.37s CPU      1.55s WALL (      90 calls)

     Called by *egterg:
     cdiaghg      :      0.09s CPU      0.10s WALL (     319 calls)
     h_psi        :      1.10s CPU      1.24s WALL (     339 calls)
     s_psi        :      0.02s CPU      0.02s WALL (     339 calls)
     g_psi        :      0.00s CPU      0.00s WALL (     239 calls)

     Called by h_psi:
     h_psi:calbec :      0.08s CPU      0.10s WALL (     339 calls)
     vloc_psi     :      0.98s CPU      1.11s WALL (     339 calls)
     add_vuspsi   :      0.03s CPU      0.03s WALL (     339 calls)

     General routines
     calbec       :      0.25s CPU      0.27s WALL (     479 calls)
     fft          :      0.04s CPU      0.09s WALL (     125 calls)
     ffts         :      0.00s CPU      0.00s WALL (       9 calls)
     fftw         :      1.02s CPU      1.18s WALL (    9728 calls)
 
     Parallel routines
 
     PWSCF        :      4.74s CPU      5.21s WALL

 
   This run was terminated on:  13:47:30   6Jun2025            

=------------------------------------------------------------------------------=
   JOB DONE.
=------------------------------------------------------------------------------=
