
     Program PWSCF v.7.2 starts on  6Jun2025 at 13:47:49 

     This program is part of the open-source Quantum ESPRESSO suite
     for quantum simulation of materials; please cite
         "P. Giannozzi et al., J. Phys.:Condens. Matter 21 395502 (2009);
         "P. Giannozzi et al., J. Phys.:Condens. Matter 29 465901 (2017);
         "P. Giannozzi et al., J. Chem. Phys. 152 154105 (2020);
          URL http://www.quantum-espresso.org", 
     in publications or presentations arising from this work. More details at
     http://www.quantum-espresso.org/quote

     Parallel version (MPI), running on    16 processors

     MPI processes distributed on     1 nodes
     39075 MiB available memory on the printing compute node when the environment starts
 
     Waiting for input...
     Reading input from standard input

     Current dimensions of program PWSCF are:
     Max number of different atomic species (ntypx) = 10
     Max number of k-points (npk) =  40000
     Max angular momentum in pseudopotentials (lmaxx) =  4
     file Mo.pbe-spn-kjpaw_psl.1.0.0.UPF: wavefunction(s)  4S 4D renormalized
     file S.pbe-n-kjpaw_psl.1.0.0.UPF: wavefunction(s)  3S 3P renormalized
     Message from routine setup:
     using ibrav=0 with symmetry is DISCOURAGED, use correct ibrav instead
 
     R & G space division:  proc/nbgrp/npool/nimage =      16
     Subspace diagonalization in iterative solution of the eigenvalue problem:
     a serial algorithm will be used

 
     Parallelization info
     --------------------
     sticks:   dense  smooth     PW     G-vecs:    dense   smooth      PW
     Min          51      51     15                 5631     5631     869
     Max          52      52     16                 5645     5645     877
     Sum         817     817    241                90191    90191   13961
 
     Using Slab Decomposition
 


     bravais-lattice index     =            0
     lattice parameter (alat)  =       6.0660  a.u.
     unit-cell volume          =     932.8004 (a.u.)^3
     number of atoms/cell      =            3
     number of atomic types    =            2
     number of electrons       =        26.00
     number of Kohn-Sham states=           17
     kinetic-energy cutoff     =      80.0000  Ry
     charge density cutoff     =     320.0000  Ry
     scf convergence threshold =      1.0E-06
     mixing beta               =       0.7000
     number of iterations used =            8  plain     mixing
     Exchange-correlation= SLA  PW   PBX  PBC
                           (   1   4   3   4   0   0   0)

     celldm(1)=   6.066021  celldm(2)=   0.000000  celldm(3)=   0.000000
     celldm(4)=   0.000000  celldm(5)=   0.000000  celldm(6)=   0.000000

     crystal axes: (cart. coord. in units of alat)
               a(1) = (   1.000000   0.000000   0.000000 )  
               a(2) = (  -0.500000   0.866025   0.000000 )  
               a(3) = (   0.000000   0.000000   4.825545 )  

     reciprocal axes: (cart. coord. in units 2 pi/alat)
               b(1) = (  1.000000  0.577350  0.000000 )  
               b(2) = (  0.000000  1.154701  0.000000 )  
               b(3) = (  0.000000  0.000000  0.207230 )  


     PseudoPot. # 1 for Mo read from file:
     /shared/ESPRESSO/PSLIBRARY/1.0.0/pbe/PSEUDOPOTENTIALS/Mo.pbe-spn-kjpaw_psl.1.0.0.UPF
     MD5 check sum: 4396e0c640fcce5c25f020efccf1ab12
     Pseudo is Projector augmented-wave + core cor, Zval = 14.0
     Generated using &quot;atomic&quot; code by A. Dal Corso  v.6.3
     Shape of augmentation charge: PSQ
     Using radial grid of 1229 points,  6 beta functions with: 
                l(1) =   0
                l(2) =   0
                l(3) =   1
                l(4) =   1
                l(5) =   2
                l(6) =   2
     Q(r) pseudized with 0 coefficients 


     PseudoPot. # 2 for S  read from file:
     /shared/ESPRESSO/PSLIBRARY/1.0.0/pbe/PSEUDOPOTENTIALS/S.pbe-n-kjpaw_psl.1.0.0.UPF
     MD5 check sum: c08f931834bcc19553f8bde8f1a3adc5
     Pseudo is Projector augmented-wave + core cor, Zval =  6.0
     Generated using "atomic" code by A. Dal Corso  (Quantum ESPRESSO distribution)
     Shape of augmentation charge: PSQ
     Using radial grid of 1151 points,  6 beta functions with: 
                l(1) =   0
                l(2) =   0
                l(3) =   1
                l(4) =   1
                l(5) =   2
                l(6) =   2
     Q(r) pseudized with 0 coefficients 


     atomic species   valence    mass     pseudopotential
        Mo            14.00    95.94000     Mo( 1.00)
        S              6.00    32.06500     S ( 1.00)

     12 Sym. Ops. (no inversion) found



   Cartesian axes

     site n.     atom                  positions (alat units)
         1           Mo  tau(   1) = (   0.0000000   0.0000000   2.4127726  )
         2           S   tau(   2) = (   0.5000000   0.2886751   2.9096573  )
         3           S   tau(   3) = (   0.5000000   0.2886751   1.9158879  )

     number of k points=    10  Fermi-Dirac smearing, width (Ry)=  0.0070
                       cart. coord. in units 2pi/alat
        k(    1) = (   0.0000000   0.0000000   0.0000000), wk =   0.0312500
        k(    2) = (   0.0000000   0.1443376   0.0000000), wk =   0.1875000
        k(    3) = (   0.0000000   0.2886751   0.0000000), wk =   0.1875000
        k(    4) = (   0.0000000   0.4330127   0.0000000), wk =   0.1875000
        k(    5) = (   0.0000000  -0.5773503   0.0000000), wk =   0.0937500
        k(    6) = (   0.1250000   0.2165064   0.0000000), wk =   0.1875000
        k(    7) = (   0.1250000   0.3608439   0.0000000), wk =   0.3750000
        k(    8) = (   0.1250000   0.5051815   0.0000000), wk =   0.3750000
        k(    9) = (   0.2500000   0.4330127   0.0000000), wk =   0.1875000
        k(   10) = (   0.2500000   0.5773503   0.0000000), wk =   0.1875000

     Dense  grid:    90191 G-vectors     FFT dimensions: (  36,  36, 180)

     Estimated max dynamical RAM per process >      26.31 MB

     Estimated total dynamical RAM >     420.98 MB

     Initial potential from superposition of free atoms

     starting charge      25.9991, renormalised to      26.0000

     negative rho (up, down):  3.939E-04 0.000E+00
     Starting wfcs are   18 randomized atomic wfcs
     Checking if some PAW data can be deallocated... 

     total cpu time spent up to now is        1.6 secs

     Self-consistent Calculation

     iteration #  1     ecut=    80.00 Ry     beta= 0.70
     Davidson diagonalization with overlap
     ethr =  1.00E-02,  avg # of iterations =  2.3

     Threshold (ethr) on eigenvalues was too large:
     Diagonalizing with lowered threshold

     Davidson diagonalization with overlap
     ethr =  2.56E-04,  avg # of iterations =  3.7

     negative rho (up, down):  4.659E-04 0.000E+00

     total cpu time spent up to now is        2.4 secs

     total energy              =    -496.65832409 Ry
     estimated scf accuracy    <       0.10198439 Ry

     iteration #  2     ecut=    80.00 Ry     beta= 0.70
     Davidson diagonalization with overlap
     ethr =  3.92E-04,  avg # of iterations =  3.0

     negative rho (up, down):  4.482E-04 0.000E+00

     total cpu time spent up to now is        2.9 secs

     total energy              =    -496.64124515 Ry
     estimated scf accuracy    <       0.19620498 Ry

     iteration #  3     ecut=    80.00 Ry     beta= 0.70
     Davidson diagonalization with overlap
     ethr =  3.92E-04,  avg # of iterations =  2.2

     negative rho (up, down):  4.468E-04 0.000E+00

     total cpu time spent up to now is        3.3 secs

     total energy              =    -496.67419518 Ry
     estimated scf accuracy    <       0.15733049 Ry

     iteration #  4     ecut=    80.00 Ry     beta= 0.70
     Davidson diagonalization with overlap
     ethr =  3.92E-04,  avg # of iterations =  1.2

     negative rho (up, down):  4.618E-04 0.000E+00

     total cpu time spent up to now is        3.7 secs

     total energy              =    -496.69429778 Ry
     estimated scf accuracy    <       0.00058007 Ry

     iteration #  5     ecut=    80.00 Ry     beta= 0.70
     Davidson diagonalization with overlap
     ethr =  2.23E-06,  avg # of iterations =  4.2

     negative rho (up, down):  4.634E-04 0.000E+00

     total cpu time spent up to now is        4.2 secs

     total energy              =    -496.69462108 Ry
     estimated scf accuracy    <       0.00014230 Ry

     iteration #  6     ecut=    80.00 Ry     beta= 0.70
     Davidson diagonalization with overlap
     ethr =  5.47E-07,  avg # of iterations =  1.3

     negative rho (up, down):  4.646E-04 0.000E+00

     total cpu time spent up to now is        4.6 secs

     total energy              =    -496.69462969 Ry
     estimated scf accuracy    <       0.00001380 Ry

     iteration #  7     ecut=    80.00 Ry     beta= 0.70
     Davidson diagonalization with overlap
     ethr =  5.31E-08,  avg # of iterations =  2.1

     negative rho (up, down):  4.649E-04 0.000E+00

     total cpu time spent up to now is        4.9 secs

     End of self-consistent calculation

          k = 0.0000 0.0000 0.0000 ( 11249 PWs)   bands (ev):

   -60.5662 -34.6748 -34.4901 -34.4901 -13.5155 -12.3361  -5.0506  -2.0583
    -2.0583  -1.4100  -1.0186  -1.0186   0.3161   3.0443   3.0443   3.2133
     3.2133

          k = 0.0000 0.1443 0.0000 ( 11313 PWs)   bands (ev):

   -60.5614 -34.6653 -34.5396 -34.5015 -13.3001 -12.2401  -4.8019  -2.5349
    -2.1150  -1.8363  -1.3461  -0.6974   0.1899   2.7270   2.8385   2.9926
     3.3852

          k = 0.0000 0.2887 0.0000 ( 11307 PWs)   bands (ev):

   -60.5499 -34.6574 -34.6422 -34.5288 -12.7313 -11.9882  -4.4038  -3.3161
    -3.0614  -1.9643  -1.2868  -0.9786  -0.3365   2.4279   2.6178   3.1494
     3.9739

          k = 0.0000 0.4330 0.0000 ( 11267 PWs)   bands (ev):

   -60.5383 -34.7730 -34.6191 -34.5560 -12.0611 -11.6995  -4.8525  -3.9157
    -3.4479  -2.4479  -1.3794  -0.7514  -0.5094   2.4907   2.7293   3.8187
     4.3455

          k = 0.0000-0.5774 0.0000 ( 11270 PWs)   bands (ev):

   -60.5336 -34.8203 -34.6095 -34.5672 -11.7367 -11.5656  -5.2055  -4.2764
    -3.5446  -2.6235  -1.5122  -0.5539  -0.2437   2.5432   3.0140   4.0917
     4.4537

          k = 0.1250 0.2165 0.0000 ( 11313 PWs)   bands (ev):

   -60.5533 -34.6490 -34.6177 -34.5263 -12.9067 -12.0648  -4.4352  -3.1330
    -2.6553  -2.1558  -1.5255  -0.5822  -0.1513   2.3465   2.7344   2.7705
     3.9509

          k = 0.1250 0.3608 0.0000 ( 11285 PWs)   bands (ev):

   -60.5417 -34.7223 -34.6259 -34.5656 -12.2760 -11.7852  -4.4762  -3.5617
    -3.3435  -2.6716  -1.4733  -0.9429  -0.3893   2.2883   2.7638   3.2195
     4.4251

          k = 0.1250 0.5052 0.0000 ( 11258 PWs)   bands (ev):

   -60.5336 -34.7948 -34.6095 -34.5937 -11.7507 -11.5573  -4.9151  -4.3076
    -3.4291  -2.6851  -1.4868  -1.4175  -0.0729   2.5290   3.0296   3.8112
     4.4450

          k = 0.2500 0.4330 0.0000 ( 11261 PWs)   bands (ev):

   -60.5336 -34.7594 -34.6301 -34.6095 -11.7644 -11.5491  -4.5423  -4.3336
    -3.1485  -2.7685  -2.4249  -1.2837  -0.0929   2.4546   3.0803   3.3398
     4.7247

          k = 0.2500 0.5774 0.0000 ( 11224 PWs)   bands (ev):

   -60.5302 -34.7633 -34.6682 -34.6028 -11.5315 -11.4382  -4.7042  -4.4087
    -3.3796  -2.7612  -2.5504  -1.6632   0.2607   2.1892   3.3907   3.5674
     4.8646

     the Fermi energy is     1.2178 ev

!    total energy              =    -496.69463341 Ry
     total all-electron energy =     -9695.024848 Ry
     estimated scf accuracy    <       0.00000020 Ry
     smearing contrib. (-TS)   =      -0.00000250 Ry
     internal energy E=F+TS    =    -496.69463091 Ry

     The total energy is F=E-TS. E is the sum of the following terms:
     one-electron contribution =    -728.19677232 Ry
     hartree contribution      =     367.86202899 Ry
     xc contribution           =     -29.60705860 Ry
     ewald contribution        =     212.87278882 Ry
     one-center paw contrib.   =    -319.62561779 Ry

     convergence has been achieved in   7 iterations

     negative rho (up, down):  4.649E-04 0.000E+00

     Forces acting on atoms (cartesian axes, Ry/au):

     atom    1 type  1   force =     0.00000000   -0.00000000    0.00000000
     atom    2 type  2   force =    -0.00000000    0.00000000   -0.02725628
     atom    3 type  2   force =     0.00000000   -0.00000000    0.02725628
     The non-local contrib.  to forces
     atom    1 type  1   force =     0.00000000   -0.00000000    0.00000000
     atom    2 type  2   force =    -0.00000000   -0.00000000   -0.28306714
     atom    3 type  2   force =    -0.00000000   -0.00000000    0.28306714
     The ionic contribution  to forces
     atom    1 type  1   force =     0.00000000   -0.00000000    0.00000000
     atom    2 type  2   force =    -0.00000000    0.00000000   32.31609678
     atom    3 type  2   force =    -0.00000000    0.00000000  -32.31609678
     The local contribution  to forces
     atom    1 type  1   force =    -0.00000000    0.00000000    0.00000000
     atom    2 type  2   force =    -0.00000000    0.00000000  -32.06309114
     atom    3 type  2   force =    -0.00000000    0.00000000   32.06309114
     The core correction contribution to forces
     atom    1 type  1   force =     0.00000000   -0.00000000    0.00000000
     atom    2 type  2   force =     0.00000000   -0.00000000    0.00299867
     atom    3 type  2   force =     0.00000000   -0.00000000   -0.00299867
     The Hubbard contrib.    to forces
     atom    1 type  1   force =     0.00000000    0.00000000    0.00000000
     atom    2 type  2   force =     0.00000000    0.00000000    0.00000000
     atom    3 type  2   force =     0.00000000    0.00000000    0.00000000
     The SCF correction term to forces
     atom    1 type  1   force =     0.00000000   -0.00000000    0.00000000
     atom    2 type  2   force =    -0.00000000   -0.00000000   -0.00019345
     atom    3 type  2   force =    -0.00000000   -0.00000000    0.00019345

     Total force =     0.038546     Total SCF correction =     0.000274


     Computing stress (Cartesian axis) and pressure


     negative rho (up, down):  4.649E-04 0.000E+00
          total   stress  (Ry/bohr**3)                   (kbar)     P=      -19.31
  -0.00010958  -0.00000000   0.00000000          -16.12       -0.00        0.00
  -0.00000000  -0.00010958  -0.00000000           -0.00      -16.12       -0.00
   0.00000000   0.00000000  -0.00017468            0.00        0.00      -25.70


     Writing all to output data dir ./tmp/scf.save/
 
     init_run     :      1.38s CPU      1.44s WALL (       1 calls)
     electrons    :      3.00s CPU      3.25s WALL (       1 calls)
     forces       :      0.12s CPU      0.12s WALL (       1 calls)
     stress       :      0.37s CPU      0.38s WALL (       1 calls)

     Called by init_run:
     wfcinit      :      0.07s CPU      0.07s WALL (       1 calls)
     potinit      :      1.03s CPU      1.05s WALL (       1 calls)
     hinit0       :      0.19s CPU      0.21s WALL (       1 calls)

     Called by electrons:
     c_bands      :      1.72s CPU      1.87s WALL (       8 calls)
     sum_band     :      0.54s CPU      0.63s WALL (       8 calls)
     v_of_rho     :      0.05s CPU      0.05s WALL (       8 calls)
     newd         :      0.29s CPU      0.30s WALL (       8 calls)
     PAW_pot      :      1.41s CPU      1.43s WALL (       8 calls)
     mix_rho      :      0.01s CPU      0.01s WALL (       8 calls)

     Called by c_bands:
     init_us_2    :      0.04s CPU      0.04s WALL (     190 calls)
     init_us_2:cp :      0.04s CPU      0.04s WALL (     190 calls)
     cegterg      :      1.20s CPU      1.35s WALL (      80 calls)

     Called by *egterg:
     cdiaghg      :      0.08s CPU      0.08s WALL (     270 calls)
     h_psi        :      0.99s CPU      1.11s WALL (     290 calls)
     s_psi        :      0.02s CPU      0.02s WALL (     290 calls)
     g_psi        :      0.00s CPU      0.00s WALL (     200 calls)

     Called by h_psi:
     h_psi:calbec :      0.07s CPU      0.09s WALL (     290 calls)
     vloc_psi     :      0.87s CPU      0.98s WALL (     290 calls)
     add_vuspsi   :      0.03s CPU      0.03s WALL (     290 calls)

     General routines
     calbec       :      0.11s CPU      0.13s WALL (     420 calls)
     fft          :      0.06s CPU      0.09s WALL (     114 calls)
     ffts         :      0.00s CPU      0.00s WALL (       8 calls)
     fftw         :      0.93s CPU      1.06s WALL (    8716 calls)
 
     Parallel routines
 
     PWSCF        :      5.03s CPU      5.41s WALL

 
   This run was terminated on:  13:47:54   6Jun2025            

=------------------------------------------------------------------------------=
   JOB DONE.
=------------------------------------------------------------------------------=
