
     Program PWSCF v.7.2 starts on  6Jun2025 at 13:47:17 

     This program is part of the open-source Quantum ESPRESSO suite
     for quantum simulation of materials; please cite
         "P. Giannozzi et al., J. Phys.:Condens. Matter 21 395502 (2009);
         "P. Giannozzi et al., J. Phys.:Condens. Matter 29 465901 (2017);
         "P. Giannozzi et al., J. Chem. Phys. 152 154105 (2020);
          URL http://www.quantum-espresso.org", 
     in publications or presentations arising from this work. More details at
     http://www.quantum-espresso.org/quote

     Parallel version (MPI), running on    16 processors

     MPI processes distributed on     1 nodes
     39276 MiB available memory on the printing compute node when the environment starts
 
     Waiting for input...
     Reading input from standard input

     Current dimensions of program PWSCF are:
     Max number of different atomic species (ntypx) = 10
     Max number of k-points (npk) =  40000
     Max angular momentum in pseudopotentials (lmaxx) =  4
     file Mo.pbe-spn-kjpaw_psl.1.0.0.UPF: wavefunction(s)  4S 4D renormalized
     file S.pbe-n-kjpaw_psl.1.0.0.UPF: wavefunction(s)  3S 3P renormalized
     Message from routine setup:
     using ibrav=0 with symmetry is DISCOURAGED, use correct ibrav instead
 
     R & G space division:  proc/nbgrp/npool/nimage =      16
     Subspace diagonalization in iterative solution of the eigenvalue problem:
     a serial algorithm will be used

 
     Parallelization info
     --------------------
     sticks:   dense  smooth     PW     G-vecs:    dense   smooth      PW
     Min          47      47     13                 5315     5315     815
     Max          49      49     15                 5322     5322     832
     Sum         769     769    223                85127    85127   13139
 
     Using Slab Decomposition
 


     bravais-lattice index     =            0
     lattice parameter (alat)  =       5.8959  a.u.
     unit-cell volume          =     881.2271 (a.u.)^3
     number of atoms/cell      =            3
     number of atomic types    =            2
     number of electrons       =        26.00
     number of Kohn-Sham states=           17
     kinetic-energy cutoff     =      80.0000  Ry
     charge density cutoff     =     320.0000  Ry
     scf convergence threshold =      1.0E-06
     mixing beta               =       0.7000
     number of iterations used =            8  plain     mixing
     Exchange-correlation= SLA  PW   PBX  PBC
                           (   1   4   3   4   0   0   0)

     celldm(1)=   5.895946  celldm(2)=   0.000000  celldm(3)=   0.000000
     celldm(4)=   0.000000  celldm(5)=   0.000000  celldm(6)=   0.000000

     crystal axes: (cart. coord. in units of alat)
               a(1) = (   1.000000   0.000000   0.000000 )  
               a(2) = (  -0.500000   0.866025   0.000000 )  
               a(3) = (   0.000000   0.000000   4.964744 )  

     reciprocal axes: (cart. coord. in units 2 pi/alat)
               b(1) = (  1.000000  0.577350  0.000000 )  
               b(2) = (  0.000000  1.154701  0.000000 )  
               b(3) = (  0.000000  0.000000  0.201420 )  


     PseudoPot. # 1 for Mo read from file:
     /shared/ESPRESSO/PSLIBRARY/1.0.0/pbe/PSEUDOPOTENTIALS/Mo.pbe-spn-kjpaw_psl.1.0.0.UPF
     MD5 check sum: 4396e0c640fcce5c25f020efccf1ab12
     Pseudo is Projector augmented-wave + core cor, Zval = 14.0
     Generated using &quot;atomic&quot; code by A. Dal Corso  v.6.3
     Shape of augmentation charge: PSQ
     Using radial grid of 1229 points,  6 beta functions with: 
                l(1) =   0
                l(2) =   0
                l(3) =   1
                l(4) =   1
                l(5) =   2
                l(6) =   2
     Q(r) pseudized with 0 coefficients 


     PseudoPot. # 2 for S  read from file:
     /shared/ESPRESSO/PSLIBRARY/1.0.0/pbe/PSEUDOPOTENTIALS/S.pbe-n-kjpaw_psl.1.0.0.UPF
     MD5 check sum: c08f931834bcc19553f8bde8f1a3adc5
     Pseudo is Projector augmented-wave + core cor, Zval =  6.0
     Generated using "atomic" code by A. Dal Corso  (Quantum ESPRESSO distribution)
     Shape of augmentation charge: PSQ
     Using radial grid of 1151 points,  6 beta functions with: 
                l(1) =   0
                l(2) =   0
                l(3) =   1
                l(4) =   1
                l(5) =   2
                l(6) =   2
     Q(r) pseudized with 0 coefficients 


     atomic species   valence    mass     pseudopotential
        Mo            14.00    95.94000     Mo( 1.00)
        S              6.00    32.06500     S ( 1.00)

     12 Sym. Ops. (no inversion) found



   Cartesian axes

     site n.     atom                  positions (alat units)
         1           Mo  tau(   1) = (   0.0000000   0.0000000   2.4823718  )
         2           S   tau(   2) = (   0.5000000   0.2886751   2.9935897  )
         3           S   tau(   3) = (   0.5000000   0.2886751   1.9711538  )

     number of k points=    10  Fermi-Dirac smearing, width (Ry)=  0.0070
                       cart. coord. in units 2pi/alat
        k(    1) = (   0.0000000   0.0000000   0.0000000), wk =   0.0312500
        k(    2) = (   0.0000000   0.1443376   0.0000000), wk =   0.1875000
        k(    3) = (   0.0000000   0.2886751   0.0000000), wk =   0.1875000
        k(    4) = (   0.0000000   0.4330127   0.0000000), wk =   0.1875000
        k(    5) = (   0.0000000  -0.5773503   0.0000000), wk =   0.0937500
        k(    6) = (   0.1250000   0.2165064   0.0000000), wk =   0.1875000
        k(    7) = (   0.1250000   0.3608439   0.0000000), wk =   0.3750000
        k(    8) = (   0.1250000   0.5051815   0.0000000), wk =   0.3750000
        k(    9) = (   0.2500000   0.4330127   0.0000000), wk =   0.1875000
        k(   10) = (   0.2500000   0.5773503   0.0000000), wk =   0.1875000

     Dense  grid:    85127 G-vectors     FFT dimensions: (  36,  36, 180)

     Estimated max dynamical RAM per process >      25.08 MB

     Estimated total dynamical RAM >     401.32 MB

     Initial potential from superposition of free atoms

     starting charge      25.9991, renormalised to      26.0000

     negative rho (up, down):  3.812E-04 0.000E+00
     Starting wfcs are   18 randomized atomic wfcs
     Checking if some PAW data can be deallocated... 

     total cpu time spent up to now is        1.3 secs

     Self-consistent Calculation

     iteration #  1     ecut=    80.00 Ry     beta= 0.70
     Davidson diagonalization with overlap
     ethr =  1.00E-02,  avg # of iterations =  2.3

     Threshold (ethr) on eigenvalues was too large:
     Diagonalizing with lowered threshold

     Davidson diagonalization with overlap
     ethr =  3.59E-04,  avg # of iterations =  3.4

     negative rho (up, down):  4.503E-04 0.000E+00

     total cpu time spent up to now is        2.6 secs

     total energy              =    -496.63675500 Ry
     estimated scf accuracy    <       0.13436979 Ry

     iteration #  2     ecut=    80.00 Ry     beta= 0.70
     Davidson diagonalization with overlap
     ethr =  5.17E-04,  avg # of iterations =  3.0

     negative rho (up, down):  4.226E-04 0.000E+00

     total cpu time spent up to now is        3.0 secs

     total energy              =    -496.58015363 Ry
     estimated scf accuracy    <       0.57853292 Ry

     iteration #  3     ecut=    80.00 Ry     beta= 0.70
     Davidson diagonalization with overlap
     ethr =  5.17E-04,  avg # of iterations =  2.9

     negative rho (up, down):  4.193E-04 0.000E+00

     total cpu time spent up to now is        3.5 secs

     total energy              =    -496.67984142 Ry
     estimated scf accuracy    <       0.10016033 Ry

     iteration #  4     ecut=    80.00 Ry     beta= 0.70
     Davidson diagonalization with overlap
     ethr =  3.85E-04,  avg # of iterations =  1.1

     negative rho (up, down):  4.436E-04 0.000E+00

     total cpu time spent up to now is        3.9 secs

     total energy              =    -496.69366158 Ry
     estimated scf accuracy    <       0.00065836 Ry

     iteration #  5     ecut=    80.00 Ry     beta= 0.70
     Davidson diagonalization with overlap
     ethr =  2.53E-06,  avg # of iterations =  4.6

     negative rho (up, down):  4.476E-04 0.000E+00

     total cpu time spent up to now is        4.3 secs

     total energy              =    -496.69398463 Ry
     estimated scf accuracy    <       0.00012068 Ry

     iteration #  6     ecut=    80.00 Ry     beta= 0.70
     Davidson diagonalization with overlap
     ethr =  4.64E-07,  avg # of iterations =  2.0

     negative rho (up, down):  4.509E-04 0.000E+00

     total cpu time spent up to now is        4.7 secs

     total energy              =    -496.69399750 Ry
     estimated scf accuracy    <       0.00000618 Ry

     iteration #  7     ecut=    80.00 Ry     beta= 0.70
     Davidson diagonalization with overlap
     ethr =  2.38E-08,  avg # of iterations =  3.2

     negative rho (up, down):  4.513E-04 0.000E+00

     total cpu time spent up to now is        5.2 secs

     total energy              =    -496.69400066 Ry
     estimated scf accuracy    <       0.00000158 Ry

     iteration #  8     ecut=    80.00 Ry     beta= 0.70
     Davidson diagonalization with overlap
     ethr =  6.09E-09,  avg # of iterations =  1.8

     negative rho (up, down):  4.512E-04 0.000E+00

     total cpu time spent up to now is        5.5 secs

     End of self-consistent calculation

          k = 0.0000 0.0000 0.0000 ( 10733 PWs)   bands (ev):

   -60.0683 -34.2427 -33.9568 -33.9568 -13.4575 -12.2172  -4.9658  -1.6531
    -1.6531  -1.2542  -0.5248  -0.5248   0.4950   3.6862   3.6862   3.8513
     3.8513

          k = 0.0000 0.1443 0.0000 ( 10695 PWs)   bands (ev):

   -60.0613 -34.2294 -34.0239 -33.9720 -13.2129 -12.1074  -4.6901  -2.1696
    -1.9062  -1.4003  -0.8907  -0.3086   0.4133   3.2441   3.4537   3.6018
     4.0553

          k = 0.0000 0.2887 0.0000 ( 10655 PWs)   bands (ev):

   -60.0443 -34.1973 -34.1834 -34.0086 -12.5622 -11.8173  -4.2641  -2.9967
    -2.9029  -1.5727  -0.7798  -0.6805  -0.0768   2.8338   3.2032   3.7634
     4.6651

          k = 0.0000 0.4330 0.0000 ( 10632 PWs)   bands (ev):

   -60.0272 -34.3391 -34.1650 -34.0450 -11.7791 -11.4800  -4.7557  -3.8251
    -3.2017  -2.1015  -1.1485  -0.2237  -0.1989   3.1370   3.2531   4.4220
     5.0200

          k = 0.0000-0.5774 0.0000 ( 10610 PWs)   bands (ev):

   -60.0201 -34.4026 -34.1516 -34.0599 -11.3888 -11.3213  -5.1555  -4.2204
    -3.3616  -2.2927  -1.3017  -0.0005   0.0879   3.2577   3.6873   4.6590
     5.1150

          k = 0.1250 0.2165 0.0000 ( 10675 PWs)   bands (ev):

   -60.0493 -34.2068 -34.1297 -34.0055 -12.7638 -11.9058  -4.2908  -2.8060
    -2.4722  -1.8172  -1.0548  -0.1906   0.1237   2.7617   3.2995   3.3629
     4.6430

          k = 0.1250 0.3608 0.0000 ( 10631 PWs)   bands (ev):

   -60.0322 -34.2708 -34.1745 -34.0583 -12.0329 -11.5802  -4.3451  -3.4085
    -3.0291  -2.4439  -1.1045  -0.6054  -0.0075   2.7023   3.4085   3.8016
     5.1054

          k = 0.1250 0.5052 0.0000 ( 10634 PWs)   bands (ev):

   -60.0201 -34.3681 -34.1516 -34.0962 -11.4069 -11.3098  -4.8392  -4.2322
    -3.2066  -2.4351  -1.1642  -1.1091   0.3432   3.1451   3.7434   4.3615
     5.0985

          k = 0.2500 0.4330 0.0000 ( 10644 PWs)   bands (ev):

   -60.0202 -34.3204 -34.1517 -34.1456 -11.4246 -11.2983  -4.4361  -4.2366
    -2.8260  -2.5953  -2.1776  -0.9852   0.3029   2.9868   3.8073   3.8258
     5.4799

          k = 0.2500 0.5774 0.0000 ( 10624 PWs)   bands (ev):

   -60.0151 -34.3254 -34.1973 -34.1422 -11.1629 -11.1414  -4.6551  -4.3114
    -3.1712  -2.4614  -2.3424  -1.4206   0.6723   2.8799   3.7802   4.2438
     5.6981

     the Fermi energy is     1.6423 ev

!    total energy              =    -496.69400057 Ry
     total all-electron energy =     -9695.024215 Ry
     estimated scf accuracy    <       0.00000026 Ry
     smearing contrib. (-TS)   =      -0.00000142 Ry
     internal energy E=F+TS    =    -496.69399915 Ry

     The total energy is F=E-TS. E is the sum of the following terms:
     one-electron contribution =    -765.72785941 Ry
     hartree contribution      =     387.02973491 Ry
     xc contribution           =     -29.73762879 Ry
     ewald contribution        =     231.37827577 Ry
     one-center paw contrib.   =    -319.63652163 Ry

     convergence has been achieved in   8 iterations

     negative rho (up, down):  4.512E-04 0.000E+00

     Forces acting on atoms (cartesian axes, Ry/au):

     atom    1 type  1   force =     0.00000000    0.00000000    0.00000000
     atom    2 type  2   force =     0.00000000   -0.00000000   -0.00632000
     atom    3 type  2   force =    -0.00000000   -0.00000000    0.00632000
     The non-local contrib.  to forces
     atom    1 type  1   force =     0.00000000   -0.00000000    0.00000000
     atom    2 type  2   force =     0.00000000    0.00000000   -0.26650963
     atom    3 type  2   force =    -0.00000000   -0.00000000    0.26650963
     The ionic contribution  to forces
     atom    1 type  1   force =     0.00000000   -0.00000000    0.00000000
     atom    2 type  2   force =    -0.00000000    0.00000000   34.42690083
     atom    3 type  2   force =    -0.00000000    0.00000000  -34.42690083
     The local contribution  to forces
     atom    1 type  1   force =    -0.00000000    0.00000000   -0.00000000
     atom    2 type  2   force =    -0.00000000    0.00000000  -34.16802224
     atom    3 type  2   force =    -0.00000000    0.00000000   34.16802224
     The core correction contribution to forces
     atom    1 type  1   force =     0.00000000   -0.00000000   -0.00000000
     atom    2 type  2   force =     0.00000000   -0.00000000    0.00204361
     atom    3 type  2   force =     0.00000000   -0.00000000   -0.00204361
     The Hubbard contrib.    to forces
     atom    1 type  1   force =     0.00000000    0.00000000    0.00000000
     atom    2 type  2   force =     0.00000000    0.00000000    0.00000000
     atom    3 type  2   force =     0.00000000    0.00000000    0.00000000
     The SCF correction term to forces
     atom    1 type  1   force =    -0.00000000   -0.00000000    0.00000000
     atom    2 type  2   force =     0.00000000    0.00000000   -0.00073256
     atom    3 type  2   force =     0.00000000    0.00000000    0.00073256

     Total force =     0.008938     Total SCF correction =     0.001036
     SCF correction compared to forces is large: reduce conv_thr to get better values


     Computing stress (Cartesian axis) and pressure


     negative rho (up, down):  4.512E-04 0.000E+00
          total   stress  (Ry/bohr**3)                   (kbar)     P=       12.13
   0.00014633  -0.00000000   0.00000000           21.53       -0.00        0.00
  -0.00000000   0.00014633   0.00000000           -0.00       21.53        0.00
   0.00000000  -0.00000000  -0.00004523            0.00       -0.00       -6.65


     Writing all to output data dir ./tmp/scf.save/
 
     init_run     :      0.45s CPU      0.51s WALL (       1 calls)
     electrons    :      3.37s CPU      4.23s WALL (       1 calls)
     forces       :      0.10s CPU      0.10s WALL (       1 calls)
     stress       :      0.35s CPU      0.36s WALL (       1 calls)

     Called by init_run:
     wfcinit      :      0.07s CPU      0.07s WALL (       1 calls)
     potinit      :      0.12s CPU      0.13s WALL (       1 calls)
     hinit0       :      0.18s CPU      0.20s WALL (       1 calls)

     Called by electrons:
     c_bands      :      1.95s CPU      2.15s WALL (       9 calls)
     sum_band     :      0.58s CPU      0.65s WALL (       9 calls)
     v_of_rho     :      0.05s CPU      0.06s WALL (       9 calls)
     newd         :      0.31s CPU      0.35s WALL (       9 calls)
     PAW_pot      :      0.56s CPU      1.14s WALL (       9 calls)
     mix_rho      :      0.01s CPU      0.01s WALL (       9 calls)

     Called by c_bands:
     init_us_2    :      0.04s CPU      0.04s WALL (     210 calls)
     init_us_2:cp :      0.04s CPU      0.04s WALL (     210 calls)
     cegterg      :      1.37s CPU      1.56s WALL (      90 calls)

     Called by *egterg:
     cdiaghg      :      0.09s CPU      0.10s WALL (     323 calls)
     h_psi        :      1.11s CPU      1.26s WALL (     343 calls)
     s_psi        :      0.02s CPU      0.03s WALL (     343 calls)
     g_psi        :      0.00s CPU      0.00s WALL (     243 calls)

     Called by h_psi:
     h_psi:calbec :      0.08s CPU      0.10s WALL (     343 calls)
     vloc_psi     :      0.98s CPU      1.12s WALL (     343 calls)
     add_vuspsi   :      0.03s CPU      0.04s WALL (     343 calls)

     General routines
     calbec       :      0.12s CPU      0.13s WALL (     483 calls)
     fft          :      0.06s CPU      0.08s WALL (     125 calls)
     ffts         :      0.00s CPU      0.00s WALL (       9 calls)
     fftw         :      1.03s CPU      1.17s WALL (    9820 calls)
 
     Parallel routines
 
     PWSCF        :      4.92s CPU      6.01s WALL

 
   This run was terminated on:  13:47:23   6Jun2025            

=------------------------------------------------------------------------------=
   JOB DONE.
=------------------------------------------------------------------------------=
