
     Program PWSCF v.7.2 starts on  6Jun2025 at 13:47:33 

     This program is part of the open-source Quantum ESPRESSO suite
     for quantum simulation of materials; please cite
         "P. Giannozzi et al., J. Phys.:Condens. Matter 21 395502 (2009);
         "P. Giannozzi et al., J. Phys.:Condens. Matter 29 465901 (2017);
         "P. Giannozzi et al., J. Chem. Phys. 152 154105 (2020);
          URL http://www.quantum-espresso.org", 
     in publications or presentations arising from this work. More details at
     http://www.quantum-espresso.org/quote

     Parallel version (MPI), running on    16 processors

     MPI processes distributed on     1 nodes
     39761 MiB available memory on the printing compute node when the environment starts
 
     Waiting for input...
     Reading input from standard input

     Current dimensions of program PWSCF are:
     Max number of different atomic species (ntypx) = 10
     Max number of k-points (npk) =  40000
     Max angular momentum in pseudopotentials (lmaxx) =  4
     file Mo.pbe-spn-kjpaw_psl.1.0.0.UPF: wavefunction(s)  4S 4D renormalized
     file S.pbe-n-kjpaw_psl.1.0.0.UPF: wavefunction(s)  3S 3P renormalized
     Message from routine setup:
     using ibrav=0 with symmetry is DISCOURAGED, use correct ibrav instead
 
     R & G space division:  proc/nbgrp/npool/nimage =      16
     Subspace diagonalization in iterative solution of the eigenvalue problem:
     a serial algorithm will be used

 
     Parallelization info
     --------------------
     sticks:   dense  smooth     PW     G-vecs:    dense   smooth      PW
     Min          48      48     13                 5430     5430     831
     Max          49      49     14                 5455     5455     850
     Sum         769     769    223                86999    86999   13463
 
     Using Slab Decomposition
 


     bravais-lattice index     =            0
     lattice parameter (alat)  =       5.9715  a.u.
     unit-cell volume          =     903.9675 (a.u.)^3
     number of atoms/cell      =            3
     number of atomic types    =            2
     number of electrons       =        26.00
     number of Kohn-Sham states=           17
     kinetic-energy cutoff     =      80.0000  Ry
     charge density cutoff     =     320.0000  Ry
     scf convergence threshold =      1.0E-06
     mixing beta               =       0.7000
     number of iterations used =            8  plain     mixing
     Exchange-correlation= SLA  PW   PBX  PBC
                           (   1   4   3   4   0   0   0)

     celldm(1)=   5.971535  celldm(2)=   0.000000  celldm(3)=   0.000000
     celldm(4)=   0.000000  celldm(5)=   0.000000  celldm(6)=   0.000000

     crystal axes: (cart. coord. in units of alat)
               a(1) = (   1.000000   0.000000   0.000000 )  
               a(2) = (  -0.500000   0.866025   0.000000 )  
               a(3) = (   0.000000   0.000000   4.901899 )  

     reciprocal axes: (cart. coord. in units 2 pi/alat)
               b(1) = (  1.000000  0.577350  0.000000 )  
               b(2) = (  0.000000  1.154701  0.000000 )  
               b(3) = (  0.000000  0.000000  0.204003 )  


     PseudoPot. # 1 for Mo read from file:
     /shared/ESPRESSO/PSLIBRARY/1.0.0/pbe/PSEUDOPOTENTIALS/Mo.pbe-spn-kjpaw_psl.1.0.0.UPF
     MD5 check sum: 4396e0c640fcce5c25f020efccf1ab12
     Pseudo is Projector augmented-wave + core cor, Zval = 14.0
     Generated using &quot;atomic&quot; code by A. Dal Corso  v.6.3
     Shape of augmentation charge: PSQ
     Using radial grid of 1229 points,  6 beta functions with: 
                l(1) =   0
                l(2) =   0
                l(3) =   1
                l(4) =   1
                l(5) =   2
                l(6) =   2
     Q(r) pseudized with 0 coefficients 


     PseudoPot. # 2 for S  read from file:
     /shared/ESPRESSO/PSLIBRARY/1.0.0/pbe/PSEUDOPOTENTIALS/S.pbe-n-kjpaw_psl.1.0.0.UPF
     MD5 check sum: c08f931834bcc19553f8bde8f1a3adc5
     Pseudo is Projector augmented-wave + core cor, Zval =  6.0
     Generated using "atomic" code by A. Dal Corso  (Quantum ESPRESSO distribution)
     Shape of augmentation charge: PSQ
     Using radial grid of 1151 points,  6 beta functions with: 
                l(1) =   0
                l(2) =   0
                l(3) =   1
                l(4) =   1
                l(5) =   2
                l(6) =   2
     Q(r) pseudized with 0 coefficients 


     atomic species   valence    mass     pseudopotential
        Mo            14.00    95.94000     Mo( 1.00)
        S              6.00    32.06500     S ( 1.00)

     12 Sym. Ops. (no inversion) found



   Cartesian axes

     site n.     atom                  positions (alat units)
         1           Mo  tau(   1) = (   0.0000000   0.0000000   2.4509494  )
         2           S   tau(   2) = (   0.5000000   0.2886751   2.9556962  )
         3           S   tau(   3) = (   0.5000000   0.2886751   1.9462025  )

     number of k points=    10  Fermi-Dirac smearing, width (Ry)=  0.0070
                       cart. coord. in units 2pi/alat
        k(    1) = (   0.0000000   0.0000000   0.0000000), wk =   0.0312500
        k(    2) = (   0.0000000   0.1443376   0.0000000), wk =   0.1875000
        k(    3) = (   0.0000000   0.2886751   0.0000000), wk =   0.1875000
        k(    4) = (   0.0000000   0.4330127   0.0000000), wk =   0.1875000
        k(    5) = (   0.0000000  -0.5773503   0.0000000), wk =   0.0937500
        k(    6) = (   0.1250000   0.2165064   0.0000000), wk =   0.1875000
        k(    7) = (   0.1250000   0.3608439   0.0000000), wk =   0.3750000
        k(    8) = (   0.1250000   0.5051815   0.0000000), wk =   0.3750000
        k(    9) = (   0.2500000   0.4330127   0.0000000), wk =   0.1875000
        k(   10) = (   0.2500000   0.5773503   0.0000000), wk =   0.1875000

     Dense  grid:    86999 G-vectors     FFT dimensions: (  36,  36, 180)

     Estimated max dynamical RAM per process >      25.56 MB

     Estimated total dynamical RAM >     408.95 MB

     Initial potential from superposition of free atoms

     starting charge      25.9991, renormalised to      26.0000

     negative rho (up, down):  3.831E-04 0.000E+00
     Starting wfcs are   18 randomized atomic wfcs
     Checking if some PAW data can be deallocated... 

     total cpu time spent up to now is        0.6 secs

     Self-consistent Calculation

     iteration #  1     ecut=    80.00 Ry     beta= 0.70
     Davidson diagonalization with overlap
     ethr =  1.00E-02,  avg # of iterations =  2.3

     Threshold (ethr) on eigenvalues was too large:
     Diagonalizing with lowered threshold

     Davidson diagonalization with overlap
     ethr =  3.06E-04,  avg # of iterations =  3.6

     negative rho (up, down):  4.517E-04 0.000E+00

     total cpu time spent up to now is        1.3 secs

     total energy              =    -496.64912585 Ry
     estimated scf accuracy    <       0.11828352 Ry

     iteration #  2     ecut=    80.00 Ry     beta= 0.70
     Davidson diagonalization with overlap
     ethr =  4.55E-04,  avg # of iterations =  3.0

     negative rho (up, down):  4.299E-04 0.000E+00

     total cpu time spent up to now is        1.8 secs

     total energy              =    -496.61040247 Ry
     estimated scf accuracy    <       0.38466293 Ry

     iteration #  3     ecut=    80.00 Ry     beta= 0.70
     Davidson diagonalization with overlap
     ethr =  4.55E-04,  avg # of iterations =  2.7

     negative rho (up, down):  4.267E-04 0.000E+00

     total cpu time spent up to now is        2.2 secs

     total energy              =    -496.67879353 Ry
     estimated scf accuracy    <       0.12594929 Ry

     iteration #  4     ecut=    80.00 Ry     beta= 0.70
     Davidson diagonalization with overlap
     ethr =  4.55E-04,  avg # of iterations =  1.4

     negative rho (up, down):  4.456E-04 0.000E+00

     total cpu time spent up to now is        2.6 secs

     total energy              =    -496.69560520 Ry
     estimated scf accuracy    <       0.00063864 Ry

     iteration #  5     ecut=    80.00 Ry     beta= 0.70
     Davidson diagonalization with overlap
     ethr =  2.46E-06,  avg # of iterations =  3.8

     negative rho (up, down):  4.490E-04 0.000E+00

     total cpu time spent up to now is        3.1 secs

     total energy              =    -496.69589176 Ry
     estimated scf accuracy    <       0.00010660 Ry

     iteration #  6     ecut=    80.00 Ry     beta= 0.70
     Davidson diagonalization with overlap
     ethr =  4.10E-07,  avg # of iterations =  2.0

     negative rho (up, down):  4.515E-04 0.000E+00

     total cpu time spent up to now is        3.5 secs

     total energy              =    -496.69590183 Ry
     estimated scf accuracy    <       0.00000877 Ry

     iteration #  7     ecut=    80.00 Ry     beta= 0.70
     Davidson diagonalization with overlap
     ethr =  3.37E-08,  avg # of iterations =  2.6

     negative rho (up, down):  4.518E-04 0.000E+00

     total cpu time spent up to now is        4.0 secs

     End of self-consistent calculation

          k = 0.0000 0.0000 0.0000 ( 10985 PWs)   bands (ev):

   -60.2945 -34.4379 -34.2002 -34.2002 -13.4815 -12.2689  -5.0043  -1.8370
    -1.8370  -1.3242  -0.7509  -0.7509   0.4179   3.3937   3.3937   3.5605
     3.5605

          k = 0.0000 0.1443 0.0000 ( 10987 PWs)   bands (ev):

   -60.2886 -34.4265 -34.2588 -34.2136 -13.2502 -12.1654  -4.7410  -2.3354
    -1.9981  -1.5986  -1.0991  -0.4884   0.3156   3.0091   3.1736   3.3247
     3.7500

          k = 0.0000 0.2887 0.0000 ( 10963 PWs)   bands (ev):

   -60.2743 -34.3988 -34.3982 -34.2457 -12.6370 -11.8927  -4.3275  -3.1424
    -2.9733  -1.7519  -1.0111  -0.8169  -0.1932   2.6528   2.9375   3.4853
     4.3510

          k = 0.0000 0.4330 0.0000 ( 10924 PWs)   bands (ev):

   -60.2599 -34.5346 -34.3710 -34.2776 -11.9060 -11.5778  -4.7990  -3.8653
    -3.3130  -2.2600  -1.2533  -0.4508  -0.3538   2.8424   3.0200   4.1516
     4.7146

          k = 0.0000-0.5774 0.0000 ( 10802 PWs)   bands (ev):

   -60.2540 -34.5903 -34.3594 -34.2908 -11.5467 -11.4305  -5.1769  -4.2450
    -3.4428  -2.4440  -1.3968  -0.2523  -0.0639   2.9306   3.3872   4.4073
     4.8160

          k = 0.1250 0.2165 0.0000 ( 10959 PWs)   bands (ev):

   -60.2785 -34.4069 -34.3512 -34.2429 -12.8265 -11.9758  -4.3567  -2.9547
    -2.5529  -1.9723  -1.2690  -0.3705   0.0004   2.5757   3.0433   3.0935
     4.3290

          k = 0.1250 0.3608 0.0000 ( 10941 PWs)   bands (ev):

   -60.2642 -34.4748 -34.3792 -34.2892 -12.1418 -11.6713  -4.4045  -3.4770
    -3.1728  -2.5470  -1.2684  -0.7601  -0.1843   2.5191   3.1149   3.5388
     4.7984

          k = 0.1250 0.5052 0.0000 ( 10873 PWs)   bands (ev):

   -60.2540 -34.5601 -34.3594 -34.3224 -11.5628 -11.4206  -4.8726  -4.2656
    -3.3065  -2.5482  -1.2800  -1.2797   0.1533   2.8699   3.4168   4.1157
     4.8045

          k = 0.2500 0.4330 0.0000 ( 10897 PWs)   bands (ev):

   -60.2540 -34.5184 -34.3655 -34.3595 -11.5786 -11.4106  -4.4836  -4.2801
    -2.9731  -2.6726  -2.2889  -1.1215   0.1241   2.7526   3.4813   3.5994
     5.1378

          k = 0.2500 0.5774 0.0000 ( 10908 PWs)   bands (ev):

   -60.2498 -34.5228 -34.4107 -34.3513 -11.3192 -11.2868  -4.6763  -4.3540
    -3.2640  -2.5992  -2.4357  -1.5312   0.4872   2.5663   3.6077   3.9389
     5.3204

     the Fermi energy is     1.4558 ev

!    total energy              =    -496.69590476 Ry
     total all-electron energy =     -9695.026119 Ry
     estimated scf accuracy    <       0.00000067 Ry
     smearing contrib. (-TS)   =      -0.00000164 Ry
     internal energy E=F+TS    =    -496.69590312 Ry

     The total energy is F=E-TS. E is the sum of the following terms:
     one-electron contribution =    -748.62554404 Ry
     hartree contribution      =     378.29700881 Ry
     xc contribution           =     -29.67803343 Ry
     ewald contribution        =     222.94215354 Ry
     one-center paw contrib.   =    -319.63148801 Ry

     convergence has been achieved in   7 iterations

     negative rho (up, down):  4.518E-04 0.000E+00

     Forces acting on atoms (cartesian axes, Ry/au):

     atom    1 type  1   force =     0.00000000    0.00000000    0.00000000
     atom    2 type  2   force =     0.00000000    0.00000000   -0.01634975
     atom    3 type  2   force =     0.00000000   -0.00000000    0.01634975
     The non-local contrib.  to forces
     atom    1 type  1   force =     0.00000000    0.00000000    0.00000000
     atom    2 type  2   force =     0.00000000    0.00000000   -0.27421811
     atom    3 type  2   force =     0.00000000    0.00000000    0.27421811
     The ionic contribution  to forces
     atom    1 type  1   force =     0.00000000   -0.00000000    0.00000000
     atom    2 type  2   force =    -0.00000000    0.00000000   33.46643550
     atom    3 type  2   force =    -0.00000000    0.00000000  -33.46643550
     The local contribution  to forces
     atom    1 type  1   force =     0.00000000    0.00000000    0.00000000
     atom    2 type  2   force =    -0.00000000    0.00000000  -33.21045579
     atom    3 type  2   force =    -0.00000000    0.00000000   33.21045579
     The core correction contribution to forces
     atom    1 type  1   force =     0.00000000    0.00000000   -0.00000000
     atom    2 type  2   force =     0.00000000   -0.00000000    0.00248296
     atom    3 type  2   force =     0.00000000   -0.00000000   -0.00248296
     The Hubbard contrib.    to forces
     atom    1 type  1   force =     0.00000000    0.00000000    0.00000000
     atom    2 type  2   force =     0.00000000    0.00000000    0.00000000
     atom    3 type  2   force =     0.00000000    0.00000000    0.00000000
     The SCF correction term to forces
     atom    1 type  1   force =     0.00000000    0.00000000    0.00000000
     atom    2 type  2   force =     0.00000000   -0.00000000   -0.00059430
     atom    3 type  2   force =    -0.00000000   -0.00000000    0.00059430

     Total force =     0.023122     Total SCF correction =     0.000840


     Computing stress (Cartesian axis) and pressure


     negative rho (up, down):  4.518E-04 0.000E+00
          total   stress  (Ry/bohr**3)                   (kbar)     P=       -2.89
   0.00002453   0.00000000  -0.00000000            3.61        0.00       -0.00
   0.00000000   0.00002453   0.00000000            0.00        3.61        0.00
  -0.00000000   0.00000000  -0.00010800           -0.00        0.00      -15.89


     Writing all to output data dir ./tmp/scf.save/
 
     init_run     :      0.40s CPU      0.48s WALL (       1 calls)
     electrons    :      3.08s CPU      3.37s WALL (       1 calls)
     forces       :      0.18s CPU      0.18s WALL (       1 calls)
     stress       :      0.66s CPU      0.68s WALL (       1 calls)

     Called by init_run:
     wfcinit      :      0.06s CPU      0.07s WALL (       1 calls)
     potinit      :      0.11s CPU      0.13s WALL (       1 calls)
     hinit0       :      0.16s CPU      0.19s WALL (       1 calls)

     Called by electrons:
     c_bands      :      1.70s CPU      1.89s WALL (       8 calls)
     sum_band     :      0.55s CPU      0.62s WALL (       8 calls)
     v_of_rho     :      0.05s CPU      0.06s WALL (       8 calls)
     newd         :      0.29s CPU      0.32s WALL (       8 calls)
     PAW_pot      :      0.56s CPU      0.60s WALL (       8 calls)
     mix_rho      :      0.01s CPU      0.01s WALL (       8 calls)

     Called by c_bands:
     init_us_2    :      0.04s CPU      0.04s WALL (     190 calls)
     init_us_2:cp :      0.04s CPU      0.04s WALL (     190 calls)
     cegterg      :      1.19s CPU      1.37s WALL (      80 calls)

     Called by *egterg:
     cdiaghg      :      0.08s CPU      0.08s WALL (     284 calls)
     h_psi        :      0.96s CPU      1.11s WALL (     304 calls)
     s_psi        :      0.02s CPU      0.02s WALL (     304 calls)
     g_psi        :      0.00s CPU      0.00s WALL (     214 calls)

     Called by h_psi:
     h_psi:calbec :      0.08s CPU      0.09s WALL (     304 calls)
     vloc_psi     :      0.85s CPU      0.99s WALL (     304 calls)
     add_vuspsi   :      0.02s CPU      0.03s WALL (     304 calls)

     General routines
     calbec       :      0.23s CPU      0.24s WALL (     434 calls)
     fft          :      0.07s CPU      0.09s WALL (     114 calls)
     ffts         :      0.00s CPU      0.00s WALL (       8 calls)
     fftw         :      0.91s CPU      1.06s WALL (    8824 calls)
 
     Parallel routines
 
     PWSCF        :      4.47s CPU      4.93s WALL

 
   This run was terminated on:  13:47:38   6Jun2025            

=------------------------------------------------------------------------------=
   JOB DONE.
=------------------------------------------------------------------------------=
