
     Program PWSCF v.7.2 starts on  6Jun2025 at 13:47:25 

     This program is part of the open-source Quantum ESPRESSO suite
     for quantum simulation of materials; please cite
         "P. Giannozzi et al., J. Phys.:Condens. Matter 21 395502 (2009);
         "P. Giannozzi et al., J. Phys.:Condens. Matter 29 465901 (2017);
         "P. Giannozzi et al., J. Chem. Phys. 152 154105 (2020);
          URL http://www.quantum-espresso.org", 
     in publications or presentations arising from this work. More details at
     http://www.quantum-espresso.org/quote

     Parallel version (MPI), running on    16 processors

     MPI processes distributed on     1 nodes
     38957 MiB available memory on the printing compute node when the environment starts
 
     Waiting for input...
     Reading input from standard input

     Current dimensions of program PWSCF are:
     Max number of different atomic species (ntypx) = 10
     Max number of k-points (npk) =  40000
     Max angular momentum in pseudopotentials (lmaxx) =  4
     file Mo.pbe-spn-kjpaw_psl.1.0.0.UPF: wavefunction(s)  4S 4D renormalized
     file S.pbe-n-kjpaw_psl.1.0.0.UPF: wavefunction(s)  3S 3P renormalized
     Message from routine setup:
     using ibrav=0 with symmetry is DISCOURAGED, use correct ibrav instead
 
     R & G space division:  proc/nbgrp/npool/nimage =      16
     Subspace diagonalization in iterative solution of the eigenvalue problem:
     a serial algorithm will be used

 
     Parallelization info
     --------------------
     sticks:   dense  smooth     PW     G-vecs:    dense   smooth      PW
     Min          48      48     13                 5410     5410     831
     Max          49      49     14                 5433     5433     844
     Sum         769     769    223                86699    86699   13415
 
     Using Slab Decomposition
 


     bravais-lattice index     =            0
     lattice parameter (alat)  =       5.9526  a.u.
     unit-cell volume          =     898.2552 (a.u.)^3
     number of atoms/cell      =            3
     number of atomic types    =            2
     number of electrons       =        26.00
     number of Kohn-Sham states=           17
     kinetic-energy cutoff     =      80.0000  Ry
     charge density cutoff     =     320.0000  Ry
     scf convergence threshold =      1.0E-06
     mixing beta               =       0.7000
     number of iterations used =            8  plain     mixing
     Exchange-correlation= SLA  PW   PBX  PBC
                           (   1   4   3   4   0   0   0)

     celldm(1)=   5.952637  celldm(2)=   0.000000  celldm(3)=   0.000000
     celldm(4)=   0.000000  celldm(5)=   0.000000  celldm(6)=   0.000000

     crystal axes: (cart. coord. in units of alat)
               a(1) = (   1.000000   0.000000   0.000000 )  
               a(2) = (  -0.500000   0.866025   0.000000 )  
               a(3) = (   0.000000   0.000000   4.917460 )  

     reciprocal axes: (cart. coord. in units 2 pi/alat)
               b(1) = (  1.000000  0.577350  0.000000 )  
               b(2) = (  0.000000  1.154701  0.000000 )  
               b(3) = (  0.000000  0.000000  0.203357 )  


     PseudoPot. # 1 for Mo read from file:
     /shared/ESPRESSO/PSLIBRARY/1.0.0/pbe/PSEUDOPOTENTIALS/Mo.pbe-spn-kjpaw_psl.1.0.0.UPF
     MD5 check sum: 4396e0c640fcce5c25f020efccf1ab12
     Pseudo is Projector augmented-wave + core cor, Zval = 14.0
     Generated using &quot;atomic&quot; code by A. Dal Corso  v.6.3
     Shape of augmentation charge: PSQ
     Using radial grid of 1229 points,  6 beta functions with: 
                l(1) =   0
                l(2) =   0
                l(3) =   1
                l(4) =   1
                l(5) =   2
                l(6) =   2
     Q(r) pseudized with 0 coefficients 


     PseudoPot. # 2 for S  read from file:
     /shared/ESPRESSO/PSLIBRARY/1.0.0/pbe/PSEUDOPOTENTIALS/S.pbe-n-kjpaw_psl.1.0.0.UPF
     MD5 check sum: c08f931834bcc19553f8bde8f1a3adc5
     Pseudo is Projector augmented-wave + core cor, Zval =  6.0
     Generated using "atomic" code by A. Dal Corso  (Quantum ESPRESSO distribution)
     Shape of augmentation charge: PSQ
     Using radial grid of 1151 points,  6 beta functions with: 
                l(1) =   0
                l(2) =   0
                l(3) =   1
                l(4) =   1
                l(5) =   2
                l(6) =   2
     Q(r) pseudized with 0 coefficients 


     atomic species   valence    mass     pseudopotential
        Mo            14.00    95.94000     Mo( 1.00)
        S              6.00    32.06500     S ( 1.00)

     12 Sym. Ops. (no inversion) found



   Cartesian axes

     site n.     atom                  positions (alat units)
         1           Mo  tau(   1) = (   0.0000000   0.0000000   2.4587302  )
         2           S   tau(   2) = (   0.5000000   0.2886751   2.9650794  )
         3           S   tau(   3) = (   0.5000000   0.2886751   1.9523810  )

     number of k points=    10  Fermi-Dirac smearing, width (Ry)=  0.0070
                       cart. coord. in units 2pi/alat
        k(    1) = (   0.0000000   0.0000000   0.0000000), wk =   0.0312500
        k(    2) = (   0.0000000   0.1443376   0.0000000), wk =   0.1875000
        k(    3) = (   0.0000000   0.2886751   0.0000000), wk =   0.1875000
        k(    4) = (   0.0000000   0.4330127   0.0000000), wk =   0.1875000
        k(    5) = (   0.0000000  -0.5773503   0.0000000), wk =   0.0937500
        k(    6) = (   0.1250000   0.2165064   0.0000000), wk =   0.1875000
        k(    7) = (   0.1250000   0.3608439   0.0000000), wk =   0.3750000
        k(    8) = (   0.1250000   0.5051815   0.0000000), wk =   0.3750000
        k(    9) = (   0.2500000   0.4330127   0.0000000), wk =   0.1875000
        k(   10) = (   0.2500000   0.5773503   0.0000000), wk =   0.1875000

     Dense  grid:    86699 G-vectors     FFT dimensions: (  36,  36, 180)

     Estimated max dynamical RAM per process >      25.47 MB

     Estimated total dynamical RAM >     407.59 MB

     Initial potential from superposition of free atoms

     starting charge      25.9991, renormalised to      26.0000

     negative rho (up, down):  3.835E-04 0.000E+00
     Starting wfcs are   18 randomized atomic wfcs
     Checking if some PAW data can be deallocated... 

     total cpu time spent up to now is        1.0 secs

     Self-consistent Calculation

     iteration #  1     ecut=    80.00 Ry     beta= 0.70
     Davidson diagonalization with overlap
     ethr =  1.00E-02,  avg # of iterations =  2.3

     Threshold (ethr) on eigenvalues was too large:
     Diagonalizing with lowered threshold

     Davidson diagonalization with overlap
     ethr =  3.18E-04,  avg # of iterations =  3.5

     negative rho (up, down):  4.528E-04 0.000E+00

     total cpu time spent up to now is        1.8 secs

     total energy              =    -496.64688039 Ry
     estimated scf accuracy    <       0.12145763 Ry

     iteration #  2     ecut=    80.00 Ry     beta= 0.70
     Davidson diagonalization with overlap
     ethr =  4.67E-04,  avg # of iterations =  3.0

     negative rho (up, down):  4.266E-04 0.000E+00

     total cpu time spent up to now is        2.3 secs

     total energy              =    -496.60378273 Ry
     estimated scf accuracy    <       0.42698911 Ry

     iteration #  3     ecut=    80.00 Ry     beta= 0.70
     Davidson diagonalization with overlap
     ethr =  4.67E-04,  avg # of iterations =  2.7

     negative rho (up, down):  4.233E-04 0.000E+00

     total cpu time spent up to now is        2.7 secs

     total energy              =    -496.67948160 Ry
     estimated scf accuracy    <       0.11824306 Ry

     iteration #  4     ecut=    80.00 Ry     beta= 0.70
     Davidson diagonalization with overlap
     ethr =  4.55E-04,  avg # of iterations =  1.2

     negative rho (up, down):  4.447E-04 0.000E+00

     total cpu time spent up to now is        3.1 secs

     total energy              =    -496.69536948 Ry
     estimated scf accuracy    <       0.00064775 Ry

     iteration #  5     ecut=    80.00 Ry     beta= 0.70
     Davidson diagonalization with overlap
     ethr =  2.49E-06,  avg # of iterations =  3.9

     negative rho (up, down):  4.488E-04 0.000E+00

     total cpu time spent up to now is        3.6 secs

     total energy              =    -496.69567144 Ry
     estimated scf accuracy    <       0.00010850 Ry

     iteration #  6     ecut=    80.00 Ry     beta= 0.70
     Davidson diagonalization with overlap
     ethr =  4.17E-07,  avg # of iterations =  2.0

     negative rho (up, down):  4.518E-04 0.000E+00

     total cpu time spent up to now is        4.1 secs

     total energy              =    -496.69568205 Ry
     estimated scf accuracy    <       0.00000779 Ry

     iteration #  7     ecut=    80.00 Ry     beta= 0.70
     Davidson diagonalization with overlap
     ethr =  2.99E-08,  avg # of iterations =  2.6

     negative rho (up, down):  4.521E-04 0.000E+00

     total cpu time spent up to now is        4.4 secs

     End of self-consistent calculation

          k = 0.0000 0.0000 0.0000 ( 10913 PWs)   bands (ev):

   -60.2391 -34.3899 -34.1406 -34.1406 -13.4749 -12.2556  -4.9946  -1.7914
    -1.7914  -1.3066  -0.6953  -0.6953   0.4374   3.4658   3.4658   3.6322
     3.6322

          k = 0.0000 0.1443 0.0000 ( 10917 PWs)   bands (ev):

   -60.2330 -34.3781 -34.2013 -34.1545 -13.2403 -12.1505  -4.7283  -2.2943
    -1.9749  -1.5495  -1.0478  -0.4443   0.3403   3.0671   3.2426   3.3931
     3.8253

          k = 0.0000 0.2887 0.0000 ( 10895 PWs)   bands (ev):

   -60.2180 -34.3494 -34.3454 -34.1877 -12.6179 -11.8735  -4.3117  -3.1064
    -2.9555  -1.7077  -0.9540  -0.7833  -0.1643   2.6980   3.0032   3.5541
     4.4285

          k = 0.0000 0.4330 0.0000 ( 10840 PWs)   bands (ev):

   -60.2031 -34.4864 -34.3205 -34.2207 -11.8742 -11.5531  -4.7879  -3.8551
    -3.2853  -2.2209  -1.2273  -0.3885  -0.3217   2.9149   3.0782   4.2190
     4.7900

          k = 0.0000-0.5774 0.0000 ( 10778 PWs)   bands (ev):

   -60.1968 -34.5440 -34.3085 -34.2342 -11.5074 -11.4030  -5.1712  -4.2386
    -3.4224  -2.4067  -1.3732  -0.1900  -0.0266   3.0108   3.4621   4.4704
     4.8899

          k = 0.1250 0.2165 0.0000 ( 10881 PWs)   bands (ev):

   -60.2224 -34.3578 -34.2969 -34.1848 -12.8104 -11.9579  -4.3403  -2.9178
    -2.5325  -1.9341  -1.2160  -0.3263   0.0310   2.6220   3.1066   3.1599
     4.4066

          k = 0.1250 0.3608 0.0000 ( 10874 PWs)   bands (ev):

   -60.2075 -34.4246 -34.3290 -34.2326 -12.1143 -11.6483  -4.3896  -3.4597
    -3.1373  -2.5213  -1.2272  -0.7220  -0.1411   2.5650   3.1872   3.6039
     4.8745

          k = 0.1250 0.5052 0.0000 ( 10817 PWs)   bands (ev):

   -60.1968 -34.5128 -34.3085 -34.2669 -11.5240 -11.3927  -4.8639  -4.2570
    -3.2815  -2.5201  -1.2511  -1.2376   0.2002   2.9385   3.4970   4.1770
     4.8776

          k = 0.2500 0.4330 0.0000 ( 10836 PWs)   bands (ev):

   -60.1968 -34.4696 -34.3115 -34.3085 -11.5402 -11.3824  -4.4716  -4.2691
    -2.9367  -2.6532  -2.2611  -1.0879   0.1684   2.8115   3.5654   3.6513
     5.2223

          k = 0.2500 0.5774 0.0000 ( 10840 PWs)   bands (ev):

   -60.1924 -34.4742 -34.3583 -34.3001 -11.2751 -11.2557  -4.6707  -4.3430
    -3.2406  -2.5653  -2.4124  -1.5039   0.5332   2.6437   3.6509   4.0144
     5.4138

     the Fermi energy is     1.5026 ev

!    total energy              =    -496.69568481 Ry
     total all-electron energy =     -9695.025899 Ry
     estimated scf accuracy    <       0.00000089 Ry
     smearing contrib. (-TS)   =      -0.00000156 Ry
     internal energy E=F+TS    =    -496.69568325 Ry

     The total energy is F=E-TS. E is the sum of the following terms:
     one-electron contribution =    -752.83721460 Ry
     hartree contribution      =     380.44839999 Ry
     xc contribution           =     -29.69276597 Ry
     ewald contribution        =     225.01862791 Ry
     one-center paw contrib.   =    -319.63273058 Ry

     convergence has been achieved in   7 iterations

     negative rho (up, down):  4.521E-04 0.000E+00

     Forces acting on atoms (cartesian axes, Ry/au):

     atom    1 type  1   force =     0.00000000   -0.00000000    0.00000000
     atom    2 type  2   force =    -0.00000000    0.00000000   -0.01400216
     atom    3 type  2   force =    -0.00000000    0.00000000    0.01400216
     The non-local contrib.  to forces
     atom    1 type  1   force =     0.00000000    0.00000000    0.00000000
     atom    2 type  2   force =     0.00000000    0.00000000   -0.27238811
     atom    3 type  2   force =     0.00000000    0.00000000    0.27238811
     The ionic contribution  to forces
     atom    1 type  1   force =     0.00000000   -0.00000000    0.00000000
     atom    2 type  2   force =    -0.00000000    0.00000000   33.70312087
     atom    3 type  2   force =    -0.00000000    0.00000000  -33.70312087
     The local contribution  to forces
     atom    1 type  1   force =    -0.00000000   -0.00000000    0.00000000
     atom    2 type  2   force =    -0.00000000    0.00000000  -33.44643019
     atom    3 type  2   force =    -0.00000000    0.00000000   33.44643019
     The core correction contribution to forces
     atom    1 type  1   force =    -0.00000000    0.00000000   -0.00000000
     atom    2 type  2   force =     0.00000000   -0.00000000    0.00237724
     atom    3 type  2   force =     0.00000000   -0.00000000   -0.00237724
     The Hubbard contrib.    to forces
     atom    1 type  1   force =     0.00000000    0.00000000    0.00000000
     atom    2 type  2   force =     0.00000000    0.00000000    0.00000000
     atom    3 type  2   force =     0.00000000    0.00000000    0.00000000
     The SCF correction term to forces
     atom    1 type  1   force =    -0.00000000   -0.00000000   -0.00000000
     atom    2 type  2   force =    -0.00000000   -0.00000000   -0.00068196
     atom    3 type  2   force =    -0.00000000   -0.00000000    0.00068196

     Total force =     0.019802     Total SCF correction =     0.000964


     Computing stress (Cartesian axis) and pressure


     negative rho (up, down):  4.521E-04 0.000E+00
          total   stress  (Ry/bohr**3)                   (kbar)     P=        0.74
   0.00005396   0.00000000   0.00000000            7.94        0.00        0.00
   0.00000000   0.00005396   0.00000000            0.00        7.94        0.00
   0.00000000   0.00000000  -0.00009283            0.00        0.00      -13.66


     Writing all to output data dir ./tmp/scf.save/
 
     init_run     :      0.48s CPU      0.54s WALL (       1 calls)
     electrons    :      3.06s CPU      3.40s WALL (       1 calls)
     forces       :      0.18s CPU      0.18s WALL (       1 calls)
     stress       :      0.45s CPU      0.46s WALL (       1 calls)

     Called by init_run:
     wfcinit      :      0.06s CPU      0.07s WALL (       1 calls)
     potinit      :      0.14s CPU      0.14s WALL (       1 calls)
     hinit0       :      0.20s CPU      0.23s WALL (       1 calls)

     Called by electrons:
     c_bands      :      1.73s CPU      1.92s WALL (       8 calls)
     sum_band     :      0.53s CPU      0.66s WALL (       8 calls)
     v_of_rho     :      0.05s CPU      0.06s WALL (       8 calls)
     newd         :      0.28s CPU      0.30s WALL (       8 calls)
     PAW_pot      :      0.57s CPU      0.58s WALL (       8 calls)
     mix_rho      :      0.01s CPU      0.01s WALL (       8 calls)

     Called by c_bands:
     init_us_2    :      0.03s CPU      0.04s WALL (     190 calls)
     init_us_2:cp :      0.03s CPU      0.04s WALL (     190 calls)
     cegterg      :      1.20s CPU      1.38s WALL (      80 calls)

     Called by *egterg:
     cdiaghg      :      0.07s CPU      0.08s WALL (     282 calls)
     h_psi        :      0.96s CPU      1.12s WALL (     302 calls)
     s_psi        :      0.02s CPU      0.02s WALL (     302 calls)
     g_psi        :      0.00s CPU      0.00s WALL (     212 calls)

     Called by h_psi:
     h_psi:calbec :      0.08s CPU      0.09s WALL (     302 calls)
     vloc_psi     :      0.85s CPU      1.00s WALL (     302 calls)
     add_vuspsi   :      0.02s CPU      0.03s WALL (     302 calls)

     General routines
     calbec       :      0.13s CPU      0.14s WALL (     432 calls)
     fft          :      0.08s CPU      0.11s WALL (     114 calls)
     ffts         :      0.00s CPU      0.00s WALL (       8 calls)
     fftw         :      0.94s CPU      1.10s WALL (    8828 calls)
 
     Parallel routines
 
     PWSCF        :      4.59s CPU      5.15s WALL

 
   This run was terminated on:  13:47:31   6Jun2025            

=------------------------------------------------------------------------------=
   JOB DONE.
=------------------------------------------------------------------------------=
