
     Program PWSCF v.7.2 starts on  6Jun2025 at 13:47:17 

     This program is part of the open-source Quantum ESPRESSO suite
     for quantum simulation of materials; please cite
         "P. Giannozzi et al., J. Phys.:Condens. Matter 21 395502 (2009);
         "P. Giannozzi et al., J. Phys.:Condens. Matter 29 465901 (2017);
         "P. Giannozzi et al., J. Chem. Phys. 152 154105 (2020);
          URL http://www.quantum-espresso.org", 
     in publications or presentations arising from this work. More details at
     http://www.quantum-espresso.org/quote

     Parallel version (MPI), running on    16 processors

     MPI processes distributed on     1 nodes
     39401 MiB available memory on the printing compute node when the environment starts
 
     Waiting for input...
     Reading input from standard input

     Current dimensions of program PWSCF are:
     Max number of different atomic species (ntypx) = 10
     Max number of k-points (npk) =  40000
     Max angular momentum in pseudopotentials (lmaxx) =  4
     file Mo.pbe-spn-kjpaw_psl.1.0.0.UPF: wavefunction(s)  4S 4D renormalized
     file S.pbe-n-kjpaw_psl.1.0.0.UPF: wavefunction(s)  3S 3P renormalized
     Message from routine setup:
     using ibrav=0 with symmetry is DISCOURAGED, use correct ibrav instead
 
     R & G space division:  proc/nbgrp/npool/nimage =      16
     Subspace diagonalization in iterative solution of the eigenvalue problem:
     a serial algorithm will be used

 
     Parallelization info
     --------------------
     sticks:   dense  smooth     PW     G-vecs:    dense   smooth      PW
     Min          48      48     13                 5350     5350     825
     Max          49      49     15                 5365     5365     842
     Sum         769     769    223                85763    85763   13295
 
     Using Slab Decomposition
 


     bravais-lattice index     =            0
     lattice parameter (alat)  =       5.9148  a.u.
     unit-cell volume          =     886.8850 (a.u.)^3
     number of atoms/cell      =            3
     number of atomic types    =            2
     number of electrons       =        26.00
     number of Kohn-Sham states=           17
     kinetic-energy cutoff     =      80.0000  Ry
     charge density cutoff     =     320.0000  Ry
     scf convergence threshold =      1.0E-06
     mixing beta               =       0.7000
     number of iterations used =            8  plain     mixing
     Exchange-correlation= SLA  PW   PBX  PBC
                           (   1   4   3   4   0   0   0)

     celldm(1)=   5.914843  celldm(2)=   0.000000  celldm(3)=   0.000000
     celldm(4)=   0.000000  celldm(5)=   0.000000  celldm(6)=   0.000000

     crystal axes: (cart. coord. in units of alat)
               a(1) = (   1.000000   0.000000   0.000000 )  
               a(2) = (  -0.500000   0.866025   0.000000 )  
               a(3) = (   0.000000   0.000000   4.948882 )  

     reciprocal axes: (cart. coord. in units 2 pi/alat)
               b(1) = (  1.000000  0.577350  0.000000 )  
               b(2) = (  0.000000  1.154701  0.000000 )  
               b(3) = (  0.000000  0.000000  0.202066 )  


     PseudoPot. # 1 for Mo read from file:
     /shared/ESPRESSO/PSLIBRARY/1.0.0/pbe/PSEUDOPOTENTIALS/Mo.pbe-spn-kjpaw_psl.1.0.0.UPF
     MD5 check sum: 4396e0c640fcce5c25f020efccf1ab12
     Pseudo is Projector augmented-wave + core cor, Zval = 14.0
     Generated using &quot;atomic&quot; code by A. Dal Corso  v.6.3
     Shape of augmentation charge: PSQ
     Using radial grid of 1229 points,  6 beta functions with: 
                l(1) =   0
                l(2) =   0
                l(3) =   1
                l(4) =   1
                l(5) =   2
                l(6) =   2
     Q(r) pseudized with 0 coefficients 


     PseudoPot. # 2 for S  read from file:
     /shared/ESPRESSO/PSLIBRARY/1.0.0/pbe/PSEUDOPOTENTIALS/S.pbe-n-kjpaw_psl.1.0.0.UPF
     MD5 check sum: c08f931834bcc19553f8bde8f1a3adc5
     Pseudo is Projector augmented-wave + core cor, Zval =  6.0
     Generated using "atomic" code by A. Dal Corso  (Quantum ESPRESSO distribution)
     Shape of augmentation charge: PSQ
     Using radial grid of 1151 points,  6 beta functions with: 
                l(1) =   0
                l(2) =   0
                l(3) =   1
                l(4) =   1
                l(5) =   2
                l(6) =   2
     Q(r) pseudized with 0 coefficients 


     atomic species   valence    mass     pseudopotential
        Mo            14.00    95.94000     Mo( 1.00)
        S              6.00    32.06500     S ( 1.00)

     12 Sym. Ops. (no inversion) found



   Cartesian axes

     site n.     atom                  positions (alat units)
         1           Mo  tau(   1) = (   0.0000000   0.0000000   2.4744409  )
         2           S   tau(   2) = (   0.5000000   0.2886751   2.9840256  )
         3           S   tau(   3) = (   0.5000000   0.2886751   1.9648562  )

     number of k points=    10  Fermi-Dirac smearing, width (Ry)=  0.0070
                       cart. coord. in units 2pi/alat
        k(    1) = (   0.0000000   0.0000000   0.0000000), wk =   0.0312500
        k(    2) = (   0.0000000   0.1443376   0.0000000), wk =   0.1875000
        k(    3) = (   0.0000000   0.2886751   0.0000000), wk =   0.1875000
        k(    4) = (   0.0000000   0.4330127   0.0000000), wk =   0.1875000
        k(    5) = (   0.0000000  -0.5773503   0.0000000), wk =   0.0937500
        k(    6) = (   0.1250000   0.2165064   0.0000000), wk =   0.1875000
        k(    7) = (   0.1250000   0.3608439   0.0000000), wk =   0.3750000
        k(    8) = (   0.1250000   0.5051815   0.0000000), wk =   0.3750000
        k(    9) = (   0.2500000   0.4330127   0.0000000), wk =   0.1875000
        k(   10) = (   0.2500000   0.5773503   0.0000000), wk =   0.1875000

     Dense  grid:    85763 G-vectors     FFT dimensions: (  36,  36, 180)

     Estimated max dynamical RAM per process >      25.23 MB

     Estimated total dynamical RAM >     403.69 MB

     Initial potential from superposition of free atoms

     starting charge      25.9991, renormalised to      26.0000

     negative rho (up, down):  3.846E-04 0.000E+00
     Starting wfcs are   18 randomized atomic wfcs
     Checking if some PAW data can be deallocated... 

     total cpu time spent up to now is        0.8 secs

     Self-consistent Calculation

     iteration #  1     ecut=    80.00 Ry     beta= 0.70
     Davidson diagonalization with overlap
     ethr =  1.00E-02,  avg # of iterations =  2.3

     Threshold (ethr) on eigenvalues was too large:
     Diagonalizing with lowered threshold

     Davidson diagonalization with overlap
     ethr =  3.45E-04,  avg # of iterations =  3.5

     negative rho (up, down):  4.545E-04 0.000E+00

     total cpu time spent up to now is        1.5 secs

     total energy              =    -496.64011672 Ry
     estimated scf accuracy    <       0.13034704 Ry

     iteration #  2     ecut=    80.00 Ry     beta= 0.70
     Davidson diagonalization with overlap
     ethr =  5.01E-04,  avg # of iterations =  3.0

     negative rho (up, down):  4.267E-04 0.000E+00

     total cpu time spent up to now is        2.0 secs

     total energy              =    -496.58788599 Ry
     estimated scf accuracy    <       0.52872836 Ry

     iteration #  3     ecut=    80.00 Ry     beta= 0.70
     Davidson diagonalization with overlap
     ethr =  5.01E-04,  avg # of iterations =  2.8

     negative rho (up, down):  4.233E-04 0.000E+00

     total cpu time spent up to now is        2.4 secs

     total energy              =    -496.67991843 Ry
     estimated scf accuracy    <       0.10581731 Ry

     iteration #  4     ecut=    80.00 Ry     beta= 0.70
     Davidson diagonalization with overlap
     ethr =  4.07E-04,  avg # of iterations =  1.3

     negative rho (up, down):  4.480E-04 0.000E+00

     total cpu time spent up to now is        2.7 secs

     total energy              =    -496.69441771 Ry
     estimated scf accuracy    <       0.00064547 Ry

     iteration #  5     ecut=    80.00 Ry     beta= 0.70
     Davidson diagonalization with overlap
     ethr =  2.48E-06,  avg # of iterations =  4.0

     negative rho (up, down):  4.516E-04 0.000E+00

     total cpu time spent up to now is        3.2 secs

     total energy              =    -496.69472173 Ry
     estimated scf accuracy    <       0.00011490 Ry

     iteration #  6     ecut=    80.00 Ry     beta= 0.70
     Davidson diagonalization with overlap
     ethr =  4.42E-07,  avg # of iterations =  2.0

     negative rho (up, down):  4.549E-04 0.000E+00

     total cpu time spent up to now is        3.6 secs

     total energy              =    -496.69473357 Ry
     estimated scf accuracy    <       0.00000718 Ry

     iteration #  7     ecut=    80.00 Ry     beta= 0.70
     Davidson diagonalization with overlap
     ethr =  2.76E-08,  avg # of iterations =  3.2

     negative rho (up, down):  4.551E-04 0.000E+00

     total cpu time spent up to now is        4.1 secs

     total energy              =    -496.69473700 Ry
     estimated scf accuracy    <       0.00000155 Ry

     iteration #  8     ecut=    80.00 Ry     beta= 0.70
     Davidson diagonalization with overlap
     ethr =  5.97E-09,  avg # of iterations =  1.9

     negative rho (up, down):  4.549E-04 0.000E+00

     total cpu time spent up to now is        4.5 secs

     End of self-consistent calculation

          k = 0.0000 0.0000 0.0000 ( 10781 PWs)   bands (ev):

   -60.1252 -34.2916 -34.0183 -34.0183 -13.4635 -12.2302  -4.9757  -1.6998
    -1.6998  -1.2720  -0.5825  -0.5825   0.4761   3.6119   3.6119   3.7774
     3.7774

          k = 0.0000 0.1443 0.0000 ( 10747 PWs)   bands (ev):

   -60.1184 -34.2788 -34.0832 -34.0331 -13.2223 -12.1220  -4.7032  -2.2117
    -1.9292  -1.4507  -0.9439  -0.3548   0.3892   3.1845   3.3826   3.5315
     3.9778

          k = 0.0000 0.2887 0.0000 ( 10729 PWs)   bands (ev):

   -60.1022 -34.2479 -34.2374 -34.0685 -12.5811 -11.8363  -4.2804  -3.0339
    -2.9206  -1.6184  -0.8387  -0.7154  -0.1060   2.7885   3.1359   3.6931
     4.5855

          k = 0.0000 0.4330 0.0000 ( 10696 PWs)   bands (ev):

   -60.0858 -34.3881 -34.2168 -34.1037 -11.8113 -11.5048  -4.7667  -3.8353
    -3.2299  -2.1419  -1.1751  -0.2630  -0.2568   3.0623   3.1949   4.3541
     4.9428

          k = 0.0000-0.5774 0.0000 ( 10670 PWs)   bands (ev):

   -60.0791 -34.4495 -34.2038 -34.1182 -11.4291 -11.3490  -5.1609  -4.2266
    -3.3820  -2.3313  -1.3258  -0.0646   0.0492   3.1745   3.6124   4.5962
     5.0395

          k = 0.1250 0.2165 0.0000 ( 10747 PWs)   bands (ev):

   -60.1069 -34.2570 -34.1855 -34.0654 -12.7796 -11.9234  -4.3078  -2.8439
    -2.4924  -1.8568  -1.1093  -0.2367   0.0927   2.7149   3.2346   3.2946
     4.5636

          k = 0.1250 0.3608 0.0000 ( 10712 PWs)   bands (ev):

   -60.0906 -34.3220 -34.2259 -34.1165 -12.0605 -11.6033  -4.3603  -3.4258
    -3.0658  -2.4701  -1.1456  -0.6449  -0.0529   2.6566   3.3341   3.7353
     5.0280

          k = 0.1250 0.5052 0.0000 ( 10698 PWs)   bands (ev):

   -60.0791 -34.4162 -34.2039 -34.1532 -11.4467 -11.3379  -4.8476  -4.2406
    -3.2318  -2.4638  -1.1937  -1.1525   0.2949   3.0762   3.6604   4.3000
     5.0245

          k = 0.2500 0.4330 0.0000 ( 10724 PWs)   bands (ev):

   -60.0791 -34.3701 -34.2039 -34.2010 -11.4638 -11.3268  -4.4482  -4.2477
    -2.8635  -2.6148  -2.2058  -1.0200   0.2577   2.9286   3.7378   3.7554
     5.3934

          k = 0.2500 0.5774 0.0000 ( 10692 PWs)   bands (ev):

   -60.0743 -34.3748 -34.2510 -34.1948 -11.1944 -11.1868  -4.6605  -4.3221
    -3.1945  -2.4967  -2.3660  -1.4488   0.6256   2.8006   3.7373   4.1669
     5.6026

     the Fermi energy is     1.5958 ev

!    total energy              =    -496.69473688 Ry
     total all-electron energy =     -9695.024951 Ry
     estimated scf accuracy    <       0.00000029 Ry
     smearing contrib. (-TS)   =      -0.00000145 Ry
     internal energy E=F+TS    =    -496.69473543 Ry

     The total energy is F=E-TS. E is the sum of the following terms:
     one-electron contribution =    -761.38496277 Ry
     hartree contribution      =     384.81150022 Ry
     xc contribution           =     -29.72243433 Ry
     ewald contribution        =     229.23640086 Ry
     one-center paw contrib.   =    -319.63523940 Ry

     convergence has been achieved in   8 iterations

     negative rho (up, down):  4.549E-04 0.000E+00

     Forces acting on atoms (cartesian axes, Ry/au):

     atom    1 type  1   force =     0.00000000    0.00000000    0.00000000
     atom    2 type  2   force =     0.00000000    0.00000000   -0.00882691
     atom    3 type  2   force =     0.00000000    0.00000000    0.00882691
     The non-local contrib.  to forces
     atom    1 type  1   force =     0.00000000   -0.00000000    0.00000000
     atom    2 type  2   force =     0.00000000    0.00000000   -0.26850870
     atom    3 type  2   force =     0.00000000    0.00000000    0.26850870
     The ionic contribution  to forces
     atom    1 type  1   force =     0.00000000   -0.00000000    0.00000000
     atom    2 type  2   force =    -0.00000000    0.00000000   34.18332555
     atom    3 type  2   force =    -0.00000000    0.00000000  -34.18332555
     The local contribution  to forces
     atom    1 type  1   force =     0.00000000   -0.00000000    0.00000000
     atom    2 type  2   force =    -0.00000000    0.00000000  -33.92500594
     atom    3 type  2   force =    -0.00000000    0.00000000   33.92500594
     The core correction contribution to forces
     atom    1 type  1   force =    -0.00000000   -0.00000000   -0.00000000
     atom    2 type  2   force =     0.00000000   -0.00000000    0.00215724
     atom    3 type  2   force =     0.00000000   -0.00000000   -0.00215724
     The Hubbard contrib.    to forces
     atom    1 type  1   force =     0.00000000    0.00000000    0.00000000
     atom    2 type  2   force =     0.00000000    0.00000000    0.00000000
     atom    3 type  2   force =     0.00000000    0.00000000    0.00000000
     The SCF correction term to forces
     atom    1 type  1   force =    -0.00000000   -0.00000000   -0.00000000
     atom    2 type  2   force =    -0.00000000   -0.00000000   -0.00079505
     atom    3 type  2   force =    -0.00000000    0.00000000    0.00079505

     Total force =     0.012483     Total SCF correction =     0.001124


     Computing stress (Cartesian axis) and pressure


     negative rho (up, down):  4.549E-04 0.000E+00
          total   stress  (Ry/bohr**3)                   (kbar)     P=        8.21
   0.00011463  -0.00000000  -0.00000000           16.86       -0.00       -0.00
  -0.00000000   0.00011463   0.00000000           -0.00       16.86        0.00
  -0.00000000  -0.00000000  -0.00006191           -0.00       -0.00       -9.11


     Writing all to output data dir ./tmp/scf.save/
 
     init_run     :      0.40s CPU      0.50s WALL (       1 calls)
     electrons    :      3.48s CPU      3.69s WALL (       1 calls)
     forces       :      0.18s CPU      0.18s WALL (       1 calls)
     stress       :      0.62s CPU      0.65s WALL (       1 calls)

     Called by init_run:
     wfcinit      :      0.05s CPU      0.06s WALL (       1 calls)
     potinit      :      0.12s CPU      0.15s WALL (       1 calls)
     hinit0       :      0.16s CPU      0.20s WALL (       1 calls)

     Called by electrons:
     c_bands      :      1.96s CPU      2.08s WALL (       9 calls)
     sum_band     :      0.62s CPU      0.69s WALL (       9 calls)
     v_of_rho     :      0.06s CPU      0.06s WALL (       9 calls)
     newd         :      0.32s CPU      0.33s WALL (       9 calls)
     PAW_pot      :      0.61s CPU      0.65s WALL (       9 calls)
     mix_rho      :      0.01s CPU      0.01s WALL (       9 calls)

     Called by c_bands:
     init_us_2    :      0.05s CPU      0.05s WALL (     210 calls)
     init_us_2:cp :      0.05s CPU      0.05s WALL (     210 calls)
     cegterg      :      1.37s CPU      1.48s WALL (      90 calls)

     Called by *egterg:
     cdiaghg      :      0.10s CPU      0.11s WALL (     320 calls)
     h_psi        :      1.08s CPU      1.18s WALL (     340 calls)
     s_psi        :      0.03s CPU      0.03s WALL (     340 calls)
     g_psi        :      0.00s CPU      0.00s WALL (     240 calls)

     Called by h_psi:
     h_psi:calbec :      0.09s CPU      0.09s WALL (     340 calls)
     vloc_psi     :      0.95s CPU      1.04s WALL (     340 calls)
     add_vuspsi   :      0.03s CPU      0.04s WALL (     340 calls)

     General routines
     calbec       :      0.23s CPU      0.25s WALL (     480 calls)
     fft          :      0.06s CPU      0.10s WALL (     125 calls)
     ffts         :      0.00s CPU      0.00s WALL (       9 calls)
     fftw         :      0.98s CPU      1.08s WALL (    9784 calls)
 
     Parallel routines
 
     PWSCF        :      4.94s CPU      5.36s WALL

 
   This run was terminated on:  13:47:22   6Jun2025            

=------------------------------------------------------------------------------=
   JOB DONE.
=------------------------------------------------------------------------------=
