
     Program PWSCF v.7.2 starts on  6Jun2025 at 13:47:49 

     This program is part of the open-source Quantum ESPRESSO suite
     for quantum simulation of materials; please cite
         "P. Giannozzi et al., J. Phys.:Condens. Matter 21 395502 (2009);
         "P. Giannozzi et al., J. Phys.:Condens. Matter 29 465901 (2017);
         "P. Giannozzi et al., J. Chem. Phys. 152 154105 (2020);
          URL http://www.quantum-espresso.org", 
     in publications or presentations arising from this work. More details at
     http://www.quantum-espresso.org/quote

     Parallel version (MPI), running on    16 processors

     MPI processes distributed on     1 nodes
     39835 MiB available memory on the printing compute node when the environment starts
 
     Waiting for input...
     Reading input from standard input

     Current dimensions of program PWSCF are:
     Max number of different atomic species (ntypx) = 10
     Max number of k-points (npk) =  40000
     Max angular momentum in pseudopotentials (lmaxx) =  4
     file Mo.pbe-spn-kjpaw_psl.1.0.0.UPF: wavefunction(s)  4S 4D renormalized
     file S.pbe-n-kjpaw_psl.1.0.0.UPF: wavefunction(s)  3S 3P renormalized
     Message from routine setup:
     using ibrav=0 with symmetry is DISCOURAGED, use correct ibrav instead
 
     R & G space division:  proc/nbgrp/npool/nimage =      16
     Subspace diagonalization in iterative solution of the eigenvalue problem:
     a serial algorithm will be used

 
     Parallelization info
     --------------------
     sticks:   dense  smooth     PW     G-vecs:    dense   smooth      PW
     Min          50      50     14                 5588     5588     860
     Max          51      51     15                 5609     5609     871
     Sum         805     805    235                89543    89543   13811
 
     Using Slab Decomposition
 


     bravais-lattice index     =            0
     lattice parameter (alat)  =       6.0471  a.u.
     unit-cell volume          =     926.9976 (a.u.)^3
     number of atoms/cell      =            3
     number of atomic types    =            2
     number of electrons       =        26.00
     number of Kohn-Sham states=           17
     kinetic-energy cutoff     =      80.0000  Ry
     charge density cutoff     =     320.0000  Ry
     scf convergence threshold =      1.0E-06
     mixing beta               =       0.7000
     number of iterations used =            8  plain     mixing
     Exchange-correlation= SLA  PW   PBX  PBC
                           (   1   4   3   4   0   0   0)

     celldm(1)=   6.047124  celldm(2)=   0.000000  celldm(3)=   0.000000
     celldm(4)=   0.000000  celldm(5)=   0.000000  celldm(6)=   0.000000

     crystal axes: (cart. coord. in units of alat)
               a(1) = (   1.000000   0.000000   0.000000 )  
               a(2) = (  -0.500000   0.866025   0.000000 )  
               a(3) = (   0.000000   0.000000   4.840625 )  

     reciprocal axes: (cart. coord. in units 2 pi/alat)
               b(1) = (  1.000000  0.577350  0.000000 )  
               b(2) = (  0.000000  1.154701  0.000000 )  
               b(3) = (  0.000000  0.000000  0.206585 )  


     PseudoPot. # 1 for Mo read from file:
     /shared/ESPRESSO/PSLIBRARY/1.0.0/pbe/PSEUDOPOTENTIALS/Mo.pbe-spn-kjpaw_psl.1.0.0.UPF
     MD5 check sum: 4396e0c640fcce5c25f020efccf1ab12
     Pseudo is Projector augmented-wave + core cor, Zval = 14.0
     Generated using &quot;atomic&quot; code by A. Dal Corso  v.6.3
     Shape of augmentation charge: PSQ
     Using radial grid of 1229 points,  6 beta functions with: 
                l(1) =   0
                l(2) =   0
                l(3) =   1
                l(4) =   1
                l(5) =   2
                l(6) =   2
     Q(r) pseudized with 0 coefficients 


     PseudoPot. # 2 for S  read from file:
     /shared/ESPRESSO/PSLIBRARY/1.0.0/pbe/PSEUDOPOTENTIALS/S.pbe-n-kjpaw_psl.1.0.0.UPF
     MD5 check sum: c08f931834bcc19553f8bde8f1a3adc5
     Pseudo is Projector augmented-wave + core cor, Zval =  6.0
     Generated using "atomic" code by A. Dal Corso  (Quantum ESPRESSO distribution)
     Shape of augmentation charge: PSQ
     Using radial grid of 1151 points,  6 beta functions with: 
                l(1) =   0
                l(2) =   0
                l(3) =   1
                l(4) =   1
                l(5) =   2
                l(6) =   2
     Q(r) pseudized with 0 coefficients 


     atomic species   valence    mass     pseudopotential
        Mo            14.00    95.94000     Mo( 1.00)
        S              6.00    32.06500     S ( 1.00)

     12 Sym. Ops. (no inversion) found



   Cartesian axes

     site n.     atom                  positions (alat units)
         1           Mo  tau(   1) = (   0.0000000   0.0000000   2.4203125  )
         2           S   tau(   2) = (   0.5000000   0.2886751   2.9187500  )
         3           S   tau(   3) = (   0.5000000   0.2886751   1.9218750  )

     number of k points=    10  Fermi-Dirac smearing, width (Ry)=  0.0070
                       cart. coord. in units 2pi/alat
        k(    1) = (   0.0000000   0.0000000   0.0000000), wk =   0.0312500
        k(    2) = (   0.0000000   0.1443376   0.0000000), wk =   0.1875000
        k(    3) = (   0.0000000   0.2886751   0.0000000), wk =   0.1875000
        k(    4) = (   0.0000000   0.4330127   0.0000000), wk =   0.1875000
        k(    5) = (   0.0000000  -0.5773503   0.0000000), wk =   0.0937500
        k(    6) = (   0.1250000   0.2165064   0.0000000), wk =   0.1875000
        k(    7) = (   0.1250000   0.3608439   0.0000000), wk =   0.3750000
        k(    8) = (   0.1250000   0.5051815   0.0000000), wk =   0.3750000
        k(    9) = (   0.2500000   0.4330127   0.0000000), wk =   0.1875000
        k(   10) = (   0.2500000   0.5773503   0.0000000), wk =   0.1875000

     Dense  grid:    89543 G-vectors     FFT dimensions: (  36,  36, 180)

     Estimated max dynamical RAM per process >      26.16 MB

     Estimated total dynamical RAM >     418.56 MB

     Initial potential from superposition of free atoms

     starting charge      25.9991, renormalised to      26.0000

     negative rho (up, down):  3.900E-04 0.000E+00
     Starting wfcs are   18 randomized atomic wfcs
     Checking if some PAW data can be deallocated... 

     total cpu time spent up to now is        0.6 secs

     Self-consistent Calculation

     iteration #  1     ecut=    80.00 Ry     beta= 0.70
     Davidson diagonalization with overlap
     ethr =  1.00E-02,  avg # of iterations =  2.3

     Threshold (ethr) on eigenvalues was too large:
     Diagonalizing with lowered threshold

     Davidson diagonalization with overlap
     ethr =  2.64E-04,  avg # of iterations =  3.8

     negative rho (up, down):  4.653E-04 0.000E+00

     total cpu time spent up to now is        1.3 secs

     total energy              =    -496.65709733 Ry
     estimated scf accuracy    <       0.10486796 Ry

     iteration #  2     ecut=    80.00 Ry     beta= 0.70
     Davidson diagonalization with overlap
     ethr =  4.03E-04,  avg # of iterations =  3.0

     negative rho (up, down):  4.474E-04 0.000E+00

     total cpu time spent up to now is        1.6 secs

     total energy              =    -496.63594807 Ry
     estimated scf accuracy    <       0.22669419 Ry

     iteration #  3     ecut=    80.00 Ry     beta= 0.70
     Davidson diagonalization with overlap
     ethr =  4.03E-04,  avg # of iterations =  2.4

     negative rho (up, down):  4.453E-04 0.000E+00

     total cpu time spent up to now is        2.1 secs

     total energy              =    -496.67507621 Ry
     estimated scf accuracy    <       0.15406425 Ry

     iteration #  4     ecut=    80.00 Ry     beta= 0.70
     Davidson diagonalization with overlap
     ethr =  4.03E-04,  avg # of iterations =  1.4

     negative rho (up, down):  4.612E-04 0.000E+00

     total cpu time spent up to now is        2.4 secs

     total energy              =    -496.69487782 Ry
     estimated scf accuracy    <       0.00059354 Ry

     iteration #  5     ecut=    80.00 Ry     beta= 0.70
     Davidson diagonalization with overlap
     ethr =  2.28E-06,  avg # of iterations =  3.6

     negative rho (up, down):  4.636E-04 0.000E+00

     total cpu time spent up to now is        2.9 secs

     total energy              =    -496.69517837 Ry
     estimated scf accuracy    <       0.00012494 Ry

     iteration #  6     ecut=    80.00 Ry     beta= 0.70
     Davidson diagonalization with overlap
     ethr =  4.81E-07,  avg # of iterations =  1.7

     negative rho (up, down):  4.652E-04 0.000E+00

     total cpu time spent up to now is        3.3 secs

     total energy              =    -496.69518719 Ry
     estimated scf accuracy    <       0.00001250 Ry

     iteration #  7     ecut=    80.00 Ry     beta= 0.70
     Davidson diagonalization with overlap
     ethr =  4.81E-08,  avg # of iterations =  2.0

     negative rho (up, down):  4.655E-04 0.000E+00

     total cpu time spent up to now is        3.8 secs

     End of self-consistent calculation

          k = 0.0000 0.0000 0.0000 ( 11201 PWs)   bands (ev):

   -60.5126 -34.6279 -34.4332 -34.4332 -13.5086 -12.3226  -5.0417  -2.0150
    -2.0150  -1.3931  -0.9665  -0.9665   0.3369   3.1127   3.1127   3.2812
     3.2812

          k = 0.0000 0.1443 0.0000 ( 11239 PWs)   bands (ev):

   -60.5077 -34.6180 -34.4844 -34.4450 -13.2900 -12.2252  -4.7901  -2.4958
    -2.0916  -1.7898  -1.2980  -0.6571   0.2154   2.7823   2.9041   3.0577
     3.4567

          k = 0.0000 0.2887 0.0000 ( 11221 PWs)   bands (ev):

   -60.4956 -34.6062 -34.5941 -34.4732 -12.7126 -11.9692  -4.3890  -3.2823
    -3.0439  -1.9229  -1.2330  -0.9472  -0.3081   2.4728   2.6806   3.2155
     4.0479

          k = 0.0000 0.4330 0.0000 ( 11195 PWs)   bands (ev):

   -60.4835 -34.7258 -34.5701 -34.5013 -12.0307 -11.6754  -4.8420  -3.9057
    -3.4214  -2.4114  -1.3547  -0.6927  -0.4790   2.5596   2.7873   3.8847
     4.4182

          k = 0.0000-0.5774 0.0000 ( 11202 PWs)   bands (ev):

   -60.4785 -34.7747 -34.5601 -34.5129 -11.6996 -11.5390  -5.1998  -4.2702
    -3.5244  -2.5886  -1.4896  -0.4949  -0.2087   2.6188   3.0884   4.1548
     4.5251

          k = 0.1250 0.2165 0.0000 ( 11247 PWs)   bands (ev):

   -60.4992 -34.6011 -34.5652 -34.4707 -12.8908 -12.0471  -4.4200  -3.0982
    -2.6348  -2.1201  -1.4753  -0.5412  -0.1212   2.3920   2.7951   2.8339
     4.0252

          k = 0.1250 0.3608 0.0000 ( 11210 PWs)   bands (ev):

   -60.4871 -34.6734 -34.5772 -34.5112 -12.2496 -11.7627  -4.4622  -3.5450
    -3.3103  -2.6471  -1.4325  -0.9074  -0.3497   2.3346   2.8326   3.2825
     4.4988

          k = 0.1250 0.5052 0.0000 ( 11173 PWs)   bands (ev):

   -60.4785 -34.7482 -34.5602 -34.5403 -11.7140 -11.5304  -4.9067  -4.2993
    -3.4050  -2.6583  -1.4462  -1.3906  -0.0287   2.5968   3.1052   3.8718
     4.5161

          k = 0.2500 0.4330 0.0000 ( 11195 PWs)   bands (ev):

   -60.4785 -34.7117 -34.5779 -34.5602 -11.7281 -11.5218  -4.5308  -4.3232
    -3.1143  -2.7495  -2.3981  -1.2521  -0.0502   2.5147   3.1578   3.3917
     4.8060

          k = 0.2500 0.5774 0.0000 ( 11154 PWs)   bands (ev):

   -60.4750 -34.7156 -34.6174 -34.5532 -11.4902 -11.4085  -4.6987  -4.3978
    -3.3567  -2.7298  -2.5278  -1.6374   0.3055   2.2632   3.4342   3.6408
     4.9543

     the Fermi energy is     1.2659 ev

!    total energy              =    -496.69519067 Ry
     total all-electron energy =     -9695.025405 Ry
     estimated scf accuracy    <       0.00000024 Ry
     smearing contrib. (-TS)   =      -0.00000224 Ry
     internal energy E=F+TS    =    -496.69518843 Ry

     The total energy is F=E-TS. E is the sum of the following terms:
     one-electron contribution =    -732.20085185 Ry
     hartree contribution      =     369.90749344 Ry
     xc contribution           =     -29.62091179 Ry
     ewald contribution        =     214.84582769 Ry
     one-center paw contrib.   =    -319.62674592 Ry

     convergence has been achieved in   7 iterations

     negative rho (up, down):  4.655E-04 0.000E+00

     Forces acting on atoms (cartesian axes, Ry/au):

     atom    1 type  1   force =     0.00000000    0.00000000    0.00000000
     atom    2 type  2   force =     0.00000000    0.00000000   -0.02518315
     atom    3 type  2   force =    -0.00000000   -0.00000000    0.02518315
     The non-local contrib.  to forces
     atom    1 type  1   force =     0.00000000    0.00000000    0.00000000
     atom    2 type  2   force =     0.00000000    0.00000000   -0.28134287
     atom    3 type  2   force =     0.00000000    0.00000000    0.28134287
     The ionic contribution  to forces
     atom    1 type  1   force =     0.00000000   -0.00000000    0.00000000
     atom    2 type  2   force =    -0.00000000    0.00000000   32.54184051
     atom    3 type  2   force =    -0.00000000    0.00000000  -32.54184051
     The local contribution  to forces
     atom    1 type  1   force =    -0.00000000   -0.00000000    0.00000000
     atom    2 type  2   force =    -0.00000000    0.00000000  -32.28834871
     atom    3 type  2   force =    -0.00000000    0.00000000   32.28834871
     The core correction contribution to forces
     atom    1 type  1   force =     0.00000000   -0.00000000   -0.00000000
     atom    2 type  2   force =     0.00000000   -0.00000000    0.00289752
     atom    3 type  2   force =     0.00000000   -0.00000000   -0.00289752
     The Hubbard contrib.    to forces
     atom    1 type  1   force =     0.00000000    0.00000000    0.00000000
     atom    2 type  2   force =     0.00000000    0.00000000    0.00000000
     atom    3 type  2   force =     0.00000000    0.00000000    0.00000000
     The SCF correction term to forces
     atom    1 type  1   force =    -0.00000000   -0.00000000   -0.00000000
     atom    2 type  2   force =     0.00000000   -0.00000000   -0.00022961
     atom    3 type  2   force =     0.00000000    0.00000000    0.00022961

     Total force =     0.035614     Total SCF correction =     0.000325


     Computing stress (Cartesian axis) and pressure


     negative rho (up, down):  4.655E-04 0.000E+00
          total   stress  (Ry/bohr**3)                   (kbar)     P=      -16.25
  -0.00008456  -0.00000000  -0.00000000          -12.44       -0.00       -0.00
  -0.00000000  -0.00008456   0.00000000           -0.00      -12.44        0.00
   0.00000000   0.00000000  -0.00016235            0.00        0.00      -23.88


     Writing all to output data dir ./tmp/scf.save/
 
     init_run     :      0.37s CPU      0.47s WALL (       1 calls)
     electrons    :      2.95s CPU      3.17s WALL (       1 calls)
     forces       :      0.18s CPU      0.19s WALL (       1 calls)
     stress       :      0.64s CPU      0.66s WALL (       1 calls)

     Called by init_run:
     wfcinit      :      0.06s CPU      0.06s WALL (       1 calls)
     potinit      :      0.10s CPU      0.12s WALL (       1 calls)
     hinit0       :      0.14s CPU      0.20s WALL (       1 calls)

     Called by electrons:
     c_bands      :      1.68s CPU      1.81s WALL (       8 calls)
     sum_band     :      0.50s CPU      0.57s WALL (       8 calls)
     v_of_rho     :      0.05s CPU      0.05s WALL (       8 calls)
     newd         :      0.28s CPU      0.30s WALL (       8 calls)
     PAW_pot      :      0.50s CPU      0.54s WALL (       8 calls)
     mix_rho      :      0.01s CPU      0.01s WALL (       8 calls)

     Called by c_bands:
     init_us_2    :      0.04s CPU      0.05s WALL (     190 calls)
     init_us_2:cp :      0.04s CPU      0.05s WALL (     190 calls)
     cegterg      :      1.11s CPU      1.24s WALL (      80 calls)

     Called by *egterg:
     cdiaghg      :      0.08s CPU      0.09s WALL (     272 calls)
     h_psi        :      0.89s CPU      1.00s WALL (     292 calls)
     s_psi        :      0.02s CPU      0.03s WALL (     292 calls)
     g_psi        :      0.00s CPU      0.00s WALL (     202 calls)

     Called by h_psi:
     h_psi:calbec :      0.07s CPU      0.07s WALL (     292 calls)
     vloc_psi     :      0.78s CPU      0.88s WALL (     292 calls)
     add_vuspsi   :      0.03s CPU      0.03s WALL (     292 calls)

     General routines
     calbec       :      0.21s CPU      0.22s WALL (     422 calls)
     fft          :      0.04s CPU      0.09s WALL (     114 calls)
     ffts         :      0.00s CPU      0.00s WALL (       8 calls)
     fftw         :      0.81s CPU      0.92s WALL (    8714 calls)
 
     Parallel routines
 
     PWSCF        :      4.31s CPU      4.71s WALL

 
   This run was terminated on:  13:47:53   6Jun2025            

=------------------------------------------------------------------------------=
   JOB DONE.
=------------------------------------------------------------------------------=
