
     Program PWSCF v.7.2 starts on 20Jun2025 at 14:56:46 

     This program is part of the open-source Quantum ESPRESSO suite
     for quantum simulation of materials; please cite
         "P. Giannozzi et al., J. Phys.:Condens. Matter 21 395502 (2009);
         "P. Giannozzi et al., J. Phys.:Condens. Matter 29 465901 (2017);
         "P. Giannozzi et al., J. Chem. Phys. 152 154105 (2020);
          URL http://www.quantum-espresso.org", 
     in publications or presentations arising from this work. More details at
     http://www.quantum-espresso.org/quote

     Parallel version (MPI), running on    16 processors

     MPI processes distributed on     1 nodes
     10951 MiB available memory on the printing compute node when the environment starts
 
     Waiting for input...
     Reading input from standard input

     Current dimensions of program PWSCF are:
     Max number of different atomic species (ntypx) = 10
     Max number of k-points (npk) =  40000
     Max angular momentum in pseudopotentials (lmaxx) =  4
     file Mo.pbe-spn-kjpaw_psl.1.0.0.UPF: wavefunction(s)  4S 4D renormalized
     file S.pbe-n-kjpaw_psl.1.0.0.UPF: wavefunction(s)  3S 3P renormalized
     file Co.pbe-n-kjpaw_psl.1.0.0.UPF: wavefunction(s)  4S 3D renormalized
     Message from routine setup:
     using ibrav=0 with symmetry is DISCOURAGED, use correct ibrav instead
 
     R & G space division:  proc/nbgrp/npool/nimage =      16
     Subspace diagonalization in iterative solution of the eigenvalue problem:
     a serial algorithm will be used

 
     Parallelization info
     --------------------
     sticks:   dense  smooth     PW     G-vecs:    dense   smooth      PW
     Min          49      49     13                 6439     6439     977
     Max          50      50     14                 6452     6452    1000
     Sum         793     793    223               103119   103119   15843
 
     Using Slab Decomposition
 


     bravais-lattice index     =            0
     lattice parameter (alat)  =       5.9876  a.u.
     unit-cell volume          =    1067.2529 (a.u.)^3
     number of atoms/cell      =            4
     number of atomic types    =            3
     number of electrons       =        35.00
     number of Kohn-Sham states=           22
     kinetic-energy cutoff     =      80.0000  Ry
     charge density cutoff     =     320.0000  Ry
     scf convergence threshold =      1.0E-06
     mixing beta               =       0.7000
     number of iterations used =            8  plain     mixing
     energy convergence thresh.=      1.0E-04
     force convergence thresh. =      1.0E-03
     Exchange-correlation= SLA  PW   PBX  PBC
                           (   1   4   3   4   0   0   0)
     nstep                     =          100


     celldm(1)=   5.987597  celldm(2)=   0.000000  celldm(3)=   0.000000
     celldm(4)=   0.000000  celldm(5)=   0.000000  celldm(6)=   0.000000

     crystal axes: (cart. coord. in units of alat)
               a(1) = (   1.000000   0.000000   0.000000 )  
               a(2) = (  -0.500000   0.866025   0.000000 )  
               a(3) = (   0.000000   0.000000   5.740887 )  

     reciprocal axes: (cart. coord. in units 2 pi/alat)
               b(1) = (  1.000000  0.577350  0.000000 )  
               b(2) = (  0.000000  1.154701  0.000000 )  
               b(3) = (  0.000000  0.000000  0.174189 )  


     PseudoPot. # 1 for Mo read from file:
     /shared/ESPRESSO/PSLIBRARY/1.0.0/pbe/PSEUDOPOTENTIALS/Mo.pbe-spn-kjpaw_psl.1.0.0.UPF
     MD5 check sum: 4396e0c640fcce5c25f020efccf1ab12
     Pseudo is Projector augmented-wave + core cor, Zval = 14.0
     Generated using &quot;atomic&quot; code by A. Dal Corso  v.6.3
     Shape of augmentation charge: PSQ
     Using radial grid of 1229 points,  6 beta functions with: 
                l(1) =   0
                l(2) =   0
                l(3) =   1
                l(4) =   1
                l(5) =   2
                l(6) =   2
     Q(r) pseudized with 0 coefficients 


     PseudoPot. # 2 for S  read from file:
     /shared/ESPRESSO/PSLIBRARY/1.0.0/pbe/PSEUDOPOTENTIALS/S.pbe-n-kjpaw_psl.1.0.0.UPF
     MD5 check sum: c08f931834bcc19553f8bde8f1a3adc5
     Pseudo is Projector augmented-wave + core cor, Zval =  6.0
     Generated using "atomic" code by A. Dal Corso  (Quantum ESPRESSO distribution)
     Shape of augmentation charge: PSQ
     Using radial grid of 1151 points,  6 beta functions with: 
                l(1) =   0
                l(2) =   0
                l(3) =   1
                l(4) =   1
                l(5) =   2
                l(6) =   2
     Q(r) pseudized with 0 coefficients 


     PseudoPot. # 3 for Co read from file:
     /shared/ESPRESSO/PSLIBRARY/1.0.0/pbe/PSEUDOPOTENTIALS/Co.pbe-n-kjpaw_psl.1.0.0.UPF
     MD5 check sum: 17e7ab8db721b244d1352252ea6cb8e7
     Pseudo is Projector augmented-wave + core cor, Zval =  9.0
     Generated using "atomic" code by A. Dal Corso  (Quantum ESPRESSO distribution)
     Shape of augmentation charge: PSQ
     Using radial grid of 1193 points,  6 beta functions with: 
                l(1) =   0
                l(2) =   0
                l(3) =   1
                l(4) =   1
                l(5) =   2
                l(6) =   2
     Q(r) pseudized with 0 coefficients 


     atomic species   valence    mass     pseudopotential
        Mo            14.00    95.94000     Mo( 1.00)
        S              6.00    32.06500     S ( 1.00)
        Co             9.00    58.93320     Co( 1.00)

     Starting magnetic structure 
     atomic species   magnetization
        Mo           0.000
        S            0.000
        Co           0.800

      6 Sym. Ops. (no inversion) found



   Cartesian axes

     site n.     atom                  positions (alat units)
         1           Mo  tau(   1) = (   0.0000000   0.0000000   2.8704434  )
         2           S   tau(   2) = (   0.5000000   0.2886751   3.3738362  )
         3           S   tau(   3) = (   0.5000000   0.2886751   2.3670507  )
         4           Co  tau(   4) = (   0.0000000   0.0000000   4.0050497  )

     number of k points=    30  Fermi-Dirac smearing, width (Ry)=  0.0070
                       cart. coord. in units 2pi/alat
        k(    1) = (   0.0000000   0.0000000   0.0000000), wk =   0.0039062
        k(    2) = (   0.0000000   0.0721688   0.0000000), wk =   0.0234375
        k(    3) = (   0.0000000   0.1443376   0.0000000), wk =   0.0234375
        k(    4) = (   0.0000000   0.2165064   0.0000000), wk =   0.0234375
        k(    5) = (   0.0000000   0.2886751   0.0000000), wk =   0.0234375
        k(    6) = (   0.0000000   0.3608439   0.0000000), wk =   0.0234375
        k(    7) = (   0.0000000   0.4330127   0.0000000), wk =   0.0234375
        k(    8) = (   0.0000000   0.5051815   0.0000000), wk =   0.0234375
        k(    9) = (   0.0000000  -0.5773503   0.0000000), wk =   0.0117188
        k(   10) = (   0.0625000   0.1082532   0.0000000), wk =   0.0234375
        k(   11) = (   0.0625000   0.1804220   0.0000000), wk =   0.0468750
        k(   12) = (   0.0625000   0.2525907   0.0000000), wk =   0.0468750
        k(   13) = (   0.0625000   0.3247595   0.0000000), wk =   0.0468750
        k(   14) = (   0.0625000   0.3969283   0.0000000), wk =   0.0468750
        k(   15) = (   0.0625000   0.4690971   0.0000000), wk =   0.0468750
        k(   16) = (   0.0625000   0.5412659   0.0000000), wk =   0.0468750
        k(   17) = (   0.1250000   0.2165064   0.0000000), wk =   0.0234375
        k(   18) = (   0.1250000   0.2886751   0.0000000), wk =   0.0468750
        k(   19) = (   0.1250000   0.3608439   0.0000000), wk =   0.0468750
        k(   20) = (   0.1250000   0.4330127   0.0000000), wk =   0.0468750
        k(   21) = (   0.1250000   0.5051815   0.0000000), wk =   0.0468750
        k(   22) = (   0.1250000   0.5773503   0.0000000), wk =   0.0234375
        k(   23) = (   0.1875000   0.3247595   0.0000000), wk =   0.0234375
        k(   24) = (   0.1875000   0.3969283   0.0000000), wk =   0.0468750
        k(   25) = (   0.1875000   0.4690971   0.0000000), wk =   0.0468750
        k(   26) = (   0.1875000   0.5412659   0.0000000), wk =   0.0468750
        k(   27) = (   0.2500000   0.4330127   0.0000000), wk =   0.0234375
        k(   28) = (   0.2500000   0.5051815   0.0000000), wk =   0.0468750
        k(   29) = (   0.2500000   0.5773503   0.0000000), wk =   0.0234375
        k(   30) = (   0.3125000   0.5412659   0.0000000), wk =   0.0234375

     Dense  grid:   103119 G-vectors     FFT dimensions: (  36,  36, 200)

     Estimated max dynamical RAM per process >      48.46 MB

     Estimated total dynamical RAM >     775.40 MB
     Generating pointlists ...
     new r_m :   0.3160 (alat units)  1.8919 (a.u.) for type    1
     new r_m :   0.3160 (alat units)  1.8919 (a.u.) for type    2
     new r_m :   0.3529 (alat units)  2.1128 (a.u.) for type    3

     Initial potential from superposition of free atoms

     starting charge      34.9988, renormalised to      35.0000

     negative rho (up, down):  2.112E-04 1.949E-04
     Starting wfcs are   27 randomized atomic wfcs
     Checking if some PAW data can be deallocated... 

     total cpu time spent up to now is        1.2 secs

     Self-consistent Calculation

     iteration #  1     ecut=    80.00 Ry     beta= 0.70
     Davidson diagonalization with overlap
     ethr =  1.00E-02,  avg # of iterations =  2.1

     negative rho (up, down):  1.344E-04 1.243E-04

     total cpu time spent up to now is        3.1 secs

     total energy              =    -657.24397905 Ry
     estimated scf accuracy    <       1.55772861 Ry

     total magnetization       =     3.23 Bohr mag/cell
     absolute magnetization    =     3.67 Bohr mag/cell

     iteration #  2     ecut=    80.00 Ry     beta= 0.70
     Davidson diagonalization with overlap
     ethr =  4.45E-03,  avg # of iterations =  7.8

     negative rho (up, down):  6.508E-05 5.841E-05

     total cpu time spent up to now is        6.0 secs

     total energy              =    -649.11856103 Ry
     estimated scf accuracy    <     296.80046693 Ry

     total magnetization       =     0.69 Bohr mag/cell
     absolute magnetization    =     0.74 Bohr mag/cell

     iteration #  3     ecut=    80.00 Ry     beta= 0.70
     Davidson diagonalization with overlap
     ethr =  4.45E-03,  avg # of iterations =  8.2

     negative rho (up, down):  6.984E-05 6.360E-05

     total cpu time spent up to now is        9.1 secs

     total energy              =    -658.38016286 Ry
     estimated scf accuracy    <      11.96365852 Ry

     total magnetization       =     0.33 Bohr mag/cell
     absolute magnetization    =     0.51 Bohr mag/cell

     iteration #  4     ecut=    80.00 Ry     beta= 0.70
     Davidson diagonalization with overlap
     ethr =  4.45E-03,  avg # of iterations =  1.5

     negative rho (up, down):  8.062E-05 7.348E-05

     total cpu time spent up to now is       10.8 secs

     total energy              =    -658.45884459 Ry
     estimated scf accuracy    <       1.36936349 Ry

     total magnetization       =     2.06 Bohr mag/cell
     absolute magnetization    =     2.11 Bohr mag/cell

     iteration #  5     ecut=    80.00 Ry     beta= 0.70
     Davidson diagonalization with overlap
     ethr =  3.91E-03,  avg # of iterations =  2.4

     negative rho (up, down):  1.528E-04 1.377E-04

     total cpu time spent up to now is       12.6 secs

     total energy              =    -658.39677501 Ry
     estimated scf accuracy    <       5.42470773 Ry

     total magnetization       =     0.49 Bohr mag/cell
     absolute magnetization    =     0.74 Bohr mag/cell

     iteration #  6     ecut=    80.00 Ry     beta= 0.70
     Davidson diagonalization with overlap
     ethr =  3.91E-03,  avg # of iterations =  1.3

     negative rho (up, down):  1.174E-03 1.027E-03

     total cpu time spent up to now is       14.3 secs

     total energy              =    -658.51497489 Ry
     estimated scf accuracy    <       0.21041058 Ry

     total magnetization       =     2.00 Bohr mag/cell
     absolute magnetization    =     2.14 Bohr mag/cell

     iteration #  7     ecut=    80.00 Ry     beta= 0.70
     Davidson diagonalization with overlap
     ethr =  6.01E-04,  avg # of iterations =  6.1

     negative rho (up, down):  3.291E-03 2.893E-03

     total cpu time spent up to now is       16.5 secs

     total energy              =    -658.54476218 Ry
     estimated scf accuracy    <       0.17215157 Ry

     total magnetization       =     2.10 Bohr mag/cell
     absolute magnetization    =     2.29 Bohr mag/cell

     iteration #  8     ecut=    80.00 Ry     beta= 0.70
     Davidson diagonalization with overlap
     ethr =  4.92E-04,  avg # of iterations =  1.4

     negative rho (up, down):  5.499E-03 4.557E-03

     total cpu time spent up to now is       18.2 secs

     total energy              =    -658.54545640 Ry
     estimated scf accuracy    <       0.04262338 Ry

     total magnetization       =     2.08 Bohr mag/cell
     absolute magnetization    =     2.27 Bohr mag/cell

     iteration #  9     ecut=    80.00 Ry     beta= 0.70
     Davidson diagonalization with overlap
     ethr =  1.22E-04,  avg # of iterations =  4.1

     negative rho (up, down):  2.944E-03 2.363E-03

     total cpu time spent up to now is       20.2 secs

     total energy              =    -658.54995733 Ry
     estimated scf accuracy    <       0.02024995 Ry

     total magnetization       =     2.12 Bohr mag/cell
     absolute magnetization    =     2.32 Bohr mag/cell

     iteration # 10     ecut=    80.00 Ry     beta= 0.70
     Davidson diagonalization with overlap
     ethr =  5.79E-05,  avg # of iterations =  1.6

     negative rho (up, down):  5.548E-04 4.469E-04

     total cpu time spent up to now is       21.9 secs

     total energy              =    -658.54924006 Ry
     estimated scf accuracy    <       0.01317428 Ry

     total magnetization       =     2.10 Bohr mag/cell
     absolute magnetization    =     2.30 Bohr mag/cell

     iteration # 11     ecut=    80.00 Ry     beta= 0.70
     Davidson diagonalization with overlap
     ethr =  3.76E-05,  avg # of iterations =  2.1

     negative rho (up, down):  2.801E-04 2.480E-04

     total cpu time spent up to now is       23.6 secs

     total energy              =    -658.55026212 Ry
     estimated scf accuracy    <       0.00139183 Ry

     total magnetization       =     2.07 Bohr mag/cell
     absolute magnetization    =     2.25 Bohr mag/cell

     iteration # 12     ecut=    80.00 Ry     beta= 0.70
     Davidson diagonalization with overlap
     ethr =  3.98E-06,  avg # of iterations =  5.7

     negative rho (up, down):  2.719E-04 2.433E-04

     total cpu time spent up to now is       25.8 secs

     total energy              =    -658.55059052 Ry
     estimated scf accuracy    <       0.00118472 Ry

     total magnetization       =     2.07 Bohr mag/cell
     absolute magnetization    =     2.25 Bohr mag/cell

     iteration # 13     ecut=    80.00 Ry     beta= 0.70
     Davidson diagonalization with overlap
     ethr =  3.38E-06,  avg # of iterations =  1.3

     negative rho (up, down):  2.542E-04 2.326E-04

     total cpu time spent up to now is       27.5 secs

     total energy              =    -658.55090972 Ry
     estimated scf accuracy    <       0.00030936 Ry

     total magnetization       =     2.07 Bohr mag/cell
     absolute magnetization    =     2.24 Bohr mag/cell

     iteration # 14     ecut=    80.00 Ry     beta= 0.70
     Davidson diagonalization with overlap
     ethr =  8.84E-07,  avg # of iterations =  3.2

     negative rho (up, down):  2.215E-04 2.092E-04

     total cpu time spent up to now is       29.6 secs

     total energy              =    -658.55108587 Ry
     estimated scf accuracy    <       0.00049639 Ry

     total magnetization       =     2.09 Bohr mag/cell
     absolute magnetization    =     2.25 Bohr mag/cell

     iteration # 15     ecut=    80.00 Ry     beta= 0.70
     Davidson diagonalization with overlap
     ethr =  8.84E-07,  avg # of iterations =  3.7

     negative rho (up, down):  2.293E-04 2.169E-04

     total cpu time spent up to now is       31.6 secs

     total energy              =    -658.55153903 Ry
     estimated scf accuracy    <       0.00044166 Ry

     total magnetization       =     2.10 Bohr mag/cell
     absolute magnetization    =     2.26 Bohr mag/cell

     iteration # 16     ecut=    80.00 Ry     beta= 0.70
     Davidson diagonalization with overlap
     ethr =  8.84E-07,  avg # of iterations =  3.1

     negative rho (up, down):  2.312E-04 2.200E-04

     total cpu time spent up to now is       33.6 secs

     total energy              =    -658.55184905 Ry
     estimated scf accuracy    <       0.00031983 Ry

     total magnetization       =     2.09 Bohr mag/cell
     absolute magnetization    =     2.25 Bohr mag/cell

     iteration # 17     ecut=    80.00 Ry     beta= 0.70
     Davidson diagonalization with overlap
     ethr =  8.84E-07,  avg # of iterations =  1.4

     negative rho (up, down):  2.321E-04 2.235E-04

     total cpu time spent up to now is       35.3 secs

     total energy              =    -658.55155833 Ry
     estimated scf accuracy    <       0.00042750 Ry

     total magnetization       =     2.10 Bohr mag/cell
     absolute magnetization    =     2.25 Bohr mag/cell

     iteration # 18     ecut=    80.00 Ry     beta= 0.70
     Davidson diagonalization with overlap
     ethr =  8.84E-07,  avg # of iterations =  3.1

     negative rho (up, down):  2.278E-04 2.175E-04

     total cpu time spent up to now is       37.2 secs

     total energy              =    -658.55195434 Ry
     estimated scf accuracy    <       0.00001856 Ry

     total magnetization       =     2.10 Bohr mag/cell
     absolute magnetization    =     2.25 Bohr mag/cell

     iteration # 19     ecut=    80.00 Ry     beta= 0.70
     Davidson diagonalization with overlap
     ethr =  5.30E-08,  avg # of iterations =  5.0

     negative rho (up, down):  2.290E-04 2.197E-04

     total cpu time spent up to now is       39.4 secs

     total energy              =    -658.55202838 Ry
     estimated scf accuracy    <       0.00002489 Ry

     total magnetization       =     2.10 Bohr mag/cell
     absolute magnetization    =     2.25 Bohr mag/cell

     iteration # 20     ecut=    80.00 Ry     beta= 0.70
     Davidson diagonalization with overlap
     ethr =  5.30E-08,  avg # of iterations =  2.9

     negative rho (up, down):  2.271E-04 2.180E-04

     total cpu time spent up to now is       41.3 secs

     total energy              =    -658.55205824 Ry
     estimated scf accuracy    <       0.00000294 Ry

     total magnetization       =     2.10 Bohr mag/cell
     absolute magnetization    =     2.25 Bohr mag/cell

     iteration # 21     ecut=    80.00 Ry     beta= 0.70
     Davidson diagonalization with overlap
     ethr =  8.40E-09,  avg # of iterations =  3.9

     negative rho (up, down):  2.253E-04 2.163E-04
 
     Magnetic moment per site  (integrated on atomic sphere of radius R)
     atom   1 (R=0.316)  charge= 10.8094  magn=  0.0095
     atom   2 (R=0.316)  charge=  4.2168  magn=  0.0391
     atom   3 (R=0.316)  charge=  4.1750  magn=  0.0021
     atom   4 (R=0.353)  charge=  7.5712  magn=  2.0508

     total cpu time spent up to now is       43.2 secs

     End of self-consistent calculation

 ------ SPIN UP ------------


          k = 0.0000 0.0000 0.0000 ( 12991 PWs)   bands (ev):

   -59.7471 -33.9441 -33.6527 -33.6527 -13.4340 -12.0558  -5.2419  -2.3564
    -1.4999  -1.4999  -0.7891  -0.5225  -0.5225   0.0471   0.0471   0.4191
     0.6307   0.6307   1.3755   3.5738   3.5738   3.9428

          k = 0.0000 0.0722 0.0000 ( 12961 PWs)   bands (ev):

   -59.7456 -33.9412 -33.6678 -33.6561 -13.3780 -12.0246  -5.1785  -2.3503
    -1.6558  -1.4524  -0.9288  -0.5981  -0.4712   0.0348   0.0544   0.4275
     0.6017   0.6267   1.4465   3.4518   3.6118   3.7933

          k = 0.0000 0.1443 0.0000 ( 12937 PWs)   bands (ev):

   -59.7414 -33.9328 -33.7104 -33.6659 -13.2150 -11.9332  -5.0022  -2.3815
    -2.0520  -1.3387  -1.1431  -0.7843  -0.4698   0.0119   0.0931   0.3847
     0.5594   0.6176   1.5691   3.2235   3.5653   3.5661

          k = 0.0000 0.2165 0.0000 ( 12929 PWs)   bands (ev):

   -59.7350 -33.9203 -33.7738 -33.6804 -12.9601 -11.7883  -4.7598  -2.6788
    -2.4348  -1.3375  -1.2871  -0.8655  -0.5355  -0.0184   0.1710   0.3090
     0.4550   0.6123   1.6131   3.1147   3.4139   3.5878

          k = 0.0000 0.2887 0.0000 ( 12917 PWs)   bands (ev):

   -59.7275 -33.9055 -33.8477 -33.6975 -12.6397 -11.6019  -4.5517  -3.2184
    -2.7304  -1.5755  -1.3839  -0.6953  -0.5758  -0.0778   0.1666   0.2750
     0.3921   0.6258   1.6678   3.2239   3.2803   3.8714

          k = 0.0000 0.3608 0.0000 ( 12903 PWs)   bands (ev):

   -59.7199 -33.9208 -33.8906 -33.7145 -12.2937 -11.3922  -4.5497  -3.6718
    -3.0298  -1.8382  -1.5074  -0.5731  -0.5038  -0.1405   0.0496   0.3877
     0.4279   0.6708   1.9240   3.2273   3.4727   4.2429

          k = 0.0000 0.4330 0.0000 ( 12893 PWs)   bands (ev):

   -59.7135 -33.9820 -33.8780 -33.7289 -11.9771 -11.1871  -4.8164  -3.9608
    -3.2433  -2.0483  -1.6475  -0.5728  -0.3800  -0.0904   0.0284   0.4904
     0.4957   0.7366   2.4063   3.2681   3.7701   4.5477

          k = 0.0000 0.5052 0.0000 ( 12870 PWs)   bands (ev):

   -59.7092 -34.0227 -33.8696 -33.7385 -11.7533 -11.0278  -5.1076  -4.1527
    -3.3637  -2.1811  -1.7515  -0.5799  -0.3237  -0.0203   0.0900   0.5635
     0.5881   0.7903   2.9960   3.3539   3.9899   4.7167

          k = 0.0000-0.5774 0.0000 ( 12854 PWs)   bands (ev):

   -59.7077 -34.0369 -33.8666 -33.7419 -11.6726 -10.9659  -5.2248  -4.2257
    -3.4050  -2.2264  -1.7881  -0.5840  -0.3089  -0.0109   0.1403   0.5902
     0.6441   0.8096   3.3753   3.3977   3.9582   4.7869

          k = 0.0625 0.1083 0.0000 ( 12951 PWs)   bands (ev):

   -59.7427 -33.9355 -33.6962 -33.6632 -13.2685 -11.9633  -5.0584  -2.3580
    -1.9311  -1.3755  -1.0772  -0.7734  -0.4334   0.0216   0.0772   0.4043
     0.5792   0.6173   1.5413   3.2795   3.5879   3.6003

          k = 0.0625 0.1804 0.0000 ( 12937 PWs)   bands (ev):

   -59.7374 -33.9251 -33.7480 -33.6765 -13.0593 -11.8450  -4.8463  -2.4698
    -2.3518  -1.3621  -1.2351  -0.9291  -0.4492   0.0124   0.1342   0.3439
     0.5191   0.6042   1.6079   3.1308   3.4493   3.4825

          k = 0.0625 0.2526 0.0000 ( 12935 PWs)   bands (ev):

   -59.7305 -33.9114 -33.8150 -33.6939 -12.7711 -11.6787  -4.6118  -2.9509
    -2.6005  -1.6787  -1.2666  -0.8144  -0.5013  -0.0185   0.2135   0.2635
     0.4195   0.6021   1.6160   3.1313   3.3373   3.6349

          k = 0.0625 0.3248 0.0000 ( 12927 PWs)   bands (ev):

   -59.7229 -33.8967 -33.8867 -33.7127 -12.4364 -11.4792  -4.4915  -3.4436
    -2.8969  -1.9633  -1.3476  -0.6625  -0.5262  -0.0869   0.1138   0.2979
     0.4633   0.6299   1.7396   3.2001   3.3960   3.9862

          k = 0.0625 0.3969 0.0000 ( 12903 PWs)   bands (ev):

   -59.7160 -33.9524 -33.8829 -33.7299 -12.1025 -11.2689  -4.6389  -3.7957
    -3.1680  -2.1448  -1.4963  -0.6341  -0.4890  -0.0901   0.0625   0.3737
     0.5432   0.6965   2.0945   3.2937   3.6278   4.3757

          k = 0.0625 0.4691 0.0000 ( 12863 PWs)   bands (ev):

   -59.7106 -34.0021 -33.8723 -33.7431 -11.8293 -11.0817  -4.9400  -4.0399
    -3.3363  -2.2418  -1.6630  -0.6506  -0.4396  -0.0265   0.0893   0.4636
     0.6053   0.7734   2.6360   3.4114   3.9101   4.7173

          k = 0.0625 0.5413 0.0000 ( 12844 PWs)   bands (ev):

   -59.7077 -34.0289 -33.8666 -33.7503 -11.6754 -10.9660  -5.1502  -4.1863
    -3.4192  -2.2760  -1.7734  -0.6594  -0.4152  -0.0023   0.1455   0.5478
     0.6458   0.8276   3.1845   3.4825   4.0411   4.7068

          k = 0.1250 0.2165 0.0000 ( 12933 PWs)   bands (ev):

   -59.7315 -33.9135 -33.8015 -33.6947 -12.8164 -11.7048  -4.6353  -2.7982
    -2.5669  -1.7807  -1.2497  -0.8701  -0.4389   0.0256   0.1891   0.3099
     0.4474   0.5837   1.6006   3.1032   3.3517   3.4924

          k = 0.1250 0.2887 0.0000 ( 12935 PWs)   bands (ev):

   -59.7246 -33.8999 -33.8628 -33.7173 -12.5123 -11.5239  -4.4661  -3.2115
    -2.7891  -2.2122  -1.3030  -0.7685  -0.4477  -0.0214   0.1765   0.2701
     0.5004   0.5820   1.6242   3.1250   3.4048   3.7423

          k = 0.1250 0.3608 0.0000 ( 12903 PWs)   bands (ev):

   -59.7176 -33.9232 -33.8861 -33.7402 -12.1859 -11.3199  -4.4878  -3.5510
    -3.1111  -2.4079  -1.4270  -0.8031  -0.4333  -0.0854   0.1186   0.3154
     0.5804   0.6543   1.8322   3.3026   3.5412   4.1180

          k = 0.1250 0.4330 0.0000 ( 12881 PWs)   bands (ev):

   -59.7117 -33.9737 -33.8744 -33.7598 -11.8899 -11.1203  -4.7150  -3.8440
    -3.3358  -2.4502  -1.5895  -0.9324  -0.4061  -0.0463   0.1115   0.3698
     0.6195   0.7572   2.2824   3.5262   3.7638   4.4796

          k = 0.1250 0.5052 0.0000 ( 12858 PWs)   bands (ev):

   -59.7077 -34.0072 -33.8667 -33.7729 -11.6821 -10.9662  -4.9536  -4.0754
    -3.4545  -2.4136  -1.7637  -1.0147  -0.3925   0.0043   0.1343   0.4516
     0.6463   0.8473   2.8667   3.5784   4.0872   4.5766

          k = 0.1250 0.5774 0.0000 ( 12856 PWs)   bands (ev):

   -59.7063 -34.0189 -33.8639 -33.7775 -11.6074 -10.9068  -5.0500  -4.1621
    -3.4977  -2.3753  -1.8522  -1.0391  -0.3895   0.0191   0.1456   0.4970
     0.6553   0.8967   3.2102   3.6195   4.1886   4.3922

          k = 0.1875 0.3248 0.0000 ( 12901 PWs)   bands (ev):

   -59.7182 -33.9100 -33.8872 -33.7468 -12.2151 -11.3372  -4.4293  -3.3851
    -3.1036  -2.5613  -1.4663  -0.8340  -0.3913  -0.0885   0.1425   0.3102
     0.5768   0.6511   1.7312   3.2714   3.5268   4.0092

          k = 0.1875 0.3969 0.0000 ( 12903 PWs)   bands (ev):

   -59.7123 -33.9506 -33.8756 -33.7767 -11.9235 -11.1401  -4.5460  -3.6391
    -3.3468  -2.6529  -1.6922  -1.0248  -0.3253  -0.0978   0.1289   0.3325
     0.6108   0.7528   2.0730   3.5410   3.6846   4.3057

          k = 0.1875 0.4691 0.0000 ( 12858 PWs)   bands (ev):

   -59.7077 -33.9802 -33.8667 -33.8008 -11.6888 -10.9662  -4.7222  -3.9587
    -3.4390  -2.6157  -1.9002  -1.2330  -0.2938  -0.0282   0.1219   0.3653
     0.6539   0.8363   2.6083   3.5731   4.0036   4.5282

          k = 0.1875 0.5413 0.0000 ( 12848 PWs)   bands (ev):

   -59.7053 -33.9957 -33.8618 -33.8143 -11.5579 -10.8606  -4.8465  -4.1229
    -3.5324  -2.5019  -2.0677  -1.3615  -0.2851   0.0227   0.1165   0.4054
     0.6708   0.9439   3.0460   3.6260   4.1376   4.5481

          k = 0.2500 0.4330 0.0000 ( 12885 PWs)   bands (ev):

   -59.7077 -33.9661 -33.8667 -33.8153 -11.6917 -10.9661  -4.6082  -3.9385
    -3.3397  -2.7832  -2.0142  -1.2530  -0.2268  -0.0704   0.1182   0.3325
     0.6647   0.8199   2.5110   3.5342   3.9725   4.5208

          k = 0.2500 0.5052 0.0000 ( 12870 PWs)   bands (ev):

   -59.7047 -33.9707 -33.8607 -33.8469 -11.5322 -10.8354  -4.6575  -4.1335
    -3.4008  -2.8160  -2.2203  -1.4520  -0.1763  -0.0074   0.1015   0.3226
     0.6957   0.9586   2.8936   3.5224   4.0807   4.8181

          k = 0.2500 0.5774 0.0000 ( 12844 PWs)   bands (ev):

   -59.7036 -33.9705 -33.8597 -33.8586 -11.4753 -10.7863  -4.6858  -4.1686
    -3.4885  -2.7835  -2.2878  -1.5376  -0.1638   0.0214   0.0982   0.3147
     0.6970   1.0605   2.9375   3.6315   4.1603   4.8865

          k = 0.3125 0.5413 0.0000 ( 12856 PWs)   bands (ev):

   -59.7030 -33.9501 -33.8873 -33.8575 -11.4463 -10.7596  -4.6148  -4.1651
    -3.3470  -3.1147  -2.2987  -1.5943  -0.0913  -0.0030   0.1121   0.2515
     0.7055   1.1264   2.8364   3.5844   4.2337   5.1502

 ------ SPIN DOWN ----------


          k = 0.0000 0.0000 0.0000 ( 12991 PWs)   bands (ev):

   -59.7402 -33.9211 -33.6526 -33.6526 -13.3989 -12.0429  -5.2004  -2.2330
    -1.4691  -1.4691  -0.4419  -0.4419   0.1038   1.3234   1.9124   1.9124
     2.0176   2.0176   2.5045   3.7121   3.7121   3.9684

          k = 0.0000 0.0722 0.0000 ( 12961 PWs)   bands (ev):

   -59.7387 -33.9182 -33.6676 -33.6560 -13.3426 -12.0119  -5.1366  -2.2432
    -1.6201  -1.4182  -0.5899  -0.5341   0.2144   1.2298   1.8841   1.9201
     2.0288   2.0782   2.5641   3.6039   3.7713   3.8067

          k = 0.0000 0.1443 0.0000 ( 12937 PWs)   bands (ev):

   -59.7344 -33.9098 -33.7102 -33.6657 -13.1787 -11.9212  -4.9585  -2.3161
    -2.0085  -1.2892  -0.8243  -0.7543   0.3286   1.0010   1.8225   1.9135
     2.0899   2.1994   2.6974   3.3669   3.5794   3.7133

          k = 0.0000 0.2165 0.0000 ( 12929 PWs)   bands (ev):

   -59.7280 -33.8973 -33.7735 -33.6803 -12.9224 -11.7775  -4.7133  -2.6297
    -2.4037  -1.2686  -1.0188  -0.8610   0.3282   0.7341   1.7461   1.8870
     2.2073   2.3238   2.7108   3.2702   3.5535   3.6365

          k = 0.0000 0.2887 0.0000 ( 12917 PWs)   bands (ev):

   -59.7205 -33.8825 -33.8473 -33.6973 -12.5999 -11.5928  -4.5029  -3.1591
    -2.7113  -1.5240  -1.1935  -0.6631   0.1516   0.6809   1.6835   1.8689
     2.3595   2.4277   2.6300   3.4127   3.4253   3.9606

          k = 0.0000 0.3608 0.0000 ( 12903 PWs)   bands (ev):

   -59.7130 -33.9203 -33.8676 -33.7143 -12.2514 -11.3853  -4.5027  -3.6045
    -3.0076  -1.7963  -1.3685  -0.4328  -0.0443   0.8425   1.6765   1.8807
     2.5265   2.5484   2.6640   3.3348   3.6660   4.3660

          k = 0.0000 0.4330 0.0000 ( 12893 PWs)   bands (ev):

   -59.7065 -33.9815 -33.8550 -33.7287 -11.9324 -11.1821  -4.7698  -3.8997
    -3.2093  -2.0110  -1.5243  -0.2638  -0.0374   0.9684   1.7429   1.9200
     2.6647   2.6813   2.9101   3.3346   3.9402   4.7041

          k = 0.0000 0.5052 0.0000 ( 12870 PWs)   bands (ev):

   -59.7023 -34.0221 -33.8465 -33.7383 -11.7070 -11.0241  -5.0597  -4.1017
    -3.3215  -2.1461  -1.6265  -0.1725   0.0985   1.0077   1.8304   1.9595
     2.6995   2.7891   3.3568   3.3862   4.1973   4.8950

          k = 0.0000-0.5774 0.0000 ( 12854 PWs)   bands (ev):

   -59.7008 -34.0363 -33.8436 -33.7417 -11.6258 -10.9624  -5.1764  -4.1783
    -3.3608  -2.1921  -1.6605  -0.1453   0.1739   1.0132   1.8716   1.9750
     2.7059   2.8268   3.4181   3.6243   4.2926   4.9434

          k = 0.0625 0.1083 0.0000 ( 12951 PWs)   bands (ev):

   -59.7358 -33.9126 -33.6960 -33.6630 -13.2325 -11.9511  -5.0153  -2.2798
    -1.8903  -1.3299  -0.7803  -0.6845   0.3215   1.0737   1.8120   1.9501
     2.0585   2.1669   2.6626   3.4349   3.6058   3.7403

          k = 0.0625 0.1804 0.0000 ( 12937 PWs)   bands (ev):

   -59.7305 -33.9021 -33.7478 -33.6763 -13.0223 -11.8337  -4.8009  -2.4239
    -2.3095  -1.2971  -1.0352  -0.7752   0.3797   0.8339   1.7175   1.9329
     2.1549   2.2925   2.7329   3.2739   3.5102   3.5964

          k = 0.0625 0.2526 0.0000 ( 12935 PWs)   bands (ev):

   -59.7235 -33.8884 -33.8147 -33.6937 -12.7322 -11.6689  -4.5633  -2.8965
    -2.5777  -1.6276  -1.0340  -0.7336   0.2875   0.6791   1.6387   1.8962
     2.2868   2.4145   2.6440   3.3231   3.4594   3.7314

          k = 0.0625 0.3248 0.0000 ( 12927 PWs)   bands (ev):

   -59.7160 -33.8864 -33.8735 -33.7125 -12.3952 -11.4713  -4.4423  -3.3791
    -2.8770  -1.9233  -1.1544  -0.6058   0.0851   0.7860   1.6111   1.8760
     2.4185   2.5290   2.6168   3.3613   3.5457   4.1222

          k = 0.0625 0.3969 0.0000 ( 12903 PWs)   bands (ev):

   -59.7090 -33.9519 -33.8598 -33.7297 -12.0587 -11.2631  -4.5916  -3.7309
    -3.1385  -2.1065  -1.3443  -0.5480   0.0606   0.9533   1.6657   1.8904
     2.5461   2.6740   2.7190   3.4038   3.7863   4.5316

          k = 0.0625 0.4691 0.0000 ( 12863 PWs)   bands (ev):

   -59.7037 -34.0016 -33.8493 -33.7429 -11.7835 -11.0775  -4.8915  -3.9884
    -3.2932  -2.2034  -1.5259  -0.5068   0.1863   1.0341   1.7686   1.9271
     2.6745   2.7393   3.0370   3.4993   4.0778   4.8883

          k = 0.0625 0.5413 0.0000 ( 12844 PWs)   bands (ev):

   -59.7008 -34.0283 -33.8436 -33.7501 -11.6286 -10.9626  -5.1007  -4.1427
    -3.3707  -2.2386  -1.6373  -0.4727   0.3094   1.0523   1.8465   1.9522
     2.7227   2.7910   3.3522   3.6119   4.3314   4.8380

          k = 0.1250 0.2165 0.0000 ( 12933 PWs)   bands (ev):

   -59.7246 -33.8905 -33.8012 -33.6945 -12.7779 -11.6948  -4.5869  -2.7464
    -2.5395  -1.7386  -1.0381  -0.6906   0.3618   0.7064   1.5860   1.9176
     2.2602   2.4221   2.6508   3.2767   3.4609   3.6158

          k = 0.1250 0.2887 0.0000 ( 12935 PWs)   bands (ev):

   -59.7176 -33.8769 -33.8624 -33.7171 -12.4716 -11.5155  -4.4152  -3.1501
    -2.7673  -2.1788  -1.1003  -0.6211   0.1983   0.7850   1.5085   1.8827
     2.3757   2.5129   2.6069   3.3043   3.4973   3.9344

          k = 0.1250 0.3608 0.0000 ( 12903 PWs)   bands (ev):

   -59.7106 -33.9227 -33.8630 -33.7400 -12.1428 -11.3136  -4.4378  -3.4835
    -3.0870  -2.3685  -1.2614  -0.7105   0.1373   0.9797   1.5305   1.8621
     2.4221   2.5975   2.7269   3.4517   3.6352   4.3326

          k = 0.1250 0.4330 0.0000 ( 12881 PWs)   bands (ev):

   -59.7047 -33.9732 -33.8514 -33.7596 -11.8445 -11.1157  -4.6645  -3.7969
    -3.2864  -2.4039  -1.4425  -0.8720   0.2315   1.1211   1.6549   1.8721
     2.5011   2.7082   2.9200   3.6198   3.8828   4.6950

          k = 0.1250 0.5052 0.0000 ( 12858 PWs)   bands (ev):

   -59.7008 -34.0067 -33.8436 -33.7727 -11.6354 -10.9627  -4.9012  -4.0434
    -3.3919  -2.3644  -1.6197  -0.9615   0.3842   1.1613   1.7777   1.8950
     2.6319   2.7680   3.1993   3.6736   4.2315   4.7988

          k = 0.1250 0.5774 0.0000 ( 12856 PWs)   bands (ev):

   -59.6994 -34.0184 -33.8408 -33.7773 -11.5603 -10.9034  -4.9968  -4.1342
    -3.4328  -2.3267  -1.7080  -0.9840   0.4606   1.1665   1.8310   1.8983
     2.6935   2.7820   3.3377   3.7375   4.4513   4.6300

          k = 0.1875 0.3248 0.0000 ( 12901 PWs)   bands (ev):

   -59.7112 -33.9096 -33.8642 -33.7466 -12.1723 -11.3307  -4.3777  -3.3086
    -3.0910  -2.5188  -1.3321  -0.6731   0.1566   1.0107   1.4482   1.8508
     2.3838   2.5745   2.7388   3.4125   3.6018   4.2614

          k = 0.1875 0.3969 0.0000 ( 12903 PWs)   bands (ev):

   -59.7053 -33.9502 -33.8525 -33.7764 -11.8784 -11.1353  -4.4937  -3.6033
    -3.2852  -2.5935  -1.6131  -0.8919   0.2206   1.2559   1.4956   1.8268
     2.3599   2.7007   2.9170   3.6528   3.7379   4.5882

          k = 0.1875 0.4691 0.0000 ( 12858 PWs)   bands (ev):

   -59.7008 -33.9797 -33.8436 -33.8006 -11.6422 -10.9625  -4.6678  -3.9402
    -3.3559  -2.5451  -1.8318  -1.1453   0.3799   1.3197   1.6722   1.8304
     2.4245   2.7884   3.1372   3.6885   4.0533   4.8288

          k = 0.1875 0.5413 0.0000 ( 12848 PWs)   bands (ev):

   -59.6983 -33.9952 -33.8388 -33.8141 -11.5107 -10.8573  -4.7907  -4.1090
    -3.4470  -2.4213  -1.9914  -1.3070   0.5294   1.3234   1.7763   1.8398
     2.5344   2.8268   3.2186   3.8164   4.2325   4.9187

          k = 0.2500 0.4330 0.0000 ( 12885 PWs)   bands (ev):

   -59.7008 -33.9656 -33.8436 -33.8150 -11.6451 -10.9624  -4.5539  -3.9199
    -3.2484  -2.7037  -1.9909  -1.1330   0.3663   1.4650   1.5545   1.7982
     2.3313   2.7959   3.1263   3.6584   4.0059   4.8365

          k = 0.2500 0.5052 0.0000 ( 12870 PWs)   bands (ev):

   -59.6977 -33.9702 -33.8466 -33.8376 -11.4848 -10.8322  -4.6073  -4.1064
    -3.3067  -2.7322  -2.1985  -1.3684   0.5558   1.4780   1.6897   1.8152
     2.3831   2.8477   3.1307   3.7635   4.1924   5.1254

          k = 0.2500 0.5774 0.0000 ( 12844 PWs)   bands (ev):

   -59.6967 -33.9700 -33.8594 -33.8355 -11.4278 -10.7831  -4.6405  -4.1324
    -3.4023  -2.6972  -2.2539  -1.4742   0.6478   1.4850   1.7225   1.8346
     2.4415   2.8628   3.0232   3.8571   4.3213   5.2697

          k = 0.3125 0.5413 0.0000 ( 12856 PWs)   bands (ev):

   -59.6961 -33.9495 -33.8870 -33.8344 -11.3987 -10.7564  -4.5873  -4.0920
    -3.2622  -3.0638  -2.2491  -1.5341   0.6982   1.5823   1.6720   1.8443
     2.3954   2.8667   2.9164   3.8215   4.4157   5.5021

     the Fermi energy is     2.3118 ev

!    total energy              =    -658.55205934 Ry
     total all-electron energy =    -12481.725950 Ry
     estimated scf accuracy    <       0.00000042 Ry
     smearing contrib. (-TS)   =      -0.00610455 Ry
     internal energy E=F+TS    =    -658.54595480 Ry

     The total energy is F=E-TS. E is the sum of the following terms:
     one-electron contribution =   -1219.75177121 Ry
     hartree contribution      =     623.56919216 Ry
     xc contribution           =     -62.25708682 Ry
     ewald contribution        =     406.04285440 Ry
     one-center paw contrib.   =    -406.14914333 Ry

     total magnetization       =     2.10 Bohr mag/cell
     absolute magnetization    =     2.25 Bohr mag/cell

     convergence has been achieved in  21 iterations

     negative rho (up, down):  2.253E-04 2.163E-04

     Forces acting on atoms (cartesian axes, Ry/au):

     atom    1 type  1   force =     0.00000000    0.00000000   -0.01981991
     atom    2 type  2   force =     0.00000000    0.00000000    0.03699915
     atom    3 type  2   force =     0.00000000    0.00000000    0.01490170
     atom    4 type  3   force =     0.00000000    0.00000000   -0.03208094
     The non-local contrib.  to forces
     atom    1 type  1   force =     0.00000000   -0.00000000   -0.03074587
     atom    2 type  2   force =     0.00000000   -0.00000000   -0.08862504
     atom    3 type  2   force =     0.00000000    0.00000000    0.27834581
     atom    4 type  3   force =     0.00000000    0.00000000   -0.03814325
     The ionic contribution  to forces
     atom    1 type  1   force =     0.00000000   -0.00000000  -30.92093446
     atom    2 type  2   force =    -0.00000000    0.00000000   18.78039525
     atom    3 type  2   force =    -0.00000000   -0.00000000  -44.58057647
     atom    4 type  3   force =     0.00000000   -0.00000000   56.72111567
     The local contribution  to forces
     atom    1 type  1   force =     0.00000000    0.00000000   30.93243285
     atom    2 type  2   force =    -0.00000000    0.00000000  -18.65224028
     atom    3 type  2   force =    -0.00000000    0.00000000   44.32033137
     atom    4 type  3   force =     0.00000000    0.00000000  -56.70187871
     The core correction contribution to forces
     atom    1 type  1   force =    -0.00000000   -0.00000000    0.00205974
     atom    2 type  2   force =     0.00000000   -0.00000000   -0.00121278
     atom    3 type  2   force =     0.00000000   -0.00000000   -0.00267632
     atom    4 type  3   force =     0.00000000    0.00000000   -0.01273660
     The Hubbard contrib.    to forces
     atom    1 type  1   force =     0.00000000    0.00000000    0.00000000
     atom    2 type  2   force =     0.00000000    0.00000000    0.00000000
     atom    3 type  2   force =     0.00000000    0.00000000    0.00000000
     atom    4 type  3   force =     0.00000000    0.00000000    0.00000000
     The SCF correction term to forces
     atom    1 type  1   force =     0.00000000    0.00000000   -0.00252104
     atom    2 type  2   force =     0.00000000    0.00000000   -0.00120688
     atom    3 type  2   force =     0.00000000    0.00000000   -0.00041158
     atom    4 type  3   force =     0.00000000    0.00000000   -0.00032694

     Total force =     0.054891     Total SCF correction =     0.002844


     Computing stress (Cartesian axis) and pressure


     negative rho (up, down):  2.253E-04 2.163E-04
          total   stress  (Ry/bohr**3)                   (kbar)     P=      -22.13
  -0.00015663   0.00000000   0.00000000          -23.04        0.00        0.00
   0.00000000  -0.00015663  -0.00000000            0.00      -23.04       -0.00
   0.00000000   0.00000000  -0.00013804            0.00        0.00      -20.31


     BFGS Geometry Optimization
     Energy error            =      0.0E+00 Ry
     Gradient error          =      3.7E-02 Ry/Bohr

     number of scf cycles    =   1
     number of bfgs steps    =   0

     energy             new  =    -658.5520593446 Ry

     new trust radius        =       0.0369991518 bohr
     new conv_thr            =       0.0000010000 Ry


ATOMIC_POSITIONS (crystal)
Mo            0.0000000000        0.0000000000        0.4994234061
S             0.6666666667        0.3333333333        0.5887619081
S             0.6666666667        0.3333333333        0.4127479735
Co            0.0000000000        0.0000000000        0.6967027761



     Writing config-only to output data dir ./tmp/relax.save/
     NEW-OLD atomic charge density approx. for the potential

     negative rho (up, down):  2.256E-04 2.328E-04
     Generating pointlists ...

     total cpu time spent up to now is       46.4 secs

     Self-consistent Calculation

     iteration #  1     ecut=    80.00 Ry     beta= 0.70
     Davidson diagonalization with overlap
     ethr =  1.00E-06,  avg # of iterations =  8.4

     negative rho (up, down):  2.289E-04 2.215E-04

     total cpu time spent up to now is       49.8 secs

     total energy              =    -658.55321103 Ry
     estimated scf accuracy    <       0.00207520 Ry

     total magnetization       =     2.10 Bohr mag/cell
     absolute magnetization    =     2.26 Bohr mag/cell

     iteration #  2     ecut=    80.00 Ry     beta= 0.70
     Davidson diagonalization with overlap
     ethr =  5.93E-06,  avg # of iterations =  7.9

     negative rho (up, down):  2.286E-04 2.212E-04

     total cpu time spent up to now is       52.4 secs

     total energy              =    -658.54254708 Ry
     estimated scf accuracy    <       0.27912249 Ry

     total magnetization       =     1.88 Bohr mag/cell
     absolute magnetization    =     2.02 Bohr mag/cell

     iteration #  3     ecut=    80.00 Ry     beta= 0.70
     Davidson diagonalization with overlap
     c_bands:  1 eigenvalues not converged
     ethr =  5.93E-06,  avg # of iterations =  7.1

     negative rho (up, down):  2.275E-04 2.193E-04

     total cpu time spent up to now is       54.8 secs

     total energy              =    -658.55436854 Ry
     estimated scf accuracy    <       0.00098149 Ry

     total magnetization       =     2.10 Bohr mag/cell
     absolute magnetization    =     2.26 Bohr mag/cell

     iteration #  4     ecut=    80.00 Ry     beta= 0.70
     Davidson diagonalization with overlap
     ethr =  2.80E-06,  avg # of iterations =  3.8

     negative rho (up, down):  2.264E-04 2.175E-04

     total cpu time spent up to now is       56.8 secs

     total energy              =    -658.55451725 Ry
     estimated scf accuracy    <       0.00076897 Ry

     total magnetization       =     2.08 Bohr mag/cell
     absolute magnetization    =     2.24 Bohr mag/cell

     iteration #  5     ecut=    80.00 Ry     beta= 0.70
     Davidson diagonalization with overlap
     ethr =  2.20E-06,  avg # of iterations =  2.4

     negative rho (up, down):  2.263E-04 2.169E-04

     total cpu time spent up to now is       58.7 secs

     total energy              =    -658.55460733 Ry
     estimated scf accuracy    <       0.00017126 Ry

     total magnetization       =     2.09 Bohr mag/cell
     absolute magnetization    =     2.24 Bohr mag/cell

     iteration #  6     ecut=    80.00 Ry     beta= 0.70
     Davidson diagonalization with overlap
     ethr =  4.89E-07,  avg # of iterations =  2.1

     negative rho (up, down):  2.264E-04 2.169E-04

     total cpu time spent up to now is       60.5 secs

     total energy              =    -658.55463511 Ry
     estimated scf accuracy    <       0.00001655 Ry

     total magnetization       =     2.09 Bohr mag/cell
     absolute magnetization    =     2.25 Bohr mag/cell

     iteration #  7     ecut=    80.00 Ry     beta= 0.70
     Davidson diagonalization with overlap
     ethr =  4.73E-08,  avg # of iterations =  4.0

     negative rho (up, down):  2.264E-04 2.169E-04

     total cpu time spent up to now is       62.5 secs

     total energy              =    -658.55463951 Ry
     estimated scf accuracy    <       0.00001048 Ry

     total magnetization       =     2.09 Bohr mag/cell
     absolute magnetization    =     2.24 Bohr mag/cell

     iteration #  8     ecut=    80.00 Ry     beta= 0.70
     Davidson diagonalization with overlap
     ethr =  2.99E-08,  avg # of iterations =  1.6

     negative rho (up, down):  2.264E-04 2.169E-04
 
     Magnetic moment per site  (integrated on atomic sphere of radius R)
     atom   1 (R=0.316)  charge= 10.8078  magn=  0.0090
     atom   2 (R=0.316)  charge=  4.2047  magn=  0.0410
     atom   3 (R=0.316)  charge=  4.1857  magn=  0.0025
     atom   4 (R=0.353)  charge=  7.5785  magn=  2.0406

     total cpu time spent up to now is       64.2 secs

     End of self-consistent calculation

 ------ SPIN UP ------------


          k = 0.0000 0.0000 0.0000 ( 12991 PWs)   bands (ev):

   -59.7231 -33.9193 -33.6271 -33.6271 -13.4147 -12.0660  -5.2192  -2.4218
    -1.4375  -1.4375  -0.7845  -0.5405  -0.5405   0.0401   0.0401   0.4950
     0.5967   0.5967   1.3565   3.5064   3.5064   4.0212

          k = 0.0000 0.0722 0.0000 ( 12961 PWs)   bands (ev):

   -59.7216 -33.9164 -33.6421 -33.6305 -13.3587 -12.0345  -5.1562  -2.4123
    -1.5913  -1.3871  -0.9324  -0.6151  -0.4947   0.0282   0.0427   0.4564
     0.5928   0.6196   1.4286   3.3789   3.5364   3.8801

          k = 0.0000 0.1443 0.0000 ( 12937 PWs)   bands (ev):

   -59.7173 -33.9080 -33.6847 -33.6402 -13.1953 -11.9425  -4.9803  -2.4294
    -1.9903  -1.2582  -1.1682  -0.8120  -0.5014   0.0062   0.0746   0.3639
     0.5842   0.6294   1.5608   3.1537   3.5110   3.6552

          k = 0.0000 0.2165 0.0000 ( 12929 PWs)   bands (ev):

   -59.7110 -33.8956 -33.7478 -33.6547 -12.9395 -11.7968  -4.7372  -2.6646
    -2.4272  -1.3409  -1.2498  -0.9029  -0.5645  -0.0214   0.1499   0.2797
     0.5227   0.5811   1.6218   3.0794   3.3865   3.6491

          k = 0.0000 0.2887 0.0000 ( 12917 PWs)   bands (ev):

   -59.7035 -33.8809 -33.8215 -33.6718 -12.6170 -11.6102  -4.5235  -3.1996
    -2.7399  -1.5169  -1.4470  -0.7146  -0.5986  -0.0697   0.1771   0.2558
     0.3951   0.5999   1.6878   3.2249   3.2690   3.9044

          k = 0.0000 0.3608 0.0000 ( 12903 PWs)   bands (ev):

   -59.6959 -33.8943 -33.8661 -33.6888 -12.2671 -11.4015  -4.5095  -3.6824
    -3.0358  -1.7887  -1.5609  -0.5934  -0.5313  -0.1139   0.0612   0.3728
     0.4018   0.6530   1.9404   3.2285   3.4990   4.2565

          k = 0.0000 0.4330 0.0000 ( 12893 PWs)   bands (ev):

   -59.6895 -33.9554 -33.8536 -33.7031 -11.9450 -11.1986  -4.7802  -3.9877
    -3.2352  -2.0020  -1.6939  -0.5933  -0.4210  -0.0701   0.0467   0.4672
     0.4792   0.7266   2.4066   3.2805   3.8141   4.5429

          k = 0.0000 0.5052 0.0000 ( 12870 PWs)   bands (ev):

   -59.6853 -33.9960 -33.8452 -33.7127 -11.7159 -11.0419  -5.0849  -4.1807
    -3.3407  -2.1362  -1.7976  -0.6014  -0.3734  -0.0270   0.1297   0.5542
     0.5662   0.7843   2.9754   3.3753   4.0235   4.7112

          k = 0.0000-0.5774 0.0000 ( 12854 PWs)   bands (ev):

   -59.6838 -34.0101 -33.8422 -33.7161 -11.6330 -10.9810  -5.2076  -4.2531
    -3.3762  -2.1819  -1.8348  -0.6059  -0.3614  -0.0203   0.1781   0.5816
     0.6276   0.8045   3.3415   3.4227   3.9578   4.8170

          k = 0.0625 0.1083 0.0000 ( 12951 PWs)   bands (ev):

   -59.7187 -33.9107 -33.6705 -33.6375 -13.2490 -11.9727  -5.0364  -2.4129
    -1.8652  -1.3019  -1.0944  -0.7948  -0.4658   0.0156   0.0608   0.3915
     0.5832   0.6423   1.5292   3.2052   3.5262   3.6922

          k = 0.0625 0.1804 0.0000 ( 12937 PWs)   bands (ev):

   -59.7134 -33.9004 -33.7221 -33.6508 -13.0392 -11.8537  -4.8243  -2.5026
    -2.2971  -1.3149  -1.2344  -0.9676  -0.4868   0.0079   0.1148   0.3148
     0.5644   0.6015   1.6099   3.0775   3.4179   3.5574

          k = 0.0625 0.2526 0.0000 ( 12935 PWs)   bands (ev):

   -59.7065 -33.8868 -33.7889 -33.6682 -12.7494 -11.6870  -4.5867  -2.9291
    -2.6048  -1.6508  -1.2886  -0.8373  -0.5336  -0.0179   0.1951   0.2589
     0.4490   0.5778   1.6316   3.1249   3.3183   3.6769

          k = 0.0625 0.3248 0.0000 ( 12927 PWs)   bands (ev):

   -59.6989 -33.8721 -33.8604 -33.6869 -12.4117 -11.4879  -4.4558  -3.4415
    -2.9067  -1.9295  -1.3834  -0.6888  -0.5487  -0.0721   0.1272   0.2847
     0.4437   0.6119   1.7574   3.2091   3.4084   4.0031

          k = 0.0625 0.3969 0.0000 ( 12903 PWs)   bands (ev):

   -59.6920 -33.9259 -33.8584 -33.7042 -12.0729 -11.2793  -4.5972  -3.8181
    -3.1687  -2.1104  -1.5311  -0.6580  -0.5102  -0.0776   0.0702   0.3571
     0.5212   0.6872   2.1001   3.3064   3.6682   4.3781

          k = 0.0625 0.4691 0.0000 ( 12863 PWs)   bands (ev):

   -59.6866 -33.9755 -33.8479 -33.7173 -11.7940 -11.0948  -4.9107  -4.0674
    -3.3200  -2.2075  -1.6999  -0.6760  -0.4653  -0.0292   0.1065   0.4482
     0.5872   0.7697   2.6239   3.4301   3.9594   4.7094

          k = 0.0625 0.5413 0.0000 ( 12844 PWs)   bands (ev):

   -59.6838 -34.0021 -33.8422 -33.7244 -11.6361 -10.9811  -5.1314  -4.2126
    -3.3917  -2.2380  -1.8167  -0.6876  -0.4450  -0.0106   0.1645   0.5368
     0.6305   0.8265   3.1645   3.4959   4.0543   4.7226

          k = 0.1250 0.2165 0.0000 ( 12933 PWs)   bands (ev):

   -59.7075 -33.8888 -33.7754 -33.6690 -12.7951 -11.7131  -4.6110  -2.7842
    -2.5596  -1.7502  -1.2689  -0.8961  -0.4780   0.0219   0.1735   0.2951
     0.4839   0.5682   1.6133   3.0953   3.3288   3.5395

          k = 0.1250 0.2887 0.0000 ( 12935 PWs)   bands (ev):

   -59.7006 -33.8752 -33.8366 -33.6915 -12.4885 -11.5324  -4.4332  -3.2065
    -2.7991  -2.1725  -1.3319  -0.8031  -0.4793  -0.0141   0.1746   0.2761
     0.4815   0.5717   1.6397   3.1485   3.4132   3.7506

          k = 0.1250 0.3608 0.0000 ( 12903 PWs)   bands (ev):

   -59.6936 -33.8967 -33.8616 -33.7144 -12.1579 -11.3298  -4.4439  -3.5672
    -3.1228  -2.3699  -1.4539  -0.8335  -0.4569  -0.0765   0.1090   0.3116
     0.5612   0.6486   1.8374   3.3345   3.5732   4.1150

          k = 0.1250 0.4330 0.0000 ( 12881 PWs)   bands (ev):

   -59.6877 -33.9471 -33.8500 -33.7339 -11.8563 -11.1326  -4.6777  -3.8676
    -3.3313  -2.4240  -1.6167  -0.9524  -0.4277  -0.0483   0.1023   0.3599
     0.6071   0.7566   2.2700   3.5532   3.8176   4.4742

          k = 0.1250 0.5052 0.0000 ( 12858 PWs)   bands (ev):

   -59.6838 -33.9805 -33.8422 -33.7470 -11.6435 -10.9811  -4.9296  -4.0972
    -3.4340  -2.3906  -1.7983  -1.0337  -0.4140  -0.0027   0.1276   0.4379
     0.6376   0.8521   2.8435   3.6010   4.1351   4.5667

          k = 0.1250 0.5774 0.0000 ( 12856 PWs)   bands (ev):

   -59.6824 -33.9922 -33.8395 -33.7516 -11.5668 -10.9226  -5.0317  -4.1826
    -3.4713  -2.3480  -1.8945  -1.0591  -0.4111   0.0115   0.1388   0.4817
     0.6483   0.9038   3.2033   3.6108   4.1875   4.4212

          k = 0.1875 0.3248 0.0000 ( 12901 PWs)   bands (ev):

   -59.6942 -33.8836 -33.8627 -33.7210 -12.1877 -11.3469  -4.3850  -3.3985
    -3.1239  -2.5154  -1.4888  -0.8710  -0.4188  -0.0786   0.1216   0.3128
     0.5689   0.6403   1.7356   3.3194   3.5508   4.0009

          k = 0.1875 0.3969 0.0000 ( 12903 PWs)   bands (ev):

   -59.6883 -33.9241 -33.8511 -33.7508 -11.8909 -11.1521  -4.5026  -3.6461
    -3.3706  -2.6244  -1.7086  -1.0487  -0.3501  -0.1015   0.1033   0.3266
     0.6124   0.7510   2.0577   3.6039   3.7115   4.2969

          k = 0.1875 0.4691 0.0000 ( 12858 PWs)   bands (ev):

   -59.6838 -33.9536 -33.8423 -33.7749 -11.6509 -10.9808  -4.6901  -3.9650
    -3.4434  -2.6055  -1.9191  -1.2462  -0.3162  -0.0388   0.0987   0.3500
     0.6539   0.8480   2.5792   3.6085   4.0561   4.5221

          k = 0.1875 0.5413 0.0000 ( 12848 PWs)   bands (ev):

   -59.6813 -33.9690 -33.8374 -33.7883 -11.5166 -10.8769  -4.8235  -4.1298
    -3.5216  -2.4955  -2.0959  -1.3698  -0.3068   0.0128   0.0934   0.3845
     0.6695   0.9614   3.0379   3.6207   4.1622   4.5533

          k = 0.2500 0.4330 0.0000 ( 12885 PWs)   bands (ev):

   -59.6838 -33.9395 -33.8423 -33.7893 -11.6541 -10.9806  -4.5707  -3.9327
    -3.3693  -2.7721  -2.0238  -1.2653  -0.2507  -0.0828   0.0881   0.3174
     0.6677   0.8361   2.4789   3.5761   4.0206   4.5192

          k = 0.2500 0.5052 0.0000 ( 12870 PWs)   bands (ev):

   -59.6807 -33.9441 -33.8363 -33.8208 -11.4906 -10.8520  -4.6249  -4.1285
    -3.4154  -2.8262  -2.2284  -1.4549  -0.1980  -0.0234   0.0713   0.3006
     0.6938   0.9859   2.8795   3.5336   4.0979   4.8402

          k = 0.2500 0.5774 0.0000 ( 12844 PWs)   bands (ev):

   -59.6797 -33.9439 -33.8343 -33.8336 -11.4323 -10.8037  -4.6550  -4.1659
    -3.4945  -2.8021  -2.2966  -1.5365  -0.1845   0.0042   0.0693   0.2902
     0.6952   1.0875   2.9550   3.6169   4.1468   4.8988

          k = 0.3125 0.5413 0.0000 ( 12856 PWs)   bands (ev):

   -59.6791 -33.9234 -33.8612 -33.8331 -11.4027 -10.7773  -4.5753  -4.1639
    -3.3638  -3.1324  -2.3081  -1.5883  -0.1081  -0.0281   0.0817   0.2274
     0.7032   1.1557   2.8589   3.5769   4.2064   5.1661

 ------ SPIN DOWN ----------


          k = 0.0000 0.0000 0.0000 ( 12991 PWs)   bands (ev):

   -59.7165 -33.8958 -33.6279 -33.6279 -13.3776 -12.0520  -5.1788  -2.3009
    -1.4063  -1.4063  -0.4284  -0.4284   0.1934   1.3178   1.8652   1.8652
     1.9602   1.9602   2.4546   3.6748   3.6748   4.0381

          k = 0.0000 0.0722 0.0000 ( 12961 PWs)   bands (ev):

   -59.7150 -33.8929 -33.6429 -33.6313 -13.3213 -12.0208  -5.1152  -2.3059
    -1.5565  -1.3524  -0.5829  -0.5244   0.2969   1.2182   1.8364   1.8735
     1.9709   2.0303   2.5167   3.5552   3.7177   3.8903

          k = 0.0000 0.1443 0.0000 ( 12937 PWs)   bands (ev):

   -59.7108 -33.8845 -33.6854 -33.6410 -13.1571 -11.9294  -4.9376  -2.3606
    -1.9479  -1.2060  -0.8457  -0.7644   0.4016   0.9866   1.7759   1.8656
     2.0342   2.1623   2.6630   3.3166   3.6648   3.6889

          k = 0.0000 0.2165 0.0000 ( 12929 PWs)   bands (ev):

   -59.7044 -33.8721 -33.7485 -33.6555 -12.8997 -11.7850  -4.6916  -2.6156
    -2.3900  -1.1662  -1.0724  -0.8952   0.3998   0.7153   1.7010   1.8391
     2.1545   2.2941   2.6963   3.2543   3.5525   3.6822

          k = 0.0000 0.2887 0.0000 ( 12917 PWs)   bands (ev):

   -59.6969 -33.8573 -33.8221 -33.6726 -12.5750 -11.6000  -4.4752  -3.1376
    -2.7150  -1.4601  -1.2558  -0.6672   0.2186   0.6576   1.6403   1.8252
     2.3097   2.4071   2.6151   3.4220   3.4470   3.9763

          k = 0.0000 0.3608 0.0000 ( 12903 PWs)   bands (ev):

   -59.6894 -33.8948 -33.8425 -33.6895 -12.2225 -11.3935  -4.4621  -3.6115
    -3.0084  -1.7426  -1.4218  -0.4385   0.0156   0.8119   1.6365   1.8454
     2.4800   2.5233   2.6524   3.3497   3.7093   4.3696

          k = 0.0000 0.4330 0.0000 ( 12893 PWs)   bands (ev):

   -59.6830 -33.9559 -33.8300 -33.7039 -11.8977 -11.1928  -4.7316  -3.9243
    -3.1969  -1.9610  -1.5704  -0.2784   0.0155   0.9317   1.7091   1.8944
     2.6193   2.6379   2.9092   3.3539   3.9920   4.7011

          k = 0.0000 0.5052 0.0000 ( 12870 PWs)   bands (ev):

   -59.6787 -33.9964 -33.8216 -33.7134 -11.6668 -11.0375  -5.0337  -4.1282
    -3.2953  -2.0976  -1.6709  -0.1948   0.1423   0.9711   1.8045   1.9410
     2.6546   2.7474   3.3470   3.4095   4.2204   4.9028

          k = 0.0000-0.5774 0.0000 ( 12854 PWs)   bands (ev):

   -59.6772 -34.0105 -33.8186 -33.7168 -11.5834 -10.9769  -5.1557  -4.2044
    -3.3293  -2.1440  -1.7049  -0.1703   0.2130   0.9778   1.8496   1.9590
     2.6616   2.7854   3.4434   3.6223   4.2547   4.9883

          k = 0.0625 0.1083 0.0000 ( 12951 PWs)   bands (ev):

   -59.7121 -33.8872 -33.6712 -33.6383 -13.2110 -11.9595  -4.9942  -2.3325
    -1.8255  -1.2548  -0.7876  -0.6907   0.3969   1.0590   1.7622   1.9086
     1.9987   2.1274   2.6232   3.3786   3.6969   3.7079

          k = 0.0625 0.1804 0.0000 ( 12937 PWs)   bands (ev):

   -59.7068 -33.8768 -33.7228 -33.6516 -13.0000 -11.8414  -4.7797  -2.4545
    -2.2523  -1.2074  -1.0569  -0.8183   0.4503   0.8177   1.6685   1.8887
     2.1005   2.2596   2.7134   3.2436   3.5627   3.5986

          k = 0.0625 0.2526 0.0000 ( 12935 PWs)   bands (ev):

   -59.6999 -33.8632 -33.7896 -33.6689 -12.7084 -11.6761  -4.5389  -2.8734
    -2.5755  -1.5889  -1.0408  -0.7688   0.3614   0.6553   1.5934   1.8524
     2.2379   2.3882   2.6302   3.3502   3.4595   3.7454

          k = 0.0625 0.3248 0.0000 ( 12927 PWs)   bands (ev):

   -59.6924 -33.8610 -33.8484 -33.6877 -12.3682 -11.4790  -4.4068  -3.3735
    -2.8810  -1.8859  -1.1842  -0.6203   0.1459   0.7605   1.5711   1.8368
     2.3836   2.5077   2.5900   3.3804   3.5856   4.1212

          k = 0.0625 0.3969 0.0000 ( 12903 PWs)   bands (ev):

   -59.6854 -33.9263 -33.8348 -33.7049 -12.0267 -11.2726  -4.5487  -3.7503
    -3.1345  -2.0693  -1.3760  -0.5523   0.1041   0.9187   1.6312   1.8590
     2.5169   2.6364   2.7021   3.4213   3.8418   4.5289

          k = 0.0625 0.4691 0.0000 ( 12863 PWs)   bands (ev):

   -59.6801 -33.9759 -33.8243 -33.7181 -11.7454 -11.0899  -4.8592  -4.0138
    -3.2735  -2.1659  -1.5604  -0.5133   0.2192   0.9964   1.7406   1.9039
     2.6326   2.7049   3.0251   3.5172   4.1277   4.8924

          k = 0.0625 0.5413 0.0000 ( 12844 PWs)   bands (ev):

   -59.6772 -34.0025 -33.8186 -33.7252 -11.5864 -10.9769  -5.0783  -4.1674
    -3.3406  -2.1976  -1.6774  -0.4852   0.3382   1.0150   1.8240   1.9338
     2.6788   2.7556   3.3612   3.6157   4.3258   4.8498

          k = 0.1250 0.2165 0.0000 ( 12933 PWs)   bands (ev):

   -59.7010 -33.8653 -33.7760 -33.6698 -12.7544 -11.7020  -4.5633  -2.7332
    -2.5245  -1.7010  -1.0257  -0.7460   0.4391   0.6811   1.5397   1.8749
     2.2110   2.3937   2.6368   3.3215   3.4521   3.6209

          k = 0.1250 0.2887 0.0000 ( 12935 PWs)   bands (ev):

   -59.6940 -33.8517 -33.8371 -33.6923 -12.4456 -11.5230  -4.3826  -3.1426
    -2.7703  -2.1373  -1.1076  -0.6675   0.2602   0.7641   1.4701   1.8424
     2.3412   2.5037   2.5662   3.3512   3.5252   3.9181

          k = 0.1250 0.3608 0.0000 ( 12903 PWs)   bands (ev):

   -59.6870 -33.8972 -33.8380 -33.7152 -12.1125 -11.3225  -4.3932  -3.4959
    -3.0937  -2.3285  -1.2761  -0.7360   0.1767   0.9506   1.5001   1.8264
     2.4168   2.5628   2.6857   3.4830   3.6865   4.3231

          k = 0.1250 0.4330 0.0000 ( 12881 PWs)   bands (ev):

   -59.6811 -33.9476 -33.8264 -33.7347 -11.8083 -11.1273  -4.6246  -3.8171
    -3.2790  -2.3747  -1.4624  -0.8833   0.2573   1.0859   1.6285   1.8423
     2.4910   2.6716   2.8833   3.6418   3.9443   4.6915

          k = 0.1250 0.5052 0.0000 ( 12858 PWs)   bands (ev):

   -59.6772 -33.9809 -33.8186 -33.7477 -11.5939 -10.9768  -4.8734  -4.0625
    -3.3695  -2.3378  -1.6497  -0.9702   0.4060   1.1251   1.7550   1.8712
     2.6088   2.7308   3.1810   3.6878   4.2777   4.7845

          k = 0.1250 0.5774 0.0000 ( 12856 PWs)   bands (ev):

   -59.6758 -33.9926 -33.8159 -33.7523 -11.5168 -10.9186  -4.9744  -4.1522
    -3.4048  -2.2960  -1.7458  -0.9934   0.4810   1.1301   1.8099   1.8775
     2.6662   2.7438   3.3493   3.7265   4.4773   4.6077

          k = 0.1875 0.3248 0.0000 ( 12901 PWs)   bands (ev):

   -59.6876 -33.8841 -33.8391 -33.7217 -12.1425 -11.3394  -4.3329  -3.3169
    -3.1075  -2.4702  -1.3422  -0.7088   0.1921   0.9856   1.4201   1.8139
     2.3843   2.5344   2.6971   3.4674   3.6343   4.2488

          k = 0.1875 0.3969 0.0000 ( 12903 PWs)   bands (ev):

   -59.6817 -33.9246 -33.8275 -33.7515 -11.8433 -11.1465  -4.4481  -3.6054
    -3.3075  -2.5597  -1.6226  -0.9115   0.2358   1.2249   1.4725   1.7935
     2.3606   2.6615   2.8743   3.7002   3.7808   4.5840

          k = 0.1875 0.4691 0.0000 ( 12858 PWs)   bands (ev):

   -59.6772 -33.9540 -33.8186 -33.7756 -11.6015 -10.9765  -4.6315  -3.9443
    -3.3575  -2.5289  -1.8457  -1.1559   0.3878   1.2905   1.6498   1.8004
     2.4178   2.7506   3.1048   3.7091   4.1067   4.8275

          k = 0.1875 0.5413 0.0000 ( 12848 PWs)   bands (ev):

   -59.6747 -33.9694 -33.8138 -33.7890 -11.4665 -10.8730  -4.7628  -4.1142
    -3.4337  -2.4061  -2.0185  -1.3128   0.5336   1.2944   1.7600   1.8112
     2.5203   2.7885   3.2281   3.7934   4.2685   4.9072

          k = 0.2500 0.4330 0.0000 ( 12885 PWs)   bands (ev):

   -59.6772 -33.9400 -33.8187 -33.7900 -11.6046 -10.9762  -4.5121  -3.9137
    -3.2738  -2.6854  -1.9978  -1.1425   0.3662   1.4478   1.5237   1.7661
     2.3297   2.7582   3.0905   3.6845   4.0567   4.8396

          k = 0.2500 0.5052 0.0000 ( 12870 PWs)   bands (ev):

   -59.6742 -33.9445 -33.8215 -33.8127 -11.4403 -10.8481  -4.5689  -4.1021
    -3.3158  -2.7366  -2.2043  -1.3705   0.5448   1.4589   1.6750   1.7803
     2.3770   2.8100   3.1379   3.7487   4.2182   5.1419

          k = 0.2500 0.5774 0.0000 ( 12844 PWs)   bands (ev):

   -59.6731 -33.9443 -33.8343 -33.8106 -11.3818 -10.7998  -4.6039  -4.1301
    -3.4031  -2.7096  -2.2612  -1.4727   0.6314   1.4635   1.7173   1.7986
     2.4330   2.8249   3.0466   3.8396   4.3225   5.2667

          k = 0.3125 0.5413 0.0000 ( 12856 PWs)   bands (ev):

   -59.6725 -33.9238 -33.8619 -33.8095 -11.3521 -10.7734  -4.5443  -4.0880
    -3.2729  -3.0779  -2.2566  -1.5278   0.6718   1.5536   1.6830   1.8053
     2.3893   2.8341   2.9370   3.8118   4.4026   5.5213

     the Fermi energy is     2.2869 ev

!    total energy              =    -658.55464060 Ry
     total all-electron energy =    -12481.728531 Ry
     estimated scf accuracy    <       0.00000044 Ry
     smearing contrib. (-TS)   =      -0.00599206 Ry
     internal energy E=F+TS    =    -658.54864854 Ry

     The total energy is F=E-TS. E is the sum of the following terms:
     one-electron contribution =   -1222.13957099 Ry
     hartree contribution      =     624.77604571 Ry
     xc contribution           =     -62.25764953 Ry
     ewald contribution        =     407.22084313 Ry
     one-center paw contrib.   =    -406.14831686 Ry

     total magnetization       =     2.09 Bohr mag/cell
     absolute magnetization    =     2.24 Bohr mag/cell

     convergence has been achieved in   8 iterations

     negative rho (up, down):  2.264E-04 2.169E-04

     Forces acting on atoms (cartesian axes, Ry/au):

     atom    1 type  1   force =     0.00000000    0.00000000    0.00154976
     atom    2 type  2   force =     0.00000000    0.00000000    0.02650454
     atom    3 type  2   force =     0.00000000    0.00000000    0.00650410
     atom    4 type  3   force =     0.00000000    0.00000000   -0.03455840
     The non-local contrib.  to forces
     atom    1 type  1   force =     0.00000000    0.00000000   -0.04226021
     atom    2 type  2   force =     0.00000000   -0.00000000   -0.08546909
     atom    3 type  2   force =     0.00000000    0.00000000    0.27494134
     atom    4 type  3   force =     0.00000000    0.00000000   -0.02982354
     The ionic contribution  to forces
     atom    1 type  1   force =     0.00000000   -0.00000000  -31.01579287
     atom    2 type  2   force =    -0.00000000    0.00000000   18.75785538
     atom    3 type  2   force =    -0.00000000    0.00000000  -44.59557095
     atom    4 type  3   force =     0.00000000   -0.00000000   56.85350843
     The local contribution  to forces
     atom    1 type  1   force =     0.00000000   -0.00000000   31.05774976
     atom    2 type  2   force =    -0.00000000    0.00000000  -18.64542480
     atom    3 type  2   force =    -0.00000000    0.00000000   44.33058580
     atom    4 type  3   force =     0.00000000   -0.00000000  -56.84560084
     The core correction contribution to forces
     atom    1 type  1   force =    -0.00000000    0.00000000    0.00273715
     atom    2 type  2   force =     0.00000000   -0.00000000   -0.00102838
     atom    3 type  2   force =     0.00000000   -0.00000000   -0.00247246
     atom    4 type  3   force =    -0.00000000    0.00000000   -0.01355309
     The Hubbard contrib.    to forces
     atom    1 type  1   force =     0.00000000    0.00000000    0.00000000
     atom    2 type  2   force =     0.00000000    0.00000000    0.00000000
     atom    3 type  2   force =     0.00000000    0.00000000    0.00000000
     atom    4 type  3   force =     0.00000000    0.00000000    0.00000000
     The SCF correction term to forces
     atom    1 type  1   force =     0.00000000    0.00000000   -0.00076779
     atom    2 type  2   force =    -0.00000000   -0.00000000    0.00068769
     atom    3 type  2   force =     0.00000000    0.00000000   -0.00086337
     atom    4 type  3   force =    -0.00000000    0.00000000    0.00102690

     Total force =     0.044062     Total SCF correction =     0.001692


     Computing stress (Cartesian axis) and pressure


     negative rho (up, down):  2.264E-04 2.169E-04
          total   stress  (Ry/bohr**3)                   (kbar)     P=      -24.08
  -0.00016334   0.00000000   0.00000000          -24.03        0.00        0.00
   0.00000000  -0.00016334  -0.00000000            0.00      -24.03       -0.00
   0.00000000  -0.00000000  -0.00016440            0.00       -0.00      -24.18

     Energy error            =      2.6E-03 Ry
     Gradient error          =      3.5E-02 Ry/Bohr

     number of scf cycles    =   2
     number of bfgs steps    =   1

     energy             old  =    -658.5520593446 Ry
     energy             new  =    -658.5546405968 Ry

     CASE: energy            _new < energy            _old

     new trust radius        =       0.0406990670 bohr
     new conv_thr            =       0.0000002581 Ry


ATOMIC_POSITIONS (crystal)
Mo            0.0000000000        0.0000000000        0.4992396587
S             0.6666666667        0.3333333333        0.5898080689
S             0.6666666667        0.3333333333        0.4130695633
Co            0.0000000000        0.0000000000        0.6955187729



     Writing config-only to output data dir ./tmp/relax.save/
     NEW-OLD atomic charge density approx. for the potential

     negative rho (up, down):  2.317E-04 2.258E-04
     Generating pointlists ...
     new r_m :   0.3455 (alat units)  2.0689 (a.u.) for type    3

     total cpu time spent up to now is       67.4 secs

     Self-consistent Calculation

     iteration #  1     ecut=    80.00 Ry     beta= 0.70
     Davidson diagonalization with overlap
     ethr =  1.00E-06,  avg # of iterations =  8.0

     negative rho (up, down):  2.311E-04 2.204E-04

     total cpu time spent up to now is       70.7 secs

     total energy              =    -658.55665994 Ry
     estimated scf accuracy    <       0.00089463 Ry

     total magnetization       =     2.08 Bohr mag/cell
     absolute magnetization    =     2.24 Bohr mag/cell

     iteration #  2     ecut=    80.00 Ry     beta= 0.70
     Davidson diagonalization with overlap
     ethr =  2.56E-06,  avg # of iterations =  6.6

     negative rho (up, down):  2.306E-04 2.201E-04

     total cpu time spent up to now is       73.0 secs

     total energy              =    -658.55470213 Ry
     estimated scf accuracy    <       0.03761354 Ry

     total magnetization       =     2.01 Bohr mag/cell
     absolute magnetization    =     2.16 Bohr mag/cell

     iteration #  3     ecut=    80.00 Ry     beta= 0.70
     Davidson diagonalization with overlap
     ethr =  2.56E-06,  avg # of iterations =  6.0

     negative rho (up, down):  2.285E-04 2.182E-04

     total cpu time spent up to now is       75.2 secs

     total energy              =    -658.55658377 Ry
     estimated scf accuracy    <       0.00463338 Ry

     total magnetization       =     2.11 Bohr mag/cell
     absolute magnetization    =     2.27 Bohr mag/cell

     iteration #  4     ecut=    80.00 Ry     beta= 0.70
     Davidson diagonalization with overlap
     ethr =  2.56E-06,  avg # of iterations =  2.8

     negative rho (up, down):  2.270E-04 2.172E-04

     total cpu time spent up to now is       77.1 secs

     total energy              =    -658.55681549 Ry
     estimated scf accuracy    <       0.00073893 Ry

     total magnetization       =     2.07 Bohr mag/cell
     absolute magnetization    =     2.23 Bohr mag/cell

     iteration #  5     ecut=    80.00 Ry     beta= 0.70
     Davidson diagonalization with overlap
     ethr =  2.11E-06,  avg # of iterations =  2.6

     negative rho (up, down):  2.267E-04 2.171E-04

     total cpu time spent up to now is       79.0 secs

     total energy              =    -658.55690343 Ry
     estimated scf accuracy    <       0.00032297 Ry

     total magnetization       =     2.08 Bohr mag/cell
     absolute magnetization    =     2.23 Bohr mag/cell

     iteration #  6     ecut=    80.00 Ry     beta= 0.70
     Davidson diagonalization with overlap
     ethr =  9.23E-07,  avg # of iterations =  2.0

     negative rho (up, down):  2.268E-04 2.172E-04

     total cpu time spent up to now is       80.7 secs

     total energy              =    -658.55694928 Ry
     estimated scf accuracy    <       0.00001658 Ry

     total magnetization       =     2.08 Bohr mag/cell
     absolute magnetization    =     2.23 Bohr mag/cell

     iteration #  7     ecut=    80.00 Ry     beta= 0.70
     Davidson diagonalization with overlap
     ethr =  4.74E-08,  avg # of iterations =  4.1

     negative rho (up, down):  2.268E-04 2.172E-04

     total cpu time spent up to now is       82.8 secs

     total energy              =    -658.55695287 Ry
     estimated scf accuracy    <       0.00000766 Ry

     total magnetization       =     2.08 Bohr mag/cell
     absolute magnetization    =     2.23 Bohr mag/cell

     iteration #  8     ecut=    80.00 Ry     beta= 0.70
     Davidson diagonalization with overlap
     ethr =  2.19E-08,  avg # of iterations =  2.0

     negative rho (up, down):  2.269E-04 2.173E-04

     total cpu time spent up to now is       84.5 secs

     total energy              =    -658.55695399 Ry
     estimated scf accuracy    <       0.00000083 Ry

     total magnetization       =     2.08 Bohr mag/cell
     absolute magnetization    =     2.23 Bohr mag/cell

     iteration #  9     ecut=    80.00 Ry     beta= 0.70
     Davidson diagonalization with overlap
     ethr =  2.38E-09,  avg # of iterations =  3.3

     negative rho (up, down):  2.269E-04 2.173E-04
 
     Magnetic moment per site  (integrated on atomic sphere of radius R)
     atom   1 (R=0.316)  charge= 10.8049  magn=  0.0081
     atom   2 (R=0.316)  charge=  4.1984  magn=  0.0432
     atom   3 (R=0.316)  charge=  4.1913  magn=  0.0028
     atom   4 (R=0.346)  charge=  7.5098  magn=  2.0214

     total cpu time spent up to now is       86.5 secs

     End of self-consistent calculation

 ------ SPIN UP ------------


          k = 0.0000 0.0000 0.0000 ( 12991 PWs)   bands (ev):

   -59.7022 -33.8989 -33.6043 -33.6043 -13.4092 -12.0748  -5.2087  -2.4708
    -1.3952  -1.3952  -0.7727  -0.5566  -0.5566   0.0443   0.0443   0.5493
     0.5685   0.5685   1.3550   3.4577   3.4577   4.0716

          k = 0.0000 0.0722 0.0000 ( 12961 PWs)   bands (ev):

   -59.7007 -33.8960 -33.6193 -33.6077 -13.3532 -12.0429  -5.1459  -2.4590
    -1.5478  -1.3445  -0.9281  -0.6266  -0.5134   0.0328   0.0417   0.4522
     0.5645   0.6524   1.4290   3.3283   3.4837   3.9348

          k = 0.0000 0.1443 0.0000 ( 12937 PWs)   bands (ev):

   -59.6965 -33.8877 -33.6617 -33.6174 -13.1902 -11.9495  -4.9706  -2.4673
    -1.9469  -1.2120  -1.1832  -0.8208  -0.5255   0.0115   0.0651   0.3425
     0.5566   0.6800   1.5714   3.1045   3.4668   3.7133

          k = 0.0000 0.2165 0.0000 ( 12929 PWs)   bands (ev):

   -59.6901 -33.8754 -33.7246 -33.6319 -12.9345 -11.8020  -4.7274  -2.6725
    -2.4071  -1.3826  -1.2070  -0.9098  -0.5861  -0.0157   0.1367   0.2560
     0.5563   0.5694   1.6467   3.0471   3.3597   3.6968

          k = 0.0000 0.2887 0.0000 ( 12917 PWs)   bands (ev):

   -59.6826 -33.8607 -33.7981 -33.6489 -12.6116 -11.6133  -4.5097  -3.1988
    -2.7398  -1.4981  -1.4865  -0.7200  -0.6154  -0.0603   0.1739   0.2438
     0.4087   0.5815   1.7204   3.2178   3.2558   3.9354

          k = 0.0000 0.3608 0.0000 ( 12903 PWs)   bands (ev):

   -59.6751 -33.8708 -33.8459 -33.6658 -12.2603 -11.4030  -4.4868  -3.7017
    -3.0383  -1.7600  -1.6052  -0.6088  -0.5525  -0.0957   0.0743   0.3642
     0.3851   0.6445   1.9687   3.2269   3.5137   4.2728

          k = 0.0000 0.4330 0.0000 ( 12893 PWs)   bands (ev):

   -59.6687 -33.9317 -33.8335 -33.6802 -11.9356 -11.1995  -4.7640  -4.0136
    -3.2320  -1.9735  -1.7335  -0.6089  -0.4578  -0.0559   0.0692   0.4455
     0.4728   0.7270   2.4191   3.2897   3.8448   4.5451

          k = 0.0000 0.5052 0.0000 ( 12870 PWs)   bands (ev):

   -59.6645 -33.9721 -33.8252 -33.6897 -11.7034 -11.0429  -5.0817  -4.2036
    -3.3285  -2.1076  -1.8379  -0.6176  -0.4196  -0.0220   0.1584   0.5489
     0.5502   0.7888   2.9657   3.3933   4.0439   4.7210

          k = 0.0000-0.5774 0.0000 ( 12854 PWs)   bands (ev):

   -59.6630 -33.9863 -33.8223 -33.6930 -11.6192 -10.9822  -5.2095  -4.2747
    -3.3600  -2.1533  -1.8761  -0.6223  -0.4105  -0.0160   0.2038   0.5767
     0.6165   0.8100   3.3151   3.4444   3.9568   4.8573

          k = 0.0625 0.1083 0.0000 ( 12951 PWs)   bands (ev):

   -59.6979 -33.8904 -33.6475 -33.6147 -13.2437 -11.9803  -5.0265  -2.4545
    -1.8204  -1.2584  -1.1019  -0.8022  -0.4908   0.0198   0.0547   0.3727
     0.5548   0.6915   1.5361   3.1546   3.4782   3.7505

          k = 0.0625 0.1804 0.0000 ( 12937 PWs)   bands (ev):

   -59.6926 -33.8801 -33.6990 -33.6279 -13.0342 -11.8596  -4.8148  -2.5334
    -2.2548  -1.3319  -1.2000  -0.9787  -0.5149   0.0132   0.1036   0.2924
     0.5403   0.6491   1.6295   3.0362   3.3867   3.6121

          k = 0.0625 0.2526 0.0000 ( 12935 PWs)   bands (ev):

   -59.6856 -33.8666 -33.7656 -33.6453 -12.7443 -11.6909  -4.5753  -2.9277
    -2.5982  -1.6466  -1.3076  -0.8423  -0.5566  -0.0118   0.1818   0.2473
     0.4723   0.5657   1.6608   3.1121   3.2980   3.7157

          k = 0.0625 0.3248 0.0000 ( 12927 PWs)   bands (ev):

   -59.6781 -33.8521 -33.8368 -33.6640 -12.4057 -11.4900  -4.4366  -3.4525
    -2.9095  -1.9131  -1.4166  -0.7039  -0.5652  -0.0612   0.1326   0.2805
     0.4329   0.6034   1.7863   3.2121   3.4106   4.0247

          k = 0.0625 0.3969 0.0000 ( 12903 PWs)   bands (ev):

   -59.6712 -33.9022 -33.8383 -33.6812 -12.0647 -11.2803  -4.5750  -3.8437
    -3.1703  -2.0911  -1.5633  -0.6786  -0.5256  -0.0671   0.0784   0.3467
     0.5064   0.6881   2.1170   3.3149   3.6948   4.3872

          k = 0.0625 0.4691 0.0000 ( 12863 PWs)   bands (ev):

   -59.6658 -33.9517 -33.8279 -33.6943 -11.7828 -11.0957  -4.9018  -4.0906
    -3.3128  -2.1876  -1.7336  -0.7001  -0.4856  -0.0236   0.1191   0.4368
     0.5756   0.7758   2.6226   3.4451   3.9943   4.7111

          k = 0.0625 0.5413 0.0000 ( 12844 PWs)   bands (ev):

   -59.6630 -33.9783 -33.8223 -33.7014 -11.6224 -10.9823  -5.1322  -4.2327
    -3.3770  -2.2147  -1.8560  -0.7144  -0.4695  -0.0061   0.1764   0.5284
     0.6221   0.8342   3.1499   3.5086   4.0619   4.7355

          k = 0.1250 0.2165 0.0000 ( 12933 PWs)   bands (ev):

   -59.6867 -33.8687 -33.7521 -33.6461 -12.7901 -11.7173  -4.6001  -2.7911
    -2.5428  -1.7380  -1.2901  -0.9033  -0.5065   0.0252   0.1633   0.2806
     0.4890   0.5798   1.6399   3.0805   3.3056   3.5832

          k = 0.1250 0.2887 0.0000 ( 12935 PWs)   bands (ev):

   -59.6798 -33.8552 -33.8131 -33.6686 -12.4828 -11.5349  -4.4162  -3.2165
    -2.8005  -2.1485  -1.3640  -0.8214  -0.5030  -0.0091   0.1660   0.2860
     0.4688   0.5732   1.6658   3.1606   3.4090   3.7720

          k = 0.1250 0.3608 0.0000 ( 12903 PWs)   bands (ev):

   -59.6728 -33.8732 -33.8415 -33.6914 -12.1506 -11.3310  -4.4191  -3.5918
    -3.1288  -2.3472  -1.4833  -0.8535  -0.4748  -0.0708   0.0999   0.3134
     0.5470   0.6547   1.8526   3.3545   3.5929   4.1245

          k = 0.1250 0.4330 0.0000 ( 12881 PWs)   bands (ev):

   -59.6669 -33.9234 -33.8300 -33.7109 -11.8461 -11.1336  -4.6617  -3.8890
    -3.3332  -2.4101  -1.6452  -0.9688  -0.4423  -0.0466   0.0940   0.3536
     0.6001   0.7658   2.2681   3.5708   3.8567   4.4780

          k = 0.1250 0.5052 0.0000 ( 12858 PWs)   bands (ev):

   -59.6630 -33.9567 -33.8223 -33.7239 -11.6303 -10.9823  -4.9269  -4.1121
    -3.4265  -2.3801  -1.8313  -1.0516  -0.4281   0.0001   0.1200   0.4269
     0.6351   0.8638   2.8286   3.6181   4.1677   4.5560

          k = 0.1250 0.5774 0.0000 ( 12856 PWs)   bands (ev):

   -59.6616 -33.9683 -33.8196 -33.7285 -11.5523 -10.9241  -5.0342  -4.1954
    -3.4594  -2.3345  -1.9330  -1.0784  -0.4253   0.0158   0.1303   0.4694
     0.6476   0.9163   3.1957   3.6045   4.1904   4.4352

          k = 0.1875 0.3248 0.0000 ( 12901 PWs)   bands (ev):

   -59.6734 -33.8602 -33.8425 -33.6979 -12.1806 -11.3483  -4.3597  -3.4262
    -3.1298  -2.4884  -1.5136  -0.8958  -0.4404  -0.0737   0.1043   0.3197
     0.5610   0.6452   1.7496   3.3493   3.5650   4.0085

          k = 0.1875 0.3969 0.0000 ( 12903 PWs)   bands (ev):

   -59.6675 -33.9005 -33.8311 -33.7277 -11.8813 -11.1530  -4.4807  -3.6571
    -3.3918  -2.6119  -1.7245  -1.0680  -0.3683  -0.1039   0.0831   0.3254
     0.6152   0.7603   2.0526   3.6362   3.7394   4.3027

          k = 0.1875 0.4691 0.0000 ( 12858 PWs)   bands (ev):

   -59.6630 -33.9298 -33.8223 -33.7517 -11.6382 -10.9821  -4.6810  -3.9666
    -3.4576  -2.6076  -1.9348  -1.2590  -0.3310  -0.0437   0.0809   0.3396
     0.6573   0.8656   2.5597   3.6320   4.0894   4.5263

          k = 0.1875 0.5413 0.0000 ( 12848 PWs)   bands (ev):

   -59.6605 -33.9452 -33.8175 -33.7652 -11.5017 -10.8787  -4.8236  -4.1298
    -3.5244  -2.5048  -2.1153  -1.3791  -0.3204   0.0117   0.0745   0.3690
     0.6734   0.9807   3.0294   3.6166   4.1708   4.5627

          k = 0.2500 0.4330 0.0000 ( 12885 PWs)   bands (ev):

   -59.6630 -33.9158 -33.8223 -33.7661 -11.6415 -10.9820  -4.5570  -3.9244
    -3.4043  -2.7751  -2.0288  -1.2785  -0.2677  -0.0894   0.0642   0.3092
     0.6729   0.8575   2.4567   3.6022   4.0515   4.5302

          k = 0.2500 0.5052 0.0000 ( 12870 PWs)   bands (ev):

   -59.6599 -33.9203 -33.8164 -33.7975 -11.4755 -10.8539  -4.6170  -4.1210
    -3.4399  -2.8446  -2.2314  -1.4607  -0.2121  -0.0313   0.0477   0.2862
     0.6985   1.0113   2.8660   3.5410   4.1035   4.8619

          k = 0.2500 0.5774 0.0000 ( 12844 PWs)   bands (ev):

   -59.6589 -33.9201 -33.8144 -33.8103 -11.4161 -10.8058  -4.6479  -4.1625
    -3.5105  -2.8279  -2.3005  -1.5386  -0.1974  -0.0064   0.0492   0.2731
     0.7006   1.1115   2.9674   3.5996   4.1302   4.9131

          k = 0.3125 0.5413 0.0000 ( 12856 PWs)   bands (ev):

   -59.6583 -33.8996 -33.8380 -33.8132 -11.3861 -10.7796  -4.5560  -4.1717
    -3.3888  -3.1489  -2.3159  -1.5862  -0.1190  -0.0433   0.0592   0.2116
     0.7092   1.1807   2.8759   3.5648   4.1781   5.1820

 ------ SPIN DOWN ----------


          k = 0.0000 0.0000 0.0000 ( 12991 PWs)   bands (ev):

   -59.6963 -33.8752 -33.6063 -33.6063 -13.3695 -12.0605  -5.1691  -2.3515
    -1.3617  -1.3617  -0.4080  -0.4080   0.2553   1.3302   1.8153   1.8153
     1.9101   1.9101   2.4018   3.6525   3.6526   4.0860

          k = 0.0000 0.0722 0.0000 ( 12961 PWs)   bands (ev):

   -59.6948 -33.8723 -33.6213 -33.6097 -13.3133 -12.0288  -5.1058  -2.3531
    -1.5108  -1.3072  -0.5690  -0.5052   0.3523   1.2198   1.7881   1.8258
     1.9189   1.9924   2.4677   3.5288   3.6891   3.9441

          k = 0.0000 0.1443 0.0000 ( 12937 PWs)   bands (ev):

   -59.6906 -33.8641 -33.6636 -33.6194 -13.1493 -11.9361  -4.9288  -2.3968
    -1.9010  -1.1557  -0.8569  -0.7527   0.4456   0.9818   1.7295   1.8199
     1.9813   2.1356   2.6329   3.2846   3.6713   3.7224

          k = 0.0000 0.2165 0.0000 ( 12929 PWs)   bands (ev):

   -59.6843 -33.8517 -33.7265 -33.6339 -12.8920 -11.7898  -4.6825  -2.6235
    -2.3618  -1.1133  -1.1084  -0.8957   0.4404   0.7065   1.6566   1.7951
     2.1034   2.2706   2.6950   3.2279   3.5511   3.7249

          k = 0.0000 0.2887 0.0000 ( 12917 PWs)   bands (ev):

   -59.6768 -33.8371 -33.7998 -33.6509 -12.5668 -11.6028  -4.4619  -3.1328
    -2.7091  -1.4219  -1.3064  -0.6566   0.2614   0.6397   1.5985   1.7866
     2.2612   2.3858   2.6166   3.4294   3.4510   3.9992

          k = 0.0000 0.3608 0.0000 ( 12903 PWs)   bands (ev):

   -59.6692 -33.8725 -33.8223 -33.6678 -12.2126 -11.3947  -4.4391  -3.6260
    -3.0066  -1.7076  -1.4664  -0.4371   0.0557   0.7852   1.5995   1.8163
     2.4351   2.4917   2.6603   3.3622   3.7363   4.3815

          k = 0.0000 0.4330 0.0000 ( 12893 PWs)   bands (ev):

   -59.6629 -33.9334 -33.8098 -33.6821 -11.8850 -11.1933  -4.7127  -3.9474
    -3.1902  -1.9270  -1.6102  -0.2890   0.0507   0.8982   1.6809   1.8759
     2.5751   2.5965   2.9175   3.3702   4.0293   4.7077

          k = 0.0000 0.5052 0.0000 ( 12870 PWs)   bands (ev):

   -59.6586 -33.9737 -33.8014 -33.6917 -11.6508 -11.0382  -5.0268  -4.1497
    -3.2799  -2.0640  -1.7105  -0.2143   0.1698   0.9374   1.7866   1.9299
     2.6115   2.7080   3.3406   3.4298   4.2325   4.9257

          k = 0.0000-0.5774 0.0000 ( 12854 PWs)   bands (ev):

   -59.6571 -33.9879 -33.7985 -33.6950 -11.5660 -10.9779  -5.1536  -4.2249
    -3.3100  -2.1105  -1.7450  -0.1930   0.2361   0.9453   1.8365   1.9504
     2.6192   2.7465   3.4656   3.6161   4.2220   5.0431

          k = 0.0625 0.1083 0.0000 ( 12951 PWs)   bands (ev):

   -59.6920 -33.8668 -33.6495 -33.6167 -13.2031 -11.9666  -4.9853  -2.3730
    -1.7777  -1.2075  -0.7841  -0.6817   0.4440   1.0545   1.7126   1.8696
     1.9411   2.0989   2.5861   3.3475   3.6840   3.7569

          k = 0.0625 0.1804 0.0000 ( 12937 PWs)   bands (ev):

   -59.6867 -33.8564 -33.7009 -33.6300 -12.9924 -11.8469  -4.7710  -2.4839
    -2.2043  -1.1720  -1.0433  -0.8406   0.4896   0.8123   1.6207   1.8479
     2.0474   2.2349   2.7053   3.2097   3.5753   3.6320

          k = 0.0625 0.2526 0.0000 ( 12935 PWs)   bands (ev):

   -59.6798 -33.8429 -33.7675 -33.6473 -12.7005 -11.6796  -4.5281  -2.8700
    -2.5617  -1.5723  -1.0524  -0.7745   0.4073   0.6391   1.5498   1.8127
     2.1901   2.3641   2.6322   3.3522   3.4592   3.7717

          k = 0.0625 0.3248 0.0000 ( 12927 PWs)   bands (ev):

   -59.6723 -33.8390 -33.8280 -33.6660 -12.3593 -11.4807  -4.3877  -3.3796
    -2.8788  -1.8649  -1.2129  -0.6210   0.1858   0.7390   1.5337   1.8027
     2.3463   2.4819   2.5857   3.3945   3.6066   4.1333

          k = 0.0625 0.3969 0.0000 ( 12903 PWs)   bands (ev):

   -59.6653 -33.9039 -33.8146 -33.6832 -12.0153 -11.2733  -4.5250  -3.7716
    -3.1324  -2.0462  -1.4054  -0.5541   0.1341   0.8875   1.6010   1.8342
     2.4858   2.5979   2.7012   3.4357   3.8797   4.5377

          k = 0.0625 0.4691 0.0000 ( 12863 PWs)   bands (ev):

   -59.6600 -33.9533 -33.8042 -33.6963 -11.7308 -11.0905  -4.8468  -4.0347
    -3.2632  -2.1416  -1.5922  -0.5209   0.2413   0.9613   1.7192   1.8878
     2.5918   2.6740   3.0181   3.5323   4.1630   4.9010

          k = 0.0625 0.5413 0.0000 ( 12844 PWs)   bands (ev):

   -59.6571 -33.9799 -33.7985 -33.7034 -11.5692 -10.9779  -5.0751  -4.1859
    -3.3230  -2.1699  -1.7146  -0.4991   0.3562   0.9800   1.8096   1.9228
     2.6367   2.7238   3.3658   3.6189   4.3158   4.8565

          k = 0.1250 0.2165 0.0000 ( 12933 PWs)   bands (ev):

   -59.6808 -33.8450 -33.7540 -33.6481 -12.7466 -11.7058  -4.5531  -2.7395
    -2.4995  -1.6808  -1.0187  -0.7742   0.4870   0.6641   1.4954   1.8360
     2.1631   2.3683   2.6391   3.3299   3.4462   3.6452

          k = 0.1250 0.2887 0.0000 ( 12935 PWs)   bands (ev):

   -59.6739 -33.8315 -33.8148 -33.6705 -12.4370 -11.5251  -4.3659  -3.1481
    -2.7656  -2.1107  -1.1222  -0.6917   0.2991   0.7474   1.4344   1.8065
     2.3055   2.4971   2.5412   3.3799   3.5389   3.9225

          k = 0.1250 0.3608 0.0000 ( 12903 PWs)   bands (ev):

   -59.6669 -33.8749 -33.8178 -33.6934 -12.1020 -11.3234  -4.3676  -3.5147
    -3.0962  -2.3029  -1.2954  -0.7517   0.2022   0.9248   1.4728   1.7964
     2.4135   2.5391   2.6459   3.5033   3.7212   4.3311

          k = 0.1250 0.4330 0.0000 ( 12881 PWs)   bands (ev):

   -59.6610 -33.9251 -33.8062 -33.7128 -11.7948 -11.1279  -4.6056  -3.8342
    -3.2787  -2.3568  -1.4852  -0.8919   0.2736   1.0532   1.6066   1.8194
     2.4855   2.6420   2.8474   3.6575   3.9873   4.7005

          k = 0.1250 0.5052 0.0000 ( 12858 PWs)   bands (ev):

   -59.6571 -33.9583 -33.7985 -33.7259 -11.5772 -10.9778  -4.8666  -4.0747
    -3.3596  -2.3221  -1.6799  -0.9787   0.4190   1.0904   1.7383   1.8547
     2.5897   2.6987   3.1604   3.6995   4.3075   4.7697

          k = 0.1250 0.5774 0.0000 ( 12856 PWs)   bands (ev):

   -59.6557 -33.9700 -33.7958 -33.7304 -11.4987 -10.9198  -4.9727  -4.1628
    -3.3905  -2.2770  -1.7823  -1.0031   0.4928   1.0951   1.7952   1.8642
     2.6433   2.7095   3.3534   3.7164   4.4893   4.5891

          k = 0.1875 0.3248 0.0000 ( 12901 PWs)   bands (ev):

   -59.6675 -33.8618 -33.8189 -33.6999 -12.1323 -11.3404  -4.3070  -3.3385
    -3.1098  -2.4396  -1.3553  -0.7352   0.2139   0.9635   1.3948   1.7825
     2.3924   2.5014   2.6561   3.5008   3.6576   4.2562

          k = 0.1875 0.3969 0.0000 ( 12903 PWs)   bands (ev):

   -59.6616 -33.9022 -33.8074 -33.7296 -11.8304 -11.1471  -4.4238  -3.6082
    -3.3296  -2.5414  -1.6322  -0.9299   0.2431   1.1962   1.4523   1.7672
     2.3712   2.6275   2.8308   3.7210   3.8204   4.5964

          k = 0.1875 0.4691 0.0000 ( 12858 PWs)   bands (ev):

   -59.6571 -33.9315 -33.7985 -33.7536 -11.5853 -10.9775  -4.6183  -3.9429
    -3.3688  -2.5244  -1.8578  -1.1676   0.3895   1.2614   1.6314   1.7781
     2.4208   2.7160   3.0702   3.7242   4.1409   4.8329

          k = 0.1875 0.5413 0.0000 ( 12848 PWs)   bands (ev):

   -59.6546 -33.9469 -33.7938 -33.7671 -11.4479 -10.8745  -4.7581  -4.1122
    -3.4333  -2.4049  -2.0396  -1.3204   0.5322   1.2646   1.7472   1.7914
     2.5158   2.7516   3.2292   3.7749   4.2873   4.8978

          k = 0.2500 0.4330 0.0000 ( 12885 PWs)   bands (ev):

   -59.6571 -33.9175 -33.7986 -33.7680 -11.5886 -10.9773  -4.4944  -3.9037
    -3.3040  -2.6822  -2.0001  -1.1552   0.3615   1.4253   1.5001   1.7423
     2.3389   2.7233   3.0529   3.7019   4.0902   4.8518

          k = 0.2500 0.5052 0.0000 ( 12870 PWs)   bands (ev):

   -59.6541 -33.9220 -33.7994 -33.7926 -11.4216 -10.8498  -4.5554  -4.0942
    -3.3344  -2.7500  -2.2057  -1.3767   0.5313   1.4348   1.6644   1.7541
     2.3825   2.7729   3.1368   3.7357   4.2308   5.1554

          k = 0.2500 0.5774 0.0000 ( 12844 PWs)   bands (ev):

   -59.6530 -33.9218 -33.8122 -33.7906 -11.3620 -10.8017  -4.5908  -4.1264
    -3.4135  -2.7295  -2.2649  -1.4753   0.6136   1.4368   1.7171   1.7697
     2.4367   2.7866   3.0625   3.8198   4.3163   5.2642

          k = 0.3125 0.5413 0.0000 ( 12856 PWs)   bands (ev):

   -59.6524 -33.9012 -33.8399 -33.7895 -11.3319 -10.7755  -4.5204  -4.0929
    -3.2897  -3.0930  -2.2642  -1.5264   0.6462   1.5195   1.6963   1.7735
     2.3965   2.7966   2.9539   3.7983   4.3847   5.5335

     the Fermi energy is     2.2677 ev

!    total energy              =    -658.55695425 Ry
     total all-electron energy =    -12481.730845 Ry
     estimated scf accuracy    <       0.00000016 Ry
     smearing contrib. (-TS)   =      -0.00589848 Ry
     internal energy E=F+TS    =    -658.55105578 Ry

     The total energy is F=E-TS. E is the sum of the following terms:
     one-electron contribution =   -1226.01599209 Ry
     hartree contribution      =     626.70809627 Ry
     xc contribution           =     -62.25785064 Ry
     ewald contribution        =     409.16185884 Ry
     one-center paw contrib.   =    -406.14716816 Ry

     total magnetization       =     2.08 Bohr mag/cell
     absolute magnetization    =     2.24 Bohr mag/cell

     convergence has been achieved in   9 iterations

     negative rho (up, down):  2.269E-04 2.173E-04

     Forces acting on atoms (cartesian axes, Ry/au):

     atom    1 type  1   force =     0.00000000    0.00000000    0.01493846
     atom    2 type  2   force =     0.00000000    0.00000000    0.02037116
     atom    3 type  2   force =     0.00000000    0.00000000    0.00246127
     atom    4 type  3   force =     0.00000000    0.00000000   -0.03777089
     The non-local contrib.  to forces
     atom    1 type  1   force =     0.00000000    0.00000000   -0.05016480
     atom    2 type  2   force =     0.00000000   -0.00000000   -0.07934233
     atom    3 type  2   force =     0.00000000    0.00000000    0.27321121
     atom    4 type  3   force =     0.00000000    0.00000000   -0.02238854
     The ionic contribution  to forces
     atom    1 type  1   force =     0.00000000   -0.00000000  -31.15376183
     atom    2 type  2   force =    -0.00000000    0.00000000   18.72000074
     atom    3 type  2   force =    -0.00000000    0.00000000  -44.62501800
     atom    4 type  3   force =     0.00000000   -0.00000000   57.05877909
     The local contribution  to forces
     atom    1 type  1   force =     0.00000000   -0.00000000   31.21633597
     atom    2 type  2   force =    -0.00000000    0.00000000  -18.61892450
     atom    3 type  2   force =    -0.00000000    0.00000000   44.35667653
     atom    4 type  3   force =     0.00000000   -0.00000000  -57.05932845
     The core correction contribution to forces
     atom    1 type  1   force =     0.00000000    0.00000000    0.00321839
     atom    2 type  2   force =     0.00000000   -0.00000000   -0.00096024
     atom    3 type  2   force =     0.00000000   -0.00000000   -0.00237643
     atom    4 type  3   force =     0.00000000    0.00000000   -0.01444442
     The Hubbard contrib.    to forces
     atom    1 type  1   force =     0.00000000    0.00000000    0.00000000
     atom    2 type  2   force =     0.00000000    0.00000000    0.00000000
     atom    3 type  2   force =     0.00000000    0.00000000    0.00000000
     atom    4 type  3   force =     0.00000000    0.00000000    0.00000000
     The SCF correction term to forces
     atom    1 type  1   force =    -0.00000000    0.00000000   -0.00070494
     atom    2 type  2   force =    -0.00000000   -0.00000000   -0.00041817
     atom    3 type  2   force =    -0.00000000    0.00000000   -0.00004769
     atom    4 type  3   force =    -0.00000000    0.00000000   -0.00040423

     Total force =     0.045506     Total SCF correction =     0.000915


     Computing stress (Cartesian axis) and pressure


     negative rho (up, down):  2.269E-04 2.173E-04
          total   stress  (Ry/bohr**3)                   (kbar)     P=      -25.00
  -0.00016183   0.00000000   0.00000000          -23.81        0.00        0.00
   0.00000000  -0.00016183  -0.00000000            0.00      -23.81       -0.00
   0.00000000   0.00000000  -0.00018608            0.00        0.00      -27.37

     Energy error            =      2.3E-03 Ry
     Gradient error          =      3.8E-02 Ry/Bohr

     number of scf cycles    =   3
     number of bfgs steps    =   2

     energy             old  =    -658.5546405968 Ry
     energy             new  =    -658.5569542535 Ry

     CASE: energy            _new < energy            _old

     new trust radius        =       0.0610486004 bohr
     new conv_thr            =       0.0000002314 Ry


ATOMIC_POSITIONS (crystal)
Mo            0.0000000000        0.0000000000        0.4992015513
S             0.6666666667        0.3333333333        0.5912165067
S             0.6666666667        0.3333333333        0.4134752377
Co            0.0000000000        0.0000000000        0.6937427680



     Writing config-only to output data dir ./tmp/relax.save/
     NEW-OLD atomic charge density approx. for the potential

     negative rho (up, down):  2.263E-04 2.245E-04
     Generating pointlists ...
     new r_m :   0.3401 (alat units)  2.0364 (a.u.) for type    3

     total cpu time spent up to now is       89.6 secs

     Self-consistent Calculation

     iteration #  1     ecut=    80.00 Ry     beta= 0.70
     Davidson diagonalization with overlap
     c_bands:  1 eigenvalues not converged
     ethr =  1.00E-06,  avg # of iterations =  9.1

     negative rho (up, down):  2.268E-04 2.188E-04

     total cpu time spent up to now is       93.1 secs

     total energy              =    -658.55936148 Ry
     estimated scf accuracy    <       0.00213066 Ry

     total magnetization       =     2.06 Bohr mag/cell
     absolute magnetization    =     2.22 Bohr mag/cell

     iteration #  2     ecut=    80.00 Ry     beta= 0.70
     Davidson diagonalization with overlap
     ethr =  6.09E-06,  avg # of iterations =  6.9

     negative rho (up, down):  2.264E-04 2.183E-04

     total cpu time spent up to now is       95.4 secs

     total energy              =    -658.55348476 Ry
     estimated scf accuracy    <       0.13057661 Ry

     total magnetization       =     1.91 Bohr mag/cell
     absolute magnetization    =     2.06 Bohr mag/cell

     iteration #  3     ecut=    80.00 Ry     beta= 0.70
     Davidson diagonalization with overlap
     ethr =  6.09E-06,  avg # of iterations =  6.2

     negative rho (up, down):  2.244E-04 2.162E-04

     total cpu time spent up to now is       97.7 secs

     total energy              =    -658.55952997 Ry
     estimated scf accuracy    <       0.00700578 Ry

     total magnetization       =     2.09 Bohr mag/cell
     absolute magnetization    =     2.27 Bohr mag/cell

     iteration #  4     ecut=    80.00 Ry     beta= 0.70
     Davidson diagonalization with overlap
     ethr =  6.09E-06,  avg # of iterations =  2.7

     negative rho (up, down):  2.239E-04 2.164E-04

     total cpu time spent up to now is       99.6 secs

     total energy              =    -658.56001719 Ry
     estimated scf accuracy    <       0.00076436 Ry

     total magnetization       =     2.04 Bohr mag/cell
     absolute magnetization    =     2.20 Bohr mag/cell

     iteration #  5     ecut=    80.00 Ry     beta= 0.70
     Davidson diagonalization with overlap
     ethr =  2.18E-06,  avg # of iterations =  2.4

     negative rho (up, down):  2.239E-04 2.165E-04

     total cpu time spent up to now is      101.4 secs

     total energy              =    -658.56011327 Ry
     estimated scf accuracy    <       0.00035394 Ry

     total magnetization       =     2.05 Bohr mag/cell
     absolute magnetization    =     2.22 Bohr mag/cell

     iteration #  6     ecut=    80.00 Ry     beta= 0.70
     Davidson diagonalization with overlap
     ethr =  1.01E-06,  avg # of iterations =  2.0

     negative rho (up, down):  2.240E-04 2.167E-04

     total cpu time spent up to now is      103.2 secs

     total energy              =    -658.56016874 Ry
     estimated scf accuracy    <       0.00002172 Ry

     total magnetization       =     2.05 Bohr mag/cell
     absolute magnetization    =     2.22 Bohr mag/cell

     iteration #  7     ecut=    80.00 Ry     beta= 0.70
     Davidson diagonalization with overlap
     ethr =  6.21E-08,  avg # of iterations =  4.2

     negative rho (up, down):  2.241E-04 2.168E-04

     total cpu time spent up to now is      105.2 secs

     total energy              =    -658.56017325 Ry
     estimated scf accuracy    <       0.00001068 Ry

     total magnetization       =     2.05 Bohr mag/cell
     absolute magnetization    =     2.22 Bohr mag/cell

     iteration #  8     ecut=    80.00 Ry     beta= 0.70
     Davidson diagonalization with overlap
     ethr =  3.05E-08,  avg # of iterations =  2.4

     negative rho (up, down):  2.244E-04 2.169E-04

     total cpu time spent up to now is      107.0 secs

     total energy              =    -658.56017503 Ry
     estimated scf accuracy    <       0.00000163 Ry

     total magnetization       =     2.05 Bohr mag/cell
     absolute magnetization    =     2.22 Bohr mag/cell

     iteration #  9     ecut=    80.00 Ry     beta= 0.70
     Davidson diagonalization with overlap
     ethr =  4.65E-09,  avg # of iterations =  2.0

     negative rho (up, down):  2.246E-04 2.171E-04

     total cpu time spent up to now is      108.8 secs

     total energy              =    -658.56017535 Ry
     estimated scf accuracy    <       0.00000024 Ry

     total magnetization       =     2.05 Bohr mag/cell
     absolute magnetization    =     2.22 Bohr mag/cell

     iteration # 10     ecut=    80.00 Ry     beta= 0.70
     Davidson diagonalization with overlap
     ethr =  6.86E-10,  avg # of iterations =  3.9

     negative rho (up, down):  2.246E-04 2.170E-04
 
     Magnetic moment per site  (integrated on atomic sphere of radius R)
     atom   1 (R=0.316)  charge= 10.8026  magn=  0.0055
     atom   2 (R=0.316)  charge=  4.1927  magn=  0.0461
     atom   3 (R=0.316)  charge=  4.1958  magn=  0.0032
     atom   4 (R=0.340)  charge=  7.4650  magn=  1.9938

     total cpu time spent up to now is      110.8 secs

     End of self-consistent calculation

 ------ SPIN UP ------------


          k = 0.0000 0.0000 0.0000 ( 12991 PWs)   bands (ev):

   -59.6770 -33.8751 -33.5758 -33.5758 -13.4108 -12.0850  -5.1996  -2.5274
    -1.3501  -1.3501  -0.7486  -0.5880  -0.5880   0.0636   0.0636   0.5408
     0.5408   0.6125   1.3666   3.4051   3.4051   4.1261

          k = 0.0000 0.0722 0.0000 ( 12961 PWs)   bands (ev):

   -59.6755 -33.8723 -33.5907 -33.5792 -13.3552 -12.0524  -5.1373  -2.5130
    -1.5019  -1.3007  -0.9204  -0.6502  -0.5391   0.0522   0.0541   0.4374
     0.5365   0.7037   1.4446   3.2748   3.4277   3.9932

          k = 0.0000 0.1443 0.0000 ( 12937 PWs)   bands (ev):

   -59.6713 -33.8641 -33.6329 -33.5888 -13.1929 -11.9570  -4.9629  -2.5112
    -1.9021  -1.2016  -1.1713  -0.8311  -0.5527   0.0305   0.0652   0.3198
     0.5292   0.7377   1.6023   3.0529   3.4172   3.7755

          k = 0.0000 0.2165 0.0000 ( 12929 PWs)   bands (ev):

   -59.6650 -33.8518 -33.6956 -33.6033 -12.9380 -11.8064  -4.7199  -2.6899
    -2.3826  -1.4333  -1.1814  -0.9057  -0.6089   0.0013   0.1307   0.2326
     0.5330   0.6215   1.6956   3.0115   3.3277   3.7520

          k = 0.0000 0.2887 0.0000 ( 12917 PWs)   bands (ev):

   -59.6575 -33.8373 -33.7687 -33.6202 -12.6155 -11.6140  -4.4978  -3.2081
    -2.7389  -1.5585  -1.4641  -0.7274  -0.6332  -0.0417   0.1633   0.2389
     0.4365   0.5682   1.7758   3.2106   3.2395   3.9756

          k = 0.0000 0.3608 0.0000 ( 12903 PWs)   bands (ev):

   -59.6500 -33.8415 -33.8224 -33.6371 -12.2635 -11.4003  -4.4650  -3.7347
    -3.0424  -1.7355  -1.6565  -0.6258  -0.5845  -0.0700   0.0882   0.3619
     0.3761   0.6464   2.0161   3.2246   3.5332   4.2971

          k = 0.0000 0.4330 0.0000 ( 12893 PWs)   bands (ev):

   -59.6436 -33.9020 -33.8102 -33.6514 -11.9366 -11.1944  -4.7544  -4.0488
    -3.2315  -1.9474  -1.7795  -0.6264  -0.5105  -0.0339   0.0990   0.4258
     0.4711   0.7418   2.4446   3.3011   3.8831   4.5546

          k = 0.0000 0.5052 0.0000 ( 12870 PWs)   bands (ev):

   -59.6394 -33.9422 -33.8020 -33.6609 -11.7016 -11.0369  -5.0906  -4.2312
    -3.3183  -2.0806  -1.8855  -0.6357  -0.4839  -0.0056   0.1920   0.5365
     0.5476   0.8093   2.9601   3.4162   4.0641   4.7484

          k = 0.0000-0.5774 0.0000 ( 12854 PWs)   bands (ev):

   -59.6379 -33.9563 -33.7991 -33.6643 -11.6159 -10.9761  -5.2249  -4.2999
    -3.3451  -2.1260  -1.9252  -0.6405  -0.4783   0.0001   0.2337   0.5757
     0.6088   0.8315   3.2853   3.4721   3.9564   4.9192

          k = 0.0625 0.1083 0.0000 ( 12951 PWs)   bands (ev):

   -59.6727 -33.8667 -33.6188 -33.5861 -13.2462 -11.9884  -5.0186  -2.5025
    -1.7741  -1.2188  -1.1098  -0.8135  -0.5207   0.0348   0.0621   0.3519
     0.5260   0.7493   1.5619   3.1018   3.4253   3.8124

          k = 0.0625 0.1804 0.0000 ( 12937 PWs)   bands (ev):

   -59.6674 -33.8565 -33.6701 -33.5993 -13.0374 -11.8651  -4.8075  -2.5683
    -2.2131  -1.3650  -1.1725  -0.9790  -0.5454   0.0290   0.1001   0.2726
     0.5131   0.7047   1.6723   2.9927   3.3494   3.6728

          k = 0.0625 0.2526 0.0000 ( 12935 PWs)   bands (ev):

   -59.6605 -33.8431 -33.7364 -33.6166 -12.7482 -11.6931  -4.5661  -2.9361
    -2.5895  -1.6560  -1.3327  -0.8449  -0.5805   0.0030   0.1689   0.2407
     0.4851   0.5761   1.7129   3.0988   3.2729   3.7641

          k = 0.0625 0.3248 0.0000 ( 12927 PWs)   bands (ev):

   -59.6530 -33.8288 -33.8073 -33.6353 -12.4094 -11.4886  -4.4184  -3.4762
    -2.9132  -1.9020  -1.4586  -0.7238  -0.5835  -0.0434   0.1317   0.2868
     0.4288   0.6065   1.8349   3.2156   3.4138   4.0563

          k = 0.0625 0.3969 0.0000 ( 12903 PWs)   bands (ev):

   -59.6461 -33.8726 -33.8150 -33.6524 -12.0670 -11.2761  -4.5557  -3.8818
    -3.1745  -2.0749  -1.6034  -0.7076  -0.5448  -0.0489   0.0881   0.3409
     0.4960   0.7036   2.1484   3.3252   3.7283   4.4050

          k = 0.0625 0.4691 0.0000 ( 12863 PWs)   bands (ev):

   -59.6407 -33.9218 -33.8047 -33.6655 -11.7822 -11.0900  -4.9029  -4.1198
    -3.3085  -2.1707  -1.7744  -0.7347  -0.5113  -0.0080   0.1363   0.4261
     0.5698   0.7968   2.6286   3.4636   4.0358   4.7239

          k = 0.0625 0.5413 0.0000 ( 12844 PWs)   bands (ev):

   -59.6379 -33.9483 -33.7991 -33.6726 -11.6194 -10.9762  -5.1466  -4.2561
    -3.3643  -2.1934  -1.9037  -0.7525  -0.5001   0.0097   0.1930   0.5198
     0.6221   0.8554   3.1341   3.5259   4.0701   4.7494

          k = 0.1250 0.2165 0.0000 ( 12933 PWs)   bands (ev):

   -59.6615 -33.8452 -33.7230 -33.6174 -12.7938 -11.7200  -4.5916  -2.8074
    -2.5238  -1.7337  -1.3227  -0.9071  -0.5363   0.0363   0.1542   0.2749
     0.4741   0.6189   1.6891   3.0658   3.2775   3.6362

          k = 0.1250 0.2887 0.0000 ( 12935 PWs)   bands (ev):

   -59.6546 -33.8318 -33.7837 -33.6398 -12.4866 -11.5343  -4.4007  -3.2387
    -2.8025  -2.1254  -1.4106  -0.8405  -0.5290   0.0006   0.1533   0.3037
     0.4567   0.5926   1.7107   3.1761   3.4008   3.8067

          k = 0.1250 0.3608 0.0000 ( 12903 PWs)   bands (ev):

   -59.6477 -33.8438 -33.8180 -33.6626 -12.1534 -11.3276  -4.3950  -3.6323
    -3.1358  -2.3260  -1.5250  -0.8765  -0.4955  -0.0612   0.0887   0.3223
     0.5357   0.6778   1.8815   3.3768   3.6173   4.1457

          k = 0.1250 0.4330 0.0000 ( 12881 PWs)   bands (ev):

   -59.6418 -33.8937 -33.8067 -33.6820 -11.8466 -11.1283  -4.6530  -3.9184
    -3.3389  -2.3995  -1.6836  -0.9907  -0.4584  -0.0401   0.0878   0.3497
     0.5996   0.7901   2.2735   3.5901   3.9047   4.4911

          k = 0.1250 0.5052 0.0000 ( 12858 PWs)   bands (ev):

   -59.6379 -33.9268 -33.7991 -33.6950 -11.6278 -10.9764  -4.9372  -4.1293
    -3.4226  -2.3750  -1.8725  -1.0772  -0.4431   0.0107   0.1163   0.4145
     0.6428   0.8876   2.8150   3.6381   4.2048   4.5431

          k = 0.1250 0.5774 0.0000 ( 12856 PWs)   bands (ev):

   -59.6365 -33.9384 -33.7964 -33.6996 -11.5484 -10.9181  -5.0515  -4.2092
    -3.4505  -2.3270  -1.9795  -1.1064  -0.4405   0.0302   0.1246   0.4553
     0.6588   0.9391   3.1848   3.5991   4.1985   4.4470

          k = 0.1875 0.3248 0.0000 ( 12901 PWs)   bands (ev):

   -59.6483 -33.8310 -33.8189 -33.6691 -12.1837 -11.3451  -4.3346  -3.4734
    -3.1328  -2.4637  -1.5499  -0.9223  -0.4655  -0.0663   0.0843   0.3345
     0.5533   0.6701   1.7767   3.3826   3.5817   4.0296

          k = 0.1875 0.3969 0.0000 ( 12903 PWs)   bands (ev):

   -59.6424 -33.8708 -33.8078 -33.6987 -11.8824 -11.1480  -4.4634  -3.6808
    -3.4146  -2.6058  -1.7473  -1.0897  -0.3895  -0.1044   0.0626   0.3300
     0.6231   0.7870   2.0540   3.6616   3.7822   4.3218

          k = 0.1875 0.4691 0.0000 ( 12858 PWs)   bands (ev):

   -59.6379 -33.9000 -33.7991 -33.7227 -11.6363 -10.9764  -4.6835  -3.9683
    -3.4803  -2.6196  -1.9547  -1.2743  -0.3469  -0.0469   0.0673   0.3306
     0.6708   0.8964   2.5406   3.6570   4.1239   4.5421

          k = 0.1875 0.5413 0.0000 ( 12848 PWs)   bands (ev):

   -59.6354 -33.9154 -33.7944 -33.7361 -11.4974 -10.8729  -4.8389  -4.1275
    -3.5344  -2.5303  -2.1337  -1.3915  -0.3343   0.0119   0.0636   0.3524
     0.6903   1.0099   3.0177   3.6126   4.1752   4.5806

          k = 0.2500 0.4330 0.0000 ( 12885 PWs)   bands (ev):

   -59.6379 -33.8861 -33.7991 -33.7371 -11.6398 -10.9763  -4.5537  -3.9134
    -3.4534  -2.7893  -2.0343  -1.2937  -0.2875  -0.0930   0.0410   0.3050
     0.6877   0.8933   2.4343   3.6288   4.0838   4.5569

          k = 0.2500 0.5052 0.0000 ( 12870 PWs)   bands (ev):

   -59.6349 -33.8905 -33.7933 -33.7684 -11.4711 -10.8483  -4.6228  -4.1102
    -3.4780  -2.8757  -2.2329  -1.4675  -0.2281  -0.0378   0.0290   0.2730
     0.7172   1.0470   2.8486   3.5497   4.1056   4.8946

          k = 0.2500 0.5774 0.0000 ( 12844 PWs)   bands (ev):

   -59.6338 -33.8903 -33.7912 -33.7812 -11.4106 -10.8003  -4.6549  -4.1578
    -3.5376  -2.8679  -2.3025  -1.5412  -0.2116  -0.0199   0.0398   0.2554
     0.7211   1.1443   2.9802   3.5771   4.1075   4.9370

          k = 0.3125 0.5413 0.0000 ( 12856 PWs)   bands (ev):

   -59.6332 -33.8698 -33.8088 -33.7901 -11.3801 -10.7742  -4.5442  -4.1880
    -3.4278  -3.1715  -2.3245  -1.5833  -0.1376  -0.0490   0.0397   0.1958
     0.7310   1.2140   2.8944   3.5482   4.1405   5.2080

 ------ SPIN DOWN ----------


          k = 0.0000 0.0000 0.0000 ( 12991 PWs)   bands (ev):

   -59.6734 -33.8527 -33.5809 -33.5809 -13.3676 -12.0703  -5.1617  -2.4093
    -1.3121  -1.3121  -0.3831  -0.3831   0.3279   1.3609   1.7441   1.7441
     1.8469   1.8469   2.3326   3.6369   3.6369   4.1388

          k = 0.0000 0.0722 0.0000 ( 12961 PWs)   bands (ev):

   -59.6719 -33.8499 -33.5958 -33.5843 -13.3116 -12.0379  -5.0988  -2.4071
    -1.4600  -1.2583  -0.5522  -0.4804   0.4154   1.2286   1.7235   1.7579
     1.8527   1.9500   2.4039   3.5102   3.6686   4.0018

          k = 0.0000 0.1443 0.0000 ( 12937 PWs)   bands (ev):

   -59.6677 -33.8417 -33.6380 -33.5939 -13.1482 -11.9432  -4.9227  -2.4385
    -1.8489  -1.1069  -0.8714  -0.7306   0.4902   0.9811   1.6686   1.7576
     1.9114   2.1094   2.5981   3.2582   3.6585   3.7842

          k = 0.0000 0.2165 0.0000 ( 12929 PWs)   bands (ev):

   -59.6613 -33.8294 -33.7006 -33.6084 -12.8917 -11.7938  -4.6766  -2.6394
    -2.3255  -1.1644  -1.0625  -0.8774   0.4765   0.7040   1.5983   1.7371
     2.0351   2.2448   2.7081   3.1942   3.5540   3.7773

          k = 0.0000 0.2887 0.0000 ( 12917 PWs)   bands (ev):

   -59.6539 -33.8149 -33.7736 -33.6253 -12.5667 -11.6032  -4.4514  -3.1352
    -2.7007  -1.3861  -1.3683  -0.6404   0.3062   0.6196   1.5434   1.7378
     2.1967   2.3566   2.6368   3.4417   3.4522   4.0342

          k = 0.0000 0.3608 0.0000 ( 12903 PWs)   bands (ev):

   -59.6464 -33.8461 -33.8001 -33.6422 -12.2116 -11.3916  -4.4175  -3.6511
    -3.0057  -1.6725  -1.5197  -0.4377   0.0990   0.7521   1.5509   1.7826
     2.3758   2.4493   2.6857   3.3795   3.7679   4.4043

          k = 0.0000 0.4330 0.0000 ( 12893 PWs)   bands (ev):

   -59.6400 -33.9067 -33.7878 -33.6565 -11.8816 -11.1879  -4.6994  -3.9791
    -3.1855  -1.8919  -1.6581  -0.3077   0.0883   0.8568   1.6446   1.8579
     2.5228   2.5425   2.9348   3.3910   4.0731   4.7268

          k = 0.0000 0.5052 0.0000 ( 12870 PWs)   bands (ev):

   -59.6357 -33.9469 -33.7795 -33.6660 -11.6444 -11.0319  -5.0304  -4.1762
    -3.2655  -2.0287  -1.7591  -0.2455   0.1966   0.8970   1.7649   1.9228
     2.5606   2.6571   3.3347   3.4546   4.2403   4.9728

          k = 0.0000-0.5774 0.0000 ( 12854 PWs)   bands (ev):

   -59.6342 -33.9610 -33.7766 -33.6693 -11.5580 -10.9714  -5.1636  -4.2495
    -3.2910  -2.0751  -1.7946  -0.2285   0.2566   0.9072   1.8218   1.9470
     2.5695   2.6965   3.4926   3.6046   4.1834   5.0758

          k = 0.0625 0.1083 0.0000 ( 12951 PWs)   bands (ev):

   -59.6690 -33.8443 -33.6239 -33.5913 -13.2019 -11.9743  -4.9789  -2.4194
    -1.7250  -1.1598  -0.7811  -0.6648   0.4937   1.0539   1.6470   1.8188
     1.8624   2.0706   2.5404   3.3239   3.6676   3.8185

          k = 0.0625 0.1804 0.0000 ( 12937 PWs)   bands (ev):

   -59.6638 -33.8341 -33.6751 -33.6044 -12.9918 -11.8521  -4.7653  -2.5165
    -2.1530  -1.1666  -1.0022  -0.8609   0.5246   0.8134   1.5584   1.7938
     1.9761   2.2091   2.7069   3.1716   3.5776   3.6874

          k = 0.0625 0.2526 0.0000 ( 12935 PWs)   bands (ev):

   -59.6569 -33.8207 -33.7413 -33.6217 -12.7004 -11.6815  -4.5204  -2.8741
    -2.5427  -1.5647  -1.0749  -0.7677   0.4536   0.6229   1.4937   1.7611
     2.1256   2.3345   2.6524   3.3434   3.4666   3.8115

          k = 0.0625 0.3248 0.0000 ( 12927 PWs)   bands (ev):

   -59.6494 -33.8133 -33.8052 -33.6403 -12.3588 -11.4790  -4.3706  -3.3947
    -2.8767  -1.8474  -1.2506  -0.6193   0.2277   0.7129   1.4858   1.7607
     2.2927   2.4427   2.6051   3.4120   3.6295   4.1583

          k = 0.0625 0.3969 0.0000 ( 12903 PWs)   bands (ev):

   -59.6424 -33.8774 -33.7925 -33.6575 -12.0132 -11.2688  -4.5039  -3.8034
    -3.1325  -2.0244  -1.4423  -0.5597   0.1659   0.8485   1.5622   1.8070
     2.4424   2.5471   2.7163   3.4535   3.9245   4.5592

          k = 0.0625 0.4691 0.0000 ( 12863 PWs)   bands (ev):

   -59.6371 -33.9265 -33.7822 -33.6706 -11.7257 -11.0845  -4.8431  -4.0615
    -3.2550  -2.1180  -1.6316  -0.5367   0.2638   0.9177   1.6920   1.8737
     2.5422   2.6342   3.0151   3.5506   4.2025   4.9194

          k = 0.0625 0.5413 0.0000 ( 12844 PWs)   bands (ev):

   -59.6342 -33.9530 -33.7766 -33.6776 -11.5616 -10.9715  -5.0840  -4.2081
    -3.3065  -2.1415  -1.7612  -0.5235   0.3728   0.9373   1.7921   1.9163
     2.5872   2.6838   3.3677   3.6239   4.3003   4.8616

          k = 0.1250 0.2165 0.0000 ( 12933 PWs)   bands (ev):

   -59.6579 -33.8227 -33.7279 -33.6225 -12.7464 -11.7082  -4.5461  -2.7528
    -2.4692  -1.6652  -1.0238  -0.7931   0.5352   0.6473   1.4393   1.7850
     2.0982   2.3377   2.6600   3.3200   3.4525   3.6847

          k = 0.1250 0.2887 0.0000 ( 12935 PWs)   bands (ev):

   -59.6510 -33.8095 -33.7884 -33.6449 -12.4368 -11.5242  -4.3517  -3.1619
    -2.7605  -2.0836  -1.1516  -0.7115   0.3378   0.7276   1.3908   1.7607
     2.2537   2.4646   2.5533   3.4102   3.5524   3.9426

          k = 0.1250 0.3608 0.0000 ( 12903 PWs)   bands (ev):

   -59.6441 -33.8485 -33.7956 -33.6677 -12.1006 -11.3196  -4.3433  -3.5455
    -3.1002  -2.2768  -1.3269  -0.7677   0.2267   0.8925   1.4397   1.7607
     2.3970   2.5253   2.6032   3.5242   3.7616   4.3548

          k = 0.1250 0.4330 0.0000 ( 12881 PWs)   bands (ev):

   -59.6382 -33.8984 -33.7842 -33.6871 -11.7908 -11.1223  -4.5929  -3.8577
    -3.2824  -2.3397  -1.5185  -0.9033   0.2884   1.0119   1.5788   1.7955
     2.4754   2.6146   2.8048   3.6742   4.0364   4.7219

          k = 0.1250 0.5052 0.0000 ( 12858 PWs)   bands (ev):

   -59.6342 -33.9315 -33.7766 -33.7000 -11.5701 -10.9716  -4.8715  -4.0889
    -3.3531  -2.3083  -1.7203  -0.9926   0.4306   1.0463   1.7166   1.8409
     2.5640   2.6661   3.1333   3.7132   4.3394   4.7508

          k = 0.1250 0.5774 0.0000 ( 12856 PWs)   bands (ev):

   -59.6329 -33.9431 -33.7739 -33.7046 -11.4901 -10.9135  -4.9843  -4.1741
    -3.3788  -2.2592  -1.8302  -1.0193   0.5032   1.0502   1.7749   1.8561
     2.6125   2.6747   3.3527   3.7042   4.4976   4.5704

          k = 0.1875 0.3248 0.0000 ( 12901 PWs)   bands (ev):

   -59.6446 -33.8355 -33.7967 -33.6742 -12.1311 -11.3368  -4.2821  -3.3753
    -3.1098  -2.4088  -1.3790  -0.7640   0.2330   0.9357   1.3654   1.7442
     2.3946   2.4767   2.6070   3.5335   3.6865   4.2805

          k = 0.1875 0.3969 0.0000 ( 12903 PWs)   bands (ev):

   -59.6388 -33.8756 -33.7854 -33.7038 -11.8269 -11.1417  -4.4035  -3.6177
    -3.3571  -2.5269  -1.6482  -0.9525   0.2464   1.1593   1.4280   1.7378
     2.3913   2.5906   2.7741   3.7373   3.8691   4.6256

          k = 0.1875 0.4691 0.0000 ( 12858 PWs)   bands (ev):

   -59.6343 -33.9048 -33.7766 -33.7277 -11.5787 -10.9714  -4.6154  -3.9403
    -3.3888  -2.5265  -1.8750  -1.1828   0.3869   1.2233   1.6074   1.7565
     2.4302   2.6774   3.0239   3.7406   4.1766   4.8457

          k = 0.1875 0.5413 0.0000 ( 12848 PWs)   bands (ev):

   -59.6318 -33.9201 -33.7719 -33.7411 -11.4389 -10.8683  -4.7674  -4.1072
    -3.4397  -2.4144  -2.0640  -1.3311   0.5264   1.2250   1.7247   1.7792
     2.5154   2.7085   3.2243   3.7537   4.3035   4.8890

          k = 0.2500 0.4330 0.0000 ( 12885 PWs)   bands (ev):

   -59.6343 -33.8908 -33.7766 -33.7421 -11.5823 -10.9713  -4.4857  -3.8898
    -3.3475  -2.6887  -2.0026  -1.1722   0.3508   1.3886   1.4764   1.7185
     2.3583   2.6837   3.0026   3.7199   4.1255   4.8758

          k = 0.2500 0.5052 0.0000 ( 12870 PWs)   bands (ev):

   -59.6312 -33.8953 -33.7734 -33.7707 -11.4124 -10.8438  -4.5542  -4.0822
    -3.3653  -2.7753  -2.2059  -1.3853   0.5106   1.3985   1.6494   1.7317
     2.3972   2.7282   3.1288   3.7209   4.2410   5.1746

          k = 0.2500 0.5774 0.0000 ( 12844 PWs)   bands (ev):

   -59.6302 -33.8950 -33.7862 -33.7687 -11.3516 -10.7958  -4.5899  -4.1208
    -3.4338  -2.7626  -2.2678  -1.4793   0.5882   1.3974   1.7106   1.7475
     2.4495   2.7392   3.0783   3.7925   4.3043   5.2645

          k = 0.3125 0.5413 0.0000 ( 12856 PWs)   bands (ev):

   -59.6296 -33.8745 -33.8138 -33.7676 -11.3210 -10.7697  -4.5016  -4.1059
    -3.3179  -3.1148  -2.2738  -1.5253   0.6120   1.4723   1.7027   1.7491
     2.4146   2.7482   2.9727   3.7788   4.3585   5.5500

     the Fermi energy is     2.2451 ev

!    total energy              =    -658.56017550 Ry
     total all-electron energy =    -12481.734066 Ry
     estimated scf accuracy    <       0.00000005 Ry
     smearing contrib. (-TS)   =      -0.00580406 Ry
     internal energy E=F+TS    =    -658.55437144 Ry

     The total energy is F=E-TS. E is the sum of the following terms:
     one-electron contribution =   -1232.36395724 Ry
     hartree contribution      =     629.88380170 Ry
     xc contribution           =     -62.26016594 Ry
     ewald contribution        =     412.33167844 Ry
     one-center paw contrib.   =    -406.14572841 Ry

     total magnetization       =     2.05 Bohr mag/cell
     absolute magnetization    =     2.22 Bohr mag/cell

     convergence has been achieved in  10 iterations

     negative rho (up, down):  2.246E-04 2.170E-04

     Forces acting on atoms (cartesian axes, Ry/au):

     atom    1 type  1   force =     0.00000000    0.00000000    0.02783334
     atom    2 type  2   force =     0.00000000    0.00000000    0.01397563
     atom    3 type  2   force =     0.00000000    0.00000000   -0.00054393
     atom    4 type  3   force =     0.00000000    0.00000000   -0.04126505
     The non-local contrib.  to forces
     atom    1 type  1   force =     0.00000000    0.00000000   -0.05921723
     atom    2 type  2   force =     0.00000000    0.00000000   -0.07073594
     atom    3 type  2   force =     0.00000000    0.00000000    0.27177584
     atom    4 type  3   force =     0.00000000    0.00000000   -0.01050440
     The ionic contribution  to forces
     atom    1 type  1   force =     0.00000000   -0.00000000  -31.36659581
     atom    2 type  2   force =    -0.00000000    0.00000000   18.66645706
     atom    3 type  2   force =    -0.00000000    0.00000000  -44.67624275
     atom    4 type  3   force =     0.00000000   -0.00000000   57.37638149
     The local contribution  to forces
     atom    1 type  1   force =     0.00000000   -0.00000000   31.44942308
     atom    2 type  2   force =    -0.00000000    0.00000000  -18.58084735
     atom    3 type  2   force =    -0.00000000    0.00000000   44.40584563
     atom    4 type  3   force =    -0.00000000   -0.00000000  -57.39108998
     The core correction contribution to forces
     atom    1 type  1   force =    -0.00000000    0.00000000    0.00376823
     atom    2 type  2   force =     0.00000000   -0.00000000   -0.00088438
     atom    3 type  2   force =     0.00000000   -0.00000000   -0.00229466
     atom    4 type  3   force =     0.00000000    0.00000000   -0.01572456
     The Hubbard contrib.    to forces
     atom    1 type  1   force =     0.00000000    0.00000000    0.00000000
     atom    2 type  2   force =     0.00000000    0.00000000    0.00000000
     atom    3 type  2   force =     0.00000000    0.00000000    0.00000000
     atom    4 type  3   force =     0.00000000    0.00000000    0.00000000
     The SCF correction term to forces
     atom    1 type  1   force =     0.00000000    0.00000000    0.00041383
     atom    2 type  2   force =     0.00000000    0.00000000   -0.00005500
     atom    3 type  2   force =     0.00000000    0.00000000    0.00033076
     atom    4 type  3   force =    -0.00000000   -0.00000000   -0.00036885

     Total force =     0.051702     Total SCF correction =     0.000648


     Computing stress (Cartesian axis) and pressure


     negative rho (up, down):  2.246E-04 2.170E-04
          total   stress  (Ry/bohr**3)                   (kbar)     P=      -26.87
  -0.00016503   0.00000000   0.00000000          -24.28        0.00        0.00
   0.00000000  -0.00016503   0.00000000            0.00      -24.28        0.00
   0.00000000  -0.00000000  -0.00021789            0.00       -0.00      -32.05

     Energy error            =      3.2E-03 Ry
     Gradient error          =      4.1E-02 Ry/Bohr

     number of scf cycles    =   4
     number of bfgs steps    =   3

     energy             old  =    -658.5569542535 Ry
     energy             new  =    -658.5601755020 Ry

     CASE: energy            _new < energy            _old

     new trust radius        =       0.0915729007 bohr
     new conv_thr            =       0.0000003221 Ry


ATOMIC_POSITIONS (crystal)
Mo            0.0000000000        0.0000000000        0.4992880517
S             0.6666666667        0.3333333333        0.5932097842
S             0.6666666667        0.3333333333        0.4140594671
Co            0.0000000000        0.0000000000        0.6910787608



     Writing config-only to output data dir ./tmp/relax.save/
     NEW-OLD atomic charge density approx. for the potential

     negative rho (up, down):  2.717E-04 2.232E-04
     Generating pointlists ...
     new r_m :   0.3122 (alat units)  1.8692 (a.u.) for type    1
     new r_m :   0.3122 (alat units)  1.8692 (a.u.) for type    2
     new r_m :   0.3323 (alat units)  1.9898 (a.u.) for type    3

     total cpu time spent up to now is      114.0 secs

     Self-consistent Calculation

     iteration #  1     ecut=    80.00 Ry     beta= 0.70
     Davidson diagonalization with overlap
     c_bands:  1 eigenvalues not converged
     ethr =  1.00E-06,  avg # of iterations = 11.1

     negative rho (up, down):  2.664E-04 2.449E-04

     total cpu time spent up to now is      117.9 secs

     total energy              =    -658.56384870 Ry
     estimated scf accuracy    <       0.00376668 Ry

     total magnetization       =     2.00 Bohr mag/cell
     absolute magnetization    =     2.18 Bohr mag/cell

     iteration #  2     ecut=    80.00 Ry     beta= 0.70
     Davidson diagonalization with overlap
     ethr =  1.08E-05,  avg # of iterations =  4.4

     negative rho (up, down):  2.575E-04 2.378E-04

     total cpu time spent up to now is      120.0 secs

     total energy              =    -658.56051990 Ry
     estimated scf accuracy    <       0.02656190 Ry

     total magnetization       =     1.97 Bohr mag/cell
     absolute magnetization    =     2.15 Bohr mag/cell

     iteration #  3     ecut=    80.00 Ry     beta= 0.70
     Davidson diagonalization with overlap
     ethr =  1.08E-05,  avg # of iterations =  5.8

     negative rho (up, down):  2.472E-04 2.299E-04

     total cpu time spent up to now is      122.2 secs

     total energy              =    -658.55854478 Ry
     estimated scf accuracy    <       0.16526607 Ry

     total magnetization       =     2.17 Bohr mag/cell
     absolute magnetization    =     2.39 Bohr mag/cell

     iteration #  4     ecut=    80.00 Ry     beta= 0.70
     Davidson diagonalization with overlap
     ethr =  1.08E-05,  avg # of iterations =  4.4

     negative rho (up, down):  2.290E-04 2.191E-04

     total cpu time spent up to now is      124.2 secs

     total energy              =    -658.56447095 Ry
     estimated scf accuracy    <       0.00280704 Ry

     total magnetization       =     1.97 Bohr mag/cell
     absolute magnetization    =     2.15 Bohr mag/cell

     iteration #  5     ecut=    80.00 Ry     beta= 0.70
     Davidson diagonalization with overlap
     ethr =  8.02E-06,  avg # of iterations =  2.1

     negative rho (up, down):  2.236E-04 2.166E-04

     total cpu time spent up to now is      126.1 secs

     total energy              =    -658.56472306 Ry
     estimated scf accuracy    <       0.00101513 Ry

     total magnetization       =     2.00 Bohr mag/cell
     absolute magnetization    =     2.18 Bohr mag/cell

     iteration #  6     ecut=    80.00 Ry     beta= 0.70
     Davidson diagonalization with overlap
     ethr =  2.90E-06,  avg # of iterations =  2.2

     negative rho (up, down):  2.228E-04 2.165E-04

     total cpu time spent up to now is      127.9 secs

     total energy              =    -658.56485124 Ry
     estimated scf accuracy    <       0.00020491 Ry

     total magnetization       =     2.00 Bohr mag/cell
     absolute magnetization    =     2.18 Bohr mag/cell

     iteration #  7     ecut=    80.00 Ry     beta= 0.70
     Davidson diagonalization with overlap
     ethr =  5.85E-07,  avg # of iterations =  2.3

     negative rho (up, down):  2.227E-04 2.168E-04

     total cpu time spent up to now is      129.7 secs

     total energy              =    -658.56487489 Ry
     estimated scf accuracy    <       0.00010487 Ry

     total magnetization       =     1.99 Bohr mag/cell
     absolute magnetization    =     2.18 Bohr mag/cell

     iteration #  8     ecut=    80.00 Ry     beta= 0.70
     Davidson diagonalization with overlap
     ethr =  3.00E-07,  avg # of iterations =  1.2

     negative rho (up, down):  2.229E-04 2.171E-04

     total cpu time spent up to now is      131.4 secs

     total energy              =    -658.56488358 Ry
     estimated scf accuracy    <       0.00001355 Ry

     total magnetization       =     2.00 Bohr mag/cell
     absolute magnetization    =     2.18 Bohr mag/cell

     iteration #  9     ecut=    80.00 Ry     beta= 0.70
     Davidson diagonalization with overlap
     ethr =  3.87E-08,  avg # of iterations =  2.4

     negative rho (up, down):  2.230E-04 2.172E-04

     total cpu time spent up to now is      133.2 secs

     total energy              =    -658.56488488 Ry
     estimated scf accuracy    <       0.00000067 Ry

     total magnetization       =     2.00 Bohr mag/cell
     absolute magnetization    =     2.18 Bohr mag/cell

     iteration # 10     ecut=    80.00 Ry     beta= 0.70
     Davidson diagonalization with overlap
     ethr =  1.90E-09,  avg # of iterations =  5.4

     negative rho (up, down):  2.230E-04 2.172E-04
 
     Magnetic moment per site  (integrated on atomic sphere of radius R)
     atom   1 (R=0.312)  charge= 10.7066  magn= -0.0017
     atom   2 (R=0.312)  charge=  4.1048  magn=  0.0491
     atom   3 (R=0.312)  charge=  4.1157  magn=  0.0037
     atom   4 (R=0.332)  charge=  7.3997  magn=  1.9439

     total cpu time spent up to now is      135.4 secs

     End of self-consistent calculation

 ------ SPIN UP ------------


          k = 0.0000 0.0000 0.0000 ( 12991 PWs)   bands (ev):

   -59.6404 -33.8418 -33.5345 -33.5345 -13.4274 -12.0981  -5.1916  -2.6019
    -1.3050  -1.3050  -0.7030  -0.6535  -0.6535   0.1059   0.1059   0.5237
     0.5237   0.6970   1.3991   3.3462   3.3462   4.1960

          k = 0.0000 0.0722 0.0000 ( 12961 PWs)   bands (ev):

   -59.6389 -33.8390 -33.5494 -33.5379 -13.3722 -12.0644  -5.1298  -2.5841
    -1.4567  -1.2592  -0.9192  -0.7047  -0.5712   0.0900   0.0943   0.4248
     0.5179   0.7816   1.4847   3.2157   3.3657   4.0671

          k = 0.0000 0.1443 0.0000 ( 12937 PWs)   bands (ev):

   -59.6347 -33.8309 -33.5914 -33.5476 -13.2112 -11.9660  -4.9570  -2.5696
    -1.8607  -1.2342  -1.1442  -0.8571  -0.5813   0.0689   0.0860   0.3028
     0.5099   0.8141   1.6669   2.9958   3.3608   3.8541

          k = 0.0000 0.2165 0.0000 ( 12929 PWs)   bands (ev):

   -59.6284 -33.8187 -33.6538 -33.5619 -12.9580 -11.8108  -4.7145  -2.7212
    -2.3636  -1.5019  -1.1871  -0.8981  -0.6318   0.0322   0.1422   0.2176
     0.5199   0.6896   1.7829   2.9730   3.2899   3.8256

          k = 0.0000 0.2887 0.0000 ( 12917 PWs)   bands (ev):

   -59.6210 -33.8045 -33.7265 -33.5788 -12.6369 -11.6130  -4.4872  -3.2367
    -2.7447  -1.6327  -1.4593  -0.7493  -0.6532  -0.0110   0.1539   0.2488
     0.4861   0.5723   1.8657   3.2088   3.2206   4.0345

          k = 0.0000 0.3608 0.0000 ( 12903 PWs)   bands (ev):

   -59.6135 -33.7999 -33.7887 -33.5957 -12.2851 -11.3940  -4.4421  -3.7946
    -3.0526  -1.7228  -1.7165  -0.6467  -0.6416  -0.0302   0.1020   0.3693
     0.3865   0.6755   2.0907   3.2233   3.5669   4.3372

          k = 0.0000 0.4330 0.0000 ( 12893 PWs)   bands (ev):

   -59.6071 -33.8593 -33.7775 -33.6099 -11.9566 -11.1841  -4.7565  -4.1005
    -3.2360  -1.9301  -1.8326  -0.6485  -0.5934   0.0024   0.1401   0.4141
     0.4754   0.7893   2.4867   3.3176   3.9388   4.5773

          k = 0.0000 0.5052 0.0000 ( 12870 PWs)   bands (ev):

   -59.6029 -33.8994 -33.7694 -33.6194 -11.7186 -11.0248  -5.1205  -4.2677
    -3.3105  -2.0609  -1.9413  -0.6583  -0.5803   0.0278   0.2379   0.5285
     0.5512   0.8632   2.9581   3.4484   4.0853   4.8033

          k = 0.0000-0.5774 0.0000 ( 12854 PWs)   bands (ev):

   -59.6014 -33.9134 -33.7665 -33.6227 -11.6313 -10.9636  -5.2637  -4.3323
    -3.3313  -2.1055  -1.9836  -0.6633  -0.5788   0.0341   0.2747   0.5795
     0.6082   0.8864   3.2491   3.5110   3.9575   5.0098

          k = 0.0625 0.1083 0.0000 ( 12951 PWs)   bands (ev):

   -59.6361 -33.8335 -33.5774 -33.5449 -13.2641 -11.9983  -5.0122  -2.5659
    -1.7299  -1.1926  -1.1256  -0.8441  -0.5547   0.0659   0.0949   0.3377
     0.5042   0.8275   1.6188   3.0436   3.3659   3.8902

          k = 0.0625 0.1804 0.0000 ( 12937 PWs)   bands (ev):

   -59.6308 -33.8234 -33.6284 -33.5580 -13.0569 -11.8713  -4.8022  -2.6149
    -2.1780  -1.4173  -1.1759  -0.9720  -0.5771   0.0594   0.1095   0.2680
     0.4916   0.7774   1.7530   2.9454   3.3056   3.7509

          k = 0.0625 0.2526 0.0000 ( 12935 PWs)   bands (ev):

   -59.6239 -33.8102 -33.6944 -33.5752 -12.7691 -11.6942  -4.5589  -2.9613
    -2.5870  -1.6856  -1.3734  -0.8559  -0.6055   0.0276   0.1580   0.2573
     0.4860   0.6272   1.8007   3.0901   3.2429   3.8317

          k = 0.0625 0.3248 0.0000 ( 12927 PWs)   bands (ev):

   -59.6165 -33.7961 -33.7648 -33.5938 -12.4311 -11.4844  -4.3998  -3.5249
    -2.9237  -1.8998  -1.5166  -0.7602  -0.6063  -0.0151   0.1285   0.3112
     0.4348   0.6392   1.9124   3.2211   3.4269   4.1063

          k = 0.0625 0.3969 0.0000 ( 12903 PWs)   bands (ev):

   -59.6096 -33.8302 -33.7821 -33.6109 -12.0879 -11.2674  -4.5403  -3.9440
    -3.1846  -2.0652  -1.6559  -0.7560  -0.5731  -0.0176   0.1032   0.3460
     0.4931   0.7508   2.1996   3.3392   3.7806   4.4382

          k = 0.0625 0.4691 0.0000 ( 12863 PWs)   bands (ev):

   -59.6043 -33.8791 -33.7720 -33.6240 -11.8006 -11.0785  -4.9221  -4.1602
    -3.3082  -2.1615  -1.8248  -0.7908  -0.5475   0.0217   0.1676   0.4177
     0.5741   0.8481   2.6436   3.4887   4.0912   4.7547

          k = 0.0625 0.5413 0.0000 ( 12844 PWs)   bands (ev):

   -59.6014 -33.9054 -33.7665 -33.6310 -11.6351 -10.9639  -5.1841  -4.2864
    -3.3532  -2.1800  -1.9613  -0.8136  -0.5412   0.0424   0.2223   0.5116
     0.6376   0.9035   3.1156   3.5516   4.0806   4.7623

          k = 0.1250 0.2165 0.0000 ( 12933 PWs)   bands (ev):

   -59.6250 -33.8122 -33.6810 -33.5760 -12.8146 -11.7220  -4.5852  -2.8396
    -2.5114  -1.7426  -1.3778  -0.9171  -0.5672   0.0562   0.1454   0.2997
     0.4544   0.6847   1.7737   3.0566   3.2438   3.7083

          k = 0.1250 0.2887 0.0000 ( 12935 PWs)   bands (ev):

   -59.6181 -33.7990 -33.7414 -33.5984 -12.5084 -11.5313  -4.3856  -3.2847
    -2.8121  -2.1044  -1.4812  -0.8703  -0.5590   0.0166   0.1421   0.3396
     0.4462   0.6459   1.7841   3.2006   3.3948   3.8620

          k = 0.1250 0.3608 0.0000 ( 12903 PWs)   bands (ev):

   -59.6112 -33.8018 -33.7848 -33.6211 -12.1750 -11.3200  -4.3697  -3.7036
    -3.1479  -2.3086  -1.5858  -0.9102  -0.5227  -0.0430   0.0777   0.3452
     0.5311   0.7336   1.9303   3.4027   3.6595   4.1859

          k = 0.1250 0.4330 0.0000 ( 12881 PWs)   bands (ev):

   -59.6053 -33.8511 -33.7740 -33.6404 -11.8661 -11.1175  -4.6571  -3.9646
    -3.3497  -2.3968  -1.7367  -1.0244  -0.4805  -0.0265   0.0909   0.3518
     0.6115   0.8431   2.2888   3.6131   3.9735   4.5194

          k = 0.1250 0.5052 0.0000 ( 12858 PWs)   bands (ev):

   -59.6014 -33.8840 -33.7665 -33.6534 -11.6442 -10.9643  -4.9698  -4.1536
    -3.4226  -2.3830  -1.9234  -1.1175  -0.4634   0.0304   0.1286   0.4011
     0.6708   0.9330   2.8022   3.6634   4.2528   4.5293

          k = 0.1250 0.5774 0.0000 ( 12856 PWs)   bands (ev):

   -59.6000 -33.8956 -33.7639 -33.6579 -11.5631 -10.9058  -5.0934  -4.2279
    -3.4441  -2.3366  -2.0321  -1.1502  -0.4608   0.0586   0.1315   0.4395
     0.6940   0.9797   3.1687   3.5959   4.2139   4.4614

          k = 0.1875 0.3248 0.0000 ( 12901 PWs)   bands (ev):

   -59.6118 -33.7909 -33.7838 -33.6275 -12.2054 -11.3379  -4.3072  -3.5555
    -3.1382  -2.4438  -1.6053  -0.9560  -0.4979  -0.0505   0.0613   0.3637
     0.5519   0.7287   1.8234   3.4217   3.6134   4.0714

          k = 0.1875 0.3969 0.0000 ( 12903 PWs)   bands (ev):

   -59.6059 -33.8283 -33.7751 -33.6571 -11.9024 -11.1377  -4.4531  -3.7340
    -3.4365  -2.6121  -1.7826  -1.1148  -0.4182  -0.0990   0.0429   0.3460
     0.6427   0.8444   2.0641   3.6831   3.8511   4.3622

          k = 0.1875 0.4691 0.0000 ( 12858 PWs)   bands (ev):

   -59.6014 -33.8574 -33.7665 -33.6810 -11.6533 -10.9645  -4.7055  -3.9765
    -3.5128  -2.6507  -1.9812  -1.2927  -0.3680  -0.0484   0.0652   0.3257
     0.7051   0.9503   2.5212   3.6866   4.1659   4.5763

          k = 0.1875 0.5413 0.0000 ( 12848 PWs)   bands (ev):

   -59.5990 -33.8726 -33.7619 -33.6943 -11.5117 -10.8608  -4.8791  -4.1269
    -3.5523  -2.5856  -2.1491  -1.4081  -0.3520   0.0079   0.0769   0.3337
     0.7339   1.0555   3.0014   3.6092   4.1775   4.6128

          k = 0.2500 0.4330 0.0000 ( 12885 PWs)   bands (ev):

   -59.6014 -33.8435 -33.7665 -33.6953 -11.6571 -10.9646  -4.5674  -3.9038
    -3.5221  -2.8230  -2.0437  -1.3087  -0.3148  -0.0919   0.0217   0.3085
     0.7229   0.9543   2.4101   3.6596   4.1239   4.6085

          k = 0.2500 0.5052 0.0000 ( 12870 PWs)   bands (ev):

   -59.5984 -33.8478 -33.7608 -33.7265 -11.4853 -10.8363  -4.6517  -4.0982
    -3.5357  -2.9289  -2.2341  -1.4724  -0.2506  -0.0443   0.0241   0.2615
     0.7642   1.1005   2.8248   3.5624   4.1055   4.9465

          k = 0.2500 0.5774 0.0000 ( 12844 PWs)   bands (ev):

   -59.5974 -33.8476 -33.7588 -33.7392 -11.4234 -10.7884  -4.6861  -4.1542
    -3.5805  -2.9324  -2.3026  -1.5412  -0.2318  -0.0340   0.0490   0.2352
     0.7722   1.1922   2.9933   3.5494   4.0764   4.9773

          k = 0.3125 0.5413 0.0000 ( 12856 PWs)   bands (ev):

   -59.5968 -33.8270 -33.7669 -33.7577 -11.3924 -10.7624  -4.5488  -4.2177
    -3.4872  -3.2074  -2.3341  -1.5754  -0.1689  -0.0406   0.0279   0.1782
     0.7849   1.2622   2.9148   3.5290   4.0880   5.2515

 ------ SPIN DOWN ----------


          k = 0.0000 0.0000 0.0000 ( 12991 PWs)   bands (ev):

   -59.6426 -33.8241 -33.5469 -33.5469 -13.3799 -12.0837  -5.1567  -2.4840
    -1.2577  -1.2577  -0.3633  -0.3633   0.4259   1.4231   1.6324   1.6324
     1.7622   1.7622   2.2384   3.6322   3.6322   4.2067

          k = 0.0000 0.0722 0.0000 ( 12961 PWs)   bands (ev):

   -59.6411 -33.8212 -33.5617 -33.5503 -13.3244 -12.0502  -5.0944  -2.4771
    -1.4043  -1.2058  -0.5427  -0.4594   0.4968   1.2411   1.6330   1.6502
     1.7645   1.9067   2.3156   3.5034   3.6597   4.0743

          k = 0.0000 0.1443 0.0000 ( 12937 PWs)   bands (ev):

   -59.6369 -33.8131 -33.6037 -33.5599 -13.1623 -11.9525  -4.9197  -2.4932
    -1.7923  -1.0608  -0.9028  -0.7068   0.5388   0.9862   1.5830   1.6630
     1.8137   2.0865   2.5545   3.2416   3.6557   3.8615

          k = 0.0000 0.2165 0.0000 ( 12929 PWs)   bands (ev):

   -59.6306 -33.8010 -33.6660 -33.5743 -12.9072 -11.7984  -4.6742  -2.6663
    -2.2870  -1.2403  -1.0343  -0.8454   0.5050   0.7153   1.5154   1.6542
     1.9367   2.2159   2.7438   3.1534   3.5666   3.8483

          k = 0.0000 0.2887 0.0000 ( 12917 PWs)   bands (ev):

   -59.6231 -33.7868 -33.7385 -33.5912 -12.5835 -11.6023  -4.4440  -3.1508
    -2.6968  -1.4509  -1.3560  -0.6292   0.3604   0.5924   1.4639   1.6729
     2.1029   2.3178   2.6818   3.4556   3.4639   4.0900

          k = 0.0000 0.3608 0.0000 ( 12903 PWs)   bands (ev):

   -59.6157 -33.8111 -33.7718 -33.6080 -12.2284 -11.3853  -4.3970  -3.6978
    -3.0113  -1.6404  -1.5871  -0.4547   0.1525   0.7060   1.4789   1.7431
     2.2899   2.3966   2.7303   3.4057   3.8117   4.4473

          k = 0.0000 0.4330 0.0000 ( 12893 PWs)   bands (ev):

   -59.6093 -33.8712 -33.7597 -33.6222 -11.8965 -11.1775  -4.6964  -4.0275
    -3.1856  -1.8584  -1.7177  -0.3516   0.1322   0.8022   1.5881   1.8432
     2.4609   2.4651   2.9619   3.4195   4.1277   4.7698

          k = 0.0000 0.5052 0.0000 ( 12870 PWs)   bands (ev):

   -59.6051 -33.9112 -33.7516 -33.6317 -11.6561 -11.0194  -5.0534  -4.2131
    -3.2529  -1.9945  -1.8203  -0.3072   0.2226   0.8481   1.7284   1.9244
     2.5002   2.5849   3.3274   3.4871   4.2398   5.0590

          k = 0.0000-0.5774 0.0000 ( 12854 PWs)   bands (ev):

   -59.6036 -33.9252 -33.7487 -33.6350 -11.5681 -10.9585  -5.1956  -4.2828
    -3.2722  -2.0407  -1.8578  -0.2961   0.2721   0.8640   1.7953   1.9542
     2.5112   2.6255   3.5277   3.5834   4.1354   5.0540

          k = 0.0625 0.1083 0.0000 ( 12951 PWs)   bands (ev):

   -59.6383 -33.8158 -33.5897 -33.5572 -13.2156 -11.9846  -4.9756  -2.4797
    -1.6674  -1.1126  -0.7922  -0.6476   0.5512   1.0567   1.5550   1.7421
     1.7507   2.0468   2.4800   3.3114   3.6617   3.8951

          k = 0.0625 0.1804 0.0000 ( 12937 PWs)   bands (ev):

   -59.6330 -33.8056 -33.6406 -33.5704 -13.0068 -11.8585  -4.7631  -2.5587
    -2.0999  -1.1924  -0.9531  -0.8843   0.5537   0.8272   1.4727   1.7137
     1.8731   2.1824   2.7226   3.1308   3.5882   3.7617

          k = 0.0625 0.2526 0.0000 ( 12935 PWs)   bands (ev):

   -59.6261 -33.7925 -33.7065 -33.5876 -12.7168 -11.6828  -4.5163  -2.8900
    -2.5254  -1.5750  -1.1154  -0.7573   0.5032   0.6067   1.4173   1.6879
     2.0306   2.2979   2.6988   3.3253   3.4896   3.8723

          k = 0.0625 0.3248 0.0000 ( 12927 PWs)   bands (ev):

   -59.6187 -33.7813 -33.7739 -33.6061 -12.3758 -11.4749  -4.3552  -3.4283
    -2.8813  -1.8368  -1.3041  -0.6259   0.2768   0.6760   1.4190   1.7059
     2.2102   2.3920   2.6498   3.4344   3.6643   4.2045

          k = 0.0625 0.3969 0.0000 ( 12903 PWs)   bands (ev):

   -59.6117 -33.8421 -33.7644 -33.6232 -12.0292 -11.2599  -4.4869  -3.8567
    -3.1391  -2.0063  -1.4919  -0.5810   0.2020   0.7947   1.5039   1.7779
     2.3786   2.4798   2.7501   3.4760   3.9850   4.6021

          k = 0.0625 0.4691 0.0000 ( 12863 PWs)   bands (ev):

   -59.6064 -33.8910 -33.7542 -33.6363 -11.7389 -11.0727  -4.8556  -4.1004
    -3.2508  -2.0982  -1.6825  -0.5743   0.2871   0.8600   1.6472   1.8656
     2.4811   2.5750   3.0185   3.5734   4.2481   4.9299

          k = 0.0625 0.5413 0.0000 ( 12844 PWs)   bands (ev):

   -59.6036 -33.9173 -33.7487 -33.6433 -11.5719 -10.9587  -5.1146  -4.2385
    -3.2911  -2.1153  -1.8217  -0.5733   0.3861   0.8837   1.7604   1.9195
     2.5281   2.6266   3.3638   3.6329   4.2767   4.8640

          k = 0.1250 0.2165 0.0000 ( 12933 PWs)   bands (ev):

   -59.6272 -33.7945 -33.6932 -33.5884 -12.7627 -11.7103  -4.5428  -2.7772
    -2.4401  -1.6602  -1.0597  -0.8035   0.5852   0.6310   1.3663   1.7110
     2.0022   2.3009   2.7084   3.2926   3.4799   3.7451

          k = 0.1250 0.2887 0.0000 ( 12935 PWs)   bands (ev):

   -59.6203 -33.7815 -33.7532 -33.6107 -12.4538 -11.5213  -4.3398  -3.1922
    -2.7630  -2.0565  -1.2098  -0.7340   0.3789   0.6994   1.3364   1.6968
     2.1727   2.4151   2.5982   3.4394   3.5798   3.9854

          k = 0.1250 0.3608 0.0000 ( 12903 PWs)   bands (ev):

   -59.6134 -33.8134 -33.7674 -33.6334 -12.1172 -11.3119  -4.3195  -3.6013
    -3.1108  -2.2505  -1.3811  -0.7906   0.2501   0.8466   1.3946   1.7164
     2.3486   2.4979   2.5911   3.5451   3.8193   4.4021

          k = 0.1250 0.4330 0.0000 ( 12881 PWs)   bands (ev):

   -59.6075 -33.8630 -33.7563 -33.6527 -11.8051 -11.1112  -4.5916  -3.8968
    -3.2928  -2.3258  -1.5702  -0.9243   0.3011   0.9542   1.5342   1.7732
     2.4489   2.5853   2.7619   3.6921   4.1002   4.7587

          k = 0.1250 0.5052 0.0000 ( 12858 PWs)   bands (ev):

   -59.6036 -33.8959 -33.7487 -33.6656 -11.5811 -10.9591  -4.8971  -4.1103
    -3.3510  -2.3003  -1.7768  -1.0199   0.4406   0.9848   1.6766   1.8356
     2.5239   2.6310   3.0982   3.7293   4.3786   4.7257

          k = 0.1250 0.5774 0.0000 ( 12856 PWs)   bands (ev):

   -59.6022 -33.9075 -33.7461 -33.6702 -11.4994 -10.9008  -5.0195  -4.1907
    -3.3699  -2.2464  -1.8952  -1.0507   0.5118   0.9880   1.7359   1.8596
     2.5656   2.6381   3.3430   3.6895   4.5007   4.5557

          k = 0.1875 0.3248 0.0000 ( 12901 PWs)   bands (ev):

   -59.6139 -33.8005 -33.7684 -33.6398 -12.1479 -11.3296  -4.2569  -3.4401
    -3.1141  -2.3779  -1.4251  -0.8004   0.2480   0.8945   1.3294   1.6944
     2.3521   2.4844   2.5566   3.5633   3.7340   4.3298

          k = 0.1875 0.3969 0.0000 ( 12903 PWs)   bands (ev):

   -59.6081 -33.8403 -33.7573 -33.6693 -11.8419 -11.1312  -4.3898  -3.6491
    -3.3901  -2.5198  -1.6789  -0.9815   0.2424   1.1050   1.3932   1.7055
     2.4181   2.5526   2.6965   3.7510   3.9346   4.6775

          k = 0.1875 0.4691 0.0000 ( 12858 PWs)   bands (ev):

   -59.6036 -33.8693 -33.7487 -33.6932 -11.5904 -10.9592  -4.6307  -3.9419
    -3.4211  -2.5425  -1.9030  -1.2028   0.3771   1.1670   1.5646   1.7420
     2.4429   2.6346   2.9591   3.7584   4.2205   4.8664

          k = 0.1875 0.5413 0.0000 ( 12848 PWs)   bands (ev):

   -59.6011 -33.8845 -33.7441 -33.7065 -11.4477 -10.8558  -4.8005  -4.1027
    -3.4553  -2.4467  -2.0924  -1.3466   0.5142   1.1661   1.6757   1.7848
     2.5146   2.6574   3.2089   3.7278   4.3200   4.8828

          k = 0.2500 0.4330 0.0000 ( 12885 PWs)   bands (ev):

   -59.6036 -33.8554 -33.7487 -33.7075 -11.5942 -10.9592  -4.4929  -3.8752
    -3.4124  -2.7126  -2.0094  -1.1933   0.3300   1.3270   1.4427   1.6996
     2.3880   2.6375   2.9307   3.7391   4.1691   4.9147

          k = 0.2500 0.5052 0.0000 ( 12870 PWs)   bands (ev):

   -59.6006 -33.8597 -33.7430 -33.7387 -11.4211 -10.8314  -4.5745  -4.0681
    -3.4160  -2.8222  -2.2066  -1.3952   0.4788   1.3396   1.6048   1.7332
     2.4206   2.6718   3.1082   3.7039   4.2498   5.2040

          k = 0.2500 0.5774 0.0000 ( 12844 PWs)   bands (ev):

   -59.5995 -33.8595 -33.7515 -33.7409 -11.3588 -10.7835  -4.6113  -4.1156
    -3.4703  -2.8201  -2.2703  -1.4832   0.5517   1.3355   1.6565   1.7681
     2.4705   2.6776   3.0932   3.7539   4.2841   5.2722

          k = 0.3125 0.5413 0.0000 ( 12856 PWs)   bands (ev):

   -59.5990 -33.8389 -33.7791 -33.7398 -11.3277 -10.7575  -4.4956  -4.1330
    -3.3666  -3.1507  -2.2863  -1.5218   0.5646   1.4036   1.6476   1.7808
     2.4436   2.6833   2.9917   3.7514   4.3183   5.5767

     the Fermi energy is     2.2155 ev

!    total energy              =    -658.56488507 Ry
     total all-electron energy =    -12481.738776 Ry
     estimated scf accuracy    <       0.00000023 Ry
     smearing contrib. (-TS)   =      -0.00581565 Ry
     internal energy E=F+TS    =    -658.55906941 Ry

     The total energy is F=E-TS. E is the sum of the following terms:
     one-electron contribution =   -1242.36386687 Ry
     hartree contribution      =     634.89366744 Ry
     xc contribution           =     -62.26740586 Ry
     ewald contribution        =     417.32249036 Ry
     one-center paw contrib.   =    -406.14395449 Ry

     total magnetization       =     2.00 Bohr mag/cell
     absolute magnetization    =     2.18 Bohr mag/cell

     convergence has been achieved in  10 iterations

     negative rho (up, down):  2.230E-04 2.172E-04

     Forces acting on atoms (cartesian axes, Ry/au):

     atom    1 type  1   force =     0.00000000    0.00000000    0.04273462
     atom    2 type  2   force =     0.00000000    0.00000000    0.00604177
     atom    3 type  2   force =     0.00000000    0.00000000   -0.00384084
     atom    4 type  3   force =     0.00000000    0.00000000   -0.04493555
     The non-local contrib.  to forces
     atom    1 type  1   force =     0.00000000    0.00000000   -0.07060720
     atom    2 type  2   force =     0.00000000   -0.00000000   -0.05887314
     atom    3 type  2   force =     0.00000000    0.00000000    0.27011465
     atom    4 type  3   force =     0.00000000    0.00000000    0.00945616
     The ionic contribution  to forces
     atom    1 type  1   force =     0.00000000   -0.00000000  -31.68608076
     atom    2 type  2   force =    -0.00000000    0.00000000   18.60240658
     atom    3 type  2   force =    -0.00000000    0.00000000  -44.75910357
     atom    4 type  3   force =     0.00000000   -0.00000000   57.84277775
     The local contribution  to forces
     atom    1 type  1   force =     0.00000000   -0.00000000   31.79774282
     atom    2 type  2   force =    -0.00000000    0.00000000  -18.53717325
     atom    3 type  2   force =    -0.00000000    0.00000000   44.48820874
     atom    4 type  3   force =    -0.00000000    0.00000000  -57.87992273
     The core correction contribution to forces
     atom    1 type  1   force =    -0.00000000    0.00000000    0.00449284
     atom    2 type  2   force =     0.00000000   -0.00000000   -0.00076499
     atom    3 type  2   force =     0.00000000   -0.00000000   -0.00219715
     atom    4 type  3   force =    -0.00000000    0.00000000   -0.01771206
     The Hubbard contrib.    to forces
     atom    1 type  1   force =     0.00000000    0.00000000    0.00000000
     atom    2 type  2   force =     0.00000000    0.00000000    0.00000000
     atom    3 type  2   force =     0.00000000    0.00000000    0.00000000
     atom    4 type  3   force =     0.00000000    0.00000000    0.00000000
     The SCF correction term to forces
     atom    1 type  1   force =     0.00000000    0.00000000   -0.00264593
     atom    2 type  2   force =    -0.00000000   -0.00000000    0.00061373
     atom    3 type  2   force =     0.00000000    0.00000000   -0.00069636
     atom    4 type  3   force =    -0.00000000   -0.00000000    0.00063248

     Total force =     0.062424     Total SCF correction =     0.002874


     Computing stress (Cartesian axis) and pressure


     negative rho (up, down):  2.230E-04 2.172E-04
          total   stress  (Ry/bohr**3)                   (kbar)     P=      -28.40
  -0.00016376   0.00000000   0.00000000          -24.09        0.00        0.00
   0.00000000  -0.00016376   0.00000000            0.00      -24.09        0.00
   0.00000000   0.00000000  -0.00025162            0.00        0.00      -37.02

     Energy error            =      4.7E-03 Ry
     Gradient error          =      4.5E-02 Ry/Bohr

     number of scf cycles    =   5
     number of bfgs steps    =   4

     energy             old  =    -658.5601755020 Ry
     energy             new  =    -658.5648850689 Ry

     CASE: energy            _new < energy            _old

     new trust radius        =       0.1373593510 bohr
     new conv_thr            =       0.0000004494 Ry


ATOMIC_POSITIONS (crystal)
Mo            0.0000000000        0.0000000000        0.4995450799
S             0.6666666667        0.3333333333        0.5960861474
S             0.6666666667        0.3333333333        0.4149220867
Co            0.0000000000        0.0000000000        0.6870827499



     Writing config-only to output data dir ./tmp/relax.save/
     NEW-OLD atomic charge density approx. for the potential

     negative rho (up, down):  2.807E-04 2.238E-04
     Generating pointlists ...
     new r_m :   0.3212 (alat units)  1.9231 (a.u.) for type    3

     total cpu time spent up to now is      138.6 secs

     Self-consistent Calculation

     iteration #  1     ecut=    80.00 Ry     beta= 0.70
     Davidson diagonalization with overlap
     ethr =  1.00E-06,  avg # of iterations = 14.5

     negative rho (up, down):  2.642E-04 2.387E-04

     total cpu time spent up to now is      143.3 secs

     total energy              =    -658.56735762 Ry
     estimated scf accuracy    <       0.01079671 Ry

     total magnetization       =     1.86 Bohr mag/cell
     absolute magnetization    =     2.07 Bohr mag/cell

     iteration #  2     ecut=    80.00 Ry     beta= 0.70
     Davidson diagonalization with overlap
     ethr =  3.08E-05,  avg # of iterations =  5.0

     negative rho (up, down):  2.612E-04 2.359E-04

     total cpu time spent up to now is      145.5 secs

     total energy              =    -658.53373923 Ry
     estimated scf accuracy    <       0.83269530 Ry

     total magnetization       =     2.33 Bohr mag/cell
     absolute magnetization    =     2.59 Bohr mag/cell

     iteration #  3     ecut=    80.00 Ry     beta= 0.70
     Davidson diagonalization with overlap
     ethr =  3.08E-05,  avg # of iterations =  5.9

     negative rho (up, down):  2.471E-04 2.231E-04

     total cpu time spent up to now is      147.8 secs

     total energy              =    -658.56437597 Ry
     estimated scf accuracy    <       0.11033525 Ry

     total magnetization       =     1.79 Bohr mag/cell
     absolute magnetization    =     2.01 Bohr mag/cell

     iteration #  4     ecut=    80.00 Ry     beta= 0.70
     Davidson diagonalization with overlap
     ethr =  3.08E-05,  avg # of iterations =  3.7

     negative rho (up, down):  2.281E-04 2.134E-04

     total cpu time spent up to now is      149.7 secs

     total energy              =    -658.57112136 Ry
     estimated scf accuracy    <       0.00256124 Ry

     total magnetization       =     1.86 Bohr mag/cell
     absolute magnetization    =     2.09 Bohr mag/cell

     iteration #  5     ecut=    80.00 Ry     beta= 0.70
     Davidson diagonalization with overlap
     ethr =  7.32E-06,  avg # of iterations =  2.4

     negative rho (up, down):  2.234E-04 2.130E-04

     total cpu time spent up to now is      151.6 secs

     total energy              =    -658.57146850 Ry
     estimated scf accuracy    <       0.00161224 Ry

     total magnetization       =     1.89 Bohr mag/cell
     absolute magnetization    =     2.11 Bohr mag/cell

     iteration #  6     ecut=    80.00 Ry     beta= 0.70
     Davidson diagonalization with overlap
     ethr =  4.61E-06,  avg # of iterations =  2.0

     negative rho (up, down):  2.233E-04 2.141E-04

     total cpu time spent up to now is      153.4 secs

     total energy              =    -658.57172040 Ry
     estimated scf accuracy    <       0.00011654 Ry

     total magnetization       =     1.88 Bohr mag/cell
     absolute magnetization    =     2.10 Bohr mag/cell

     iteration #  7     ecut=    80.00 Ry     beta= 0.70
     Davidson diagonalization with overlap
     ethr =  3.33E-07,  avg # of iterations =  4.3

     negative rho (up, down):  2.234E-04 2.145E-04

     total cpu time spent up to now is      155.5 secs

     total energy              =    -658.57173863 Ry
     estimated scf accuracy    <       0.00017555 Ry

     total magnetization       =     1.88 Bohr mag/cell
     absolute magnetization    =     2.10 Bohr mag/cell

     iteration #  8     ecut=    80.00 Ry     beta= 0.70
     Davidson diagonalization with overlap
     ethr =  3.33E-07,  avg # of iterations =  2.5

     negative rho (up, down):  2.237E-04 2.151E-04

     total cpu time spent up to now is      157.3 secs

     total energy              =    -658.57175918 Ry
     estimated scf accuracy    <       0.00001129 Ry

     total magnetization       =     1.88 Bohr mag/cell
     absolute magnetization    =     2.10 Bohr mag/cell

     iteration #  9     ecut=    80.00 Ry     beta= 0.70
     Davidson diagonalization with overlap
     ethr =  3.23E-08,  avg # of iterations =  2.9

     negative rho (up, down):  2.239E-04 2.155E-04

     total cpu time spent up to now is      159.1 secs

     total energy              =    -658.57176067 Ry
     estimated scf accuracy    <       0.00000545 Ry

     total magnetization       =     1.88 Bohr mag/cell
     absolute magnetization    =     2.10 Bohr mag/cell

     iteration # 10     ecut=    80.00 Ry     beta= 0.70
     Davidson diagonalization with overlap
     ethr =  1.56E-08,  avg # of iterations =  1.6

     negative rho (up, down):  2.239E-04 2.155E-04

     total cpu time spent up to now is      160.8 secs

     total energy              =    -658.57176095 Ry
     estimated scf accuracy    <       0.00000078 Ry

     total magnetization       =     1.88 Bohr mag/cell
     absolute magnetization    =     2.10 Bohr mag/cell

     iteration # 11     ecut=    80.00 Ry     beta= 0.70
     Davidson diagonalization with overlap
     ethr =  2.23E-09,  avg # of iterations =  4.0

     negative rho (up, down):  2.239E-04 2.155E-04
 
     Magnetic moment per site  (integrated on atomic sphere of radius R)
     atom   1 (R=0.312)  charge= 10.7048  magn= -0.0197
     atom   2 (R=0.312)  charge=  4.1067  magn=  0.0509
     atom   3 (R=0.312)  charge=  4.1210  magn=  0.0048
     atom   4 (R=0.321)  charge=  7.3067  magn=  1.8399

     total cpu time spent up to now is      162.8 secs

     End of self-consistent calculation

 ------ SPIN UP ------------


          k = 0.0000 0.0000 0.0000 ( 12991 PWs)   bands (ev):

   -59.5835 -33.7911 -33.4709 -33.4709 -13.4726 -12.1164  -5.1825  -2.7016
    -1.2784  -1.2784  -0.7713  -0.7713  -0.5942   0.1790   0.1790   0.5666
     0.5666   0.8170   1.4829   3.2980   3.2980   4.2880

          k = 0.0000 0.0722 0.0000 ( 12961 PWs)   bands (ev):

   -59.5820 -33.7883 -33.4857 -33.4743 -13.4183 -12.0813  -5.1216  -2.6796
    -1.4325  -1.2427  -0.9553  -0.8072  -0.5541   0.1630   0.1673   0.4632
     0.5556   0.8966   1.5836   3.1672   3.3145   4.1636

          k = 0.0000 0.1443 0.0000 ( 12937 PWs)   bands (ev):

   -59.5778 -33.7803 -33.5275 -33.4839 -13.2594 -11.9787  -4.9507  -2.6498
    -1.8477  -1.2894  -1.1741  -0.9007  -0.5731   0.1314   0.1509   0.3415
     0.5427   0.9190   1.8052   2.9469   3.3137   3.9573

          k = 0.0000 0.2165 0.0000 ( 12929 PWs)   bands (ev):

   -59.5715 -33.7684 -33.5895 -33.4982 -13.0093 -11.8172  -4.7090  -2.7757
    -2.3770  -1.5838  -1.2641  -0.8932  -0.6270   0.0738   0.1951   0.2678
     0.5627   0.7839   1.9456   2.9474   3.2601   3.9274

          k = 0.0000 0.2887 0.0000 ( 12917 PWs)   bands (ev):

   -59.5641 -33.7543 -33.6618 -33.5151 -12.6910 -11.6120  -4.4744  -3.3061
    -2.7690  -1.7134  -1.5039  -0.7964  -0.6533   0.0271   0.1995   0.2904
     0.5722   0.6457   2.0155   3.2101   3.2353   4.1241

          k = 0.0000 0.3608 0.0000 ( 12903 PWs)   bands (ev):

   -59.5567 -33.7425 -33.7311 -33.5319 -12.3409 -11.3857  -4.4128  -3.9056
    -3.0745  -1.7783  -1.7476  -0.7347  -0.6526   0.0275   0.1440   0.3996
     0.4469   0.7852   2.2099   3.2318   3.6387   4.4073

          k = 0.0000 0.4330 0.0000 ( 12893 PWs)   bands (ev):

   -59.5504 -33.7942 -33.7275 -33.5460 -12.0116 -11.1704  -4.7839  -4.1720
    -3.2485  -1.9437  -1.8861  -0.7163  -0.6581   0.0727   0.2058   0.4382
     0.5014   0.9184   2.5578   3.3470   4.0254   4.6339

          k = 0.0000 0.5052 0.0000 ( 12870 PWs)   bands (ev):

   -59.5461 -33.8339 -33.7196 -33.5555 -11.7710 -11.0086  -5.1876  -4.3120
    -3.3067  -2.0689  -1.9987  -0.7186  -0.6695   0.1098   0.3078   0.5430
     0.5780   0.9964   2.9680   3.4983   4.1072   4.9120

          k = 0.0000-0.5774 0.0000 ( 12854 PWs)   bands (ev):

   -59.5446 -33.8479 -33.7167 -33.5588 -11.6820 -10.9469  -5.3416  -4.3708
    -3.3194  -2.1117  -2.0445  -0.7217  -0.6749   0.1212   0.3378   0.6072
     0.6282   1.0194   3.2124   3.5703   3.9642   4.9589

          k = 0.0625 0.1083 0.0000 ( 12951 PWs)   bands (ev):

   -59.5792 -33.7829 -33.5135 -33.4812 -13.3116 -12.0124  -5.0054  -2.6519
    -1.7112  -1.2184  -1.1607  -0.9013  -0.5517   0.1358   0.1565   0.3818
     0.5314   0.9362   1.7460   2.9947   3.3162   3.9918

          k = 0.0625 0.1804 0.0000 ( 12937 PWs)   bands (ev):

   -59.5740 -33.7729 -33.5643 -33.4943 -13.1070 -11.8802  -4.7969  -2.6813
    -2.1764  -1.4877  -1.2537  -0.9588  -0.5792   0.1120   0.1464   0.3377
     0.5153   0.8774   1.9115   2.9086   3.2699   3.8553

          k = 0.0625 0.2526 0.0000 ( 12935 PWs)   bands (ev):

   -59.5671 -33.7599 -33.6299 -33.5115 -12.8222 -11.6963  -4.5508  -3.0203
    -2.6092  -1.7348  -1.4549  -0.8831  -0.6092   0.0591   0.1890   0.3306
     0.5271   0.7266   1.9534   3.1082   3.2197   3.9290

          k = 0.0625 0.3248 0.0000 ( 12927 PWs)   bands (ev):

   -59.5597 -33.7461 -33.6999 -33.5300 -12.4865 -11.4791  -4.3753  -3.6235
    -2.9480  -1.9142  -1.6018  -0.8224  -0.6160   0.0256   0.1589   0.3732
     0.4768   0.7479   2.0393   3.2345   3.4785   4.1880

          k = 0.0625 0.3969 0.0000 ( 12903 PWs)   bands (ev):

   -59.5528 -33.7654 -33.7318 -33.5470 -12.1437 -11.2557  -4.5336  -4.0435
    -3.2038  -2.0737  -1.7259  -0.8332  -0.5947   0.0384   0.1441   0.3946
     0.5164   0.8750   2.2857   3.3629   3.8736   4.5038

          k = 0.0625 0.4691 0.0000 ( 12863 PWs)   bands (ev):

   -59.5475 -33.8138 -33.7221 -33.5600 -11.8543 -11.0631  -4.9751  -4.2123
    -3.3134  -2.1747  -1.8849  -0.8787  -0.5785   0.0881   0.2331   0.4340
     0.6074   0.9720   2.6785   3.5270   4.1657   4.8233

          k = 0.0625 0.5413 0.0000 ( 12844 PWs)   bands (ev):

   -59.5446 -33.8400 -33.7167 -33.5671 -11.6861 -10.9472  -5.2607  -4.3232
    -3.3440  -2.1957  -2.0214  -0.9084  -0.5765   0.1244   0.2795   0.5232
     0.6865   1.0184   3.1002   3.5938   4.0980   4.7694

          k = 0.1250 0.2165 0.0000 ( 12933 PWs)   bands (ev):

   -59.5681 -33.7619 -33.6166 -33.5123 -12.8673 -11.7251  -4.5783  -2.9015
    -2.5278  -1.7699  -1.4745  -0.9401  -0.5757   0.0832   0.1743   0.4000
     0.4655   0.7883   1.9244   3.0763   3.2158   3.8090

          k = 0.1250 0.2887 0.0000 ( 12935 PWs)   bands (ev):

   -59.5613 -33.7490 -33.6766 -33.5345 -12.5635 -11.5277  -4.3664  -3.3787
    -2.8380  -2.0960  -1.5836  -0.9182  -0.5745   0.0430   0.1646   0.4138
     0.4775   0.7618   1.9082   3.2390   3.4221   3.9500

          k = 0.1250 0.3608 0.0000 ( 12903 PWs)   bands (ev):

   -59.5544 -33.7405 -33.7311 -33.5571 -12.2310 -11.3100  -4.3381  -3.8309
    -3.1678  -2.3095  -1.6696  -0.9605  -0.5418   0.0004   0.0840   0.4138
     0.5584   0.8579   2.0164   3.4328   3.7475   4.2624

          k = 0.1250 0.4330 0.0000 ( 12881 PWs)   bands (ev):

   -59.5486 -33.7860 -33.7241 -33.5764 -11.9209 -11.1030  -4.6881  -4.0326
    -3.3654  -2.4187  -1.8052  -1.0753  -0.4960   0.0122   0.1234   0.3919
     0.6574   0.9604   2.3270   3.6440   4.0772   4.5776

          k = 0.1250 0.5052 0.0000 ( 12858 PWs)   bands (ev):

   -59.5446 -33.8187 -33.7167 -33.5893 -11.6960 -10.9480  -5.0407  -4.1866
    -3.4245  -2.4269  -1.9772  -1.1779  -0.4763   0.0773   0.1885   0.4085
     0.7423   1.0307   2.7987   3.6988   4.3172   4.5203

          k = 0.1250 0.5774 0.0000 ( 12856 PWs)   bands (ev):

   -59.5433 -33.8301 -33.7142 -33.5938 -11.6133 -10.8892  -5.1756  -4.2529
    -3.4379  -2.3959  -2.0736  -1.2157  -0.4733   0.1246   0.1795   0.4425
     0.7792   1.0643   3.1503   3.6030   4.2430   4.4847

          k = 0.1875 0.3248 0.0000 ( 12901 PWs)   bands (ev):

   -59.5550 -33.7381 -33.7217 -33.5636 -12.2615 -11.3285  -4.2696  -3.6994
    -3.1499  -2.4447  -1.6829  -0.9999  -0.5221  -0.0041   0.0477   0.4342
     0.5879   0.8522   1.9082   3.4613   3.6928   4.1526

          k = 0.1875 0.3969 0.0000 ( 12903 PWs)   bands (ev):

   -59.5491 -33.7635 -33.7250 -33.5930 -11.9578 -11.1239  -4.4590  -3.8321
    -3.4531  -2.6479  -1.8337  -1.1424  -0.4413  -0.0653   0.0378   0.4056
     0.6983   0.9647   2.0967   3.7064   3.9572   4.4455

          k = 0.1875 0.4691 0.0000 ( 12858 PWs)   bands (ev):

   -59.5447 -33.7921 -33.7167 -33.6168 -11.7059 -10.9486  -4.7630  -3.9986
    -3.5494  -2.7198  -2.0140  -1.3139  -0.3813  -0.0264   0.0948   0.3548
     0.7868   1.0549   2.5100   3.7245   4.2187   4.6440

          k = 0.1875 0.5413 0.0000 ( 12848 PWs)   bands (ev):

   -59.5422 -33.8073 -33.7122 -33.6301 -11.5615 -10.8445  -4.9596  -4.1334
    -3.5736  -2.6917  -2.1566  -1.4301  -0.3602   0.0261   0.1400   0.3341
     0.8365   1.1375   2.9843   3.6110   4.1799   4.6734

          k = 0.2500 0.4330 0.0000 ( 12885 PWs)   bands (ev):

   -59.5447 -33.7783 -33.7167 -33.6310 -11.7100 -10.9488  -4.6137  -3.9037
    -3.6066  -2.8916  -2.0611  -1.3195  -0.3368  -0.0627   0.0227   0.3502
     0.8059   1.0687   2.3922   3.6984   4.1761   4.7045

          k = 0.2500 0.5052 0.0000 ( 12870 PWs)   bands (ev):

   -59.5417 -33.7826 -33.7111 -33.6621 -11.5350 -10.8202  -4.7197  -4.0908
    -3.6113  -3.0170  -2.2367  -1.4721  -0.2670  -0.0275   0.0558   0.2775
     0.8733   1.1924   2.7978   3.5839   4.1035   5.0341

          k = 0.2500 0.5774 0.0000 ( 12844 PWs)   bands (ev):

   -59.5406 -33.7823 -33.7091 -33.6748 -11.4717 -10.7724  -4.7582  -4.1582
    -3.6375  -3.0329  -2.3010  -1.5363  -0.2457  -0.0193   0.1007   0.2318
     0.8905   1.2718   3.0081   3.5212   4.0373   5.0513

          k = 0.3125 0.5413 0.0000 ( 12856 PWs)   bands (ev):

   -59.5400 -33.7617 -33.7080 -33.7025 -11.4402 -10.7466  -4.5908  -4.2661
    -3.5658  -3.2648  -2.3445  -1.5593  -0.1958   0.0032   0.0487   0.1798
     0.9087   1.3417   2.9382   3.5131   4.0171   5.3324

 ------ SPIN DOWN ----------


          k = 0.0000 0.0000 0.0000 ( 12991 PWs)   bands (ev):

   -59.6009 -33.7881 -33.5011 -33.5011 -13.4214 -12.1032  -5.1517  -2.5835
    -1.2036  -1.2036  -0.3837  -0.3837   0.5604   1.4628   1.4628   1.5516
     1.6567   1.6567   2.1079   3.6637   3.6637   4.2955

          k = 0.0000 0.0722 0.0000 ( 12961 PWs)   bands (ev):

   -59.5994 -33.7853 -33.5158 -33.5045 -13.3667 -12.0682  -5.0902  -2.5707
    -1.3496  -1.1553  -0.5741  -0.4755   0.6017   1.2424   1.4844   1.5134
     1.6557   1.9037   2.1925   3.5326   3.6873   4.1675

          k = 0.0000 0.1443 0.0000 ( 12937 PWs)   bands (ev):

   -59.5952 -33.7773 -33.5575 -33.5140 -13.2066 -11.9662  -4.9176  -2.5678
    -1.7412  -1.0236  -0.9801  -0.7122   0.5860   1.0067   1.4612   1.5222
     1.6856   2.0761   2.5166   3.2588   3.6859   3.9608

          k = 0.0000 0.2165 0.0000 ( 12929 PWs)   bands (ev):

   -59.5889 -33.7654 -33.6194 -33.5283 -12.9545 -11.8057  -4.6731  -2.7100
    -2.2657  -1.3575  -1.0364  -0.8251   0.5147   0.7563   1.3961   1.5460
     1.7957   2.1833   2.8293   3.1212   3.6081   3.9462

          k = 0.0000 0.2887 0.0000 ( 12917 PWs)   bands (ev):

   -59.5815 -33.7515 -33.6915 -33.5452 -12.6335 -11.6018  -4.4367  -3.1953
    -2.7135  -1.5586  -1.3484  -0.6471   0.4232   0.5601   1.3480   1.6019
     1.9648   2.2702   2.7644   3.4812   3.5113   4.1801

          k = 0.0000 0.3608 0.0000 ( 12903 PWs)   bands (ev):

   -59.5741 -33.7644 -33.7359 -33.5619 -12.2799 -11.3772  -4.3744  -3.7883
    -3.0323  -1.6680  -1.6269  -0.5167   0.2165   0.6444   1.3723   1.7150
     2.1637   2.3344   2.8002   3.4517   3.8810   4.5313

          k = 0.0000 0.4330 0.0000 ( 12893 PWs)   bands (ev):

   -59.5677 -33.8238 -33.7245 -33.5761 -11.9471 -11.1635  -4.7166  -4.0999
    -3.1955  -1.8412  -1.7872  -0.4515   0.1763   0.7366   1.5010   1.8518
     2.3545   2.3880   3.0022   3.4620   4.1904   4.8683

          k = 0.0000 0.5052 0.0000 ( 12870 PWs)   bands (ev):

   -59.5635 -33.8635 -33.7165 -33.5855 -11.7038 -11.0026  -5.1134  -4.2624
    -3.2445  -1.9752  -1.8927  -0.4300   0.2326   0.8012   1.6685   1.9565
     2.4276   2.4836   3.3177   3.5306   4.2230   5.2106

          k = 0.0000-0.5774 0.0000 ( 12854 PWs)   bands (ev):

   -59.5620 -33.8774 -33.7137 -33.5889 -11.6139 -10.9412  -5.2673  -4.3265
    -3.2551  -2.0207  -1.9333  -0.4262   0.2634   0.8296   1.7498   1.9945
     2.4414   2.5261   3.5437   3.5736   4.0790   5.0270

          k = 0.0625 0.1083 0.0000 ( 12951 PWs)   bands (ev):

   -59.5966 -33.7799 -33.5436 -33.5114 -13.2593 -11.9997  -4.9729  -2.5612
    -1.6132  -1.0729  -0.8489  -0.6602   0.6135   1.0672   1.4295   1.5777
     1.6481   2.0437   2.4143   3.3340   3.6902   3.9927

          k = 0.0625 0.1804 0.0000 ( 12937 PWs)   bands (ev):

   -59.5913 -33.7699 -33.5942 -33.5245 -13.0530 -11.8683  -4.7620  -2.6169
    -2.0596  -1.2666  -0.9466  -0.9025   0.5692   0.8648   1.3596   1.5966
     1.7290   2.1550   2.7756   3.1082   3.6294   3.8595

          k = 0.0625 0.2526 0.0000 ( 12935 PWs)   bands (ev):

   -59.5845 -33.7570 -33.6597 -33.5416 -12.7659 -11.6855  -4.5130  -2.9279
    -2.5298  -1.6186  -1.1852  -0.7632   0.5299   0.6168   1.3159   1.5942
     1.8900   2.2544   2.7905   3.3152   3.5468   3.9634

          k = 0.0625 0.3248 0.0000 ( 12927 PWs)   bands (ev):

   -59.5770 -33.7443 -33.7284 -33.5601 -12.4270 -11.4699  -4.3376  -3.5014
    -2.9046  -1.8422  -1.3834  -0.6631   0.3325   0.6247   1.3241   1.6516
     2.0840   2.3334   2.7280   3.4669   3.7324   4.2891

          k = 0.0625 0.3969 0.0000 ( 12903 PWs)   bands (ev):

   -59.5702 -33.7948 -33.7290 -33.5771 -12.0806 -11.2482  -4.4784  -3.9473
    -3.1582  -2.0004  -1.5616  -0.6427   0.2406   0.7221   1.4142   1.7670
     2.2807   2.3988   2.8089   3.5070   4.0693   4.6896

          k = 0.0625 0.4691 0.0000 ( 12863 PWs)   bands (ev):

   -59.5649 -33.8434 -33.7191 -33.5901 -11.7880 -11.0568  -4.9009  -4.1554
    -3.2535  -2.0926  -1.7487  -0.6596   0.3038   0.7892   1.5736   1.8854
     2.4050   2.4863   3.0338   3.6023   4.2938   4.9166

          k = 0.0625 0.5413 0.0000 ( 12844 PWs)   bands (ev):

   -59.5620 -33.8696 -33.7137 -33.5971 -11.6181 -10.9415  -5.1849  -4.2794
    -3.2781  -2.1036  -1.8977  -0.6743   0.3811   0.8275   1.7052   1.9554
     2.4546   2.5451   3.3478   3.6500   4.2434   4.8611

          k = 0.1250 0.2165 0.0000 ( 12933 PWs)   bands (ev):

   -59.5855 -33.7589 -33.6465 -33.5424 -12.8114 -11.7141  -4.5405  -2.8206
    -2.4330  -1.6796  -1.1495  -0.8171   0.5882   0.6617   1.2791   1.6094
     1.8599   2.2578   2.8070   3.2661   3.5452   3.8334

          k = 0.1250 0.2887 0.0000 ( 12935 PWs)   bands (ev):

   -59.5787 -33.7463 -33.7061 -33.5646 -12.5047 -11.5181  -4.3267  -3.2579
    -2.7879  -2.0358  -1.3157  -0.7727   0.4174   0.6599   1.2709   1.6205
     2.0473   2.3593   2.6801   3.4589   3.6554   4.0679

          k = 0.1250 0.3608 0.0000 ( 12903 PWs)   bands (ev):

   -59.5718 -33.7665 -33.7318 -33.5872 -12.1689 -11.3020  -4.2932  -3.7063
    -3.1345  -2.2327  -1.4727  -0.8331   0.2693   0.7798   1.3267   1.6822
     2.2563   2.4333   2.6435   3.5647   3.9078   4.4952

          k = 0.1250 0.4330 0.0000 ( 12881 PWs)   bands (ev):

   -59.5659 -33.8155 -33.7211 -33.6064 -11.8554 -11.0964  -4.6152  -3.9608
    -3.3115  -2.3259  -1.6505  -0.9677   0.3105   0.8708   1.4572   1.7769
     2.4017   2.5200   2.7523   3.7100   4.1836   4.8103

          k = 0.1250 0.5052 0.0000 ( 12858 PWs)   bands (ev):

   -59.5620 -33.8483 -33.7137 -33.6193 -11.6282 -10.9422  -4.9612  -4.1434
    -3.3533  -2.3133  -1.8535  -1.0749   0.4473   0.8975   1.6043   1.8631
     2.4671   2.5791   3.0595   3.7466   4.4267   4.6930

          k = 0.1250 0.5774 0.0000 ( 12856 PWs)   bands (ev):

   -59.5607 -33.8597 -33.7111 -33.6238 -11.5446 -10.8836  -5.0959  -4.2163
    -3.3632  -2.2591  -1.9756  -1.1121   0.5161   0.9013   1.6679   1.8966
     2.4990   2.5897   3.3163   3.6757   4.4920   4.5562

          k = 0.1875 0.3248 0.0000 ( 12901 PWs)   bands (ev):

   -59.5723 -33.7541 -33.7324 -33.5936 -12.1997 -11.3203  -4.2264  -3.5585
    -3.1296  -2.3574  -1.5102  -0.8518   0.2550   0.8318   1.2787   1.6494
     2.2567   2.4590   2.5773   3.5842   3.8172   4.4272

          k = 0.1875 0.3969 0.0000 ( 12903 PWs)   bands (ev):

   -59.5665 -33.7930 -33.7221 -33.6230 -11.8928 -11.1171  -4.3907  -3.7274
    -3.4208  -2.5351  -1.7363  -1.0207   0.2294   1.0216   1.3304   1.6963
     2.4381   2.5194   2.6019   3.7611   4.0226   4.7634

          k = 0.1875 0.4691 0.0000 ( 12858 PWs)   bands (ev):

   -59.5620 -33.8218 -33.7137 -33.6467 -11.6382 -10.9427  -4.6807  -3.9567
    -3.4638  -2.5913  -1.9474  -1.2310   0.3607   1.0790   1.4822   1.7642
     2.4561   2.5824   2.8752   3.7752   4.2753   4.8944

          k = 0.1875 0.5413 0.0000 ( 12848 PWs)   bands (ev):

   -59.5596 -33.8369 -33.7091 -33.6600 -11.4925 -10.8388  -4.8751  -4.1052
    -3.4789  -2.5295  -2.1194  -1.3715   0.4979   1.0743   1.5906   1.8274
     2.5066   2.5924   3.1784   3.6967   4.3346   4.8867

          k = 0.2500 0.4330 0.0000 ( 12885 PWs)   bands (ev):

   -59.5620 -33.8079 -33.7137 -33.6610 -11.6424 -10.9429  -4.5314  -3.8672
    -3.5007  -2.7717  -2.0275  -1.2190   0.2992   1.2315   1.3684   1.7190
     2.4368   2.5758   2.8306   3.7571   4.2235   4.9723

          k = 0.2500 0.5052 0.0000 ( 12870 PWs)   bands (ev):

   -59.5590 -33.8122 -33.7081 -33.6921 -11.4658 -10.8146  -4.6345  -4.0574
    -3.4896  -2.9072  -2.2117  -1.4062   0.4383   1.2459   1.5084   1.7861
     2.4583   2.5888   3.0688   3.6836   4.2553   5.2496

          k = 0.2500 0.5774 0.0000 ( 12844 PWs)   bands (ev):

   -59.5580 -33.8119 -33.7064 -33.7044 -11.4019 -10.7668  -4.6745  -4.1166
    -3.5257  -2.9177  -2.2744  -1.4871   0.5075   1.2389   1.5586   1.8331
     2.5052   2.5832   3.1056   3.6974   4.2514   5.2987

          k = 0.3125 0.5413 0.0000 ( 12856 PWs)   bands (ev):

   -59.5574 -33.7913 -33.7324 -33.7050 -11.3701 -10.7410  -4.5227  -4.1820
    -3.4403  -3.2106  -2.3038  -1.5152   0.5083   1.3043   1.5421   1.8594
     2.4909   2.5824   3.0083   3.7110   4.2568   5.6261

     the Fermi energy is     2.1860 ev

!    total energy              =    -658.57176111 Ry
     total all-electron energy =    -12481.745652 Ry
     estimated scf accuracy    <       0.00000003 Ry
     smearing contrib. (-TS)   =      -0.00638609 Ry
     internal energy E=F+TS    =    -658.56537502 Ry

     The total energy is F=E-TS. E is the sum of the following terms:
     one-electron contribution =   -1257.89214631 Ry
     hartree contribution      =     642.66486524 Ry
     xc contribution           =     -62.28460956 Ry
     ewald contribution        =     425.08828952 Ry
     one-center paw contrib.   =    -406.14177390 Ry

     total magnetization       =     1.88 Bohr mag/cell
     absolute magnetization    =     2.10 Bohr mag/cell

     convergence has been achieved in  11 iterations

     negative rho (up, down):  2.239E-04 2.155E-04

     Forces acting on atoms (cartesian axes, Ry/au):

     atom    1 type  1   force =     0.00000000    0.00000000    0.05935488
     atom    2 type  2   force =     0.00000000    0.00000000   -0.00352891
     atom    3 type  2   force =     0.00000000    0.00000000   -0.00733266
     atom    4 type  3   force =     0.00000000    0.00000000   -0.04849331
     The non-local contrib.  to forces
     atom    1 type  1   force =     0.00000000    0.00000000   -0.08545791
     atom    2 type  2   force =     0.00000000    0.00000000   -0.04365997
     atom    3 type  2   force =     0.00000000    0.00000000    0.26755685
     atom    4 type  3   force =     0.00000000    0.00000000    0.04177737
     The ionic contribution  to forces
     atom    1 type  1   force =     0.00000000   -0.00000000  -32.16126472
     atom    2 type  2   force =    -0.00000000    0.00000000   18.55429908
     atom    3 type  2   force =    -0.00000000    0.00000000  -44.88924905
     atom    4 type  3   force =     0.00000000   -0.00000000   58.49621468
     The local contribution  to forces
     atom    1 type  1   force =     0.00000000   -0.00000000   32.30101457
     atom    2 type  2   force =    -0.00000000    0.00000000  -18.51392261
     atom    3 type  2   force =    -0.00000000    0.00000000   44.61665520
     atom    4 type  3   force =     0.00000000   -0.00000000  -58.56559009
     The core correction contribution to forces
     atom    1 type  1   force =     0.00000000    0.00000000    0.00540801
     atom    2 type  2   force =     0.00000000   -0.00000000   -0.00049950
     atom    3 type  2   force =     0.00000000   -0.00000000   -0.00207283
     atom    4 type  3   force =    -0.00000000    0.00000000   -0.02111980
     The Hubbard contrib.    to forces
     atom    1 type  1   force =     0.00000000    0.00000000    0.00000000
     atom    2 type  2   force =     0.00000000    0.00000000    0.00000000
     atom    3 type  2   force =     0.00000000    0.00000000    0.00000000
     atom    4 type  3   force =     0.00000000    0.00000000    0.00000000
     The SCF correction term to forces
     atom    1 type  1   force =     0.00000000    0.00000000   -0.00028614
     atom    2 type  2   force =    -0.00000000   -0.00000000    0.00031302
     atom    3 type  2   force =     0.00000000    0.00000000   -0.00016391
     atom    4 type  3   force =    -0.00000000   -0.00000000    0.00028346

     Total force =     0.077077     Total SCF correction =     0.000536


     Computing stress (Cartesian axis) and pressure


     negative rho (up, down):  2.239E-04 2.155E-04
          total   stress  (Ry/bohr**3)                   (kbar)     P=      -29.22
  -0.00015435   0.00000000   0.00000000          -22.71        0.00        0.00
   0.00000000  -0.00015435  -0.00000000            0.00      -22.71       -0.00
   0.00000000   0.00000000  -0.00028715            0.00        0.00      -42.24

     Energy error            =      6.9E-03 Ry
     Gradient error          =      5.9E-02 Ry/Bohr

     number of scf cycles    =   6
     number of bfgs steps    =   5

     energy             old  =    -658.5648850689 Ry
     energy             new  =    -658.5717611101 Ry

     CASE: energy            _new < energy            _old

     new trust radius        =       0.2060390265 bohr
     new conv_thr            =       0.0000005935 Ry


ATOMIC_POSITIONS (crystal)
Mo            0.0000000000        0.0000000000        0.5000583012
S             0.6666666667        0.3333333333        0.6002765841
S             0.6666666667        0.3333333333        0.4162124449
Co            0.0000000000        0.0000000000        0.6810887335



     Writing config-only to output data dir ./tmp/relax.save/
     NEW-OLD atomic charge density approx. for the potential

     negative rho (up, down):  2.612E-04 2.264E-04
     Generating pointlists ...
     new r_m :   0.3055 (alat units)  1.8293 (a.u.) for type    2
     new r_m :   0.3055 (alat units)  1.8293 (a.u.) for type    3

     total cpu time spent up to now is      166.0 secs

     Self-consistent Calculation

     iteration #  1     ecut=    80.00 Ry     beta= 0.70
     Davidson diagonalization with overlap
     c_bands:  3 eigenvalues not converged
     c_bands:  1 eigenvalues not converged
     c_bands:  2 eigenvalues not converged
     c_bands:  1 eigenvalues not converged
     c_bands:  2 eigenvalues not converged
     c_bands:  1 eigenvalues not converged
     c_bands:  1 eigenvalues not converged
     c_bands:  2 eigenvalues not converged
     c_bands:  1 eigenvalues not converged
     c_bands:  2 eigenvalues not converged
     c_bands:  4 eigenvalues not converged
     c_bands:  1 eigenvalues not converged
     c_bands:  2 eigenvalues not converged
     ethr =  1.00E-06,  avg # of iterations = 18.3

     negative rho (up, down):  2.619E-04 2.417E-04

     total cpu time spent up to now is      171.7 secs

     total energy              =    -658.53330178 Ry
     estimated scf accuracy    <       0.07168049 Ry

     total magnetization       =     1.42 Bohr mag/cell
     absolute magnetization    =     1.77 Bohr mag/cell

     iteration #  2     ecut=    80.00 Ry     beta= 0.70
     Davidson diagonalization with overlap
     ethr =  2.05E-04,  avg # of iterations =  8.7

     negative rho (up, down):  2.571E-04 2.376E-04

     total cpu time spent up to now is      174.3 secs

     total energy              =    -657.35585159 Ry
     estimated scf accuracy    <      66.58323888 Ry

     total magnetization       =     1.40 Bohr mag/cell
     absolute magnetization    =     1.51 Bohr mag/cell

     iteration #  3     ecut=    80.00 Ry     beta= 0.70
     Davidson diagonalization with overlap
     ethr =  2.05E-04,  avg # of iterations =  8.3

     negative rho (up, down):  2.391E-04 2.149E-04

     total cpu time spent up to now is      177.0 secs

     total energy              =    -658.55096444 Ry
     estimated scf accuracy    <       0.25730438 Ry

     total magnetization       =     1.62 Bohr mag/cell
     absolute magnetization    =     1.94 Bohr mag/cell

     iteration #  4     ecut=    80.00 Ry     beta= 0.70
     Davidson diagonalization with overlap
     ethr =  2.05E-04,  avg # of iterations =  2.8

     negative rho (up, down):  2.294E-04 2.084E-04

     total cpu time spent up to now is      178.8 secs

     total energy              =    -658.58047496 Ry
     estimated scf accuracy    <       0.00362526 Ry

     total magnetization       =     1.44 Bohr mag/cell
     absolute magnetization    =     1.80 Bohr mag/cell

     iteration #  5     ecut=    80.00 Ry     beta= 0.70
     Davidson diagonalization with overlap
     ethr =  1.04E-05,  avg # of iterations =  7.0

     negative rho (up, down):  2.288E-04 2.094E-04

     total cpu time spent up to now is      181.2 secs

     total energy              =    -658.58061143 Ry
     estimated scf accuracy    <       0.00726936 Ry

     total magnetization       =     1.47 Bohr mag/cell
     absolute magnetization    =     1.81 Bohr mag/cell

     iteration #  6     ecut=    80.00 Ry     beta= 0.70
     Davidson diagonalization with overlap
     ethr =  1.04E-05,  avg # of iterations =  3.5

     negative rho (up, down):  2.300E-04 2.109E-04

     total cpu time spent up to now is      183.1 secs

     total energy              =    -658.58162299 Ry
     estimated scf accuracy    <       0.00296265 Ry

     total magnetization       =     1.47 Bohr mag/cell
     absolute magnetization    =     1.82 Bohr mag/cell

     iteration #  7     ecut=    80.00 Ry     beta= 0.70
     Davidson diagonalization with overlap
     ethr =  8.46E-06,  avg # of iterations =  2.2

     negative rho (up, down):  2.320E-04 2.128E-04

     total cpu time spent up to now is      184.9 secs

     total energy              =    -658.58198735 Ry
     estimated scf accuracy    <       0.00045545 Ry

     total magnetization       =     1.45 Bohr mag/cell
     absolute magnetization    =     1.80 Bohr mag/cell

     iteration #  8     ecut=    80.00 Ry     beta= 0.70
     Davidson diagonalization with overlap
     ethr =  1.30E-06,  avg # of iterations =  2.2

     negative rho (up, down):  2.333E-04 2.141E-04

     total cpu time spent up to now is      186.7 secs

     total energy              =    -658.58203053 Ry
     estimated scf accuracy    <       0.00008741 Ry

     total magnetization       =     1.45 Bohr mag/cell
     absolute magnetization    =     1.80 Bohr mag/cell

     iteration #  9     ecut=    80.00 Ry     beta= 0.70
     Davidson diagonalization with overlap
     ethr =  2.50E-07,  avg # of iterations =  2.8

     negative rho (up, down):  2.333E-04 2.142E-04

     total cpu time spent up to now is      188.5 secs

     total energy              =    -658.58204005 Ry
     estimated scf accuracy    <       0.00000893 Ry

     total magnetization       =     1.44 Bohr mag/cell
     absolute magnetization    =     1.79 Bohr mag/cell

     iteration # 10     ecut=    80.00 Ry     beta= 0.70
     Davidson diagonalization with overlap
     ethr =  2.55E-08,  avg # of iterations =  4.3

     negative rho (up, down):  2.337E-04 2.147E-04

     total cpu time spent up to now is      190.5 secs

     total energy              =    -658.58204248 Ry
     estimated scf accuracy    <       0.00000750 Ry

     total magnetization       =     1.44 Bohr mag/cell
     absolute magnetization    =     1.79 Bohr mag/cell

     iteration # 11     ecut=    80.00 Ry     beta= 0.70
     Davidson diagonalization with overlap
     ethr =  2.14E-08,  avg # of iterations =  2.3

     negative rho (up, down):  2.335E-04 2.144E-04

     total cpu time spent up to now is      192.3 secs

     total energy              =    -658.58204444 Ry
     estimated scf accuracy    <       0.00001411 Ry

     total magnetization       =     1.43 Bohr mag/cell
     absolute magnetization    =     1.78 Bohr mag/cell

     iteration # 12     ecut=    80.00 Ry     beta= 0.70
     Davidson diagonalization with overlap
     ethr =  2.14E-08,  avg # of iterations =  2.0

     negative rho (up, down):  2.338E-04 2.146E-04

     total cpu time spent up to now is      194.2 secs

     total energy              =    -658.58204441 Ry
     estimated scf accuracy    <       0.00000335 Ry

     total magnetization       =     1.43 Bohr mag/cell
     absolute magnetization    =     1.78 Bohr mag/cell

     iteration # 13     ecut=    80.00 Ry     beta= 0.70
     Davidson diagonalization with overlap
     ethr =  9.58E-09,  avg # of iterations =  2.5

     negative rho (up, down):  2.338E-04 2.146E-04
 
     Magnetic moment per site  (integrated on atomic sphere of radius R)
     atom   1 (R=0.312)  charge= 10.7055  magn= -0.0740
     atom   2 (R=0.306)  charge=  3.9650  magn=  0.0295
     atom   3 (R=0.306)  charge=  3.9770  magn=  0.0070
     atom   4 (R=0.306)  charge=  7.1812  magn=  1.4906

     total cpu time spent up to now is      196.0 secs

     End of self-consistent calculation

 ------ SPIN UP ------------


          k = 0.0000 0.0000 0.0000 ( 12991 PWs)   bands (ev):

   -59.4969 -33.7125 -33.3765 -33.3765 -13.5889 -12.1541  -5.1785  -2.8210
    -1.3510  -1.3510  -0.8969  -0.8969  -0.1651   0.3614   0.3614   0.8214
     0.8214   1.0190   1.7451   3.3409   3.3409   4.3988

          k = 0.0000 0.0722 0.0000 ( 12961 PWs)   bands (ev):

   -59.4954 -33.7098 -33.3912 -33.3799 -13.5358 -12.1171  -5.1187  -2.7956
    -1.5114  -1.3413  -1.0308  -0.9096  -0.1970   0.3542   0.3569   0.7204
     0.8063   1.0782   1.8816   3.2068   3.3543   4.2798

          k = 0.0000 0.1443 0.0000 ( 12937 PWs)   bands (ev):

   -59.4913 -33.7019 -33.4328 -33.3895 -13.3808 -12.0095  -4.9503  -2.7542
    -1.9451  -1.3544  -1.3417  -0.9250  -0.2889   0.3115   0.3546   0.6280
     0.7902   1.0728   2.1723   2.9730   3.3525   4.0851

          k = 0.0000 0.2165 0.0000 ( 12929 PWs)   bands (ev):

   -59.4850 -33.6902 -33.4944 -33.4037 -13.1362 -11.8404  -4.7091  -2.8777
    -2.4797  -1.6416  -1.4685  -0.8986  -0.3895   0.2282   0.3989   0.5717
     0.8261   0.9443   2.3092   3.0187   3.3054   4.0643

          k = 0.0000 0.2887 0.0000 ( 12917 PWs)   bands (ev):

   -59.4776 -33.6764 -33.5664 -33.4205 -12.8242 -11.6262  -4.4636  -3.4645
    -2.8276  -1.7723  -1.6645  -0.8579  -0.4451   0.1659   0.4462   0.4864
     0.8019   0.9464   2.3050   3.2608   3.3936   4.2651

          k = 0.0000 0.3608 0.0000 ( 12903 PWs)   bands (ev):

   -59.4702 -33.6637 -33.6365 -33.4372 -12.4796 -11.3914  -4.3772  -4.1094
    -3.1150  -1.8736  -1.8245  -0.8436  -0.4671   0.1730   0.3359   0.5933
     0.7254   1.1225   2.4317   3.2850   3.8316   4.5512

          k = 0.0000 0.4330 0.0000 ( 12893 PWs)   bands (ev):

   -59.4639 -33.6987 -33.6494 -33.4514 -12.1536 -11.1699  -4.8806  -4.2511
    -3.2723  -2.0482  -1.9253  -0.8548  -0.4944   0.2801   0.3822   0.6830
     0.7016   1.2739   2.7033   3.4085   4.1630   4.8156

          k = 0.0000 0.5052 0.0000 ( 12870 PWs)   bands (ev):

   -59.4597 -33.7380 -33.6419 -33.4608 -11.9133 -11.0054  -5.3220  -4.3598
    -3.3082  -2.1617  -2.0413  -0.8723  -0.5188   0.4101   0.5037   0.6898
     0.7873   1.3536   3.0275   3.5769   4.1303   4.9498

          k = 0.0000-0.5774 0.0000 ( 12854 PWs)   bands (ev):

   -59.4582 -33.7518 -33.6392 -33.4641 -11.8238 -10.9433  -5.4842  -4.4130
    -3.3102  -2.2008  -2.0908  -0.8801  -0.5279   0.4724   0.5257   0.7388
     0.8208   1.3747   3.2113   3.6593   3.9850   4.9306

          k = 0.0625 0.1083 0.0000 ( 12951 PWs)   bands (ev):

   -59.4926 -33.7045 -33.4189 -33.3868 -13.4318 -12.0448  -5.0044  -2.7606
    -1.8012  -1.3576  -1.2380  -0.9374  -0.2561   0.3243   0.3538   0.6645
     0.7697   1.0961   2.0961   3.0249   3.3546   4.1154

          k = 0.0625 0.1804 0.0000 ( 12937 PWs)   bands (ev):

   -59.4874 -33.6947 -33.4694 -33.3999 -13.2318 -11.9063  -4.7976  -2.7791
    -2.2818  -1.5427  -1.4574  -0.9434  -0.3397   0.2658   0.3612   0.6459
     0.7507   1.0343   2.2926   2.9533   3.3149   3.9873

          k = 0.0625 0.2526 0.0000 ( 12935 PWs)   bands (ev):

   -59.4806 -33.6819 -33.5346 -33.4169 -12.9530 -11.7141  -4.5471  -3.1570
    -2.6844  -1.7916  -1.6187  -0.9128  -0.4053   0.2006   0.4002   0.5770
     0.7882   0.9532   2.2659   3.2269   3.2915   4.0666

          k = 0.0625 0.3248 0.0000 ( 12927 PWs)   bands (ev):

   -59.4731 -33.6683 -33.6043 -33.4354 -12.6232 -11.4882  -4.3448  -3.8190
    -2.9956  -1.9795  -1.7183  -0.8961  -0.4324   0.1691   0.3271   0.5817
     0.7634   1.0573   2.2853   3.2851   3.6732   4.3325

          k = 0.0625 0.3969 0.0000 ( 12903 PWs)   bands (ev):

   -59.4663 -33.6713 -33.6524 -33.4524 -12.2847 -11.2575  -4.5782  -4.1737
    -3.2367  -2.1476  -1.8075  -0.9278  -0.4362   0.2124   0.2907   0.6648
     0.7424   1.2102   2.4612   3.4155   4.0625   4.6643

          k = 0.0625 0.4691 0.0000 ( 12863 PWs)   bands (ev):

   -59.4610 -33.7180 -33.6444 -33.4653 -11.9969 -11.0607  -5.0980  -4.2688
    -3.3253  -2.2587  -1.9455  -0.9851  -0.4415   0.3203   0.4108   0.6574
     0.8221   1.3080   2.7749   3.5911   4.2581   4.8298

          k = 0.0625 0.5413 0.0000 ( 12844 PWs)   bands (ev):

   -59.4582 -33.7440 -33.6392 -33.4723 -11.8282 -10.9438  -5.4026  -4.3647
    -3.3367  -2.2979  -2.0633  -1.0227  -0.4485   0.4164   0.5129   0.6538
     0.9074   1.3428   3.1200   3.6659   4.1312   4.7750

          k = 0.1250 0.2165 0.0000 ( 12933 PWs)   bands (ev):

   -59.4816 -33.6839 -33.5214 -33.4177 -12.9972 -11.7442  -4.5764  -3.0306
    -2.6117  -1.8278  -1.6257  -0.9585  -0.3758   0.2228   0.3810   0.6259
     0.7588   0.9918   2.2417   3.2002   3.2838   3.9427

          k = 0.1250 0.2887 0.0000 ( 12935 PWs)   bands (ev):

   -59.4748 -33.6712 -33.5810 -33.4399 -12.6990 -11.5388  -4.3458  -3.5655
    -2.8934  -2.1501  -1.6995  -0.9680  -0.3962   0.1862   0.3124   0.5976
     0.8114   1.0384   2.1613   3.2963   3.6179   4.0948

          k = 0.1250 0.3608 0.0000 ( 12903 PWs)   bands (ev):

   -59.4679 -33.6598 -33.6384 -33.4624 -12.3713 -11.3137  -4.3090  -4.0424
    -3.2033  -2.3795  -1.7602  -1.0178  -0.3777   0.1609   0.1987   0.6790
     0.8200   1.1675   2.2042   3.4788   3.9442   4.4394

          k = 0.1250 0.4330 0.0000 ( 12881 PWs)   bands (ev):

   -59.4621 -33.6905 -33.6461 -33.4816 -12.0637 -11.1017  -4.7899  -4.1105
    -3.3874  -2.5122  -1.8759  -1.1353  -0.3414   0.1908   0.2598   0.6793
     0.8904   1.2690   2.4374   3.6936   4.2298   4.6978

          k = 0.1250 0.5052 0.0000 ( 12858 PWs)   bands (ev):

   -59.4582 -33.7228 -33.6391 -33.4945 -11.8388 -10.9449  -5.1790  -4.2279
    -3.4258  -2.5534  -2.0187  -1.2497  -0.3262   0.2752   0.4160   0.6134
     1.0011   1.3084   2.8394   3.7550   4.3972   4.5353

          k = 0.1250 0.5774 0.0000 ( 12856 PWs)   bands (ev):

   -59.4568 -33.7341 -33.6366 -33.4990 -11.7555 -10.8860  -5.3225  -4.2871
    -3.4283  -2.5492  -2.0901  -1.2936  -0.3248   0.3233   0.5075   0.5603
     1.0581   1.3148   3.1532   3.6396   4.2969   4.5303

          k = 0.1875 0.3248 0.0000 ( 12901 PWs)   bands (ev):

   -59.4685 -33.6601 -33.6263 -33.4688 -12.4016 -11.3329  -4.2168  -3.9441
    -3.1820  -2.5160  -1.7677  -1.0424  -0.3591   0.1239   0.1823   0.6872
     0.8660   1.1536   2.0980   3.5066   3.8820   4.3459

          k = 0.1875 0.3969 0.0000 ( 12903 PWs)   bands (ev):

   -59.4627 -33.6687 -33.6463 -33.4981 -12.1008 -11.1233  -4.5302  -3.9517
    -3.4771  -2.7512  -1.8960  -1.1653  -0.2860   0.0704   0.1770   0.7051
     0.9395   1.2733   2.2041   3.7452   4.1064   4.6420

          k = 0.1875 0.4691 0.0000 ( 12858 PWs)   bands (ev):

   -59.4582 -33.6964 -33.6390 -33.5218 -11.8494 -10.9459  -4.8912  -4.0392
    -3.5810  -2.8575  -2.0514  -1.3341  -0.2248   0.1379   0.2586   0.6269
     1.0574   1.3323   2.5452   3.7791   4.2813   4.7719

          k = 0.1875 0.5413 0.0000 ( 12848 PWs)   bands (ev):

   -59.4558 -33.7113 -33.6347 -33.5351 -11.7042 -10.8417  -5.1057  -4.1593
    -3.5880  -2.8676  -2.1621  -1.4557  -0.2040   0.1995   0.3977   0.5261
     1.1542   1.3532   2.9904   3.6312   4.1886   4.7936

          k = 0.2500 0.4330 0.0000 ( 12885 PWs)   bands (ev):

   -59.4582 -33.6827 -33.6389 -33.5360 -11.8537 -10.9463  -4.7327  -3.9256
    -3.6883  -3.0174  -2.0928  -1.3213  -0.1854   0.0871   0.1782   0.6338
     1.0740   1.3628   2.4176   3.7537   4.2414   4.8847

          k = 0.2500 0.5052 0.0000 ( 12870 PWs)   bands (ev):

   -59.4552 -33.6867 -33.6336 -33.5671 -11.6780 -10.8178  -4.8568  -4.1119
    -3.6837  -3.1522  -2.2489  -1.4665  -0.1212   0.1431   0.2518   0.5219
     1.1994   1.4199   2.7908   3.6242   4.1026   5.1973

          k = 0.2500 0.5774 0.0000 ( 12844 PWs)   bands (ev):

   -59.4542 -33.6864 -33.6317 -33.5798 -11.6141 -10.7704  -4.8979  -4.1955
    -3.6898  -3.1757  -2.3061  -1.5286  -0.1038   0.1621   0.3477   0.4275
     1.2456   1.4598   3.0341   3.5083   3.9992   5.2095

          k = 0.3125 0.5413 0.0000 ( 12856 PWs)   bands (ev):

   -59.4536 -33.6657 -33.6306 -33.6074 -11.5824 -10.7449  -4.7090  -4.3494
    -3.6383  -3.3549  -2.3604  -1.5394  -0.0706   0.2047   0.2628   0.3977
     1.2749   1.5262   2.9687   3.5186   3.9342   5.5287

 ------ SPIN DOWN ----------


          k = 0.0000 0.0000 0.0000 ( 12991 PWs)   bands (ev):

   -59.5596 -33.7601 -33.4560 -33.4560 -13.5576 -12.1460  -5.1618  -2.7356
    -1.1959  -1.1959  -0.5836  -0.5836   0.7101   1.2353   1.2353   1.5746
     1.5746   1.8088   1.9079   3.7696   3.7696   4.3985

          k = 0.0000 0.0722 0.0000 ( 12961 PWs)   bands (ev):

   -59.5581 -33.7573 -33.4706 -33.4593 -13.5043 -12.1091  -5.1014  -2.7160
    -1.3490  -1.1550  -0.7700  -0.6608   0.7043   1.1811   1.2573   1.4115
     1.5693   1.9319   2.1187   3.6357   3.7904   4.2741

          k = 0.0000 0.1443 0.0000 ( 12937 PWs)   bands (ev):

   -59.5539 -33.7495 -33.5121 -33.4689 -13.3484 -12.0014  -4.9313  -2.6910
    -1.7729  -1.1775  -1.0517  -0.8600   0.6112   1.0448   1.3113   1.3230
     1.5718   2.0013   2.5878   3.3516   3.7874   4.0749

          k = 0.0000 0.2165 0.0000 ( 12929 PWs)   bands (ev):

   -59.5476 -33.7379 -33.5736 -33.4831 -13.1024 -11.8325  -4.6879  -2.8078
    -2.3549  -1.5366  -1.1652  -0.8810   0.4977   0.8144   1.2442   1.4305
     1.6239   2.0917   2.9842   3.1724   3.7114   4.0690

          k = 0.0000 0.2887 0.0000 ( 12917 PWs)   bands (ev):

   -59.5402 -33.7243 -33.6452 -33.4999 -12.7884 -11.6187  -4.4430  -3.3465
    -2.7947  -1.6976  -1.4524  -0.7593   0.4445   0.5463   1.1980   1.5808
     1.7565   2.1705   2.8809   3.5791   3.6090   4.3178

          k = 0.0000 0.3608 0.0000 ( 12903 PWs)   bands (ev):

   -59.5328 -33.7210 -33.7058 -33.5166 -12.4411 -11.3843  -4.3633  -3.9997
    -3.0915  -1.7702  -1.7133  -0.6869   0.2585   0.5717   1.2318   1.7612
     1.9661   2.2229   2.8877   3.5323   3.9797   4.6905

          k = 0.0000 0.4330 0.0000 ( 12893 PWs)   bands (ev):

   -59.5265 -33.7773 -33.6974 -33.5307 -12.1122 -11.1633  -4.8235  -4.2121
    -3.2334  -1.9163  -1.8752  -0.6647   0.1729   0.6834   1.3806   1.9322
     2.1977   2.2617   3.0431   3.5198   4.2276   5.0651

          k = 0.0000 0.5052 0.0000 ( 12870 PWs)   bands (ev):

   -59.5223 -33.8167 -33.6897 -33.5402 -11.8696 -10.9991  -5.2670  -4.3378
    -3.2574  -2.0440  -1.9847  -0.6668   0.1697   0.7942   1.5809   2.0600
     2.2924   2.3533   3.2875   3.5749   4.1646   4.9968

          k = 0.0000-0.5774 0.0000 ( 12854 PWs)   bands (ev):

   -59.5208 -33.8305 -33.6870 -33.5435 -11.7792 -10.9371  -5.4315  -4.3948
    -3.2564  -2.0874  -2.0298  -0.6704   0.1744   0.8436   1.6825   2.1095
     2.3041   2.4000   3.4576   3.6163   4.0040   4.9816

          k = 0.0625 0.1083 0.0000 ( 12951 PWs)   bands (ev):

   -59.5553 -33.7521 -33.4982 -33.4662 -13.3997 -12.0368  -4.9858  -2.6922
    -1.6310  -1.1055  -1.0317  -0.8201   0.6568   1.0765   1.2875   1.3603
     1.5582   1.9803   2.4620   3.4308   3.7918   4.1034

          k = 0.0625 0.1804 0.0000 ( 12937 PWs)   bands (ev):

   -59.5500 -33.7423 -33.5486 -33.4793 -13.1986 -11.8983  -4.7770  -2.7225
    -2.1251  -1.4333  -1.1149  -0.9382   0.5643   0.9073   1.2363   1.4353
     1.5737   2.0651   2.9151   3.1664   3.7385   3.9731

          k = 0.0625 0.2526 0.0000 ( 12935 PWs)   bands (ev):

   -59.5432 -33.7297 -33.6136 -33.4963 -12.9180 -11.7064  -4.5249  -3.0491
    -2.6240  -1.7213  -1.3617  -0.8415   0.5011   0.6561   1.1946   1.5285
     1.6836   2.1574   2.9266   3.3748   3.6728   4.0882

          k = 0.0625 0.3248 0.0000 ( 12927 PWs)   bands (ev):

   -59.5358 -33.7167 -33.6825 -33.5148 -12.5859 -11.4809  -4.3288  -3.6982
    -2.9746  -1.9001  -1.5472  -0.7849   0.3709   0.5508   1.1971   1.6660
     1.8803   2.2278   2.8377   3.5192   3.8595   4.4384

          k = 0.0625 0.3969 0.0000 ( 12903 PWs)   bands (ev):

   -59.5289 -33.7487 -33.7016 -33.5317 -12.2446 -11.2507  -4.5291  -4.1101
    -3.2084  -2.0551  -1.6941  -0.7955   0.2521   0.6322   1.2876   1.8345
     2.1144   2.2726   2.8883   3.5442   4.1624   4.8431

          k = 0.0625 0.4691 0.0000 ( 12863 PWs)   bands (ev):

   -59.5237 -33.7967 -33.6922 -33.5447 -11.9541 -11.0543  -5.0401  -4.2405
    -3.2797  -2.1568  -1.8611  -0.8386   0.2659   0.7312   1.4639   1.9866
     2.2825   2.3343   3.0536   3.6255   4.3072   4.8910

          k = 0.0625 0.5413 0.0000 ( 12844 PWs)   bands (ev):

   -59.5208 -33.8226 -33.6870 -33.5517 -11.7837 -10.9376  -5.3483  -4.3458
    -3.2838  -2.1762  -2.0035  -0.8695   0.2975   0.8105   1.6195   2.0798
     2.3144   2.4181   3.2961   3.6661   4.1855   4.8389

          k = 0.1250 0.2165 0.0000 ( 12933 PWs)   bands (ev):

   -59.5443 -33.7316 -33.6005 -33.4971 -12.9626 -11.7364  -4.5538  -2.9342
    -2.5293  -1.7576  -1.3638  -0.8856   0.5547   0.6949   1.1920   1.5234
     1.6492   2.1605   2.9559   3.3097   3.6865   3.9462

          k = 0.1250 0.2887 0.0000 ( 12935 PWs)   bands (ev):

   -59.5374 -33.7191 -33.6598 -33.5192 -12.6623 -11.5314  -4.3244  -3.4409
    -2.8702  -2.0684  -1.5219  -0.8697   0.4337   0.5927   1.1859   1.6002
     1.8440   2.2578   2.8008   3.4813   3.8036   4.2185

          k = 0.1250 0.3608 0.0000 ( 12903 PWs)   bands (ev):

   -59.5306 -33.7219 -33.7029 -33.5417 -12.3320 -11.3067  -4.2842  -3.9321
    -3.1902  -2.2823  -1.6408  -0.9293   0.2716   0.6713   1.2172   1.7312
     2.0841   2.3203   2.7394   3.5758   4.0231   4.6629

          k = 0.1250 0.4330 0.0000 ( 12881 PWs)   bands (ev):

   -59.5247 -33.7690 -33.6941 -33.5609 -12.0216 -11.0952  -4.7288  -4.0672
    -3.3534  -2.4046  -1.7891  -1.0620   0.3023   0.7479   1.3318   1.8725
     2.3048   2.3537   2.7944   3.7123   4.2706   4.8409

          k = 0.1250 0.5052 0.0000 ( 12858 PWs)   bands (ev):

   -59.5208 -33.8015 -33.6870 -33.5737 -11.7945 -10.9386  -5.1205  -4.2059
    -3.3746  -2.4236  -1.9631  -1.1832   0.4245   0.7894   1.4872   1.9878
     2.3460   2.4557   3.0223   3.7472   4.4675   4.6371

          k = 0.1250 0.5774 0.0000 ( 12856 PWs)   bands (ev):

   -59.5195 -33.8129 -33.6844 -33.5782 -11.7103 -10.8798  -5.2661  -4.2697
    -3.3737  -2.3954  -2.0602  -1.2286   0.4791   0.8093   1.5599   2.0331
     2.3502   2.4892   3.2520   3.6566   4.4566   4.5616

          k = 0.1875 0.3248 0.0000 ( 12901 PWs)   bands (ev):

   -59.5311 -33.7131 -33.7000 -33.5481 -12.3625 -11.3259  -4.2006  -3.8116
    -3.1792  -2.4120  -1.6690  -0.9454   0.2439   0.7231   1.1868   1.6875
     2.0798   2.3545   2.6752   3.5902   3.9332   4.6048

          k = 0.1875 0.3969 0.0000 ( 12903 PWs)   bands (ev):

   -59.5253 -33.7467 -33.6949 -33.5774 -12.0590 -11.1167  -4.4693  -3.8788
    -3.4640  -2.6405  -1.8460  -1.0889   0.2036   0.8841   1.2098   1.7847
     2.3431   2.3993   2.6162   3.7530   4.1217   4.8655

          k = 0.1875 0.4691 0.0000 ( 12858 PWs)   bands (ev):

   -59.5208 -33.7751 -33.6869 -33.6011 -11.8052 -10.9396  -4.8276  -4.0111
    -3.5255  -2.7413  -2.0241  -1.2842   0.3380   0.9414   1.3376   1.8844
     2.3855   2.4915   2.7946   3.7707   4.3267   4.9043

          k = 0.1875 0.5413 0.0000 ( 12848 PWs)   bands (ev):

   -59.5184 -33.7901 -33.6825 -33.6143 -11.6585 -10.8354  -5.0452  -4.1418
    -3.5232  -2.7304  -2.1546  -1.4232   0.4805   0.9365   1.4538   1.9642
     2.3704   2.5235   3.1244   3.6460   4.3246   4.8965

          k = 0.2500 0.4330 0.0000 ( 12885 PWs)   bands (ev):

   -59.5208 -33.7614 -33.6868 -33.6152 -11.8096 -10.9399  -4.6667  -3.8988
    -3.6176  -2.9232  -2.0787  -1.2634   0.2623   1.1065   1.1997   1.8386
     2.4067   2.5121   2.6990   3.7543   4.2742   5.0231

          k = 0.2500 0.5052 0.0000 ( 12870 PWs)   bands (ev):

   -59.5179 -33.7655 -33.6814 -33.6462 -11.6322 -10.8115  -4.7929  -4.0871
    -3.5969  -3.0741  -2.2398  -1.4332   0.4006   1.1204   1.3351   1.9257
     2.3723   2.5190   2.9987   3.6421   4.2342   5.2962

          k = 0.2500 0.5774 0.0000 ( 12844 PWs)   bands (ev):

   -59.5168 -33.7652 -33.6795 -33.6589 -11.5675 -10.7640  -4.8362  -4.1630
    -3.6127  -3.0934  -2.2970  -1.5069   0.4711   1.1082   1.3969   1.9799
     2.3521   2.5467   3.1054   3.6008   4.1805   5.3435

          k = 0.3125 0.5413 0.0000 ( 12856 PWs)   bands (ev):

   -59.5162 -33.7445 -33.6866 -33.6784 -11.5356 -10.7385  -4.6517  -4.2912
    -3.5482  -3.3238  -2.3410  -1.5220   0.4616   1.1926   1.3575   2.0123
     2.3303   2.5616   3.0079   3.6370   4.1421   5.6917

     the Fermi energy is     2.1876 ev

!    total energy              =    -658.58204590 Ry
     total all-electron energy =    -12481.755937 Ry
     estimated scf accuracy    <       0.00000046 Ry
     smearing contrib. (-TS)   =      -0.00878625 Ry
     internal energy E=F+TS    =    -658.57325965 Ry

     The total energy is F=E-TS. E is the sum of the following terms:
     one-electron contribution =   -1281.96582125 Ry
     hartree contribution      =     654.71890566 Ry
     xc contribution           =     -62.31438496 Ry
     ewald contribution        =     437.12377359 Ry
     one-center paw contrib.   =    -406.13573269 Ry

     total magnetization       =     1.42 Bohr mag/cell
     absolute magnetization    =     1.78 Bohr mag/cell

     convergence has been achieved in  13 iterations

     negative rho (up, down):  2.338E-04 2.146E-04

     Forces acting on atoms (cartesian axes, Ry/au):

     atom    1 type  1   force =     0.00000000    0.00000000    0.07881415
     atom    2 type  2   force =     0.00000000    0.00000000   -0.01064669
     atom    3 type  2   force =     0.00000000    0.00000000   -0.01074426
     atom    4 type  3   force =     0.00000000    0.00000000   -0.05742320
     The non-local contrib.  to forces
     atom    1 type  1   force =     0.00000000    0.00000000   -0.09543384
     atom    2 type  2   force =     0.00000000   -0.00000000   -0.01670922
     atom    3 type  2   force =     0.00000000    0.00000000    0.26330552
     atom    4 type  3   force =     0.00000000    0.00000000    0.08725361
     The ionic contribution  to forces
     atom    1 type  1   force =     0.00000000   -0.00000000  -32.86522729
     atom    2 type  2   force =    -0.00000000    0.00000000   18.62872815
     atom    3 type  2   force =    -0.00000000    0.00000000  -45.09083430
     atom    4 type  3   force =     0.00000000   -0.00000000   59.32733345
     The local contribution  to forces
     atom    1 type  1   force =     0.00000000    0.00000000   33.03101627
     atom    2 type  2   force =    -0.00000000    0.00000000  -18.62322429
     atom    3 type  2   force =    -0.00000000    0.00000000   44.81800770
     atom    4 type  3   force =     0.00000000   -0.00000000  -59.44376522
     The core correction contribution to forces
     atom    1 type  1   force =     0.00000000   -0.00000000    0.00631980
     atom    2 type  2   force =     0.00000000   -0.00000000   -0.00017233
     atom    3 type  2   force =     0.00000000   -0.00000000   -0.00188943
     atom    4 type  3   force =     0.00000000   -0.00000000   -0.02799952
     The Hubbard contrib.    to forces
     atom    1 type  1   force =     0.00000000    0.00000000    0.00000000
     atom    2 type  2   force =     0.00000000    0.00000000    0.00000000
     atom    3 type  2   force =     0.00000000    0.00000000    0.00000000
     atom    4 type  3   force =     0.00000000    0.00000000    0.00000000
     The SCF correction term to forces
     atom    1 type  1   force =    -0.00000000   -0.00000000    0.00198162
     atom    2 type  2   force =     0.00000000    0.00000000    0.00057341
     atom    3 type  2   force =     0.00000000    0.00000000    0.00050866
     atom    4 type  3   force =     0.00000000    0.00000000   -0.00040310

     Total force =     0.098681     Total SCF correction =     0.002163


     Computing stress (Cartesian axis) and pressure


     negative rho (up, down):  2.338E-04 2.146E-04
          total   stress  (Ry/bohr**3)                   (kbar)     P=      -31.20
  -0.00014340   0.00000000   0.00000000          -21.09        0.00        0.00
   0.00000000  -0.00014340  -0.00000000            0.00      -21.09       -0.00
   0.00000000  -0.00000000  -0.00034940            0.00       -0.00      -51.40

     Energy error            =      1.0E-02 Ry
     Gradient error          =      7.9E-02 Ry/Bohr

     number of scf cycles    =   7
     number of bfgs steps    =   6

     energy             old  =    -658.5717611101 Ry
     energy             new  =    -658.5820458965 Ry

     CASE: energy            _new < energy            _old


     WARNING: bfgs curvature condition failed, Theta= 0.350
     new trust radius        =       0.3090585398 bohr
     new conv_thr            =       0.0000007881 Ry


ATOMIC_POSITIONS (crystal)
Mo            0.0000000000        0.0000000000        0.5007963006
S             0.6666666667        0.3333333333        0.6065930689
S             0.6666666667        0.3333333333        0.4181489853
Co            0.0000000000        0.0000000000        0.6720977090



     Writing config-only to output data dir ./tmp/relax.save/
     NEW-OLD atomic charge density approx. for the potential

     negative rho (up, down):  2.515E-04 2.320E-04
     Generating pointlists ...
     new r_m :   0.3083 (alat units)  1.8457 (a.u.) for type    1
     new r_m :   0.2842 (alat units)  1.7018 (a.u.) for type    2
     new r_m :   0.2842 (alat units)  1.7018 (a.u.) for type    3

     total cpu time spent up to now is      199.2 secs

     Self-consistent Calculation

     iteration #  1     ecut=    80.00 Ry     beta= 0.70
     Davidson diagonalization with overlap
     c_bands:  2 eigenvalues not converged
     c_bands:  1 eigenvalues not converged
     c_bands:  4 eigenvalues not converged
     c_bands:  3 eigenvalues not converged
     c_bands:  1 eigenvalues not converged
     c_bands:  1 eigenvalues not converged
     c_bands:  3 eigenvalues not converged
     c_bands:  3 eigenvalues not converged
     c_bands:  2 eigenvalues not converged
     c_bands:  3 eigenvalues not converged
     ethr =  1.00E-06,  avg # of iterations = 24.1

     negative rho (up, down):  2.679E-04 2.434E-04

     total cpu time spent up to now is      206.5 secs

     total energy              =    -658.34752453 Ry
     estimated scf accuracy    <       0.31368166 Ry

     total magnetization       =     1.00 Bohr mag/cell
     absolute magnetization    =     1.29 Bohr mag/cell

     iteration #  2     ecut=    80.00 Ry     beta= 0.70
     Davidson diagonalization with overlap
     ethr =  8.96E-04,  avg # of iterations =  9.7

     negative rho (up, down):  1.591E-04 1.386E-04

     total cpu time spent up to now is      209.4 secs

     total energy              =    -656.28522868 Ry
     estimated scf accuracy    <     128.39528264 Ry

     total magnetization       =     0.00 Bohr mag/cell
     absolute magnetization    =     0.07 Bohr mag/cell

     iteration #  3     ecut=    80.00 Ry     beta= 0.70
     Davidson diagonalization with overlap
     ethr =  8.96E-04,  avg # of iterations =  9.9

     negative rho (up, down):  1.398E-04 1.161E-04

     total cpu time spent up to now is      212.5 secs

     total energy              =    -658.51911111 Ry
     estimated scf accuracy    <       0.82968363 Ry

     total magnetization       =     1.10 Bohr mag/cell
     absolute magnetization    =     1.40 Bohr mag/cell

     iteration #  4     ecut=    80.00 Ry     beta= 0.70
     Davidson diagonalization with overlap
     ethr =  8.96E-04,  avg # of iterations =  2.2

     negative rho (up, down):  2.517E-04 2.178E-04

     total cpu time spent up to now is      214.3 secs

     total energy              =    -658.59721281 Ry
     estimated scf accuracy    <       0.03650511 Ry

     total magnetization       =     1.03 Bohr mag/cell
     absolute magnetization    =     1.31 Bohr mag/cell

     iteration #  5     ecut=    80.00 Ry     beta= 0.70
     Davidson diagonalization with overlap
     ethr =  1.04E-04,  avg # of iterations =  5.4

     negative rho (up, down):  3.001E-04 2.655E-04

     total cpu time spent up to now is      216.4 secs

     total energy              =    -658.59898856 Ry
     estimated scf accuracy    <       0.01153183 Ry

     total magnetization       =     1.01 Bohr mag/cell
     absolute magnetization    =     1.25 Bohr mag/cell

     iteration #  6     ecut=    80.00 Ry     beta= 0.70
     Davidson diagonalization with overlap
     ethr =  3.29E-05,  avg # of iterations =  4.2

     negative rho (up, down):  3.547E-04 3.215E-04

     total cpu time spent up to now is      218.3 secs

     total energy              =    -658.60064308 Ry
     estimated scf accuracy    <       0.00797800 Ry

     total magnetization       =     1.01 Bohr mag/cell
     absolute magnetization    =     1.25 Bohr mag/cell

     iteration #  7     ecut=    80.00 Ry     beta= 0.70
     Davidson diagonalization with overlap
     ethr =  2.28E-05,  avg # of iterations =  2.4

     negative rho (up, down):  3.358E-04 3.045E-04

     total cpu time spent up to now is      220.1 secs

     total energy              =    -658.60162713 Ry
     estimated scf accuracy    <       0.00197604 Ry

     total magnetization       =     0.99 Bohr mag/cell
     absolute magnetization    =     1.19 Bohr mag/cell

     iteration #  8     ecut=    80.00 Ry     beta= 0.70
     Davidson diagonalization with overlap
     ethr =  5.65E-06,  avg # of iterations =  2.8

     negative rho (up, down):  2.929E-04 2.645E-04

     total cpu time spent up to now is      221.9 secs

     total energy              =    -658.60184869 Ry
     estimated scf accuracy    <       0.00045761 Ry

     total magnetization       =     0.99 Bohr mag/cell
     absolute magnetization    =     1.18 Bohr mag/cell

     iteration #  9     ecut=    80.00 Ry     beta= 0.70
     Davidson diagonalization with overlap
     ethr =  1.31E-06,  avg # of iterations =  2.7

     negative rho (up, down):  2.381E-04 2.132E-04

     total cpu time spent up to now is      223.8 secs

     total energy              =    -658.60193978 Ry
     estimated scf accuracy    <       0.00045549 Ry

     total magnetization       =     0.97 Bohr mag/cell
     absolute magnetization    =     1.14 Bohr mag/cell

     iteration # 10     ecut=    80.00 Ry     beta= 0.70
     Davidson diagonalization with overlap
     ethr =  1.30E-06,  avg # of iterations =  1.6

     negative rho (up, down):  2.270E-04 2.043E-04

     total cpu time spent up to now is      225.5 secs

     total energy              =    -658.60198411 Ry
     estimated scf accuracy    <       0.00021673 Ry

     total magnetization       =     0.96 Bohr mag/cell
     absolute magnetization    =     1.10 Bohr mag/cell

     iteration # 11     ecut=    80.00 Ry     beta= 0.70
     Davidson diagonalization with overlap
     ethr =  6.19E-07,  avg # of iterations =  2.0

     negative rho (up, down):  2.427E-04 2.196E-04

     total cpu time spent up to now is      227.3 secs

     total energy              =    -658.60201521 Ry
     estimated scf accuracy    <       0.00001824 Ry

     total magnetization       =     0.95 Bohr mag/cell
     absolute magnetization    =     1.08 Bohr mag/cell

     iteration # 12     ecut=    80.00 Ry     beta= 0.70
     Davidson diagonalization with overlap
     ethr =  5.21E-08,  avg # of iterations =  5.1

     negative rho (up, down):  2.455E-04 2.228E-04

     total cpu time spent up to now is      229.3 secs

     total energy              =    -658.60202021 Ry
     estimated scf accuracy    <       0.00000139 Ry

     total magnetization       =     0.95 Bohr mag/cell
     absolute magnetization    =     1.08 Bohr mag/cell

     iteration # 13     ecut=    80.00 Ry     beta= 0.70
     Davidson diagonalization with overlap
     ethr =  3.97E-09,  avg # of iterations =  3.2

     negative rho (up, down):  2.466E-04 2.242E-04
 
     Magnetic moment per site  (integrated on atomic sphere of radius R)
     atom   1 (R=0.308)  charge= 10.6145  magn=  0.0056
     atom   2 (R=0.284)  charge=  3.4932  magn=  0.0136
     atom   3 (R=0.284)  charge=  3.4842  magn=  0.0175
     atom   4 (R=0.284)  charge=  6.9899  magn=  0.8624

     total cpu time spent up to now is      231.3 secs

     End of self-consistent calculation

 ------ SPIN UP ------------


          k = 0.0000 0.0000 0.0000 ( 12991 PWs)   bands (ev):

   -59.4976 -33.7185 -33.3823 -33.3823 -13.8536 -12.2689  -5.2557  -3.0572
    -1.8937  -1.8937  -1.0762  -1.0762   0.4324   0.4324   0.4877   1.1016
     1.1016   1.2710   2.3950   3.6536   3.6536   4.4683

          k = 0.0000 0.0722 0.0000 ( 12961 PWs)   bands (ev):

   -59.4961 -33.7158 -33.3969 -33.3857 -13.8026 -12.2301  -5.1973  -3.0279
    -2.0402  -1.9062  -1.1964  -1.0644   0.3100   0.4368   0.5285   1.0448
     1.0852   1.2964   2.5495   3.4935   3.6554   4.3544

          k = 0.0000 0.1443 0.0000 ( 12937 PWs)   bands (ev):

   -59.4920 -33.7082 -33.4383 -33.3952 -13.6533 -12.1174  -5.0321  -2.9800
    -2.4311  -1.9529  -1.4863  -1.0368   0.1248   0.4539   0.4609   0.9955
     1.0720   1.3057   2.8936   3.1717   3.6192   4.1768

          k = 0.0000 0.2165 0.0000 ( 12929 PWs)   bands (ev):

   -59.4857 -33.6967 -33.4996 -33.4095 -13.4176 -11.9410  -4.7930  -3.2031
    -2.7901  -2.0464  -1.7789  -1.0156  -0.0558   0.3251   0.5236   0.8533
     1.1329   1.3268   2.8001   3.3598   3.5203   4.1986

          k = 0.0000 0.2887 0.0000 ( 12917 PWs)   bands (ev):

   -59.4783 -33.6834 -33.5711 -33.4262 -13.1170 -11.7189  -4.5416  -3.8508
    -2.9960  -2.1800  -1.9078  -1.0214  -0.1722   0.2218   0.6105   0.6261
     1.3079   1.3469   2.6325   3.4070   3.7327   4.4802

          k = 0.0000 0.3608 0.0000 ( 12903 PWs)   bands (ev):

   -59.4709 -33.6715 -33.6403 -33.4429 -12.7848 -11.4771  -4.5643  -4.3563
    -3.2380  -2.3270  -1.9460  -1.0544  -0.2422   0.2040   0.4670   0.7558
     1.3202   1.5545   2.6526   3.3473   4.0461   4.8546

          k = 0.0000 0.4330 0.0000 ( 12893 PWs)   bands (ev):

   -59.4646 -33.7039 -33.6559 -33.4570 -12.4705 -11.2514  -5.1709  -4.3665
    -3.3547  -2.4561  -2.0356  -1.0980  -0.3174   0.3312   0.5138   0.8947
     1.2577   1.7617   2.8194   3.4007   4.1703   4.9230

          k = 0.0000 0.5052 0.0000 ( 12870 PWs)   bands (ev):

   -59.4604 -33.7426 -33.6489 -33.4664 -12.2383 -11.0859  -5.5995  -4.4704
    -3.3528  -2.5430  -2.1514  -1.1329  -0.3691   0.5167   0.6710   1.0100
     1.1680   1.8568   3.0391   3.5462   4.0268   4.8575

          k = 0.0000-0.5774 0.0000 ( 12854 PWs)   bands (ev):

   -59.4589 -33.7563 -33.6463 -33.4697 -12.1517 -11.0242  -5.7551  -4.5234
    -3.3392  -2.5735  -2.2034  -1.1461  -0.3860   0.5928   0.8025   1.0567
     1.0879   1.8754   3.1598   3.6313   3.8944   4.8172

          k = 0.0625 0.1083 0.0000 ( 12951 PWs)   bands (ev):

   -59.4933 -33.7106 -33.4244 -33.3925 -13.7024 -12.1544  -5.0852  -2.9866
    -2.3035  -1.9446  -1.3949  -1.0529   0.1849   0.4283   0.5030   1.0170
     1.0573   1.3117   2.8025   3.2543   3.6317   4.1972

          k = 0.0625 0.1804 0.0000 ( 12937 PWs)   bands (ev):

   -59.4881 -33.7011 -33.4747 -33.4056 -13.5098 -12.0097  -4.8813  -3.0383
    -2.6917  -2.0401  -1.6788  -1.0464   0.0241   0.3596   0.5023   0.9063
     1.1105   1.3294   2.8893   3.2295   3.5622   4.0840

          k = 0.0625 0.2526 0.0000 ( 12935 PWs)   bands (ev):

   -59.4813 -33.6887 -33.5396 -33.4226 -13.2411 -11.8099  -4.6294  -3.5396
    -2.8934  -2.1984  -1.8655  -1.0522  -0.1144   0.2647   0.5541   0.7199
     1.2269   1.3703   2.6507   3.3888   3.6729   4.2252

          k = 0.0625 0.3248 0.0000 ( 12927 PWs)   bands (ev):

   -59.4739 -33.6756 -33.6087 -33.4411 -12.9233 -11.5766  -4.4122  -4.2032
    -3.1391  -2.3735  -1.9083  -1.0762  -0.1959   0.2028   0.4560   0.7229
     1.3544   1.4579   2.5618   3.3489   3.9616   4.5917

          k = 0.0625 0.3969 0.0000 ( 12903 PWs)   bands (ev):

   -59.4670 -33.6778 -33.6576 -33.4580 -12.5971 -11.3405  -4.8671  -4.3036
    -3.3409  -2.5208  -1.9623  -1.1302  -0.2538   0.2512   0.4124   0.8595
     1.3106   1.6653   2.6363   3.4069   4.1892   4.8544

          k = 0.0625 0.4691 0.0000 ( 12863 PWs)   bands (ev):

   -59.4618 -33.7228 -33.6512 -33.4709 -12.3194 -11.1414  -5.3840  -4.3794
    -3.3866  -2.6224  -2.0755  -1.2004  -0.2996   0.4048   0.5333   1.0006
     1.2263   1.7870   2.8374   3.5557   4.2129   4.7616

          k = 0.0625 0.5413 0.0000 ( 12844 PWs)   bands (ev):

   -59.4589 -33.7485 -33.6463 -33.4779 -12.1562 -11.0248  -5.6767  -4.4745
    -3.3690  -2.6693  -2.1726  -1.2462  -0.3226   0.5293   0.7044   1.0788
     1.1505   1.8163   3.0822   3.6373   4.0468   4.6956

          k = 0.1250 0.2165 0.0000 ( 12933 PWs)   bands (ev):

   -59.4823 -33.6906 -33.5264 -33.4234 -13.2838 -11.8411  -4.6599  -3.4039
    -2.8513  -2.2496  -1.8394  -1.0895  -0.0742   0.2801   0.5398   0.7415
     1.2156   1.3866   2.6500   3.3626   3.7075   4.0535

          k = 0.1250 0.2887 0.0000 ( 12935 PWs)   bands (ev):

   -59.4755 -33.6783 -33.5857 -33.4455 -12.9964 -11.6288  -4.4197  -3.9565
    -3.0592  -2.5165  -1.8887  -1.1276  -0.1568   0.2147   0.4411   0.7216
     1.3608   1.4576   2.4677   3.3444   3.9364   4.3523

          k = 0.1250 0.3608 0.0000 ( 12903 PWs)   bands (ev):

   -59.4686 -33.6678 -33.6421 -33.4680 -12.6808 -11.3979  -4.5620  -4.2230
    -3.3313  -2.7218  -1.9270  -1.1756  -0.1960   0.1837   0.3208   0.8577
     1.3742   1.6063   2.4182   3.4531   4.1126   4.7231

          k = 0.1250 0.4330 0.0000 ( 12881 PWs)   bands (ev):

   -59.4628 -33.6957 -33.6526 -33.4872 -12.3843 -11.1830  -5.0877  -4.2206
    -3.4730  -2.8512  -2.0206  -1.2855  -0.2028   0.2865   0.3387   1.0181
     1.2861   1.7240   2.5405   3.6395   4.3047   4.6839

          k = 0.1250 0.5052 0.0000 ( 12858 PWs)   bands (ev):

   -59.4589 -33.7274 -33.6462 -33.5000 -12.1671 -11.0261  -5.4619  -4.3377
    -3.4717  -2.9087  -2.1310  -1.4061  -0.2035   0.3944   0.5150   1.0814
     1.2610   1.7381   2.8392   3.7024   4.3290   4.5119

          k = 0.1250 0.5774 0.0000 ( 12856 PWs)   bands (ev):

   -59.4576 -33.7387 -33.6438 -33.5045 -12.0864 -10.9678  -5.5984  -4.3972
    -3.4597  -2.9188  -2.1818  -1.4551  -0.2057   0.4448   0.6230   1.0342
     1.3159   1.7207   3.0935   3.5828   4.2140   4.5353

          k = 0.1875 0.3248 0.0000 ( 12901 PWs)   bands (ev):

   -59.4692 -33.6678 -33.6303 -33.4744 -12.7100 -11.4177  -4.4221  -4.1802
    -3.3262  -2.8402  -1.9304  -1.1840  -0.1795   0.1341   0.3127   0.8596
     1.3945   1.6093   2.3182   3.4759   4.0451   4.6717

          k = 0.1875 0.3969 0.0000 ( 12903 PWs)   bands (ev):

   -59.4634 -33.6747 -33.6521 -33.5036 -12.4202 -11.2050  -4.8384  -4.0545
    -3.6034  -3.0567  -2.0401  -1.2728  -0.1564   0.1336   0.2757   1.0325
     1.3090   1.7578   2.3072   3.6821   4.1957   4.7664

          k = 0.1875 0.4691 0.0000 ( 12858 PWs)   bands (ev):

   -59.4589 -33.7013 -33.6460 -33.5273 -12.1778 -11.0273  -5.1865  -4.1518
    -3.6629  -3.1658  -2.1690  -1.4308  -0.1113   0.2620   0.3298   1.0777
     1.3138   1.7752   2.5504   3.7209   4.2533   4.7826

          k = 0.1875 0.5413 0.0000 ( 12848 PWs)   bands (ev):

   -59.4565 -33.7160 -33.6419 -33.5405 -12.0375 -10.9242  -5.3876  -4.2815
    -3.6461  -3.1865  -2.2521  -1.5554  -0.0932   0.3342   0.4775   0.9798
     1.4587   1.7117   2.9456   3.5395   4.0826   4.8655

          k = 0.2500 0.4330 0.0000 ( 12885 PWs)   bands (ev):

   -59.4589 -33.6877 -33.6458 -33.5414 -12.1823 -11.0278  -5.0368  -4.0332
    -3.8055  -3.2865  -2.2096  -1.3969  -0.0847   0.1847   0.2747   1.0741
     1.3219   1.8451   2.3994   3.7014   4.2171   4.9395

          k = 0.2500 0.5052 0.0000 ( 12870 PWs)   bands (ev):

   -59.4560 -33.6915 -33.6407 -33.5724 -12.0128 -10.9008  -5.1476  -4.2667
    -3.7640  -3.3931  -2.3436  -1.5323  -0.0321   0.2747   0.3478   0.9463
     1.5043   1.8096   2.7246   3.5505   3.9798   5.2828

          k = 0.2500 0.5774 0.0000 ( 12844 PWs)   bands (ev):

   -59.4549 -33.6910 -33.6390 -33.5851 -11.9510 -10.8543  -5.1809  -4.3678
    -3.7611  -3.4053  -2.3921  -1.5929  -0.0185   0.3019   0.4197   0.8771
     1.6356   1.7442   3.0002   3.3651   3.8423   5.3486

          k = 0.3125 0.5413 0.0000 ( 12856 PWs)   bands (ev):

   -59.4544 -33.6703 -33.6379 -33.6128 -11.9207 -10.8294  -4.9988  -4.5455
    -3.7103  -3.5377  -2.4501  -1.5919   0.0018   0.3238   0.3662   0.8377
     1.6896   1.7999   2.9199   3.4057   3.7182   5.7256

 ------ SPIN DOWN ----------


          k = 0.0000 0.0000 0.0000 ( 12991 PWs)   bands (ev):

   -59.4939 -33.7158 -33.3774 -33.3774 -13.8271 -12.2450  -5.2089  -3.0006
    -1.5652  -1.5652  -1.0237  -1.0237   0.7948   0.9592   0.9592   1.5077
     1.5077   1.6208   2.5296   4.0714   4.0715   4.5170

          k = 0.0000 0.0722 0.0000 ( 12961 PWs)   bands (ev):

   -59.4924 -33.7131 -33.3920 -33.3807 -13.7759 -12.2061  -5.1498  -2.9732
    -1.7400  -1.5744  -1.1473  -1.0263   0.6953   0.9690   1.0312   1.3737
     1.4976   1.6680   2.7077   3.9211   4.0890   4.3962

          k = 0.0000 0.1443 0.0000 ( 12937 PWs)   bands (ev):

   -59.4883 -33.7055 -33.4333 -33.3903 -13.6262 -12.0930  -4.9827  -2.9268
    -2.1993  -1.6258  -1.4433  -1.0199   0.5221   1.0177   1.0680   1.1533
     1.4884   1.7506   3.0798   3.6095   4.0646   4.2184

          k = 0.0000 0.2165 0.0000 ( 12929 PWs)   bands (ev):

   -59.4820 -33.6941 -33.4947 -33.4045 -13.3898 -11.9162  -4.7404  -3.0893
    -2.6967  -1.7484  -1.7368  -0.9939   0.3582   0.8752   1.0257   1.1369
     1.5271   1.8560   3.2102   3.5541   3.9548   4.2776

          k = 0.0000 0.2887 0.0000 ( 12917 PWs)   bands (ev):

   -59.4746 -33.6807 -33.5661 -33.4213 -13.0879 -11.6935  -4.4843  -3.7404
    -2.9620  -1.9227  -1.8653  -0.9726   0.2533   0.5973   0.9568   1.3106
     1.6741   1.9395   3.0329   3.8143   3.8495   4.6284

          k = 0.0000 0.3608 0.0000 ( 12903 PWs)   bands (ev):

   -59.4672 -33.6688 -33.6354 -33.4380 -12.7539 -11.4514  -4.4776  -4.3039
    -3.2071  -2.1047  -1.9076  -0.9765   0.1387   0.4996   0.9717   1.4797
     1.9574   1.9758   2.9879   3.6912   4.1136   5.0139

          k = 0.0000 0.4330 0.0000 ( 12893 PWs)   bands (ev):

   -59.4609 -33.6989 -33.6533 -33.4521 -12.4372 -11.2255  -5.1087  -4.3178
    -3.3102  -2.2579  -1.9986  -0.9994   0.0135   0.6370   1.1028   1.6307
     1.9728   2.2777   3.0712   3.6290   4.2126   5.0031

          k = 0.0000 0.5052 0.0000 ( 12870 PWs)   bands (ev):

   -59.4567 -33.7376 -33.6464 -33.4615 -12.2030 -11.0600  -5.5503  -4.4278
    -3.2952  -2.3583  -2.1117  -1.0232  -0.0483   0.8193   1.3132   1.7484
     1.9312   2.4938   3.2155   3.6547   4.0693   4.9452

          k = 0.0000-0.5774 0.0000 ( 12854 PWs)   bands (ev):

   -59.4553 -33.7513 -33.6438 -33.4648 -12.1154 -10.9983  -5.7103  -4.4826
    -3.2773  -2.3931  -2.1618  -1.0329  -0.0655   0.8983   1.4497   1.7949
     1.8805   2.5585   3.3013   3.6928   3.9407   4.9095

          k = 0.0625 0.1083 0.0000 ( 12951 PWs)   bands (ev):

   -59.4896 -33.7079 -33.4195 -33.3876 -13.6755 -12.1301  -5.0365  -2.9343
    -2.0490  -1.6165  -1.3495  -1.0322   0.5829   0.9600   1.0897   1.2386
     1.4715   1.7283   2.9806   3.6958   4.0757   4.2338

          k = 0.0625 0.1804 0.0000 ( 12937 PWs)   bands (ev):

   -59.4844 -33.6984 -33.4697 -33.4006 -13.4823 -11.9850  -4.8299  -2.9606
    -2.5321  -1.7379  -1.6377  -1.0260   0.4439   0.9031   1.0430   1.1758
     1.4806   1.8255   3.2660   3.4856   4.0044   4.1271

          k = 0.0625 0.2526 0.0000 ( 12935 PWs)   bands (ev):

   -59.4776 -33.6860 -33.5346 -33.4177 -13.2126 -11.7847  -4.5739  -3.4175
    -2.8463  -1.9635  -1.7975  -1.0106   0.3248   0.6818   0.9798   1.2642
     1.5841   1.9275   3.0894   3.6607   3.9321   4.3524

          k = 0.0625 0.3248 0.0000 ( 12927 PWs)   bands (ev):

   -59.4702 -33.6730 -33.6037 -33.4361 -12.8932 -11.5510  -4.3472  -4.1142
    -3.1099  -2.1718  -1.8458  -1.0139   0.2395   0.4703   0.9529   1.4226
     1.8155   1.9912   2.9651   3.6578   4.0635   4.7738

          k = 0.0625 0.3969 0.0000 ( 12903 PWs)   bands (ev):

   -59.4634 -33.6734 -33.6544 -33.4530 -12.5648 -11.3146  -4.7941  -4.2505
    -3.3042  -2.3396  -1.9091  -1.0549   0.1224   0.5096   1.0133   1.5889
     2.0009   2.1184   2.9733   3.6270   4.2500   4.9533

          k = 0.0625 0.4691 0.0000 ( 12863 PWs)   bands (ev):

   -59.4581 -33.7178 -33.6487 -33.4660 -12.2848 -11.1155  -5.3289  -4.3336
    -3.3336  -2.4514  -2.0296  -1.1169   0.0587   0.6874   1.1714   1.7439
     1.9690   2.3669   3.0712   3.6748   4.2679   4.8531

          k = 0.0625 0.5413 0.0000 ( 12844 PWs)   bands (ev):

   -59.4553 -33.7435 -33.6438 -33.4730 -12.1201 -10.9989  -5.6302  -4.4327
    -3.3067  -2.4986  -2.1332  -1.1588   0.0381   0.8340   1.3449   1.8448
     1.9109   2.4860   3.2161   3.7147   4.1110   4.7882

          k = 0.1250 0.2165 0.0000 ( 12933 PWs)   bands (ev):

   -59.4786 -33.6879 -33.5214 -33.4185 -13.2554 -11.8160  -4.6047  -3.2804
    -2.7924  -2.0193  -1.7765  -1.0457   0.3839   0.6857   1.0016   1.2677
     1.5454   1.9299   3.1111   3.6255   3.9532   4.1896

          k = 0.1250 0.2887 0.0000 ( 12935 PWs)   bands (ev):

   -59.4718 -33.6757 -33.5807 -33.4406 -12.9667 -11.6033  -4.3571  -3.8539
    -3.0284  -2.3318  -1.8246  -1.0684   0.3306   0.4442   0.9667   1.3989
     1.7377   2.0256   2.9322   3.6093   4.0120   4.5825

          k = 0.1250 0.3608 0.0000 ( 12903 PWs)   bands (ev):

   -59.4650 -33.6650 -33.6373 -33.4631 -12.6492 -11.3721  -4.4745  -4.1674
    -3.3004  -2.5633  -1.8721  -1.1170   0.2301   0.3917   0.9599   1.5767
     1.9846   2.0691   2.8506   3.6295   4.1659   4.8973

          k = 0.1250 0.4330 0.0000 ( 12881 PWs)   bands (ev):

   -59.4592 -33.6907 -33.6500 -33.4822 -12.3504 -11.1570  -5.0232  -4.1684
    -3.4247  -2.7079  -1.9748  -1.2305   0.2062   0.5048   1.0303   1.7650
     2.0117   2.2331   2.8699   3.7361   4.3537   4.8016

          k = 0.1250 0.5052 0.0000 ( 12858 PWs)   bands (ev):

   -59.4553 -33.7224 -33.6437 -33.4950 -12.1311 -11.0002  -5.4102  -4.2926
    -3.4072  -2.7679  -2.0957  -1.3534   0.2314   0.6674   1.1688   1.8596
     2.0012   2.3637   3.0219   3.7664   4.4615   4.5639

          k = 0.1250 0.5774 0.0000 ( 12856 PWs)   bands (ev):

   -59.4539 -33.7337 -33.6413 -33.4995 -12.0497 -10.9419  -5.5510  -4.3540
    -3.3904  -2.7752  -2.1528  -1.4033   0.2394   0.7482   1.2524   1.8266
     2.0537   2.3921   3.1984   3.6647   4.3659   4.5764

          k = 0.1875 0.3248 0.0000 ( 12901 PWs)   bands (ev):

   -59.4655 -33.6651 -33.6254 -33.4694 -12.6786 -11.3919  -4.3239  -4.1268
    -3.2962  -2.6931  -1.8810  -1.1258   0.2236   0.3884   0.9467   1.5738
     1.9399   2.1048   2.7905   3.6414   4.0839   4.8785

          k = 0.1875 0.3969 0.0000 ( 12903 PWs)   bands (ev):

   -59.4597 -33.6701 -33.6492 -33.4987 -12.3867 -11.1791  -4.7642  -3.9930
    -3.5583  -2.9412  -2.0033  -1.2228   0.1775   0.4849   0.9394   1.7783
     2.0009   2.2265   2.7169   3.7732   4.2321   4.9053

          k = 0.1875 0.4691 0.0000 ( 12858 PWs)   bands (ev):

   -59.4553 -33.6963 -33.6435 -33.5223 -12.1421 -11.0014  -5.1266  -4.1015
    -3.5917  -3.0670  -2.1402  -1.3893   0.3039   0.5786   1.0087   1.8546
     2.0172   2.3781   2.7922   3.7845   4.3542   4.8583

          k = 0.1875 0.5413 0.0000 ( 12848 PWs)   bands (ev):

   -59.4529 -33.7110 -33.6394 -33.5355 -12.0004 -10.8983  -5.3354  -4.2338
    -3.5679  -3.0875  -2.2294  -1.5206   0.4113   0.6471   1.1170   1.7646
     2.1452   2.3891   3.0862   3.6088   4.2420   4.9201

          k = 0.2500 0.4330 0.0000 ( 12885 PWs)   bands (ev):

   -59.4553 -33.6828 -33.6432 -33.5365 -12.1467 -11.0018  -4.9713  -3.9826
    -3.7261  -3.2119  -2.1829  -1.3563   0.2385   0.6457   0.9211   1.8474
     2.0014   2.4788   2.6347   3.7711   4.3054   5.0135

          k = 0.2500 0.5052 0.0000 ( 12870 PWs)   bands (ev):

   -59.4523 -33.6865 -33.6382 -33.5675 -11.9755 -10.8748  -5.0875  -4.2121
    -3.6823  -3.3332  -2.3201  -1.5020   0.3822   0.7368   0.9831   1.7194
     2.1399   2.5127   2.8838   3.6101   4.1373   5.3257

          k = 0.2500 0.5774 0.0000 ( 12844 PWs)   bands (ev):

   -59.4513 -33.6860 -33.6365 -33.5801 -11.9130 -10.8284  -5.1228  -4.3118
    -3.6874  -3.3397  -2.3700  -1.5674   0.4551   0.7487   1.0477   1.6501
     2.2162   2.4887   3.1151   3.4544   4.0182   5.4169

          k = 0.3125 0.5413 0.0000 ( 12856 PWs)   bands (ev):

   -59.4507 -33.6652 -33.6354 -33.6078 -11.8824 -10.8035  -4.9308  -4.4939
    -3.6315  -3.4926  -2.4262  -1.5695   0.4440   0.8434   0.9942   1.6020
     2.2437   2.5642   3.0012   3.5033   3.9111   5.7600

     the Fermi energy is     2.0508 ev

!    total energy              =    -658.60202079 Ry
     total all-electron energy =    -12481.775912 Ry
     estimated scf accuracy    <       0.00000013 Ry
     smearing contrib. (-TS)   =      -0.00728511 Ry
     internal energy E=F+TS    =    -658.59473568 Ry

     The total energy is F=E-TS. E is the sum of the following terms:
     one-electron contribution =   -1318.23550758 Ry
     hartree contribution      =     672.82080301 Ry
     xc contribution           =     -62.39764203 Ry
     ewald contribution        =     455.35277613 Ry
     one-center paw contrib.   =    -406.13516522 Ry

     total magnetization       =     0.95 Bohr mag/cell
     absolute magnetization    =     1.08 Bohr mag/cell

     convergence has been achieved in  13 iterations

     negative rho (up, down):  2.466E-04 2.242E-04

     Forces acting on atoms (cartesian axes, Ry/au):

     atom    1 type  1   force =     0.00000000    0.00000000    0.09050115
     atom    2 type  2   force =     0.00000000    0.00000000   -0.00761682
     atom    3 type  2   force =     0.00000000    0.00000000   -0.01685859
     atom    4 type  3   force =     0.00000000    0.00000000   -0.06602574
     The non-local contrib.  to forces
     atom    1 type  1   force =     0.00000000    0.00000000   -0.10841156
     atom    2 type  2   force =     0.00000000   -0.00000000   -0.04454164
     atom    3 type  2   force =     0.00000000    0.00000000    0.25577135
     atom    4 type  3   force =     0.00000000    0.00000000    0.09121267
     The ionic contribution  to forces
     atom    1 type  1   force =     0.00000000   -0.00000000  -33.89233288
     atom    2 type  2   force =    -0.00000000    0.00000000   19.22137440
     atom    3 type  2   force =    -0.00000000    0.00000000  -45.38775850
     atom    4 type  3   force =     0.00000000   -0.00000000   60.05871697
     The local contribution  to forces
     atom    1 type  1   force =     0.00000000   -0.00000000   34.08341819
     atom    2 type  2   force =    -0.00000000    0.00000000  -19.18723416
     atom    3 type  2   force =    -0.00000000    0.00000000   45.11672498
     atom    4 type  3   force =    -0.00000000    0.00000000  -60.17790689
     The core correction contribution to forces
     atom    1 type  1   force =     0.00000000   -0.00000000    0.00745163
     atom    2 type  2   force =     0.00000000   -0.00000000    0.00249281
     atom    3 type  2   force =     0.00000000   -0.00000000   -0.00158460
     atom    4 type  3   force =    -0.00000000    0.00000000   -0.03856781
     The Hubbard contrib.    to forces
     atom    1 type  1   force =     0.00000000    0.00000000    0.00000000
     atom    2 type  2   force =     0.00000000    0.00000000    0.00000000
     atom    3 type  2   force =     0.00000000    0.00000000    0.00000000
     atom    4 type  3   force =     0.00000000    0.00000000    0.00000000
     The SCF correction term to forces
     atom    1 type  1   force =     0.00000000    0.00000000    0.00044171
     atom    2 type  2   force =    -0.00000000    0.00000000    0.00035771
     atom    3 type  2   force =     0.00000000    0.00000000    0.00005410
     atom    4 type  3   force =     0.00000000    0.00000000    0.00058525

     Total force =     0.113543     Total SCF correction =     0.000818


     Computing stress (Cartesian axis) and pressure


     negative rho (up, down):  2.466E-04 2.242E-04
          total   stress  (Ry/bohr**3)                   (kbar)     P=      -21.41
  -0.00004411  -0.00000000   0.00000000           -6.49       -0.00        0.00
  -0.00000000  -0.00004411  -0.00000000           -0.00       -6.49       -0.00
   0.00000000  -0.00000000  -0.00034850            0.00       -0.00      -51.27

     Energy error            =      2.0E-02 Ry
     Gradient error          =      9.1E-02 Ry/Bohr

     number of scf cycles    =   8
     number of bfgs steps    =   7

     energy             old  =    -658.5820458965 Ry
     energy             new  =    -658.6020207880 Ry

     CASE: energy            _new < energy            _old


     WARNING: bfgs curvature condition failed, Theta= 0.394
     new trust radius        =       0.4635878096 bohr
     new conv_thr            =       0.0000009050 Ry


ATOMIC_POSITIONS (crystal)
Mo            0.0000000000        0.0000000000        0.5019014292
S             0.6666666667        0.3333333333        0.6159731870
S             0.6666666667        0.3333333333        0.4211502754
Co            0.0000000000        0.0000000000        0.6586111722



     Writing config-only to output data dir ./tmp/relax.save/
     NEW-OLD atomic charge density approx. for the potential

     negative rho (up, down):  2.595E-04 2.486E-04
     Generating pointlists ...
     new r_m :   0.2587 (alat units)  1.5489 (a.u.) for type    2
     new r_m :   0.2587 (alat units)  1.5489 (a.u.) for type    3

     total cpu time spent up to now is      234.5 secs

     Self-consistent Calculation

     iteration #  1     ecut=    80.00 Ry     beta= 0.70
     Davidson diagonalization with overlap
     c_bands:  1 eigenvalues not converged
     c_bands:  1 eigenvalues not converged
     c_bands:  2 eigenvalues not converged
     c_bands:  3 eigenvalues not converged
     c_bands:  4 eigenvalues not converged
     c_bands:  3 eigenvalues not converged
     c_bands:  1 eigenvalues not converged
     c_bands:  3 eigenvalues not converged
     c_bands:  2 eigenvalues not converged
     c_bands:  1 eigenvalues not converged
     ethr =  1.00E-06,  avg # of iterations = 23.8

     negative rho (up, down):  2.822E-04 2.651E-04

     total cpu time spent up to now is      241.8 secs

     total energy              =    -658.15901077 Ry
     estimated scf accuracy    <       0.49626980 Ry

     total magnetization       =     0.63 Bohr mag/cell
     absolute magnetization    =     0.72 Bohr mag/cell

     iteration #  2     ecut=    80.00 Ry     beta= 0.70
     Davidson diagonalization with overlap
     ethr =  1.42E-03,  avg # of iterations =  9.3

     negative rho (up, down):  1.739E-04 1.586E-04

     total cpu time spent up to now is      244.6 secs

     total energy              =    -655.99113102 Ry
     estimated scf accuracy    <     125.48988796 Ry

     total magnetization       =     0.01 Bohr mag/cell
     absolute magnetization    =     0.04 Bohr mag/cell

     iteration #  3     ecut=    80.00 Ry     beta= 0.70
     Davidson diagonalization with overlap
     ethr =  1.42E-03,  avg # of iterations =  9.3

     negative rho (up, down):  1.509E-04 1.367E-04

     total cpu time spent up to now is      247.7 secs

     total energy              =    -658.50291484 Ry
     estimated scf accuracy    <       1.71954461 Ry

     total magnetization       =     0.30 Bohr mag/cell
     absolute magnetization    =     0.47 Bohr mag/cell

     iteration #  4     ecut=    80.00 Ry     beta= 0.70
     Davidson diagonalization with overlap
     ethr =  1.42E-03,  avg # of iterations =  2.4

     negative rho (up, down):  2.664E-04 2.497E-04

     total cpu time spent up to now is      249.6 secs

     total energy              =    -658.59736133 Ry
     estimated scf accuracy    <       0.26706493 Ry

     total magnetization       =     0.29 Bohr mag/cell
     absolute magnetization    =     0.46 Bohr mag/cell

     iteration #  5     ecut=    80.00 Ry     beta= 0.70
     Davidson diagonalization with overlap
     ethr =  7.63E-04,  avg # of iterations =  1.8

     negative rho (up, down):  9.453E-04 9.187E-04

     total cpu time spent up to now is      251.3 secs

     total energy              =    -658.59508693 Ry
     estimated scf accuracy    <       0.12563737 Ry

     total magnetization       =     0.29 Bohr mag/cell
     absolute magnetization    =     0.42 Bohr mag/cell

     iteration #  6     ecut=    80.00 Ry     beta= 0.70
     Davidson diagonalization with overlap
     ethr =  3.59E-04,  avg # of iterations =  3.0

     negative rho (up, down):  1.006E-03 9.755E-04

     total cpu time spent up to now is      253.1 secs

     total energy              =    -658.60179955 Ry
     estimated scf accuracy    <       0.02000806 Ry

     total magnetization       =     0.30 Bohr mag/cell
     absolute magnetization    =     0.38 Bohr mag/cell

     iteration #  7     ecut=    80.00 Ry     beta= 0.70
     Davidson diagonalization with overlap
     ethr =  5.72E-05,  avg # of iterations =  7.4

     negative rho (up, down):  6.299E-04 6.089E-04

     total cpu time spent up to now is      255.3 secs

     total energy              =    -658.60398045 Ry
     estimated scf accuracy    <       0.00423503 Ry

     total magnetization       =     0.24 Bohr mag/cell
     absolute magnetization    =     0.31 Bohr mag/cell

     iteration #  8     ecut=    80.00 Ry     beta= 0.70
     Davidson diagonalization with overlap
     ethr =  1.21E-05,  avg # of iterations =  3.5

     negative rho (up, down):  3.279E-04 3.190E-04

     total cpu time spent up to now is      257.1 secs

     total energy              =    -658.60428978 Ry
     estimated scf accuracy    <       0.00113826 Ry

     total magnetization       =     0.22 Bohr mag/cell
     absolute magnetization    =     0.28 Bohr mag/cell

     iteration #  9     ecut=    80.00 Ry     beta= 0.70
     Davidson diagonalization with overlap
     ethr =  3.25E-06,  avg # of iterations =  3.2

     negative rho (up, down):  2.266E-04 2.223E-04

     total cpu time spent up to now is      259.0 secs

     total energy              =    -658.60455538 Ry
     estimated scf accuracy    <       0.00064786 Ry

     total magnetization       =     0.16 Bohr mag/cell
     absolute magnetization    =     0.20 Bohr mag/cell

     iteration # 10     ecut=    80.00 Ry     beta= 0.70
     Davidson diagonalization with overlap
     ethr =  1.85E-06,  avg # of iterations =  2.6

     negative rho (up, down):  2.212E-04 2.189E-04

     total cpu time spent up to now is      260.9 secs

     total energy              =    -658.60469469 Ry
     estimated scf accuracy    <       0.00041761 Ry

     total magnetization       =     0.10 Bohr mag/cell
     absolute magnetization    =     0.12 Bohr mag/cell

     iteration # 11     ecut=    80.00 Ry     beta= 0.70
     Davidson diagonalization with overlap
     ethr =  1.19E-06,  avg # of iterations =  1.7

     negative rho (up, down):  2.476E-04 2.471E-04

     total cpu time spent up to now is      262.6 secs

     total energy              =    -658.60470626 Ry
     estimated scf accuracy    <       0.00015879 Ry

     total magnetization       =     0.06 Bohr mag/cell
     absolute magnetization    =     0.07 Bohr mag/cell

     iteration # 12     ecut=    80.00 Ry     beta= 0.70
     Davidson diagonalization with overlap
     ethr =  4.54E-07,  avg # of iterations =  2.5

     negative rho (up, down):  2.533E-04 2.528E-04

     total cpu time spent up to now is      264.4 secs

     total energy              =    -658.60477343 Ry
     estimated scf accuracy    <       0.00001532 Ry

     total magnetization       =     0.02 Bohr mag/cell
     absolute magnetization    =     0.02 Bohr mag/cell

     iteration # 13     ecut=    80.00 Ry     beta= 0.70
     Davidson diagonalization with overlap
     ethr =  4.38E-08,  avg # of iterations =  4.6

     negative rho (up, down):  2.542E-04 2.538E-04
 
     Magnetic moment per site  (integrated on atomic sphere of radius R)
     atom   1 (R=0.308)  charge= 10.6284  magn=  0.0014
     atom   2 (R=0.259)  charge=  2.9441  magn=  0.0000
     atom   3 (R=0.259)  charge=  2.8638  magn=  0.0000
     atom   4 (R=0.259)  charge=  6.6811  magn=  0.0102

     total cpu time spent up to now is      266.4 secs

     End of self-consistent calculation

 ------ SPIN UP ------------


          k = 0.0000 0.0000 0.0000 ( 12991 PWs)   bands (ev):

   -59.4067 -33.6293 -33.2999 -33.2999 -14.3843 -12.3190  -5.4726  -3.5281
    -3.5281  -3.3462  -1.1818  -1.1818  -0.0837  -0.0837   0.5864   1.4244
     1.4244   1.4531   3.8834   4.5460   4.5460   4.7098

          k = 0.0000 0.0722 0.0000 ( 12961 PWs)   bands (ev):

   -59.4052 -33.6266 -33.3145 -33.3032 -14.3353 -12.2782  -5.4202  -3.6241
    -3.5170  -3.3001  -1.3001  -1.1657  -0.1519  -0.0854   0.6245   1.2958
     1.4099   1.5004   3.9849   4.3178   4.5263   4.5783

          k = 0.0000 0.1443 0.0000 ( 12937 PWs)   bands (ev):

   -59.4010 -33.6192 -33.3559 -33.3128 -14.1919 -12.1596  -5.2732  -3.8884
    -3.4875  -3.1892  -1.5891  -1.1348  -0.3104  -0.0817   0.6351   1.1281
     1.4043   1.4863   3.8018   4.1430   4.3349   4.4987

          k = 0.0000 0.2165 0.0000 ( 12929 PWs)   bands (ev):

   -59.3947 -33.6081 -33.4173 -33.3271 -13.9665 -11.9754  -5.0716  -4.2672
    -3.4493  -3.0972  -1.8921  -1.1268  -0.4957  -0.0543   0.4968   0.9749
     1.4486   1.4857   3.2910   4.0376   4.1017   4.8172

          k = 0.0000 0.2887 0.0000 ( 12917 PWs)   bands (ev):

   -59.3873 -33.5952 -33.4887 -33.3440 -13.6805 -11.7457  -5.0030  -4.5688
    -3.4151  -3.1634  -2.0395  -1.1611  -0.6569   0.0059   0.3313   0.7470
     1.4086   1.7011   2.9426   3.7163   4.1324   5.1961

          k = 0.0000 0.3608 0.0000 ( 12903 PWs)   bands (ev):

   -59.3799 -33.5859 -33.5558 -33.3607 -13.3674 -11.4989  -5.3773  -4.5070
    -3.3940  -3.3433  -2.0748  -1.2222  -0.7442   0.0980   0.2135   0.5983
     1.2658   2.0090   2.8220   3.4454   4.1931   5.0352

          k = 0.0000 0.4330 0.0000 ( 12893 PWs)   bands (ev):

   -59.3736 -33.6232 -33.5668 -33.3749 -13.0745 -11.2722  -5.8060  -4.4969
    -3.4265  -3.3871  -2.1545  -1.2838  -0.7226   0.0907   0.2128   0.6900
     1.0234   2.2492   2.8689   3.3516   4.1414   4.9401

          k = 0.0000 0.5052 0.0000 ( 12870 PWs)   bands (ev):

   -59.3694 -33.6617 -33.5603 -33.3843 -12.8608 -11.1090  -6.1175  -4.5839
    -3.3959  -3.3884  -2.2668  -1.3270  -0.6087   0.0399   0.3191   0.6393
     0.9558   2.2827   2.9924   3.5043   3.9971   4.7961

          k = 0.0000-0.5774 0.0000 ( 12854 PWs)   bands (ev):

   -59.3679 -33.6754 -33.5578 -33.3876 -12.7816 -11.0490  -6.2318  -4.6316
    -3.3899  -3.3689  -2.3197  -1.3424  -0.5364   0.0772   0.3645   0.4615
     1.0244   2.2571   3.0717   3.6291   3.9142   4.7118

          k = 0.0625 0.1083 0.0000 ( 12951 PWs)   bands (ev):

   -59.4024 -33.6216 -33.3421 -33.3102 -14.2390 -12.1984  -5.3201  -3.7994
    -3.5022  -3.2205  -1.4977  -1.1500  -0.2571  -0.0911   0.6484   1.1963
     1.3421   1.5283   3.9580   4.1488   4.3658   4.4449

          k = 0.0625 0.1804 0.0000 ( 12937 PWs)   bands (ev):

   -59.3971 -33.6123 -33.3923 -33.3232 -14.0545 -12.0469  -5.1417  -4.1142
    -3.4796  -3.1141  -1.7824  -1.1521  -0.4141  -0.0905   0.5793   1.0551
     1.3358   1.5477   3.4667   4.0677   4.2204   4.5229

          k = 0.0625 0.2526 0.0000 ( 12935 PWs)   bands (ev):

   -59.3903 -33.6003 -33.4572 -33.3404 -13.7983 -11.8395  -4.9657  -4.4782
    -3.4567  -3.1071  -1.9881  -1.1861  -0.5820  -0.0626   0.4283   0.8358
     1.4068   1.6395   3.0358   3.7695   4.1602   4.8301

          k = 0.0625 0.3248 0.0000 ( 12927 PWs)   bands (ev):

   -59.3829 -33.5881 -33.5258 -33.3588 -13.4976 -11.6001  -5.1553  -4.5343
    -3.4491  -3.2668  -2.0402  -1.2397  -0.7104   0.0028   0.3063   0.6091
     1.3434   1.8925   2.8000   3.4995   4.2177   4.9702

          k = 0.0625 0.3969 0.0000 ( 12903 PWs)   bands (ev):

   -59.3760 -33.5973 -33.5682 -33.3759 -13.1922 -11.3612  -5.5823  -4.4487
    -3.4929  -3.3838  -2.0861  -1.3063  -0.7467   0.0896   0.2237   0.5710
     1.1250   2.1554   2.7678   3.3830   4.2530   4.8946

          k = 0.0625 0.4691 0.0000 ( 12863 PWs)   bands (ev):

   -59.3707 -33.6419 -33.5625 -33.3888 -12.9355 -11.1634  -5.9506  -4.5000
    -3.5100  -3.3866  -2.1906  -1.3716  -0.6799   0.0547   0.2957   0.6944
     0.8744   2.2384   2.8712   3.5005   4.1342   4.7523

          k = 0.0625 0.5413 0.0000 ( 12844 PWs)   bands (ev):

   -59.3679 -33.6676 -33.5578 -33.3958 -12.7861 -11.0495  -6.1625  -4.5832
    -3.4947  -3.3617  -2.2826  -1.4096  -0.5774   0.0536   0.3561   0.5420
     0.9431   2.1950   3.0362   3.6543   3.9720   4.6479

          k = 0.1250 0.2165 0.0000 ( 12933 PWs)   bands (ev):

   -59.3913 -33.6021 -33.4441 -33.3412 -13.8390 -11.8718  -4.9685  -4.4150
    -3.4906  -3.0893  -1.9500  -1.2262  -0.5377  -0.1094   0.4893   0.8626
     1.3818   1.6498   3.0705   3.7613   4.2020   4.6693

          k = 0.1250 0.2887 0.0000 ( 12935 PWs)   bands (ev):

   -59.3845 -33.5904 -33.5031 -33.3633 -13.5667 -11.6534  -4.9986  -4.5446
    -3.5243  -3.2175  -2.0026  -1.3009  -0.6708  -0.0913   0.3867   0.6211
     1.3809   1.8563   2.7505   3.5050   4.2248   4.8439

          k = 0.1250 0.3608 0.0000 ( 12903 PWs)   bands (ev):

   -59.3776 -33.5829 -33.5570 -33.3859 -13.2706 -11.4191  -5.3541  -4.4011
    -3.6161  -3.3831  -2.0308  -1.3558  -0.7521  -0.0118   0.3192   0.4547
     1.1851   2.0995   2.6144   3.4402   4.3052   4.8158

          k = 0.1250 0.4330 0.0000 ( 12881 PWs)   bands (ev):

   -59.3718 -33.6150 -33.5636 -33.4051 -12.9958 -11.2044  -5.7151  -4.3622
    -3.7070  -3.4333  -2.1172  -1.4416  -0.7406   0.0725   0.2968   0.5178
     0.8893   2.1870   2.6598   3.5896   4.3357   4.6078

          k = 0.1250 0.5052 0.0000 ( 12858 PWs)   bands (ev):

   -59.3679 -33.6465 -33.5577 -33.4180 -12.7971 -11.0505  -5.9749  -4.4564
    -3.7042  -3.4149  -2.2204  -1.5292  -0.6710   0.0503   0.3533   0.6406
     0.7411   2.1020   2.8861   3.7096   4.0873   4.6030

          k = 0.1250 0.5774 0.0000 ( 12856 PWs)   bands (ev):

   -59.3665 -33.6577 -33.5554 -33.4225 -12.7238 -10.9941  -6.0700  -4.5102
    -3.6963  -3.3941  -2.2671  -1.5638  -0.6251   0.0502   0.2874   0.6603
     0.8155   2.0427   3.0742   3.6187   3.9968   4.6300

          k = 0.1875 0.3248 0.0000 ( 12901 PWs)   bands (ev):

   -59.3782 -33.5815 -33.5465 -33.3923 -13.2980 -11.4391  -5.2476  -4.3898
    -3.6752  -3.3824  -2.0175  -1.3693  -0.7543  -0.0712   0.3612   0.4202
     1.2038   2.0937   2.5370   3.4676   4.2791   4.8056

          k = 0.1875 0.3969 0.0000 ( 12903 PWs)   bands (ev):

   -59.3724 -33.5941 -33.5628 -33.4216 -13.0295 -11.2263  -5.5206  -4.2570
    -3.8669  -3.4891  -2.1151  -1.4283  -0.7750   0.0172   0.2844   0.4268
     0.9028   2.2289   2.4526   3.6426   4.3560   4.6344

          k = 0.1875 0.4691 0.0000 ( 12858 PWs)   bands (ev):

   -59.3679 -33.6203 -33.5573 -33.4454 -12.8079 -11.0515  -5.7415  -4.3361
    -3.9012  -3.5142  -2.2368  -1.5406  -0.7487   0.0665   0.3290   0.4633
     0.7616   2.0951   2.6631   3.7240   4.1176   4.7710

          k = 0.1875 0.5413 0.0000 ( 12848 PWs)   bands (ev):

   -59.3655 -33.6349 -33.5535 -33.4586 -12.6810 -10.9517  -5.8656  -4.4535
    -3.8906  -3.4827  -2.3140  -1.6324  -0.7193   0.0428   0.2430   0.5908
     0.8655   1.9462   2.9776   3.5363   3.8771   4.9625

          k = 0.2500 0.4330 0.0000 ( 12885 PWs)   bands (ev):

   -59.3679 -33.6068 -33.5570 -33.4596 -12.8123 -11.0519  -5.6203  -4.3344
    -3.9253  -3.5876  -2.2725  -1.5033  -0.7748   0.0634   0.2668   0.4148
     0.7856   2.1345   2.5360   3.7098   4.1201   4.8997

          k = 0.2500 0.5052 0.0000 ( 12870 PWs)   bands (ev):

   -59.3649 -33.6103 -33.5523 -33.4907 -12.6597 -10.9287  -5.6523  -4.5537
    -3.8752  -3.6110  -2.4022  -1.5963  -0.7841   0.0435   0.2329   0.4226
     0.9852   1.9362   2.7912   3.5687   3.7584   5.3419

          k = 0.2500 0.5774 0.0000 ( 12844 PWs)   bands (ev):

   -59.3639 -33.6098 -33.5507 -33.5034 -12.6045 -10.8841  -5.6525  -4.6494
    -3.8824  -3.5854  -2.4493  -1.6416  -0.7919   0.0213   0.1764   0.4994
     1.1283   1.8160   3.0399   3.3195   3.6366   5.4842

          k = 0.3125 0.5413 0.0000 ( 12856 PWs)   bands (ev):

   -59.3633 -33.5890 -33.5495 -33.5313 -12.5779 -10.8601  -5.4987  -4.8231
    -3.7973  -3.6740  -2.5117  -1.6319  -0.8255   0.0094   0.1634   0.4624
     1.2726   1.7430   2.9878   3.3901   3.4463   5.8447

 ------ SPIN DOWN ----------


          k = 0.0000 0.0000 0.0000 ( 12991 PWs)   bands (ev):

   -59.4048 -33.6278 -33.2975 -33.2975 -14.3843 -12.3190  -5.4715  -3.5221
    -3.5221  -3.3455  -1.1808  -1.1808  -0.0737  -0.0737   0.5896   1.4295
     1.4295   1.4541   3.8841   4.5524   4.5525   4.7135

          k = 0.0000 0.0722 0.0000 ( 12961 PWs)   bands (ev):

   -59.4033 -33.6252 -33.3121 -33.3008 -14.3352 -12.2781  -5.4191  -3.6184
    -3.5110  -3.2992  -1.2991  -1.1647  -0.1425  -0.0755   0.6286   1.2997
     1.4151   1.5022   3.9857   4.3260   4.5351   4.5800

          k = 0.0000 0.1443 0.0000 ( 12937 PWs)   bands (ev):

   -59.3991 -33.6177 -33.3535 -33.3104 -14.1919 -12.1595  -5.2720  -3.8837
    -3.4816  -3.1884  -1.5882  -1.1339  -0.3019  -0.0718   0.6414   1.1312
     1.4097   1.4880   3.8110   4.1434   4.3441   4.5000

          k = 0.0000 0.2165 0.0000 ( 12929 PWs)   bands (ev):

   -59.3929 -33.6066 -33.4149 -33.3247 -13.9664 -11.9754  -5.0702  -4.2636
    -3.4437  -3.0965  -1.8912  -1.1260  -0.4878  -0.0444   0.5044   0.9769
     1.4515   1.4912   3.3002   4.0468   4.1024   4.8182

          k = 0.0000 0.2887 0.0000 ( 12917 PWs)   bands (ev):

   -59.3854 -33.5938 -33.4863 -33.3415 -13.6804 -11.7456  -5.0008  -4.5671
    -3.4098  -3.1628  -2.0386  -1.1602  -0.6495   0.0160   0.3394   0.7487
     1.4133   1.7070   2.9510   3.7255   4.1333   5.0458

          k = 0.0000 0.3608 0.0000 ( 12903 PWs)   bands (ev):

   -59.3780 -33.5843 -33.5536 -33.3583 -13.3672 -11.4988  -5.3755  -4.5058
    -3.3891  -3.3427  -2.0739  -1.2212  -0.7371   0.1081   0.2224   0.6001
     1.2726   2.0160   2.8285   3.4538   4.1943   5.0368

          k = 0.0000 0.4330 0.0000 ( 12893 PWs)   bands (ev):

   -59.3717 -33.6208 -33.5654 -33.3725 -13.0743 -11.2721  -5.8049  -4.4957
    -3.4259  -3.3825  -2.1537  -1.2826  -0.7161   0.1000   0.2229   0.6933
     1.0310   2.2591   2.8734   3.3576   4.1430   4.9417

          k = 0.0000 0.5052 0.0000 ( 12870 PWs)   bands (ev):

   -59.3675 -33.6593 -33.5589 -33.3819 -12.8604 -11.1090  -6.1169  -4.5827
    -3.3951  -3.3839  -2.2660  -1.3258  -0.6035   0.0509   0.3290   0.6478
     0.9589   2.2951   2.9951   3.5082   3.9993   4.7975

          k = 0.0000-0.5774 0.0000 ( 12854 PWs)   bands (ev):

   -59.3660 -33.6730 -33.5564 -33.3852 -12.7812 -11.0489  -6.2313  -4.6304
    -3.3855  -3.3680  -2.3189  -1.3411  -0.5322   0.0901   0.3744   0.4698
     1.0273   2.2700   3.0736   3.6327   3.9169   4.7132

          k = 0.0625 0.1083 0.0000 ( 12951 PWs)   bands (ev):

   -59.4005 -33.6202 -33.3397 -33.3077 -14.2390 -12.1984  -5.3190  -3.7944
    -3.4964  -3.2196  -1.4967  -1.1491  -0.2484  -0.0812   0.6541   1.1998
     1.3465   1.5307   3.9672   4.1496   4.3723   4.4496

          k = 0.0625 0.1804 0.0000 ( 12937 PWs)   bands (ev):

   -59.3953 -33.6109 -33.3899 -33.3208 -14.0544 -12.0469  -5.1405  -4.1101
    -3.4740  -3.1132  -1.7816  -1.1513  -0.4060  -0.0807   0.5865   1.0577
     1.3398   1.5513   3.4760   4.0745   4.2232   4.5241

          k = 0.0625 0.2526 0.0000 ( 12935 PWs)   bands (ev):

   -59.3884 -33.5989 -33.4548 -33.3379 -13.7982 -11.8394  -4.9640  -4.4756
    -3.4515  -3.1064  -1.9873  -1.1852  -0.5744  -0.0528   0.4362   0.8379
     1.4110   1.6446   3.0448   3.7779   4.1615   4.8313

          k = 0.0625 0.3248 0.0000 ( 12927 PWs)   bands (ev):

   -59.3810 -33.5867 -33.5235 -33.3564 -13.4974 -11.6000  -5.1531  -4.5330
    -3.4443  -3.2662  -2.0393  -1.2387  -0.7031   0.0125   0.3149   0.6113
     1.3495   1.8987   2.8078   3.5075   4.2190   4.9719

          k = 0.0625 0.3969 0.0000 ( 12903 PWs)   bands (ev):

   -59.3741 -33.5950 -33.5666 -33.3734 -13.1920 -11.3611  -5.5809  -4.4474
    -3.4900  -3.3817  -2.0852  -1.3052  -0.7398   0.0993   0.2327   0.5737
     1.1328   2.1637   2.7742   3.3889   4.2546   4.8962

          k = 0.0625 0.4691 0.0000 ( 12863 PWs)   bands (ev):

   -59.3689 -33.6396 -33.5610 -33.3864 -12.9352 -11.1633  -5.9498  -4.4988
    -3.5072  -3.3845  -2.1898  -1.3704  -0.6736   0.0647   0.3053   0.7000
     0.8807   2.2496   2.8757   3.5044   4.1362   4.7538

          k = 0.0625 0.5413 0.0000 ( 12844 PWs)   bands (ev):

   -59.3660 -33.6652 -33.5564 -33.3934 -12.7858 -11.0494  -6.1620  -4.5820
    -3.4914  -3.3601  -2.2817  -1.4085  -0.5721   0.0653   0.3652   0.5515
     0.9459   2.2077   3.0390   3.6576   3.9745   4.6493

          k = 0.1250 0.2165 0.0000 ( 12933 PWs)   bands (ev):

   -59.3895 -33.6007 -33.4417 -33.3387 -13.8388 -11.8717  -4.9670  -4.4119
    -3.4855  -3.0885  -1.9491  -1.2253  -0.5299  -0.0997   0.4971   0.8651
     1.3861   1.6544   3.0799   3.7696   4.2033   4.6706

          k = 0.1250 0.2887 0.0000 ( 12935 PWs)   bands (ev):

   -59.3826 -33.5890 -33.5007 -33.3609 -13.5666 -11.6533  -4.9963  -4.5431
    -3.5198  -3.2169  -2.0018  -1.2999  -0.6633  -0.0819   0.3949   0.6240
     1.3866   1.8619   2.7593   3.5125   4.2261   4.8453

          k = 0.1250 0.3608 0.0000 ( 12903 PWs)   bands (ev):

   -59.3757 -33.5812 -33.5548 -33.3835 -13.2704 -11.4190  -5.3524  -4.3997
    -3.6128  -3.3819  -2.0300  -1.3547  -0.7448  -0.0028   0.3277   0.4583
     1.1929   2.1066   2.6226   3.4455   4.3066   4.8176

          k = 0.1250 0.4330 0.0000 ( 12881 PWs)   bands (ev):

   -59.3699 -33.6126 -33.5621 -33.4027 -12.9956 -11.2043  -5.7140  -4.3609
    -3.7044  -3.4318  -2.1164  -1.4405  -0.7334   0.0821   0.3045   0.5224
     0.8984   2.1971   2.6659   3.5932   4.3375   4.6093

          k = 0.1250 0.5052 0.0000 ( 12858 PWs)   bands (ev):

   -59.3660 -33.6441 -33.5563 -33.4156 -12.7967 -11.0504  -5.9743  -4.4552
    -3.7014  -3.4136  -2.2196  -1.5282  -0.6637   0.0604   0.3619   0.6488
     0.7461   2.1140   2.8901   3.7126   4.0897   4.6041

          k = 0.1250 0.5774 0.0000 ( 12856 PWs)   bands (ev):

   -59.3646 -33.6553 -33.5540 -33.4201 -12.7235 -10.9940  -6.0696  -4.5090
    -3.6935  -3.3928  -2.2663  -1.5630  -0.6179   0.0611   0.2959   0.6707
     0.8182   2.0553   3.0773   3.6218   3.9995   4.6310

          k = 0.1875 0.3248 0.0000 ( 12901 PWs)   bands (ev):

   -59.3763 -33.5800 -33.5442 -33.3899 -13.2978 -11.4390  -5.2457  -4.3883
    -3.6721  -3.3815  -2.0167  -1.3682  -0.7468  -0.0629   0.3698   0.4244
     1.2116   2.1000   2.5460   3.4728   4.2803   4.8076

          k = 0.1875 0.3969 0.0000 ( 12903 PWs)   bands (ev):

   -59.3705 -33.5918 -33.5613 -33.4192 -13.0292 -11.2262  -5.5192  -4.2553
    -3.8649  -3.4879  -2.1145  -1.4270  -0.7673   0.0249   0.2900   0.4348
     0.9124   2.2380   2.4595   3.6462   4.3574   4.6362

          k = 0.1875 0.4691 0.0000 ( 12858 PWs)   bands (ev):

   -59.3660 -33.6179 -33.5559 -33.4430 -12.8076 -11.0514  -5.7406  -4.3347
    -3.8992  -3.5132  -2.2362  -1.5395  -0.7402   0.0757   0.3353   0.4686
     0.7724   2.1067   2.6675   3.7270   4.1199   4.7720

          k = 0.1875 0.5413 0.0000 ( 12848 PWs)   bands (ev):

   -59.3636 -33.6325 -33.5521 -33.4562 -12.6806 -10.9516  -5.8650  -4.4522
    -3.8886  -3.4817  -2.3134  -1.6316  -0.7098   0.0520   0.2523   0.5935
     0.8759   1.9585   2.9811   3.5392   3.8797   4.9636

          k = 0.2500 0.4330 0.0000 ( 12885 PWs)   bands (ev):

   -59.3660 -33.6045 -33.5555 -33.4572 -12.8120 -11.0518  -5.6193  -4.3329
    -3.9237  -3.5867  -2.2719  -1.5020  -0.7660   0.0719   0.2709   0.4227
     0.7967   2.1464   2.5399   3.7129   4.1225   4.9007

          k = 0.2500 0.5052 0.0000 ( 12870 PWs)   bands (ev):

   -59.3630 -33.6079 -33.5509 -33.4883 -12.6593 -10.9287  -5.6513  -4.5528
    -3.8735  -3.6102  -2.4017  -1.5955  -0.7736   0.0518   0.2430   0.4248
     0.9961   1.9486   2.7945   3.5714   3.7612   5.3429

          k = 0.2500 0.5774 0.0000 ( 12844 PWs)   bands (ev):

   -59.3620 -33.6074 -33.5492 -33.5010 -12.6041 -10.8840  -5.6517  -4.6487
    -3.8809  -3.5843  -2.4489  -1.6410  -0.7805   0.0287   0.1869   0.5017
     1.1387   1.8287   3.0425   3.3227   3.6394   5.4851

          k = 0.3125 0.5413 0.0000 ( 12856 PWs)   bands (ev):

   -59.3614 -33.5866 -33.5481 -33.5288 -12.5775 -10.8601  -5.4974  -4.8230
    -3.7954  -3.6732  -2.5114  -1.6313  -0.8133   0.0162   0.1745   0.4648
     1.2828   1.7560   2.9902   3.3929   3.4496   5.8447

     the Fermi energy is     1.9969 ev

!    total energy              =    -658.60477761 Ry
     total all-electron energy =    -12481.778668 Ry
     estimated scf accuracy    <       0.00000058 Ry
     smearing contrib. (-TS)   =      -0.00529929 Ry
     internal energy E=F+TS    =    -658.59947832 Ry

     The total energy is F=E-TS. E is the sum of the following terms:
     one-electron contribution =   -1371.82934460 Ry
     hartree contribution      =     699.36510674 Ry
     xc contribution           =     -62.59350154 Ry
     ewald contribution        =     482.62229911 Ry
     one-center paw contrib.   =    -406.16403803 Ry

     total magnetization       =     0.01 Bohr mag/cell
     absolute magnetization    =     0.02 Bohr mag/cell

     convergence has been achieved in  13 iterations

     negative rho (up, down):  2.542E-04 2.538E-04

     Forces acting on atoms (cartesian axes, Ry/au):

     atom    1 type  1   force =     0.00000000    0.00000000    0.08852995
     atom    2 type  2   force =     0.00000000    0.00000000   -0.09818345
     atom    3 type  2   force =     0.00000000    0.00000000   -0.03325780
     atom    4 type  3   force =     0.00000000    0.00000000    0.04291130
     The non-local contrib.  to forces
     atom    1 type  1   force =     0.00000000    0.00000000   -0.13278214
     atom    2 type  2   force =     0.00000000    0.00000000   -0.16876671
     atom    3 type  2   force =     0.00000000    0.00000000    0.24407166
     atom    4 type  3   force =     0.00000000    0.00000000    0.05084101
     The ionic contribution  to forces
     atom    1 type  1   force =     0.00000000   -0.00000000  -35.43481678
     atom    2 type  2   force =    -0.00000000    0.00000000   21.80564120
     atom    3 type  2   force =    -0.00000000    0.00000000  -45.82948507
     atom    4 type  3   force =     0.00000000   -0.00000000   59.45866064
     The local contribution  to forces
     atom    1 type  1   force =     0.00000000   -0.00000000   35.64790335
     atom    2 type  2   force =    -0.00000000    0.00000000  -21.74263558
     atom    3 type  2   force =    -0.00000000    0.00000000   45.55232327
     atom    4 type  3   force =     0.00000000   -0.00000000  -59.42683302
     The core correction contribution to forces
     atom    1 type  1   force =    -0.00000000    0.00000000    0.00871166
     atom    2 type  2   force =     0.00000000   -0.00000000    0.00812392
     atom    3 type  2   force =     0.00000000   -0.00000000   -0.00110897
     atom    4 type  3   force =    -0.00000000    0.00000000   -0.03933769
     The Hubbard contrib.    to forces
     atom    1 type  1   force =     0.00000000    0.00000000    0.00000000
     atom    2 type  2   force =     0.00000000    0.00000000    0.00000000
     atom    3 type  2   force =     0.00000000    0.00000000    0.00000000
     atom    4 type  3   force =     0.00000000    0.00000000    0.00000000
     The SCF correction term to forces
     atom    1 type  1   force =    -0.00000000   -0.00000000   -0.00049122
     atom    2 type  2   force =     0.00000000    0.00000000   -0.00055137
     atom    3 type  2   force =     0.00000000    0.00000000    0.00093623
     atom    4 type  3   force =    -0.00000000    0.00000000   -0.00042471

     Total force =     0.142916     Total SCF correction =     0.001266


     Computing stress (Cartesian axis) and pressure


     negative rho (up, down):  2.542E-04 2.538E-04
          total   stress  (Ry/bohr**3)                   (kbar)     P=       24.31
   0.00027797  -0.00000000   0.00000000           40.89       -0.00        0.00
  -0.00000000   0.00027797   0.00000000           -0.00       40.89        0.00
   0.00000000   0.00000000  -0.00006013            0.00        0.00       -8.85

     Energy error            =      2.8E-03 Ry
     Gradient error          =      9.8E-02 Ry/Bohr

     number of scf cycles    =   9
     number of bfgs steps    =   8

     energy             old  =    -658.6020207880 Ry
     energy             new  =    -658.6047776118 Ry

     CASE: energy            _new < energy            _old

     new trust radius        =       0.2889283421 bohr
     new conv_thr            =       0.0000002757 Ry


ATOMIC_POSITIONS (crystal)
Mo            0.0000000000        0.0000000000        0.5016159724
S             0.6666666667        0.3333333333        0.6098749124
S             0.6666666667        0.3333333333        0.4191286030
Co            0.0000000000        0.0000000000        0.6670165760



     Writing config-only to output data dir ./tmp/relax.save/
     NEW-OLD atomic charge density approx. for the potential

     negative rho (up, down):  2.292E-04 2.284E-04
     Generating pointlists ...

     total cpu time spent up to now is      269.6 secs

     Self-consistent Calculation

     iteration #  1     ecut=    80.00 Ry     beta= 0.70
     Davidson diagonalization with overlap
     c_bands:  1 eigenvalues not converged
     c_bands:  2 eigenvalues not converged
     c_bands:  2 eigenvalues not converged
     c_bands:  2 eigenvalues not converged
     c_bands:  5 eigenvalues not converged
     c_bands:  2 eigenvalues not converged
     c_bands:  1 eigenvalues not converged
     c_bands:  1 eigenvalues not converged
     c_bands:  1 eigenvalues not converged
     c_bands:  2 eigenvalues not converged
     c_bands:  2 eigenvalues not converged
     c_bands:  2 eigenvalues not converged
     c_bands:  1 eigenvalues not converged
     c_bands:  5 eigenvalues not converged
     c_bands:  1 eigenvalues not converged
     c_bands:  1 eigenvalues not converged
     ethr =  1.00E-06,  avg # of iterations = 18.5

     negative rho (up, down):  2.434E-04 2.428E-04

     total cpu time spent up to now is      275.2 secs

     total energy              =    -658.15444904 Ry
     estimated scf accuracy    <       0.52689475 Ry

     total magnetization       =     0.01 Bohr mag/cell
     absolute magnetization    =     0.01 Bohr mag/cell

     iteration #  2     ecut=    80.00 Ry     beta= 0.70
     Davidson diagonalization with overlap
     ethr =  1.51E-03,  avg # of iterations =  9.3

     negative rho (up, down):  1.928E-04 1.923E-04

     total cpu time spent up to now is      278.0 secs

     total energy              =    -656.06106126 Ry
     estimated scf accuracy    <     138.21625136 Ry

     total magnetization       =     0.00 Bohr mag/cell
     absolute magnetization    =     0.00 Bohr mag/cell

     iteration #  3     ecut=    80.00 Ry     beta= 0.70
     Davidson diagonalization with overlap
     ethr =  1.51E-03,  avg # of iterations =  9.5

     negative rho (up, down):  1.912E-04 1.905E-04

     total cpu time spent up to now is      281.1 secs

     total energy              =    -658.52181902 Ry
     estimated scf accuracy    <       1.22193188 Ry

     total magnetization       =     0.01 Bohr mag/cell
     absolute magnetization    =     0.01 Bohr mag/cell

     iteration #  4     ecut=    80.00 Ry     beta= 0.70
     Davidson diagonalization with overlap
     ethr =  1.51E-03,  avg # of iterations =  2.1

     negative rho (up, down):  2.042E-04 2.036E-04

     total cpu time spent up to now is      283.0 secs

     total energy              =    -658.60659837 Ry
     estimated scf accuracy    <       0.11158705 Ry

     total magnetization       =     0.01 Bohr mag/cell
     absolute magnetization    =     0.01 Bohr mag/cell

     iteration #  5     ecut=    80.00 Ry     beta= 0.70
     Davidson diagonalization with overlap
     ethr =  3.19E-04,  avg # of iterations =  2.1

     negative rho (up, down):  2.272E-04 2.269E-04

     total cpu time spent up to now is      284.7 secs

     total energy              =    -658.61072115 Ry
     estimated scf accuracy    <       0.06243734 Ry

     total magnetization       =     0.01 Bohr mag/cell
     absolute magnetization    =     0.01 Bohr mag/cell

     iteration #  6     ecut=    80.00 Ry     beta= 0.70
     Davidson diagonalization with overlap
     ethr =  1.78E-04,  avg # of iterations =  1.4

     negative rho (up, down):  2.452E-04 2.452E-04

     total cpu time spent up to now is      286.4 secs

     total energy              =    -658.61311261 Ry
     estimated scf accuracy    <       0.00659486 Ry

     total magnetization       =     0.01 Bohr mag/cell
     absolute magnetization    =     0.01 Bohr mag/cell

     iteration #  7     ecut=    80.00 Ry     beta= 0.70
     Davidson diagonalization with overlap
     ethr =  1.88E-05,  avg # of iterations =  4.2

     negative rho (up, down):  2.450E-04 2.449E-04

     total cpu time spent up to now is      288.4 secs

     total energy              =    -658.61411327 Ry
     estimated scf accuracy    <       0.00051851 Ry

     total magnetization       =     0.01 Bohr mag/cell
     absolute magnetization    =     0.01 Bohr mag/cell

     iteration #  8     ecut=    80.00 Ry     beta= 0.70
     Davidson diagonalization with overlap
     ethr =  1.48E-06,  avg # of iterations =  5.0

     negative rho (up, down):  2.409E-04 2.407E-04

     total cpu time spent up to now is      290.6 secs

     total energy              =    -658.61421761 Ry
     estimated scf accuracy    <       0.00025924 Ry

     total magnetization       =     0.01 Bohr mag/cell
     absolute magnetization    =     0.01 Bohr mag/cell

     iteration #  9     ecut=    80.00 Ry     beta= 0.70
     Davidson diagonalization with overlap
     ethr =  7.41E-07,  avg # of iterations =  1.9

     negative rho (up, down):  2.376E-04 2.374E-04

     total cpu time spent up to now is      292.4 secs

     total energy              =    -658.61423420 Ry
     estimated scf accuracy    <       0.00002222 Ry

     total magnetization       =     0.01 Bohr mag/cell
     absolute magnetization    =     0.01 Bohr mag/cell

     iteration # 10     ecut=    80.00 Ry     beta= 0.70
     Davidson diagonalization with overlap
     ethr =  6.35E-08,  avg # of iterations =  4.6

     negative rho (up, down):  2.367E-04 2.365E-04

     total cpu time spent up to now is      294.4 secs

     total energy              =    -658.61424080 Ry
     estimated scf accuracy    <       0.00000078 Ry

     total magnetization       =     0.01 Bohr mag/cell
     absolute magnetization    =     0.01 Bohr mag/cell

     iteration # 11     ecut=    80.00 Ry     beta= 0.70
     Davidson diagonalization with overlap
     ethr =  2.22E-09,  avg # of iterations =  4.1

     negative rho (up, down):  2.365E-04 2.364E-04
 
     Magnetic moment per site  (integrated on atomic sphere of radius R)
     atom   1 (R=0.308)  charge= 10.6196  magn=  0.0004
     atom   2 (R=0.259)  charge=  2.8744  magn=  0.0000
     atom   3 (R=0.259)  charge=  2.8556  magn=  0.0001
     atom   4 (R=0.259)  charge=  6.6038  magn=  0.0045

     total cpu time spent up to now is      296.5 secs

     End of self-consistent calculation

 ------ SPIN UP ------------


          k = 0.0000 0.0000 0.0000 ( 12991 PWs)   bands (ev):

   -59.5358 -33.7626 -33.4201 -33.4201 -14.1064 -12.3686  -5.3765  -3.2116
    -2.3679  -2.3679  -1.1534  -1.1534   0.4415   0.4415   0.6226   1.2552
     1.2552   1.4046   2.9629   4.0253   4.0253   4.4417

          k = 0.0000 0.0722 0.0000 ( 12961 PWs)   bands (ev):

   -59.5344 -33.7599 -33.4346 -33.4234 -14.0564 -12.3290  -5.3190  -3.1812
    -2.5019  -2.3775  -1.2743  -1.1391   0.3339   0.4455   0.6701   1.1794
     1.2414   1.4306   3.1026   3.8491   4.0260   4.3257

          k = 0.0000 0.1443 0.0000 ( 12937 PWs)   bands (ev):

   -59.5302 -33.7523 -33.4759 -33.4330 -13.9102 -12.2136  -5.1566  -3.1504
    -2.8368  -2.4107  -1.5672  -1.1095   0.1467   0.4702   0.6322   1.0454
     1.2344   1.4872   3.4045   3.4852   3.9581   4.1692

          k = 0.0000 0.2165 0.0000 ( 12929 PWs)   bands (ev):

   -59.5240 -33.7410 -33.5372 -33.4472 -13.6797 -12.0334  -4.9214  -3.5307
    -2.9756  -2.4747  -1.8686  -1.0947  -0.0410   0.4952   0.5370   0.8459
     1.3054   1.5704   3.0960   3.6854   3.8035   4.3139

          k = 0.0000 0.2887 0.0000 ( 12917 PWs)   bands (ev):

   -59.5166 -33.7278 -33.6085 -33.4639 -13.3860 -11.8069  -4.6824  -4.1594
    -3.1151  -2.5679  -2.0109  -1.1133  -0.1773   0.3632   0.6036   0.6452
     1.5041   1.6237   2.8623   3.6251   3.8741   4.7371

          k = 0.0000 0.3608 0.0000 ( 12903 PWs)   bands (ev):

   -59.5092 -33.7158 -33.6778 -33.4806 -13.0622 -11.5612  -4.8801  -4.4473
    -3.3347  -2.6750  -2.0528  -1.1581  -0.2632   0.3015   0.4926   0.7790
     1.6005   1.8032   2.8120   3.4816   4.0539   4.8903

          k = 0.0000 0.4330 0.0000 ( 12893 PWs)   bands (ev):

   -59.5029 -33.7416 -33.7001 -33.4947 -12.7565 -11.3327  -5.4422  -4.4620
    -3.4370  -2.7731  -2.1408  -1.2090  -0.3348   0.3923   0.5670   0.9207
     1.5089   2.0871   2.9026   3.4389   4.0849   4.8507

          k = 0.0000 0.5052 0.0000 ( 12870 PWs)   bands (ev):

   -59.4987 -33.7799 -33.6934 -33.5041 -12.5313 -11.1661  -5.8442  -4.5667
    -3.4211  -2.8411  -2.2555  -1.2474  -0.3786   0.6079   0.7070   1.0378
     1.3581   2.2363   3.0505   3.5244   3.9356   4.7640

          k = 0.0000-0.5774 0.0000 ( 12854 PWs)   bands (ev):

   -59.4972 -33.7936 -33.6909 -33.5074 -12.4473 -11.1042  -5.9904  -4.6202
    -3.4013  -2.8653  -2.3077  -1.2616  -0.3924   0.7400   0.8038   1.0850
     1.2312   2.2685   3.1344   3.5971   3.8307   4.7128

          k = 0.0625 0.1083 0.0000 ( 12951 PWs)   bands (ev):

   -59.5316 -33.7548 -33.4621 -33.4303 -13.9583 -12.2515  -5.2089  -3.1435
    -2.7370  -2.4055  -1.4749  -1.1253   0.2085   0.4473   0.6618   1.0965
     1.2170   1.4734   3.3336   3.5824   3.9806   4.1699

          k = 0.0625 0.1804 0.0000 ( 12937 PWs)   bands (ev):

   -59.5263 -33.7453 -33.5122 -33.4433 -13.7698 -12.1035  -5.0082  -3.3166
    -2.9564  -2.4736  -1.7631  -1.1226   0.0460   0.4521   0.5867   0.9379
     1.2608   1.5500   3.2158   3.6201   3.8880   4.0973

          k = 0.0625 0.2526 0.0000 ( 12935 PWs)   bands (ev):

   -59.5195 -33.7330 -33.5770 -33.4604 -13.5072 -11.8996  -4.7624  -3.8698
    -3.0338  -2.5873  -1.9656  -1.1403  -0.1069   0.3901   0.5730   0.7353
     1.4070   1.6312   2.9150   3.6033   3.8826   4.4234

          k = 0.0625 0.3248 0.0000 ( 12927 PWs)   bands (ev):

   -59.5121 -33.7201 -33.6460 -33.4787 -13.1971 -11.6622  -4.6388  -4.4047
    -3.2448  -2.7198  -2.0188  -1.1764  -0.2113   0.2940   0.4851   0.7486
     1.6246   1.6888   2.7672   3.4835   4.0187   4.7825

          k = 0.0625 0.3969 0.0000 ( 12903 PWs)   bands (ev):

   -59.5053 -33.7177 -33.6995 -33.4957 -12.8795 -11.4227  -5.1586  -4.3970
    -3.4310  -2.8351  -2.0721  -1.2365  -0.2782   0.3111   0.4668   0.8863
     1.5712   1.9545   2.7791   3.4489   4.1547   4.8089

          k = 0.0625 0.4691 0.0000 ( 12863 PWs)   bands (ev):

   -59.5001 -33.7602 -33.6957 -33.5086 -12.6100 -11.2219  -5.6407  -4.4745
    -3.4622  -2.9170  -2.1815  -1.3081  -0.3174   0.4686   0.5843   1.0315
     1.4362   2.1391   2.8996   3.5387   4.1217   4.6830

          k = 0.0625 0.5413 0.0000 ( 12844 PWs)   bands (ev):

   -59.4972 -33.7858 -33.6909 -33.5156 -12.4518 -11.1048  -5.9148  -4.5707
    -3.4339  -2.9558  -2.2752  -1.3539  -0.3337   0.6522   0.7160   1.1362
     1.2735   2.1961   3.0732   3.6170   3.9662   4.6048

          k = 0.1250 0.2165 0.0000 ( 12933 PWs)   bands (ev):

   -59.5206 -33.7349 -33.5639 -33.4611 -13.5489 -11.9315  -4.7917  -3.7384
    -3.0081  -2.6301  -1.9353  -1.1777  -0.0581   0.3693   0.5806   0.7786
     1.3787   1.6408   2.9294   3.5813   3.9223   4.2425

          k = 0.1250 0.2887 0.0000 ( 12935 PWs)   bands (ev):

   -59.5137 -33.7227 -33.6230 -33.4832 -13.2685 -11.7153  -4.5833  -4.2363
    -3.1764  -2.8467  -1.9955  -1.2288  -0.1618   0.2581   0.5044   0.7561
     1.5820   1.7147   2.7034   3.4656   3.9736   4.6238

          k = 0.1250 0.3608 0.0000 ( 12903 PWs)   bands (ev):

   -59.5069 -33.7119 -33.6798 -33.5057 -12.9610 -11.4810  -4.8784  -4.3096
    -3.4341  -3.0154  -2.0341  -1.2809  -0.2234   0.1919   0.4248   0.8857
     1.6272   1.8723   2.6114   3.4792   4.1030   4.7818

          k = 0.1250 0.4330 0.0000 ( 12881 PWs)   bands (ev):

   -59.5011 -33.7334 -33.6967 -33.5248 -12.6731 -11.2639  -5.3612  -4.3132
    -3.5636  -3.1234  -2.1244  -1.3874  -0.2322   0.3036   0.4327   1.0533
     1.4944   2.0434   2.6610   3.6124   4.2594   4.6045

          k = 0.1250 0.5052 0.0000 ( 12858 PWs)   bands (ev):

   -59.4972 -33.7648 -33.6908 -33.5376 -12.4626 -11.1063  -5.7085  -4.4341
    -3.5517  -3.1696  -2.2295  -1.5044  -0.2209   0.4922   0.5343   1.1533
     1.3816   2.0876   2.8776   3.6671   4.2323   4.4539

          k = 0.1250 0.5774 0.0000 ( 12856 PWs)   bands (ev):

   -59.4959 -33.7760 -33.6884 -33.5421 -12.3846 -11.0480  -5.8353  -4.4949
    -3.5375  -3.1752  -2.2772  -1.5521  -0.2170   0.5747   0.6211   1.1185
     1.3911   2.0793   3.0840   3.5590   4.1223   4.4861

          k = 0.1875 0.3248 0.0000 ( 12901 PWs)   bands (ev):

   -59.5075 -33.7122 -33.6678 -33.5121 -12.9895 -11.5012  -4.7520  -4.2615
    -3.4429  -3.1148  -2.0335  -1.2902  -0.2056   0.1230   0.4338   0.8880
     1.6405   1.8675   2.5289   3.4995   4.0334   4.7826

          k = 0.1875 0.3969 0.0000 ( 12903 PWs)   bands (ev):

   -59.5017 -33.7137 -33.6950 -33.5413 -12.7081 -11.2863  -5.1291  -4.1406
    -3.7247  -3.2900  -2.1390  -1.3746  -0.1906   0.1232   0.3970   1.0698
     1.5149   2.0540   2.4589   3.6527   4.1630   4.7221

          k = 0.1875 0.4691 0.0000 ( 12858 PWs)   bands (ev):

   -59.4972 -33.7387 -33.6904 -33.5649 -12.4734 -11.1076  -5.4461  -4.2582
    -3.7670  -3.3750  -2.2630  -1.5265  -0.1333   0.2877   0.4150   1.1463
     1.4540   2.0966   2.6145   3.6755   4.1846   4.7100

          k = 0.1875 0.5413 0.0000 ( 12848 PWs)   bands (ev):

   -59.4948 -33.7533 -33.6865 -33.5781 -12.3377 -11.0046  -5.6287  -4.3961
    -3.7528  -3.3753  -2.3426  -1.6477  -0.1003   0.4537   0.4791   1.0387
     1.5712   2.0331   2.9572   3.4864   3.9870   4.8403

          k = 0.2500 0.4330 0.0000 ( 12885 PWs)   bands (ev):

   -59.4972 -33.7253 -33.6901 -33.5790 -12.4778 -11.1082  -5.3057  -4.1685
    -3.8925  -3.4716  -2.3023  -1.4928  -0.1042   0.1778   0.3877   1.1410
     1.4714   2.1809   2.4439   3.6557   4.1549   4.8655

          k = 0.2500 0.5052 0.0000 ( 12870 PWs)   bands (ev):

   -59.4942 -33.7288 -33.6853 -33.6100 -12.3141 -10.9812  -5.3977  -4.4284
    -3.8412  -3.5410  -2.4350  -1.6238  -0.0307   0.3177   0.4200   0.9925
     1.6528   2.1141   2.7237   3.4879   3.8875   5.2327

          k = 0.2500 0.5774 0.0000 ( 12844 PWs)   bands (ev):

   -59.4932 -33.7283 -33.6836 -33.6227 -12.2546 -10.9349  -5.4227  -4.5362
    -3.8451  -3.5328  -2.4845  -1.6827  -0.0080   0.3902   0.4582   0.9042
     1.7805   2.0401   3.0078   3.2664   3.7411   5.3527

          k = 0.3125 0.5413 0.0000 ( 12856 PWs)   bands (ev):

   -59.4926 -33.7075 -33.6825 -33.6505 -12.2255 -10.9101  -5.2497  -4.7257
    -3.7768  -3.6486  -2.5462  -1.6810   0.0247   0.3670   0.4507   0.8516
     1.8594   2.0837   2.9037   3.3042   3.6100   5.6871

 ------ SPIN DOWN ----------


          k = 0.0000 0.0000 0.0000 ( 12991 PWs)   bands (ev):

   -59.5354 -33.7622 -33.4195 -33.4195 -14.1063 -12.3684  -5.3761  -3.2112
    -2.3656  -2.3656  -1.1530  -1.1530   0.4451   0.4451   0.6241   1.2577
     1.2577   1.4063   2.9635   4.0284   4.0284   4.4423

          k = 0.0000 0.0722 0.0000 ( 12961 PWs)   bands (ev):

   -59.5339 -33.7595 -33.4341 -33.4229 -14.0563 -12.3288  -5.3186  -3.1808
    -2.4997  -2.3752  -1.2739  -1.1387   0.3368   0.4491   0.6726   1.1813
     1.2440   1.4324   3.1032   3.8523   4.0293   4.3263

          k = 0.0000 0.1443 0.0000 ( 12937 PWs)   bands (ev):

   -59.5298 -33.7519 -33.4754 -33.4324 -13.9102 -12.2134  -5.1562  -3.1498
    -2.8352  -2.4084  -1.5668  -1.1092   0.1494   0.4739   0.6358   1.0464
     1.2370   1.4894   3.4051   3.4886   3.9615   4.1698

          k = 0.0000 0.2165 0.0000 ( 12929 PWs)   bands (ev):

   -59.5235 -33.7406 -33.5366 -33.4467 -13.6796 -12.0332  -4.9209  -3.5296
    -2.9752  -2.4726  -1.8682  -1.0944  -0.0383   0.4991   0.5409   0.8465
     1.3079   1.5730   3.0992   3.6860   3.8068   4.3148

          k = 0.0000 0.2887 0.0000 ( 12917 PWs)   bands (ev):

   -59.5161 -33.7274 -33.6080 -33.4634 -13.3859 -11.8067  -4.6819  -4.1587
    -3.1148  -2.5659  -2.0105  -1.1129  -0.1747   0.3667   0.6047   0.6494
     1.5066   1.6267   2.8653   3.6283   3.8746   4.7381

          k = 0.0000 0.3608 0.0000 ( 12903 PWs)   bands (ev):

   -59.5087 -33.7154 -33.6773 -33.4801 -13.0621 -11.5609  -4.8795  -4.4469
    -3.3344  -2.6732  -2.0524  -1.1576  -0.2609   0.3045   0.4947   0.7833
     1.6040   1.8061   2.8145   3.4845   4.0544   4.8911

          k = 0.0000 0.4330 0.0000 ( 12893 PWs)   bands (ev):

   -59.5025 -33.7411 -33.6996 -33.4942 -12.7563 -11.3324  -5.4419  -4.4615
    -3.4366  -2.7715  -2.1405  -1.2084  -0.3328   0.3959   0.5692   0.9249
     1.5129   2.0908   2.9045   3.4410   4.0854   4.8514

          k = 0.0000 0.5052 0.0000 ( 12870 PWs)   bands (ev):

   -59.4983 -33.7794 -33.6930 -33.5036 -12.5311 -11.1658  -5.8439  -4.5662
    -3.4206  -2.8396  -2.2551  -1.2467  -0.3768   0.6125   0.7086   1.0421
     1.3623   2.2408   3.0517   3.5257   3.9362   4.7647

          k = 0.0000-0.5774 0.0000 ( 12854 PWs)   bands (ev):

   -59.4968 -33.7931 -33.6905 -33.5069 -12.4472 -11.1040  -5.9902  -4.6197
    -3.4008  -2.8638  -2.3074  -1.2608  -0.3906   0.7449   0.8053   1.0893
     1.2355   2.2733   3.1353   3.5981   3.8314   4.7136

          k = 0.0625 0.1083 0.0000 ( 12951 PWs)   bands (ev):

   -59.5311 -33.7544 -33.4616 -33.4298 -13.9582 -12.2512  -5.2085  -3.1430
    -2.7352  -2.4032  -1.4745  -1.1250   0.2113   0.4509   0.6651   1.0979
     1.2194   1.4754   3.3342   3.5859   3.9839   4.1704

          k = 0.0625 0.1804 0.0000 ( 12937 PWs)   bands (ev):

   -59.5259 -33.7449 -33.5117 -33.4428 -13.7698 -12.1033  -5.0078  -3.3155
    -2.9558  -2.4715  -1.7627  -1.1223   0.0487   0.4559   0.5903   0.9390
     1.2631   1.5524   3.2190   3.6212   3.8910   4.0980

          k = 0.0625 0.2526 0.0000 ( 12935 PWs)   bands (ev):

   -59.5191 -33.7326 -33.5765 -33.4598 -13.5071 -11.8994  -4.7619  -3.8688
    -3.0335  -2.5854  -1.9653  -1.1399  -0.1041   0.3937   0.5761   0.7373
     1.4094   1.6339   2.9183   3.6058   3.8836   4.4245

          k = 0.0625 0.3248 0.0000 ( 12927 PWs)   bands (ev):

   -59.5117 -33.7197 -33.6455 -33.4782 -13.1970 -11.6620  -4.6381  -4.4043
    -3.2446  -2.7181  -2.0184  -1.1760  -0.2087   0.2965   0.4876   0.7526
     1.6278   1.6914   2.7702   3.4861   4.0193   4.7838

          k = 0.0625 0.3969 0.0000 ( 12903 PWs)   bands (ev):

   -59.5049 -33.7172 -33.6991 -33.4952 -12.8794 -11.4225  -5.1582  -4.3965
    -3.4307  -2.8336  -2.0717  -1.2360  -0.2758   0.3136   0.4698   0.8905
     1.5750   1.9576   2.7816   3.4508   4.1553   4.8097

          k = 0.0625 0.4691 0.0000 ( 12863 PWs)   bands (ev):

   -59.4996 -33.7597 -33.6952 -33.5081 -12.6098 -11.2217  -5.6404  -4.4741
    -3.4618  -2.9156  -2.1812  -1.3075  -0.3153   0.4723   0.5866   1.0358
     1.4404   2.1432   2.9014   3.5400   4.1223   4.6838

          k = 0.0625 0.5413 0.0000 ( 12844 PWs)   bands (ev):

   -59.4968 -33.7853 -33.6904 -33.5151 -12.4517 -11.1046  -5.9146  -4.5702
    -3.4334  -2.9544  -2.2748  -1.3534  -0.3317   0.6573   0.7171   1.1405
     1.2779   2.2009   3.0743   3.6179   3.9670   4.6056

          k = 0.1250 0.2165 0.0000 ( 12933 PWs)   bands (ev):

   -59.5201 -33.7345 -33.5634 -33.4606 -13.5488 -11.9313  -4.7912  -3.7374
    -3.0078  -2.6282  -1.9349  -1.1773  -0.0553   0.3728   0.5837   0.7808
     1.3809   1.6434   2.9328   3.5838   3.9230   4.2439

          k = 0.1250 0.2887 0.0000 ( 12935 PWs)   bands (ev):

   -59.5133 -33.7223 -33.6225 -33.4827 -13.2684 -11.7151  -4.5826  -4.2357
    -3.1761  -2.8452  -1.9951  -1.2284  -0.1588   0.2603   0.5073   0.7599
     1.5847   1.7175   2.7068   3.4679   3.9741   4.6251

          k = 0.1250 0.3608 0.0000 ( 12903 PWs)   bands (ev):

   -59.5065 -33.7115 -33.6793 -33.5052 -12.9609 -11.4808  -4.8778  -4.3091
    -3.4338  -3.0141  -2.0337  -1.2804  -0.2204   0.1932   0.4287   0.8899
     1.6310   1.8750   2.6146   3.4809   4.1036   4.7828

          k = 0.1250 0.4330 0.0000 ( 12881 PWs)   bands (ev):

   -59.5007 -33.7329 -33.6963 -33.5243 -12.6729 -11.2636  -5.3608  -4.3127
    -3.5632  -3.1223  -2.1241  -1.3870  -0.2293   0.3049   0.4369   1.0576
     1.4986   2.0469   2.6635   3.6135   4.2599   4.6053

          k = 0.1250 0.5052 0.0000 ( 12858 PWs)   bands (ev):

   -59.4968 -33.7643 -33.6903 -33.5371 -12.4625 -11.1060  -5.7082  -4.4336
    -3.5511  -3.1687  -2.2291  -1.5039  -0.2181   0.4955   0.5369   1.1575
     1.3861   2.0920   2.8791   3.6680   4.2334   4.4543

          k = 0.1250 0.5774 0.0000 ( 12856 PWs)   bands (ev):

   -59.4954 -33.7755 -33.6880 -33.5416 -12.3845 -11.0477  -5.8351  -4.4944
    -3.5369  -3.1742  -2.2769  -1.5517  -0.2143   0.5797   0.6220   1.1226
     1.3957   2.0840   3.0851   3.5600   4.1235   4.4865

          k = 0.1875 0.3248 0.0000 ( 12901 PWs)   bands (ev):

   -59.5070 -33.7118 -33.6673 -33.5116 -12.9894 -11.5009  -4.7514  -4.2610
    -3.4425  -3.1137  -2.0331  -1.2898  -0.2023   0.1242   0.4376   0.8921
     1.6443   1.8700   2.5324   3.5011   4.0338   4.7837

          k = 0.1875 0.3969 0.0000 ( 12903 PWs)   bands (ev):

   -59.5012 -33.7132 -33.6945 -33.5407 -12.7080 -11.2860  -5.1287  -4.1400
    -3.7241  -3.2892  -2.1387  -1.3742  -0.1872   0.1242   0.4011   1.0740
     1.5192   2.0569   2.4620   3.6538   4.1635   4.7231

          k = 0.1875 0.4691 0.0000 ( 12858 PWs)   bands (ev):

   -59.4968 -33.7382 -33.6900 -33.5644 -12.4732 -11.1074  -5.4458  -4.2577
    -3.7663  -3.3744  -2.2627  -1.5262  -0.1298   0.2886   0.4194   1.1505
     1.4587   2.1007   2.6164   3.6764   4.1855   4.7106

          k = 0.1875 0.5413 0.0000 ( 12848 PWs)   bands (ev):

   -59.4944 -33.7527 -33.6861 -33.5776 -12.3376 -11.0043  -5.6284  -4.3956
    -3.7521  -3.3747  -2.3423  -1.6474  -0.0966   0.4550   0.4833   1.0428
     1.5758   2.0377   2.9585   3.4873   3.9883   4.8407

          k = 0.2500 0.4330 0.0000 ( 12885 PWs)   bands (ev):

   -59.4968 -33.7248 -33.6896 -33.5785 -12.4776 -11.1079  -5.3053  -4.1680
    -3.8918  -3.4711  -2.3020  -1.4925  -0.1002   0.1787   0.3917   1.1451
     1.4761   2.1852   2.4456   3.6566   4.1558   4.8661

          k = 0.2500 0.5052 0.0000 ( 12870 PWs)   bands (ev):

   -59.4938 -33.7283 -33.6849 -33.6095 -12.3140 -10.9810  -5.3974  -4.4279
    -3.8406  -3.5406  -2.4348  -1.6235  -0.0262   0.3186   0.4241   0.9965
     1.6574   2.1188   2.7249   3.4887   3.8887   5.2331

          k = 0.2500 0.5774 0.0000 ( 12844 PWs)   bands (ev):

   -59.4928 -33.7278 -33.6832 -33.6221 -12.2544 -10.9347  -5.4223  -4.5358
    -3.8445  -3.5323  -2.4843  -1.6824  -0.0033   0.3914   0.4623   0.9081
     1.7849   2.0450   3.0088   3.2673   3.7424   5.3531

          k = 0.3125 0.5413 0.0000 ( 12856 PWs)   bands (ev):

   -59.4922 -33.7070 -33.6821 -33.6499 -12.2253 -10.9099  -5.2492  -4.7254
    -3.7761  -3.6482  -2.5460  -1.6807   0.0298   0.3679   0.4548   0.8554
     1.8635   2.0890   2.9045   3.3050   3.6113   5.6870

     the Fermi energy is     1.9614 ev

!    total energy              =    -658.61424100 Ry
     total all-electron energy =    -12481.788132 Ry
     estimated scf accuracy    <       0.00000020 Ry
     smearing contrib. (-TS)   =      -0.00637965 Ry
     internal energy E=F+TS    =    -658.60786136 Ry

     The total energy is F=E-TS. E is the sum of the following terms:
     one-electron contribution =   -1339.41768081 Ry
     hartree contribution      =     683.24428625 Ry
     xc contribution           =     -62.44233467 Ry
     ewald contribution        =     466.14825206 Ry
     one-center paw contrib.   =    -406.14038419 Ry

     total magnetization       =     0.01 Bohr mag/cell
     absolute magnetization    =     0.01 Bohr mag/cell

     convergence has been achieved in  11 iterations

     negative rho (up, down):  2.365E-04 2.364E-04

     Forces acting on atoms (cartesian axes, Ry/au):

     atom    1 type  1   force =     0.00000000    0.00000000    0.08087126
     atom    2 type  2   force =     0.00000000    0.00000000   -0.01341218
     atom    3 type  2   force =     0.00000000    0.00000000   -0.01520920
     atom    4 type  3   force =     0.00000000    0.00000000   -0.05224988
     The non-local contrib.  to forces
     atom    1 type  1   force =     0.00000000    0.00000000   -0.11693132
     atom    2 type  2   force =     0.00000000    0.00000000   -0.08741310
     atom    3 type  2   force =     0.00000000    0.00000000    0.25483867
     atom    4 type  3   force =     0.00000000    0.00000000    0.04479208
     The ionic contribution  to forces
     atom    1 type  1   force =     0.00000000   -0.00000000  -34.51030917
     atom    2 type  2   force =    -0.00000000    0.00000000   19.90520558
     atom    3 type  2   force =    -0.00000000   -0.00000000  -45.57547967
     atom    4 type  3   force =     0.00000000   -0.00000000   60.18058326
     The local contribution  to forces
     atom    1 type  1   force =     0.00000000   -0.00000000   34.69978303
     atom    2 type  2   force =    -0.00000000    0.00000000  -19.83646895
     atom    3 type  2   force =    -0.00000000    0.00000000   45.30697234
     atom    4 type  3   force =     0.00000000   -0.00000000  -60.23558004
     The core correction contribution to forces
     atom    1 type  1   force =    -0.00000000    0.00000000    0.00788965
     atom    2 type  2   force =     0.00000000   -0.00000000    0.00467141
     atom    3 type  2   force =     0.00000000   -0.00000000   -0.00156130
     atom    4 type  3   force =    -0.00000000   -0.00000000   -0.04240255
     The Hubbard contrib.    to forces
     atom    1 type  1   force =     0.00000000    0.00000000    0.00000000
     atom    2 type  2   force =     0.00000000    0.00000000    0.00000000
     atom    3 type  2   force =     0.00000000    0.00000000    0.00000000
     atom    4 type  3   force =     0.00000000    0.00000000    0.00000000
     The SCF correction term to forces
     atom    1 type  1   force =    -0.00000000   -0.00000000    0.00041543
     atom    2 type  2   force =    -0.00000000   -0.00000000    0.00056924
     atom    3 type  2   force =     0.00000000    0.00000000   -0.00000287
     atom    4 type  3   force =    -0.00000000   -0.00000000    0.00033373

     Total force =     0.098394     Total SCF correction =     0.000780


     Computing stress (Cartesian axis) and pressure


     negative rho (up, down):  2.365E-04 2.364E-04
          total   stress  (Ry/bohr**3)                   (kbar)     P=      -13.57
   0.00000747   0.00000000   0.00000000            1.10        0.00        0.00
   0.00000000   0.00000747   0.00000000            0.00        1.10        0.00
   0.00000000   0.00000000  -0.00029166            0.00        0.00      -42.91

     Energy error            =      9.5E-03 Ry
     Gradient error          =      8.1E-02 Ry/Bohr

     number of scf cycles    =  10
     number of bfgs steps    =   9

     energy             old  =    -658.6047776118 Ry
     energy             new  =    -658.6142410036 Ry

     CASE: energy            _new < energy            _old

     new trust radius        =       0.0807572324 bohr
     new conv_thr            =       0.0000008087 Ry


ATOMIC_POSITIONS (crystal)
Mo            0.0000000000        0.0000000000        0.5020915489
S             0.6666666667        0.3333333333        0.6113134420
S             0.6666666667        0.3333333333        0.4195638585
Co            0.0000000000        0.0000000000        0.6646672144



     Writing config-only to output data dir ./tmp/relax.save/
     NEW-OLD atomic charge density approx. for the potential

     negative rho (up, down):  2.390E-04 2.390E-04
     Generating pointlists ...

     total cpu time spent up to now is      299.6 secs

     Self-consistent Calculation

     iteration #  1     ecut=    80.00 Ry     beta= 0.70
     Davidson diagonalization with overlap
     ethr =  1.00E-06,  avg # of iterations = 10.2

     negative rho (up, down):  2.422E-04 2.421E-04

     total cpu time spent up to now is      303.4 secs

     total energy              =    -658.61651974 Ry
     estimated scf accuracy    <       0.00230529 Ry

     total magnetization       =     0.00 Bohr mag/cell
     absolute magnetization    =     0.01 Bohr mag/cell

     iteration #  2     ecut=    80.00 Ry     beta= 0.70
     Davidson diagonalization with overlap
     ethr =  6.59E-06,  avg # of iterations =  7.1

     negative rho (up, down):  2.422E-04 2.420E-04

     total cpu time spent up to now is      305.8 secs

     total energy              =    -658.60651744 Ry
     estimated scf accuracy    <       0.22887595 Ry

     total magnetization       =     0.00 Bohr mag/cell
     absolute magnetization    =     0.01 Bohr mag/cell

     iteration #  3     ecut=    80.00 Ry     beta= 0.70
     Davidson diagonalization with overlap
     ethr =  6.59E-06,  avg # of iterations =  7.7

     negative rho (up, down):  2.414E-04 2.413E-04

     total cpu time spent up to now is      308.2 secs

     total energy              =    -658.61665103 Ry
     estimated scf accuracy    <       0.01348899 Ry

     total magnetization       =     0.00 Bohr mag/cell
     absolute magnetization    =     0.00 Bohr mag/cell

     iteration #  4     ecut=    80.00 Ry     beta= 0.70
     Davidson diagonalization with overlap
     ethr =  6.59E-06,  avg # of iterations =  2.6

     negative rho (up, down):  2.416E-04 2.415E-04

     total cpu time spent up to now is      310.1 secs

     total energy              =    -658.61743916 Ry
     estimated scf accuracy    <       0.00142433 Ry

     total magnetization       =     0.00 Bohr mag/cell
     absolute magnetization    =     0.00 Bohr mag/cell

     iteration #  5     ecut=    80.00 Ry     beta= 0.70
     Davidson diagonalization with overlap
     ethr =  4.07E-06,  avg # of iterations =  2.1

     negative rho (up, down):  2.426E-04 2.425E-04

     total cpu time spent up to now is      311.9 secs

     total energy              =    -658.61762146 Ry
     estimated scf accuracy    <       0.00031755 Ry

     total magnetization       =     0.00 Bohr mag/cell
     absolute magnetization    =     0.00 Bohr mag/cell

     iteration #  6     ecut=    80.00 Ry     beta= 0.70
     Davidson diagonalization with overlap
     ethr =  9.07E-07,  avg # of iterations =  1.4

     negative rho (up, down):  2.429E-04 2.429E-04

     total cpu time spent up to now is      313.6 secs

     total energy              =    -658.61765380 Ry
     estimated scf accuracy    <       0.00001531 Ry

     total magnetization       =     0.00 Bohr mag/cell
     absolute magnetization    =     0.00 Bohr mag/cell

     iteration #  7     ecut=    80.00 Ry     beta= 0.70
     Davidson diagonalization with overlap
     ethr =  4.37E-08,  avg # of iterations =  4.2

     negative rho (up, down):  2.431E-04 2.430E-04

     total cpu time spent up to now is      315.7 secs

     total energy              =    -658.61765821 Ry
     estimated scf accuracy    <       0.00001287 Ry

     total magnetization       =     0.00 Bohr mag/cell
     absolute magnetization    =     0.00 Bohr mag/cell

     iteration #  8     ecut=    80.00 Ry     beta= 0.70
     Davidson diagonalization with overlap
     ethr =  3.68E-08,  avg # of iterations =  2.0

     negative rho (up, down):  2.432E-04 2.431E-04
 
     Magnetic moment per site  (integrated on atomic sphere of radius R)
     atom   1 (R=0.308)  charge= 10.6194  magn=  0.0002
     atom   2 (R=0.259)  charge=  2.8906  magn= -0.0000
     atom   3 (R=0.259)  charge=  2.8547  magn=  0.0000
     atom   4 (R=0.259)  charge=  6.6224  magn=  0.0019

     total cpu time spent up to now is      317.5 secs

     End of self-consistent calculation

 ------ SPIN UP ------------


          k = 0.0000 0.0000 0.0000 ( 12991 PWs)   bands (ev):

   -59.5258 -33.7530 -33.4087 -33.4087 -14.1937 -12.3674  -5.4199  -3.2513
    -2.6756  -2.6756  -1.1428  -1.1428   0.2954   0.2954   0.5974   1.2765
     1.2765   1.3845   3.2097   4.1482   4.1483   4.4599

          k = 0.0000 0.0722 0.0000 ( 12961 PWs)   bands (ev):

   -59.5243 -33.7504 -33.4232 -33.4120 -14.1441 -12.3274  -5.3633  -3.2209
    -2.7946  -2.6807  -1.2644  -1.1273   0.2063   0.2983   0.6290   1.1973
     1.2620   1.4118   3.3380   3.9612   4.1458   4.3412

          k = 0.0000 0.1443 0.0000 ( 12937 PWs)   bands (ev):

   -59.5201 -33.7428 -33.4644 -33.4215 -13.9992 -12.2109  -5.2033  -3.2541
    -3.0248  -2.6997  -1.5599  -1.0965   0.0277   0.3185   0.5895   1.0559
     1.2547   1.4627   3.5480   3.6248   4.0522   4.1986

          k = 0.0000 0.2165 0.0000 ( 12929 PWs)   bands (ev):

   -59.5139 -33.7316 -33.5255 -33.4358 -13.7708 -12.0290  -4.9728  -3.7205
    -3.0181  -2.7397  -1.8686  -1.0850  -0.1616   0.3763   0.4484   0.8516
     1.3296   1.5397   3.1545   3.7831   3.8656   4.4111

          k = 0.0000 0.2887 0.0000 ( 12917 PWs)   bands (ev):

   -59.5065 -33.7184 -33.5967 -33.4525 -13.4801 -11.8006  -4.7536  -4.2981
    -3.1278  -2.8026  -2.0216  -1.1117  -0.3064   0.3140   0.4743   0.5999
     1.5355   1.5846   2.8967   3.6568   3.9128   4.8520

          k = 0.0000 0.3608 0.0000 ( 12903 PWs)   bands (ev):

   -59.4991 -33.7064 -33.6660 -33.4691 -13.1601 -11.5530  -5.0247  -4.4725
    -3.3380  -2.8800  -2.0674  -1.1653  -0.3872   0.2395   0.4744   0.6010
     1.5390   1.8405   2.8312   3.4863   4.0595   4.8856

          k = 0.0000 0.4330 0.0000 ( 12893 PWs)   bands (ev):

   -59.4929 -33.7297 -33.6906 -33.4832 -12.8586 -11.3231  -5.5545  -4.4815
    -3.4417  -2.9546  -2.1555  -1.2225  -0.4284   0.2664   0.5651   0.7396
     1.4094   2.1227   2.9104   3.4277   4.0702   4.8332

          k = 0.0000 0.5052 0.0000 ( 12870 PWs)   bands (ev):

   -59.4887 -33.7679 -33.6842 -33.4926 -12.6371 -11.1558  -5.9361  -4.5815
    -3.4268  -3.0081  -2.2704  -1.2643  -0.4474   0.4293   0.7253   0.8564
     1.2145   2.2582   3.0481   3.5176   3.9275   4.7343

          k = 0.0000-0.5774 0.0000 ( 12854 PWs)   bands (ev):

   -59.4872 -33.7815 -33.6816 -33.4959 -12.5546 -11.0938  -6.0752  -4.6338
    -3.4067  -3.0274  -2.3230  -1.2795  -0.4533   0.5696   0.8103   0.9040
     1.0607   2.2819   3.1270   3.5976   3.8342   4.6765

          k = 0.0625 0.1083 0.0000 ( 12951 PWs)   bands (ev):

   -59.5215 -33.7453 -33.4506 -33.4189 -14.0469 -12.2491  -5.2548  -3.2026
    -2.9843  -2.6974  -1.4665  -1.1124   0.0874   0.2996   0.6181   1.1098
     1.2326   1.4536   3.5480   3.6788   4.0786   4.1876

          k = 0.0625 0.1804 0.0000 ( 12937 PWs)   bands (ev):

   -59.5163 -33.7359 -33.5007 -33.4319 -13.8601 -12.0998  -5.0576  -3.5071
    -3.0269  -2.7408  -1.7587  -1.1123  -0.0750   0.3112   0.5322   0.9396
     1.2794   1.5246   3.2848   3.7566   3.9632   4.1551

          k = 0.0625 0.2526 0.0000 ( 12935 PWs)   bands (ev):

   -59.5095 -33.7236 -33.5653 -33.4489 -13.6000 -11.8941  -4.8202  -4.0391
    -3.0585  -2.8234  -1.9716  -1.1378  -0.2349   0.3060   0.4681   0.7081
     1.4325   1.6002   2.9566   3.6526   3.9240   4.5237

          k = 0.0625 0.3248 0.0000 ( 12927 PWs)   bands (ev):

   -59.5021 -33.7107 -33.6342 -33.4673 -13.2933 -11.6548  -4.7799  -4.4536
    -3.2508  -2.9245  -2.0327  -1.1821  -0.3465   0.2443   0.4444   0.5972
     1.5812   1.7174   2.7899   3.4981   4.0362   4.8099

          k = 0.0625 0.3969 0.0000 ( 12903 PWs)   bands (ev):

   -59.4953 -33.7069 -33.6890 -33.4842 -12.9800 -11.4137  -5.2856  -4.4201
    -3.4360  -3.0125  -2.0873  -1.2471  -0.3984   0.2352   0.4340   0.7117
     1.4844   1.9948   2.7912   3.4432   4.1503   4.7939

          k = 0.0625 0.4691 0.0000 ( 12863 PWs)   bands (ev):

   -59.4900 -33.7482 -33.6864 -33.4971 -12.7145 -11.2118  -5.7413  -4.4912
    -3.4706  -3.0764  -2.1961  -1.3202  -0.4111   0.3214   0.5876   0.8496
     1.3063   2.1684   2.9048   3.5318   4.1020   4.6602

          k = 0.0625 0.5413 0.0000 ( 12844 PWs)   bands (ev):

   -59.4872 -33.7737 -33.6816 -33.5040 -12.5591 -11.0944  -6.0015  -4.5846
    -3.4436  -3.1063  -2.2890  -1.3659  -0.4122   0.4755   0.7363   0.9458
     1.1105   2.2106   3.0735   3.6214   3.9506   4.5761

          k = 0.1250 0.2165 0.0000 ( 12933 PWs)   bands (ev):

   -59.5105 -33.7255 -33.5522 -33.4497 -13.6413 -11.9262  -4.8472  -3.9179
    -3.0447  -2.8559  -1.9375  -1.1768  -0.1873   0.2624   0.5048   0.7471
     1.4023   1.6122   2.9738   3.6377   3.9519   4.3547

          k = 0.1250 0.2887 0.0000 ( 12935 PWs)   bands (ev):

   -59.5037 -33.7134 -33.6112 -33.4717 -13.3639 -11.7083  -4.6807  -4.3446
    -3.1871  -3.0384  -2.0050  -1.2374  -0.3036   0.1974   0.4610   0.6227
     1.5838   1.7017   2.7265   3.4862   3.9937   4.6811

          k = 0.1250 0.3608 0.0000 ( 12903 PWs)   bands (ev):

   -59.4969 -33.7025 -33.6680 -33.4941 -13.0604 -11.4724  -5.0203  -4.3376
    -3.4480  -3.1667  -2.0444  -1.2932  -0.3709   0.1657   0.3563   0.7158
     1.5440   1.9159   2.6240   3.4791   4.1133   4.7715

          k = 0.1250 0.4330 0.0000 ( 12881 PWs)   bands (ev):

   -59.4911 -33.7216 -33.6873 -33.5133 -12.7767 -11.2541  -5.4736  -4.3340
    -3.5856  -3.2499  -2.1338  -1.3983  -0.3680   0.2487   0.3703   0.8708
     1.3674   2.0807   2.6698   3.6081   4.2544   4.5713

          k = 0.1250 0.5052 0.0000 ( 12858 PWs)   bands (ev):

   -59.4872 -33.7527 -33.6815 -33.5260 -12.5698 -11.0959  -5.8010  -4.4503
    -3.5817  -3.2800  -2.2378  -1.5112  -0.3404   0.3455   0.5431   0.9604
     1.2223   2.1047   2.8871   3.6699   4.1790   4.4547

          k = 0.1250 0.5774 0.0000 ( 12856 PWs)   bands (ev):

   -59.4858 -33.7639 -33.6792 -33.5305 -12.4933 -11.0375  -5.9207  -4.5102
    -3.5717  -3.2784  -2.2849  -1.5568  -0.3295   0.4149   0.6397   0.9147
     1.2214   2.0874   3.0909   3.5653   4.0688   4.4897

          k = 0.1875 0.3248 0.0000 ( 12901 PWs)   bands (ev):

   -59.4974 -33.7028 -33.6559 -33.5005 -13.0885 -11.4927  -4.9005  -4.2936
    -3.4727  -3.2395  -2.0398  -1.3047  -0.3627   0.0998   0.3662   0.7194
     1.5634   1.9062   2.5416   3.5013   4.0483   4.7782

          k = 0.1875 0.3969 0.0000 ( 12903 PWs)   bands (ev):

   -59.4916 -33.7026 -33.6849 -33.5297 -12.8112 -11.2766  -5.2526  -4.1694
    -3.7654  -3.3742  -2.1419  -1.3889  -0.3544   0.1127   0.3076   0.8872
     1.3913   2.0946   2.4650   3.6493   4.1706   4.6877

          k = 0.1875 0.4691 0.0000 ( 12858 PWs)   bands (ev):

   -59.4872 -33.7267 -33.6812 -33.5533 -12.5805 -11.0974  -5.5476  -4.2862
    -3.8117  -3.4375  -2.2643  -1.5362  -0.2971   0.2655   0.3243   0.9541
     1.3030   2.1107   2.6260   3.6726   4.1544   4.6925

          k = 0.1875 0.5413 0.0000 ( 12848 PWs)   bands (ev):

   -59.4848 -33.7412 -33.6773 -33.5664 -12.4475 -10.9942  -5.7170  -4.4245
    -3.8017  -3.4256  -2.3433  -1.6526  -0.2571   0.3393   0.4699   0.8318
     1.4128   2.0312   2.9664   3.4832   3.9354   4.8435

          k = 0.2500 0.4330 0.0000 ( 12885 PWs)   bands (ev):

   -59.4872 -33.7134 -33.6807 -33.5674 -12.5849 -11.0979  -5.4132  -4.2201
    -3.9172  -3.5188  -2.3018  -1.5042  -0.2860   0.1757   0.2878   0.9493
     1.3268   2.1893   2.4564   3.6504   4.1337   4.8442

          k = 0.2500 0.5052 0.0000 ( 12870 PWs)   bands (ev):

   -59.4842 -33.7168 -33.6761 -33.5983 -12.4245 -10.9708  -5.4930  -4.4835
    -3.8627  -3.5696  -2.4348  -1.6303  -0.2223   0.3047   0.3270   0.7863
     1.5160   2.0931   2.7310   3.4809   3.8420   5.2281

          k = 0.2500 0.5774 0.0000 ( 12844 PWs)   bands (ev):

   -59.4832 -33.7162 -33.6744 -33.6109 -12.3662 -10.9245  -5.5128  -4.5919
    -3.8662  -3.5555  -2.4850  -1.6869  -0.1995   0.3351   0.4055   0.6880
     1.6500   2.0096   3.0197   3.2454   3.6913   5.3591

          k = 0.3125 0.5413 0.0000 ( 12856 PWs)   bands (ev):

   -59.4826 -33.6954 -33.6733 -33.6387 -12.3378 -10.8997  -5.3479  -4.7805
    -3.7917  -3.6595  -2.5486  -1.6848  -0.1809   0.3390   0.3780   0.6326
     1.7559   2.0248   2.9168   3.2789   3.5591   5.6862

 ------ SPIN DOWN ----------


          k = 0.0000 0.0000 0.0000 ( 12991 PWs)   bands (ev):

   -59.5255 -33.7528 -33.4084 -33.4084 -14.1937 -12.3674  -5.4197  -3.2511
    -2.6744  -2.6744  -1.1426  -1.1426   0.2971   0.2971   0.5981   1.2776
     1.2776   1.3851   3.2100   4.1496   4.1496   4.4603

          k = 0.0000 0.0722 0.0000 ( 12961 PWs)   bands (ev):

   -59.5241 -33.7502 -33.4229 -33.4117 -14.1441 -12.3273  -5.3631  -3.2207
    -2.7935  -2.6796  -1.2642  -1.1271   0.2078   0.3000   0.6300   1.1982
     1.2631   1.4125   3.3382   3.9627   4.1473   4.3415

          k = 0.0000 0.1443 0.0000 ( 12937 PWs)   bands (ev):

   -59.5199 -33.7426 -33.4641 -33.4212 -13.9992 -12.2108  -5.2031  -3.2536
    -3.0243  -2.6986  -1.5597  -1.0964   0.0290   0.3202   0.5910   1.0564
     1.2558   1.4635   3.5493   3.6254   4.0538   4.1989

          k = 0.0000 0.2165 0.0000 ( 12929 PWs)   bands (ev):

   -59.5137 -33.7313 -33.5252 -33.4355 -13.7708 -12.0289  -4.9725  -3.7199
    -3.0179  -2.7386  -1.8684  -1.0848  -0.1603   0.3781   0.4501   0.8519
     1.3307   1.5407   3.1561   3.7833   3.8672   4.4115

          k = 0.0000 0.2887 0.0000 ( 12917 PWs)   bands (ev):

   -59.5063 -33.7182 -33.5964 -33.4522 -13.4800 -11.8005  -4.7533  -4.2977
    -3.1277  -2.8017  -2.0215  -1.1115  -0.3052   0.3157   0.4762   0.6003
     1.5367   1.5858   2.8981   3.6583   3.9130   4.8524

          k = 0.0000 0.3608 0.0000 ( 12903 PWs)   bands (ev):

   -59.4989 -33.7061 -33.6657 -33.4688 -13.1600 -11.5529  -5.0244  -4.4723
    -3.3379  -2.8792  -2.0672  -1.1650  -0.3861   0.2411   0.4750   0.6029
     1.5405   1.8418   2.8323   3.4876   4.0597   4.8859

          k = 0.0000 0.4330 0.0000 ( 12893 PWs)   bands (ev):

   -59.4926 -33.7294 -33.6904 -33.4829 -12.8586 -11.3230  -5.5543  -4.4813
    -3.4415  -2.9538  -2.1553  -1.2222  -0.4275   0.2683   0.5658   0.7415
     1.4111   2.1244   2.9113   3.4288   4.0704   4.8336

          k = 0.0000 0.5052 0.0000 ( 12870 PWs)   bands (ev):

   -59.4884 -33.7676 -33.6840 -33.4923 -12.6370 -11.1557  -5.9359  -4.5813
    -3.4266  -3.0073  -2.2702  -1.2640  -0.4466   0.4316   0.7260   0.8584
     1.2163   2.2603   3.0487   3.5182   3.9278   4.7347

          k = 0.0000-0.5774 0.0000 ( 12854 PWs)   bands (ev):

   -59.4870 -33.7812 -33.6814 -33.4956 -12.5545 -11.0937  -6.0751  -4.6336
    -3.4064  -3.0267  -2.3228  -1.2792  -0.4526   0.5720   0.8108   0.9059
     1.0625   2.2842   3.1275   3.5981   3.8346   4.6769

          k = 0.0625 0.1083 0.0000 ( 12951 PWs)   bands (ev):

   -59.5212 -33.7451 -33.4503 -33.4186 -14.0468 -12.2490  -5.2546  -3.2023
    -2.9836  -2.6963  -1.4664  -1.1123   0.0888   0.3013   0.6194   1.1104
     1.2336   1.4544   3.5482   3.6805   4.0802   4.1880

          k = 0.0625 0.1804 0.0000 ( 12937 PWs)   bands (ev):

   -59.5160 -33.7357 -33.5004 -33.4316 -13.8600 -12.0997  -5.0574  -3.5064
    -3.0267  -2.7398  -1.7585  -1.1122  -0.0737   0.3129   0.5338   0.9401
     1.2804   1.5255   3.2863   3.7572   3.9644   4.1556

          k = 0.0625 0.2526 0.0000 ( 12935 PWs)   bands (ev):

   -59.5092 -33.7234 -33.5650 -33.4486 -13.6000 -11.8940  -4.8199  -4.0387
    -3.0583  -2.8225  -1.9714  -1.1376  -0.2336   0.3077   0.4697   0.7086
     1.4336   1.6012   2.9582   3.6539   3.9244   4.5241

          k = 0.0625 0.3248 0.0000 ( 12927 PWs)   bands (ev):

   -59.5019 -33.7105 -33.6339 -33.4670 -13.2933 -11.6547  -4.7795  -4.4534
    -3.2506  -2.9236  -2.0325  -1.1819  -0.3452   0.2458   0.4454   0.5988
     1.5826   1.7186   2.7913   3.4994   4.0365   4.8104

          k = 0.0625 0.3969 0.0000 ( 12903 PWs)   bands (ev):

   -59.4950 -33.7066 -33.6888 -33.4839 -12.9799 -11.4136  -5.2854  -4.4198
    -3.4359  -3.0117  -2.0871  -1.2469  -0.3973   0.2369   0.4349   0.7135
     1.4860   1.9963   2.7924   3.4442   4.1506   4.7943

          k = 0.0625 0.4691 0.0000 ( 12863 PWs)   bands (ev):

   -59.4898 -33.7479 -33.6861 -33.4968 -12.7144 -11.2118  -5.7412  -4.4910
    -3.4704  -3.0757  -2.1959  -1.3200  -0.4101   0.3235   0.5883   0.8515
     1.3082   2.1704   2.9056   3.5324   4.1023   4.6606

          k = 0.0625 0.5413 0.0000 ( 12844 PWs)   bands (ev):

   -59.4870 -33.7734 -33.6814 -33.5037 -12.5590 -11.0943  -6.0014  -4.5844
    -3.4434  -3.1056  -2.2888  -1.3657  -0.4113   0.4779   0.7369   0.9476
     1.1124   2.2129   3.0740   3.6219   3.9509   4.5764

          k = 0.1250 0.2165 0.0000 ( 12933 PWs)   bands (ev):

   -59.5103 -33.7253 -33.5519 -33.4494 -13.6412 -11.9261  -4.8469  -3.9174
    -3.0445  -2.8551  -1.9373  -1.1766  -0.1860   0.2641   0.5064   0.7478
     1.4034   1.6132   2.9754   3.6389   3.9521   4.3552

          k = 0.1250 0.2887 0.0000 ( 12935 PWs)   bands (ev):

   -59.5035 -33.7131 -33.6109 -33.4714 -13.3638 -11.7082  -4.6804  -4.3444
    -3.1869  -3.0376  -2.0048  -1.2372  -0.3022   0.1987   0.4622   0.6241
     1.5852   1.7028   2.7281   3.4874   3.9939   4.6816

          k = 0.1250 0.3608 0.0000 ( 12903 PWs)   bands (ev):

   -59.4966 -33.7023 -33.6677 -33.4939 -13.0603 -11.4723  -5.0200  -4.3374
    -3.4478  -3.1661  -2.0442  -1.2930  -0.3695   0.1666   0.3578   0.7176
     1.5456   1.9172   2.6255   3.4799   4.1135   4.7719

          k = 0.1250 0.4330 0.0000 ( 12881 PWs)   bands (ev):

   -59.4908 -33.7213 -33.6871 -33.5130 -12.7766 -11.2540  -5.4734  -4.3338
    -3.5853  -3.2494  -2.1337  -1.3981  -0.3667   0.2501   0.3714   0.8727
     1.3693   2.0824   2.6710   3.6087   4.2547   4.5717

          k = 0.1250 0.5052 0.0000 ( 12858 PWs)   bands (ev):

   -59.4870 -33.7524 -33.6813 -33.5257 -12.5698 -11.0959  -5.8008  -4.4501
    -3.5814  -3.2795  -2.2376  -1.5110  -0.3391   0.3476   0.5437   0.9622
     1.2244   2.1068   2.8879   3.6704   4.1795   4.4549

          k = 0.1250 0.5774 0.0000 ( 12856 PWs)   bands (ev):

   -59.4856 -33.7636 -33.6790 -33.5302 -12.4932 -11.0375  -5.9206  -4.5100
    -3.5714  -3.2780  -2.2847  -1.5567  -0.3282   0.4172   0.6402   0.9165
     1.2235   2.0896   3.0914   3.5658   4.0694   4.4899

          k = 0.1875 0.3248 0.0000 ( 12901 PWs)   bands (ev):

   -59.4972 -33.7026 -33.6556 -33.5002 -13.0884 -11.4926  -4.9002  -4.2934
    -3.4725  -3.2390  -2.0397  -1.3045  -0.3612   0.1005   0.3677   0.7212
     1.5651   1.9073   2.5433   3.5022   4.0485   4.7787

          k = 0.1875 0.3969 0.0000 ( 12903 PWs)   bands (ev):

   -59.4914 -33.7023 -33.6847 -33.5294 -12.8112 -11.2765  -5.2524  -4.1691
    -3.7651  -3.3739  -2.1418  -1.3887  -0.3528   0.1133   0.3094   0.8891
     1.3932   2.0960   2.4665   3.6499   4.1708   4.6882

          k = 0.1875 0.4691 0.0000 ( 12858 PWs)   bands (ev):

   -59.4870 -33.7265 -33.6809 -33.5530 -12.5804 -11.0973  -5.5474  -4.2859
    -3.8114  -3.4373  -2.2641  -1.5360  -0.2954   0.2666   0.3256   0.9559
     1.3051   2.1127   2.6269   3.6731   4.1548   4.6928

          k = 0.1875 0.5413 0.0000 ( 12848 PWs)   bands (ev):

   -59.4846 -33.7409 -33.6771 -33.5661 -12.4474 -10.9941  -5.7169  -4.4243
    -3.8014  -3.4253  -2.3432  -1.6525  -0.2553   0.3413   0.4703   0.8335
     1.4149   2.0334   2.9670   3.4836   3.9359   4.8437

          k = 0.2500 0.4330 0.0000 ( 12885 PWs)   bands (ev):

   -59.4870 -33.7131 -33.6805 -33.5671 -12.5848 -11.0979  -5.4131  -4.2199
    -3.9169  -3.5186  -2.3016  -1.5041  -0.2841   0.1761   0.2896   0.9511
     1.3289   2.1913   2.4571   3.6509   4.1341   4.8444

          k = 0.2500 0.5052 0.0000 ( 12870 PWs)   bands (ev):

   -59.4840 -33.7165 -33.6759 -33.5980 -12.4244 -10.9707  -5.4928  -4.4833
    -3.8624  -3.5694  -2.4347  -1.6302  -0.2202   0.3065   0.3275   0.7880
     1.5182   2.0953   2.7316   3.4813   3.8426   5.2282

          k = 0.2500 0.5774 0.0000 ( 12844 PWs)   bands (ev):

   -59.4829 -33.7159 -33.6742 -33.6107 -12.3661 -10.9244  -5.5126  -4.5917
    -3.8659  -3.5553  -2.4849  -1.6867  -0.1973   0.3371   0.4059   0.6897
     1.6520   2.0119   3.0202   3.2458   3.6918   5.3593

          k = 0.3125 0.5413 0.0000 ( 12856 PWs)   bands (ev):

   -59.4824 -33.6951 -33.6731 -33.6385 -12.3377 -10.8996  -5.3476  -4.7804
    -3.7914  -3.6594  -2.5486  -1.6847  -0.1785   0.3409   0.3785   0.6342
     1.7578   2.0273   2.9171   3.2793   3.5598   5.6864

     the Fermi energy is     1.9667 ev

!    total energy              =    -658.61765997 Ry
     total all-electron energy =    -12481.791551 Ry
     estimated scf accuracy    <       0.00000022 Ry
     smearing contrib. (-TS)   =      -0.00576875 Ry
     internal energy E=F+TS    =    -658.61189122 Ry

     The total energy is F=E-TS. E is the sum of the following terms:
     one-electron contribution =   -1349.49841402 Ry
     hartree contribution      =     688.24519020 Ry
     xc contribution           =     -62.47617617 Ry
     ewald contribution        =     471.26269230 Ry
     one-center paw contrib.   =    -406.14518353 Ry

     total magnetization       =     0.00 Bohr mag/cell
     absolute magnetization    =     0.00 Bohr mag/cell

     convergence has been achieved in   8 iterations

     negative rho (up, down):  2.432E-04 2.431E-04

     Forces acting on atoms (cartesian axes, Ry/au):

     atom    1 type  1   force =     0.00000000    0.00000000    0.07718022
     atom    2 type  2   force =     0.00000000    0.00000000   -0.03109909
     atom    3 type  2   force =     0.00000000    0.00000000   -0.01395898
     atom    4 type  3   force =     0.00000000    0.00000000   -0.03212215
     The non-local contrib.  to forces
     atom    1 type  1   force =     0.00000000   -0.00000000   -0.11811047
     atom    2 type  2   force =     0.00000000    0.00000000   -0.11033649
     atom    3 type  2   force =     0.00000000    0.00000000    0.25503424
     atom    4 type  3   force =     0.00000000    0.00000000    0.03875497
     The ionic contribution  to forces
     atom    1 type  1   force =     0.00000000   -0.00000000  -34.81042039
     atom    2 type  2   force =    -0.00000000    0.00000000   20.32058872
     atom    3 type  2   force =    -0.00000000    0.00000000  -45.66807109
     atom    4 type  3   force =     0.00000000   -0.00000000   60.15790276
     The local contribution  to forces
     atom    1 type  1   force =     0.00000000   -0.00000000   34.99863900
     atom    2 type  2   force =    -0.00000000    0.00000000  -20.24620451
     atom    3 type  2   force =    -0.00000000    0.00000000   45.40111821
     atom    4 type  3   force =     0.00000000   -0.00000000  -60.18529995
     The core correction contribution to forces
     atom    1 type  1   force =     0.00000000    0.00000000    0.00793648
     atom    2 type  2   force =     0.00000000   -0.00000000    0.00567108
     atom    3 type  2   force =     0.00000000   -0.00000000   -0.00157683
     atom    4 type  3   force =    -0.00000000    0.00000000   -0.04275073
     The Hubbard contrib.    to forces
     atom    1 type  1   force =     0.00000000    0.00000000    0.00000000
     atom    2 type  2   force =     0.00000000    0.00000000    0.00000000
     atom    3 type  2   force =     0.00000000    0.00000000    0.00000000
     atom    4 type  3   force =     0.00000000    0.00000000    0.00000000
     The SCF correction term to forces
     atom    1 type  1   force =     0.00000000   -0.00000000   -0.00091011
     atom    2 type  2   force =    -0.00000000   -0.00000000   -0.00086361
     atom    3 type  2   force =     0.00000000   -0.00000000   -0.00050922
     atom    4 type  3   force =     0.00000000    0.00000000   -0.00077492

     Total force =     0.090281     Total SCF correction =     0.001560


     Computing stress (Cartesian axis) and pressure


     negative rho (up, down):  2.432E-04 2.431E-04
          total   stress  (Ry/bohr**3)                   (kbar)     P=       -5.48
   0.00006376   0.00000000   0.00000000            9.38        0.00        0.00
   0.00000000   0.00006376  -0.00000000            0.00        9.38       -0.00
   0.00000000   0.00000000  -0.00023924            0.00        0.00      -35.19

     Energy error            =      3.4E-03 Ry
     Gradient error          =      7.7E-02 Ry/Bohr

     number of scf cycles    =  11
     number of bfgs steps    =  10

     energy             old  =    -658.6142410036 Ry
     energy             new  =    -658.6176599731 Ry

     CASE: energy            _new < energy            _old

     new trust radius        =       0.0745492830 bohr
     new conv_thr            =       0.0000003419 Ry


ATOMIC_POSITIONS (crystal)
Mo            0.0000000000        0.0000000000        0.5029849916
S             0.6666666667        0.3333333333        0.6121585207
S             0.6666666667        0.3333333333        0.4199940992
Co            0.0000000000        0.0000000000        0.6624984523



     Writing config-only to output data dir ./tmp/relax.save/
     NEW-OLD atomic charge density approx. for the potential

     negative rho (up, down):  2.451E-04 2.451E-04
     Generating pointlists ...

     total cpu time spent up to now is      320.6 secs

     Self-consistent Calculation

     iteration #  1     ecut=    80.00 Ry     beta= 0.70
     Davidson diagonalization with overlap
     ethr =  1.00E-06,  avg # of iterations =  9.7

     negative rho (up, down):  2.491E-04 2.491E-04

     total cpu time spent up to now is      324.3 secs

     total energy              =    -658.61860264 Ry
     estimated scf accuracy    <       0.00270775 Ry

     total magnetization       =     0.00 Bohr mag/cell
     absolute magnetization    =     0.00 Bohr mag/cell

     iteration #  2     ecut=    80.00 Ry     beta= 0.70
     Davidson diagonalization with overlap
     ethr =  7.74E-06,  avg # of iterations =  7.8

     negative rho (up, down):  2.491E-04 2.490E-04

     total cpu time spent up to now is      326.8 secs

     total energy              =    -658.60577278 Ry
     estimated scf accuracy    <       0.29542897 Ry

     total magnetization       =     0.00 Bohr mag/cell
     absolute magnetization    =     0.00 Bohr mag/cell

     iteration #  3     ecut=    80.00 Ry     beta= 0.70
     Davidson diagonalization with overlap
     ethr =  7.74E-06,  avg # of iterations =  8.2

     negative rho (up, down):  2.484E-04 2.483E-04

     total cpu time spent up to now is      329.2 secs

     total energy              =    -658.61888578 Ry
     estimated scf accuracy    <       0.01645261 Ry

     total magnetization       =     0.00 Bohr mag/cell
     absolute magnetization    =     0.00 Bohr mag/cell

     iteration #  4     ecut=    80.00 Ry     beta= 0.70
     Davidson diagonalization with overlap
     ethr =  7.74E-06,  avg # of iterations =  2.9

     negative rho (up, down):  2.486E-04 2.486E-04

     total cpu time spent up to now is      331.2 secs

     total energy              =    -658.61997728 Ry
     estimated scf accuracy    <       0.00121868 Ry

     total magnetization       =     0.00 Bohr mag/cell
     absolute magnetization    =     0.00 Bohr mag/cell

     iteration #  5     ecut=    80.00 Ry     beta= 0.70
     Davidson diagonalization with overlap
     ethr =  3.48E-06,  avg # of iterations =  2.2

     negative rho (up, down):  2.500E-04 2.499E-04

     total cpu time spent up to now is      333.0 secs

     total energy              =    -658.62015538 Ry
     estimated scf accuracy    <       0.00022446 Ry

     total magnetization       =     0.00 Bohr mag/cell
     absolute magnetization    =     0.00 Bohr mag/cell

     iteration #  6     ecut=    80.00 Ry     beta= 0.70
     Davidson diagonalization with overlap
     ethr =  6.41E-07,  avg # of iterations =  1.9

     negative rho (up, down):  2.503E-04 2.503E-04

     total cpu time spent up to now is      334.7 secs

     total energy              =    -658.62017305 Ry
     estimated scf accuracy    <       0.00002953 Ry

     total magnetization       =     0.00 Bohr mag/cell
     absolute magnetization    =     0.00 Bohr mag/cell

     iteration #  7     ecut=    80.00 Ry     beta= 0.70
     Davidson diagonalization with overlap
     ethr =  8.44E-08,  avg # of iterations =  2.4

     negative rho (up, down):  2.505E-04 2.505E-04

     total cpu time spent up to now is      336.6 secs

     total energy              =    -658.62017914 Ry
     estimated scf accuracy    <       0.00000527 Ry

     total magnetization       =     0.00 Bohr mag/cell
     absolute magnetization    =     0.00 Bohr mag/cell

     iteration #  8     ecut=    80.00 Ry     beta= 0.70
     Davidson diagonalization with overlap
     ethr =  1.51E-08,  avg # of iterations =  2.8

     negative rho (up, down):  2.506E-04 2.506E-04
 
     Magnetic moment per site  (integrated on atomic sphere of radius R)
     atom   1 (R=0.308)  charge= 10.6164  magn=  0.0001
     atom   2 (R=0.259)  charge=  2.9054  magn=  0.0000
     atom   3 (R=0.259)  charge=  2.8520  magn=  0.0000
     atom   4 (R=0.259)  charge=  6.6370  magn=  0.0008

     total cpu time spent up to now is      338.4 secs

     End of self-consistent calculation

 ------ SPIN UP ------------


          k = 0.0000 0.0000 0.0000 ( 12991 PWs)   bands (ev):

   -59.5186 -33.7468 -33.3989 -33.3989 -14.2724 -12.3532  -5.4620  -3.2517
    -2.9341  -2.9341  -1.0992  -1.0992   0.1738   0.1738   0.5404   1.2980
     1.2980   1.3615   3.4447   4.2565   4.2571   4.4611

          k = 0.0000 0.0722 0.0000 ( 12961 PWs)   bands (ev):

   -59.5171 -33.7442 -33.4134 -33.4022 -14.2231 -12.3128  -5.4061  -3.2273
    -3.0375  -2.9356  -1.2216  -1.0833   0.0891   0.1760   0.5734   1.2121
     1.2826   1.3925   3.5632   4.0698   4.2625   4.3311

          k = 0.0000 0.1443 0.0000 ( 12937 PWs)   bands (ev):

   -59.5130 -33.7367 -33.4545 -33.4118 -14.0791 -12.1954  -5.2483  -3.4169
    -3.0841  -2.9432  -1.5202  -1.0529  -0.0875   0.1938   0.5515   1.0551
     1.2744   1.4418   3.6469   3.7929   4.1422   4.2119

          k = 0.0000 0.2165 0.0000 ( 12929 PWs)   bands (ev):

   -59.5068 -33.7254 -33.5154 -33.4259 -13.8522 -12.0120  -5.0221  -3.8952
    -3.0221  -2.9646  -1.8384  -1.0446  -0.2782   0.2466   0.4227   0.8402
     1.3504   1.5158   3.2235   3.8434   3.9238   4.5095

          k = 0.0000 0.2887 0.0000 ( 12917 PWs)   bands (ev):

   -59.4994 -33.7123 -33.5865 -33.4426 -13.5639 -11.7816  -4.8270  -4.4195
    -3.1135  -3.0045  -2.0083  -1.0772  -0.4274   0.2865   0.3379   0.5890
     1.5533   1.5591   2.9463   3.6881   3.9309   4.8436

          k = 0.0000 0.3608 0.0000 ( 12903 PWs)   bands (ev):

   -59.4920 -33.7000 -33.6558 -33.4592 -13.2472 -11.5316  -5.1522  -4.5041
    -3.3213  -3.0590  -2.0647  -1.1364  -0.5051   0.1903   0.4586   0.4726
     1.4857   1.8649   2.8716   3.4947   4.0572   4.8667

          k = 0.0000 0.4330 0.0000 ( 12893 PWs)   bands (ev):

   -59.4858 -33.7190 -33.6846 -33.4733 -12.9495 -11.2994  -5.6578  -4.4997
    -3.4369  -3.1150  -2.1560  -1.1973  -0.5212   0.1696   0.5760   0.5937
     1.3203   2.1399   2.9462   3.4241   4.0629   4.8077

          k = 0.0000 0.5052 0.0000 ( 12870 PWs)   bands (ev):

   -59.4816 -33.7569 -33.6783 -33.4826 -12.7312 -11.1305  -6.0222  -4.5914
    -3.4322  -3.1567  -2.2712  -1.2410  -0.5103   0.2899   0.7098   0.7401
     1.0920   2.2590   3.0778   3.5178   3.9358   4.7034

          k = 0.0000-0.5774 0.0000 ( 12854 PWs)   bands (ev):

   -59.4801 -33.7705 -33.6757 -33.4859 -12.6501 -11.0679  -6.1552  -4.6418
    -3.4150  -3.1721  -2.3236  -1.2567  -0.5051   0.4208   0.7574   0.8084
     0.9354   2.2742   3.1525   3.6028   3.8548   4.6426

          k = 0.0625 0.1083 0.0000 ( 12951 PWs)   bands (ev):

   -59.5143 -33.7391 -33.4408 -33.4091 -14.1264 -12.2339  -5.2990  -3.3121
    -3.1094  -2.9410  -1.4255  -1.0687  -0.0285   0.1769   0.5737   1.1172
     1.2456   1.4370   3.7503   3.7820   4.1447   4.2044

          k = 0.0625 0.1804 0.0000 ( 12937 PWs)   bands (ev):

   -59.5092 -33.7297 -33.4906 -33.4221 -13.9409 -12.0834  -5.1049  -3.6917
    -3.0585  -2.9520  -1.7234  -1.0714  -0.1919   0.1898   0.4986   0.9339
     1.2909   1.5065   3.3638   3.8576   4.0095   4.2331

          k = 0.0625 0.2526 0.0000 ( 12935 PWs)   bands (ev):

   -59.5024 -33.7175 -33.5551 -33.4390 -13.6828 -11.8759  -4.8763  -4.1934
    -3.0710  -3.0080  -1.9508  -1.1024  -0.3555   0.2154   0.4047   0.6919
     1.4458   1.5805   3.0125   3.6981   3.9379   4.6048

          k = 0.0625 0.3248 0.0000 ( 12927 PWs)   bands (ev):

   -59.4950 -33.7045 -33.6238 -33.4574 -13.3790 -11.6344  -4.9068  -4.5051
    -3.2340  -3.1025  -2.0261  -1.1528  -0.4707   0.1971   0.3872   0.5181
     1.5363   1.7437   2.8314   3.5170   4.0354   4.8138

          k = 0.0625 0.3969 0.0000 ( 12903 PWs)   bands (ev):

   -59.4882 -33.6982 -33.6810 -33.4742 -13.0692 -11.3910  -5.4003  -4.4461
    -3.4293  -3.1661  -2.0863  -1.2231  -0.5114   0.1671   0.4196   0.5844
     1.4059   2.0213   2.8260   3.4474   4.1396   4.7722

          k = 0.0625 0.4691 0.0000 ( 12863 PWs)   bands (ev):

   -59.4830 -33.7374 -33.6804 -33.4871 -12.8075 -11.1871  -5.8347  -4.5047
    -3.4801  -3.2128  -2.1965  -1.2976  -0.4974   0.2078   0.5917   0.7111
     1.1912   2.1816   2.9362   3.5353   4.0931   4.6337

          k = 0.0625 0.5413 0.0000 ( 12844 PWs)   bands (ev):

   -59.4801 -33.7628 -33.6757 -33.4940 -12.6545 -11.0686  -6.0831  -4.5933
    -3.4629  -3.2322  -2.2893  -1.3427  -0.4785   0.3374   0.7457   0.7930
     0.9779   2.2087   3.1021   3.6340   3.9509   4.5465

          k = 0.1250 0.2165 0.0000 ( 12933 PWs)   bands (ev):

   -59.5034 -33.7193 -33.5420 -33.4398 -13.7237 -11.9084  -4.9004  -4.0827
    -3.1052  -2.9930  -1.9129  -1.1422  -0.3088   0.1603   0.4553   0.7320
     1.4109   1.5952   3.0332   3.6906   3.9465   4.4573

          k = 0.1250 0.2887 0.0000 ( 12935 PWs)   bands (ev):

   -59.4966 -33.7072 -33.6009 -33.4618 -13.4488 -11.6885  -4.7782  -4.4412
    -3.2138  -3.1642  -1.9933  -1.2099  -0.4317   0.1314   0.4181   0.5511
     1.5520   1.7164   2.7690   3.5118   3.9863   4.7185

          k = 0.1250 0.3608 0.0000 ( 12903 PWs)   bands (ev):

   -59.4898 -33.6960 -33.6579 -33.4842 -13.1486 -11.4504  -5.1447  -4.3764
    -3.4663  -3.2748  -2.0372  -1.2743  -0.5002   0.1279   0.3222   0.5911
     1.4639   1.9516   2.6570   3.4908   4.1013   4.7592

          k = 0.1250 0.4330 0.0000 ( 12881 PWs)   bands (ev):

   -59.4840 -33.7109 -33.6812 -33.5032 -12.8688 -11.2299  -5.5762  -4.3564
    -3.6212  -3.3375  -2.1277  -1.3843  -0.4866   0.1765   0.3644   0.7285
     1.2518   2.1083   2.6999   3.6164   4.2351   4.5501

          k = 0.1250 0.5052 0.0000 ( 12858 PWs)   bands (ev):

   -59.4801 -33.7418 -33.6756 -33.5160 -12.6652 -11.0702  -5.8873  -4.4630
    -3.6362  -3.3498  -2.2332  -1.4940  -0.4425   0.2348   0.5585   0.8034
     1.0857   2.1124   2.9200   3.6831   4.1461   4.4456

          k = 0.1250 0.5774 0.0000 ( 12856 PWs)   bands (ev):

   -59.4788 -33.7530 -33.6733 -33.5204 -12.5900 -11.0113  -6.0010  -4.5211
    -3.6329  -3.3412  -2.2811  -1.5370  -0.4231   0.2942   0.6591   0.7457
     1.0809   2.0860   3.1217   3.5864   4.0335   4.4834

          k = 0.1875 0.3248 0.0000 ( 12901 PWs)   bands (ev):

   -59.4903 -33.6965 -33.6457 -33.4905 -13.1764 -11.4709  -5.0280  -4.3420
    -3.5225  -3.3030  -2.0285  -1.2889  -0.4975   0.0684   0.3280   0.5957
     1.4823   1.9435   2.5747   3.5155   4.0363   4.7723

          k = 0.1875 0.3969 0.0000 ( 12903 PWs)   bands (ev):

   -59.4846 -33.6932 -33.6776 -33.5196 -12.9029 -11.2528  -5.3631  -4.2112
    -3.8139  -3.4168  -2.1276  -1.3856  -0.4907   0.1009   0.2575   0.7442
     1.2742   2.1302   2.4924   3.6578   4.1557   4.6682

          k = 0.1875 0.4691 0.0000 ( 12858 PWs)   bands (ev):

   -59.4801 -33.7160 -33.6752 -33.5431 -12.6758 -11.0718  -5.6410  -4.3165
    -3.8710  -3.4655  -2.2508  -1.5337  -0.4336   0.1978   0.3257   0.7971
     1.1680   2.1201   2.6612   3.6747   4.1331   4.6790

          k = 0.1875 0.5413 0.0000 ( 12848 PWs)   bands (ev):

   -59.4777 -33.7304 -33.6714 -33.5563 -12.5451 -10.9676  -5.7999  -4.4524
    -3.8627  -3.4483  -2.3325  -1.6449  -0.3890   0.2412   0.4924   0.6620
     1.2758   2.0250   2.9983   3.4917   3.9058   4.8387

          k = 0.2500 0.4330 0.0000 ( 12885 PWs)   bands (ev):

   -59.4801 -33.7028 -33.6747 -33.5572 -12.6801 -11.0724  -5.5112  -4.2794
    -3.9506  -3.5337  -2.2858  -1.5086  -0.4347   0.1747   0.2337   0.7929
     1.1940   2.1902   2.4987   3.6471   4.1209   4.8286

          k = 0.2500 0.5052 0.0000 ( 12870 PWs)   bands (ev):

   -59.4772 -33.7060 -33.6702 -33.5881 -12.5226 -10.9442  -5.5815  -4.5402
    -3.8935  -3.5732  -2.4227  -1.6320  -0.3814   0.2248   0.3506   0.6190
     1.3898   2.0721   2.7647   3.4744   3.8301   5.2158

          k = 0.2500 0.5774 0.0000 ( 12844 PWs)   bands (ev):

   -59.4761 -33.7054 -33.6685 -33.6007 -12.4655 -10.8974  -5.5976  -4.6474
    -3.8927  -3.5589  -2.4755  -1.6860  -0.3607   0.2517   0.4329   0.5133
     1.5292   1.9801   3.0495   3.2399   3.6764   5.3530

          k = 0.3125 0.5413 0.0000 ( 12856 PWs)   bands (ev):

   -59.4756 -33.6846 -33.6674 -33.6284 -12.4377 -10.8725  -5.4397  -4.8350
    -3.8190  -3.6462  -2.5420  -1.6862  -0.3542   0.2628   0.4049   0.4586
     1.6524   1.9723   2.9472   3.2588   3.5605   5.6691

 ------ SPIN DOWN ----------


          k = 0.0000 0.0000 0.0000 ( 12991 PWs)   bands (ev):

   -59.5185 -33.7468 -33.3988 -33.3988 -14.2724 -12.3531  -5.4619  -3.2516
    -2.9337  -2.9337  -1.0991  -1.0991   0.1745   0.1745   0.5407   1.2984
     1.2984   1.3617   3.4448   4.2570   4.2575   4.4613

          k = 0.0000 0.0722 0.0000 ( 12961 PWs)   bands (ev):

   -59.5171 -33.7441 -33.4133 -33.4021 -14.2231 -12.3127  -5.4060  -3.2272
    -3.0371  -2.9351  -1.2215  -1.0832   0.0898   0.1768   0.5737   1.2125
     1.2831   1.3927   3.5633   4.0705   4.2629   4.3312

          k = 0.0000 0.1443 0.0000 ( 12937 PWs)   bands (ev):

   -59.5129 -33.7366 -33.4543 -33.4116 -14.0791 -12.1953  -5.2482  -3.4166
    -3.0840  -2.9427  -1.5201  -1.0528  -0.0869   0.1945   0.5521   1.0554
     1.2748   1.4421   3.6476   3.7930   4.1429   4.2120

          k = 0.0000 0.2165 0.0000 ( 12929 PWs)   bands (ev):

   -59.5067 -33.7253 -33.5153 -33.4258 -13.8522 -12.0120  -5.0220  -3.8949
    -3.0220  -2.9642  -1.8383  -1.0446  -0.2777   0.2473   0.4234   0.8403
     1.3509   1.5162   3.2242   3.8435   3.9245   4.5097

          k = 0.0000 0.2887 0.0000 ( 12917 PWs)   bands (ev):

   -59.4993 -33.7122 -33.5863 -33.4425 -13.5639 -11.7815  -4.8268  -4.4194
    -3.1134  -3.0041  -2.0082  -1.0771  -0.4269   0.2872   0.3387   0.5891
     1.5538   1.5596   2.9469   3.6887   3.9310   4.8438

          k = 0.0000 0.3608 0.0000 ( 12903 PWs)   bands (ev):

   -59.4919 -33.6999 -33.6557 -33.4591 -13.2471 -11.5316  -5.1520  -4.5040
    -3.3213  -3.0586  -2.0646  -1.1363  -0.5046   0.1910   0.4594   0.4728
     1.4863   1.8655   2.8721   3.4953   4.0572   4.8669

          k = 0.0000 0.4330 0.0000 ( 12893 PWs)   bands (ev):

   -59.4857 -33.7189 -33.6845 -33.4731 -12.9495 -11.2994  -5.6577  -4.4996
    -3.4369  -3.1146  -2.1560  -1.1972  -0.5208   0.1704   0.5762   0.5946
     1.3211   2.1407   2.9466   3.4246   4.0630   4.8078

          k = 0.0000 0.5052 0.0000 ( 12870 PWs)   bands (ev):

   -59.4815 -33.7568 -33.6782 -33.4825 -12.7312 -11.1304  -6.0221  -4.5913
    -3.4321  -3.1564  -2.2711  -1.2409  -0.5100   0.2908   0.7106   0.7404
     1.0927   2.2600   3.0781   3.5181   3.9359   4.7035

          k = 0.0000-0.5774 0.0000 ( 12854 PWs)   bands (ev):

   -59.4800 -33.7704 -33.6757 -33.4858 -12.6501 -11.0678  -6.1551  -4.6417
    -3.4149  -3.1718  -2.3235  -1.2566  -0.5048   0.4218   0.7582   0.8088
     0.9360   2.2751   3.1527   3.6030   3.8550   4.6427

          k = 0.0625 0.1083 0.0000 ( 12951 PWs)   bands (ev):

   -59.5142 -33.7390 -33.4406 -33.4090 -14.1264 -12.2338  -5.2989  -3.3117
    -3.1092  -2.9405  -1.4254  -1.0686  -0.0279   0.1777   0.5743   1.1175
     1.2460   1.4373   3.7504   3.7827   4.1450   4.2050

          k = 0.0625 0.1804 0.0000 ( 12937 PWs)   bands (ev):

   -59.5091 -33.7296 -33.4905 -33.4219 -13.9409 -12.0833  -5.1048  -3.6914
    -3.0584  -2.9516  -1.7233  -1.0714  -0.1913   0.1906   0.4993   0.9341
     1.2913   1.5069   3.3645   3.8579   4.0100   4.2333

          k = 0.0625 0.2526 0.0000 ( 12935 PWs)   bands (ev):

   -59.5023 -33.7174 -33.5550 -33.4389 -13.6828 -11.8759  -4.8761  -4.1932
    -3.0709  -3.0077  -1.9507  -1.1024  -0.3549   0.2162   0.4054   0.6921
     1.4463   1.5809   3.0132   3.6987   3.9380   4.6050

          k = 0.0625 0.3248 0.0000 ( 12927 PWs)   bands (ev):

   -59.4949 -33.7045 -33.6237 -33.4572 -13.3790 -11.6344  -4.9066  -4.5050
    -3.2339  -3.1022  -2.0260  -1.1528  -0.4701   0.1978   0.3878   0.5185
     1.5368   1.7442   2.8320   3.5176   4.0355   4.8140

          k = 0.0625 0.3969 0.0000 ( 12903 PWs)   bands (ev):

   -59.4881 -33.6981 -33.6809 -33.4741 -13.0692 -11.3910  -5.4002  -4.4460
    -3.4293  -3.1658  -2.0862  -1.2230  -0.5109   0.1678   0.4200   0.5851
     1.4066   2.0219   2.8265   3.4478   4.1398   4.7723

          k = 0.0625 0.4691 0.0000 ( 12863 PWs)   bands (ev):

   -59.4829 -33.7372 -33.6803 -33.4870 -12.8074 -11.1871  -5.8347  -4.5046
    -3.4800  -3.2125  -2.1964  -1.2975  -0.4969   0.2087   0.5921   0.7118
     1.1920   2.1825   2.9366   3.5356   4.0932   4.6339

          k = 0.0625 0.5413 0.0000 ( 12844 PWs)   bands (ev):

   -59.4800 -33.7626 -33.6756 -33.4939 -12.6545 -11.0685  -6.0831  -4.5932
    -3.4628  -3.2319  -2.2892  -1.3425  -0.4781   0.3383   0.7460   0.7938
     0.9786   2.2097   3.1023   3.6342   3.9511   4.5466

          k = 0.1250 0.2165 0.0000 ( 12933 PWs)   bands (ev):

   -59.5033 -33.7193 -33.5419 -33.4397 -13.7237 -11.9083  -4.9002  -4.0825
    -3.1049  -2.9928  -1.9128  -1.1421  -0.3082   0.1610   0.4559   0.7322
     1.4114   1.5956   3.0339   3.6912   3.9466   4.4575

          k = 0.1250 0.2887 0.0000 ( 12935 PWs)   bands (ev):

   -59.4965 -33.7071 -33.6008 -33.4617 -13.4488 -11.6885  -4.7780  -4.4411
    -3.2135  -3.1641  -1.9933  -1.2098  -0.4311   0.1320   0.4187   0.5515
     1.5526   1.7168   2.7697   3.5123   3.9864   4.7187

          k = 0.1250 0.3608 0.0000 ( 12903 PWs)   bands (ev):

   -59.4897 -33.6959 -33.6578 -33.4840 -13.1486 -11.4503  -5.1445  -4.3763
    -3.4661  -3.2746  -2.0371  -1.2742  -0.4996   0.1284   0.3228   0.5918
     1.4646   1.9521   2.6577   3.4911   4.1014   4.7594

          k = 0.1250 0.4330 0.0000 ( 12881 PWs)   bands (ev):

   -59.4839 -33.7108 -33.6811 -33.5031 -12.8687 -11.2299  -5.5762  -4.3563
    -3.6211  -3.3373  -2.1276  -1.3842  -0.4860   0.1772   0.3647   0.7293
     1.2526   2.1091   2.7004   3.6167   4.2352   4.5502

          k = 0.1250 0.5052 0.0000 ( 12858 PWs)   bands (ev):

   -59.4800 -33.7417 -33.6755 -33.5158 -12.6652 -11.0702  -5.8872  -4.4629
    -3.6360  -3.3496  -2.2331  -1.4939  -0.4419   0.2356   0.5587   0.8041
     1.0866   2.1133   2.9203   3.6833   4.1463   4.4457

          k = 0.1250 0.5774 0.0000 ( 12856 PWs)   bands (ev):

   -59.4787 -33.7529 -33.6732 -33.5203 -12.5899 -11.0112  -6.0010  -4.5210
    -3.6327  -3.3411  -2.2810  -1.5369  -0.4226   0.2952   0.6593   0.7464
     1.0818   2.0870   3.1219   3.5866   4.0337   4.4835

          k = 0.1875 0.3248 0.0000 ( 12901 PWs)   bands (ev):

   -59.4902 -33.6964 -33.6456 -33.4904 -13.1764 -11.4708  -5.0279  -4.3419
    -3.5223  -3.3029  -2.0284  -1.2888  -0.4969   0.0688   0.3286   0.5964
     1.4831   1.9440   2.5754   3.5158   4.0364   4.7725

          k = 0.1875 0.3969 0.0000 ( 12903 PWs)   bands (ev):

   -59.4845 -33.6931 -33.6775 -33.5195 -12.9028 -11.2527  -5.3630  -4.2111
    -3.8137  -3.4167  -2.1276  -1.3855  -0.4901   0.1012   0.2582   0.7450
     1.2750   2.1308   2.4930   3.6580   4.1558   4.6684

          k = 0.1875 0.4691 0.0000 ( 12858 PWs)   bands (ev):

   -59.4800 -33.7158 -33.6751 -33.5430 -12.6757 -11.0718  -5.6409  -4.3164
    -3.8709  -3.4653  -2.2507  -1.5336  -0.4329   0.1985   0.3260   0.7978
     1.1689   2.1210   2.6616   3.6749   4.1332   4.6791

          k = 0.1875 0.5413 0.0000 ( 12848 PWs)   bands (ev):

   -59.4776 -33.7302 -33.6713 -33.5561 -12.5451 -10.9676  -5.7998  -4.4523
    -3.8625  -3.4482  -2.3324  -1.6448  -0.3882   0.2421   0.4926   0.6627
     1.2767   2.0259   2.9985   3.4919   3.9060   4.8388

          k = 0.2500 0.4330 0.0000 ( 12885 PWs)   bands (ev):

   -59.4800 -33.7027 -33.6746 -33.5571 -12.6801 -11.0724  -5.5111  -4.2792
    -3.9504  -3.5336  -2.2857  -1.5085  -0.4340   0.1750   0.2343   0.7936
     1.1949   2.1911   2.4990   3.6473   4.1210   4.8287

          k = 0.2500 0.5052 0.0000 ( 12870 PWs)   bands (ev):

   -59.4771 -33.7059 -33.6701 -33.5879 -12.5226 -10.9441  -5.5814  -4.5401
    -3.8933  -3.5731  -2.4227  -1.6320  -0.3805   0.2256   0.3508   0.6197
     1.3907   2.0731   2.7649   3.4746   3.8303   5.2159

          k = 0.2500 0.5774 0.0000 ( 12844 PWs)   bands (ev):

   -59.4760 -33.7053 -33.6684 -33.6005 -12.4654 -10.8974  -5.5975  -4.6473
    -3.8926  -3.5588  -2.4755  -1.6860  -0.3598   0.2525   0.4331   0.5140
     1.5301   1.9810   3.0497   3.2401   3.6766   5.3530

          k = 0.3125 0.5413 0.0000 ( 12856 PWs)   bands (ev):

   -59.4755 -33.6845 -33.6673 -33.6283 -12.4376 -10.8725  -5.4396  -4.8349
    -3.8188  -3.6461  -2.5419  -1.6861  -0.3531   0.2636   0.4051   0.4592
     1.6533   1.9733   2.9473   3.2590   3.5608   5.6691

     the Fermi energy is     1.9718 ev

!    total energy              =    -658.62018002 Ry
     total all-electron energy =    -12481.794071 Ry
     estimated scf accuracy    <       0.00000005 Ry
     smearing contrib. (-TS)   =      -0.00552743 Ry
     internal energy E=F+TS    =    -658.61465259 Ry

     The total energy is F=E-TS. E is the sum of the following terms:
     one-electron contribution =   -1360.65836366 Ry
     hartree contribution      =     693.79320239 Ry
     xc contribution           =     -62.50432453 Ry
     ewald contribution        =     476.90388203 Ry
     one-center paw contrib.   =    -406.14904882 Ry

     total magnetization       =     0.00 Bohr mag/cell
     absolute magnetization    =     0.00 Bohr mag/cell

     convergence has been achieved in   8 iterations

     negative rho (up, down):  2.506E-04 2.506E-04

     Forces acting on atoms (cartesian axes, Ry/au):

     atom    1 type  1   force =     0.00000000    0.00000000    0.06768930
     atom    2 type  2   force =     0.00000000    0.00000000   -0.04823972
     atom    3 type  2   force =     0.00000000    0.00000000   -0.00864686
     atom    4 type  3   force =     0.00000000    0.00000000   -0.01080273
     The non-local contrib.  to forces
     atom    1 type  1   force =     0.00000000    0.00000000   -0.11480929
     atom    2 type  2   force =     0.00000000    0.00000000   -0.12898522
     atom    3 type  2   force =     0.00000000    0.00000000    0.25719365
     atom    4 type  3   force =     0.00000000    0.00000000    0.03645362
     The ionic contribution  to forces
     atom    1 type  1   force =     0.00000000   -0.00000000  -35.15403182
     atom    2 type  2   force =    -0.00000000    0.00000000   20.73494669
     atom    3 type  2   force =    -0.00000000    0.00000000  -45.78728111
     atom    4 type  3   force =     0.00000000   -0.00000000   60.20636624
     The local contribution  to forces
     atom    1 type  1   force =    -0.00000000   -0.00000000   35.32891094
     atom    2 type  2   force =    -0.00000000    0.00000000  -20.66051664
     atom    3 type  2   force =    -0.00000000    0.00000000   45.52312227
     atom    4 type  3   force =     0.00000000   -0.00000000  -60.21145357
     The core correction contribution to forces
     atom    1 type  1   force =    -0.00000000    0.00000000    0.00767771
     atom    2 type  2   force =     0.00000000   -0.00000000    0.00636129
     atom    3 type  2   force =     0.00000000   -0.00000000   -0.00169098
     atom    4 type  3   force =     0.00000000   -0.00000000   -0.04243193
     The Hubbard contrib.    to forces
     atom    1 type  1   force =     0.00000000    0.00000000    0.00000000
     atom    2 type  2   force =     0.00000000    0.00000000    0.00000000
     atom    3 type  2   force =     0.00000000    0.00000000    0.00000000
     atom    4 type  3   force =     0.00000000    0.00000000    0.00000000
     The SCF correction term to forces
     atom    1 type  1   force =     0.00000000    0.00000000   -0.00008928
     atom    2 type  2   force =    -0.00000000    0.00000000   -0.00007686
     atom    3 type  2   force =    -0.00000000   -0.00000000   -0.00002172
     atom    4 type  3   force =    -0.00000000   -0.00000000    0.00023188

     Total force =     0.084264     Total SCF correction =     0.000261


     Computing stress (Cartesian axis) and pressure


     negative rho (up, down):  2.506E-04 2.506E-04
          total   stress  (Ry/bohr**3)                   (kbar)     P=       -0.03
   0.00010266   0.00000000   0.00000000           15.10        0.00        0.00
   0.00000000   0.00010266  -0.00000000            0.00       15.10       -0.00
   0.00000000   0.00000000  -0.00020589            0.00        0.00      -30.29

     Energy error            =      2.5E-03 Ry
     Gradient error          =      6.8E-02 Ry/Bohr

     number of scf cycles    =  12
     number of bfgs steps    =  11

     energy             old  =    -658.6176599731 Ry
     energy             new  =    -658.6201800152 Ry

     CASE: energy            _new < energy            _old

     new trust radius        =       0.0546575140 bohr
     new conv_thr            =       0.0000002520 Ry


ATOMIC_POSITIONS (crystal)
Mo            0.0000000000        0.0000000000        0.5043681629
S             0.6666666667        0.3333333333        0.6118685997
S             0.6666666667        0.3333333333        0.4204909264
Co            0.0000000000        0.0000000000        0.6609083748



     Writing config-only to output data dir ./tmp/relax.save/
     NEW-OLD atomic charge density approx. for the potential

     negative rho (up, down):  2.465E-04 2.465E-04
     Generating pointlists ...

     total cpu time spent up to now is      341.6 secs

     Self-consistent Calculation

     iteration #  1     ecut=    80.00 Ry     beta= 0.70
     Davidson diagonalization with overlap
     ethr =  1.00E-06,  avg # of iterations =  9.6

     negative rho (up, down):  2.506E-04 2.506E-04

     total cpu time spent up to now is      345.3 secs

     total energy              =    -658.62281014 Ry
     estimated scf accuracy    <       0.00161597 Ry

     total magnetization       =     0.00 Bohr mag/cell
     absolute magnetization    =     0.00 Bohr mag/cell

     iteration #  2     ecut=    80.00 Ry     beta= 0.70
     Davidson diagonalization with overlap
     ethr =  4.62E-06,  avg # of iterations =  4.1

     negative rho (up, down):  2.503E-04 2.503E-04

     total cpu time spent up to now is      347.6 secs

     total energy              =    -658.62047759 Ry
     estimated scf accuracy    <       0.02859885 Ry

     total magnetization       =     0.00 Bohr mag/cell
     absolute magnetization    =     0.00 Bohr mag/cell

     iteration #  3     ecut=    80.00 Ry     beta= 0.70
     Davidson diagonalization with overlap
     ethr =  4.62E-06,  avg # of iterations =  5.2

     negative rho (up, down):  2.501E-04 2.501E-04

     total cpu time spent up to now is      349.8 secs

     total energy              =    -658.62183072 Ry
     estimated scf accuracy    <       0.04060756 Ry

     total magnetization       =     0.00 Bohr mag/cell
     absolute magnetization    =     0.00 Bohr mag/cell

     iteration #  4     ecut=    80.00 Ry     beta= 0.70
     Davidson diagonalization with overlap
     ethr =  4.62E-06,  avg # of iterations =  4.2

     negative rho (up, down):  2.505E-04 2.506E-04

     total cpu time spent up to now is      351.9 secs

     total energy              =    -658.62357452 Ry
     estimated scf accuracy    <       0.00093843 Ry

     total magnetization       =     0.00 Bohr mag/cell
     absolute magnetization    =     0.00 Bohr mag/cell

     iteration #  5     ecut=    80.00 Ry     beta= 0.70
     Davidson diagonalization with overlap
     ethr =  2.68E-06,  avg # of iterations =  2.1

     negative rho (up, down):  2.519E-04 2.520E-04

     total cpu time spent up to now is      353.6 secs

     total energy              =    -658.62370727 Ry
     estimated scf accuracy    <       0.00007366 Ry

     total magnetization       =     0.00 Bohr mag/cell
     absolute magnetization    =     0.00 Bohr mag/cell

     iteration #  6     ecut=    80.00 Ry     beta= 0.70
     Davidson diagonalization with overlap
     ethr =  2.10E-07,  avg # of iterations =  2.2

     negative rho (up, down):  2.523E-04 2.523E-04

     total cpu time spent up to now is      355.5 secs

     total energy              =    -658.62371708 Ry
     estimated scf accuracy    <       0.00001849 Ry

     total magnetization       =     0.00 Bohr mag/cell
     absolute magnetization    =     0.00 Bohr mag/cell

     iteration #  7     ecut=    80.00 Ry     beta= 0.70
     Davidson diagonalization with overlap
     ethr =  5.28E-08,  avg # of iterations =  2.5

     negative rho (up, down):  2.524E-04 2.524E-04

     total cpu time spent up to now is      357.3 secs

     total energy              =    -658.62372116 Ry
     estimated scf accuracy    <       0.00000310 Ry

     total magnetization       =     0.00 Bohr mag/cell
     absolute magnetization    =     0.00 Bohr mag/cell

     iteration #  8     ecut=    80.00 Ry     beta= 0.70
     Davidson diagonalization with overlap
     ethr =  8.85E-09,  avg # of iterations =  3.5

     negative rho (up, down):  2.525E-04 2.525E-04
 
     Magnetic moment per site  (integrated on atomic sphere of radius R)
     atom   1 (R=0.308)  charge= 10.6112  magn=  0.0000
     atom   2 (R=0.259)  charge=  2.9158  magn= -0.0000
     atom   3 (R=0.259)  charge=  2.8478  magn=  0.0000
     atom   4 (R=0.259)  charge=  6.6466  magn=  0.0004

     total cpu time spent up to now is      359.3 secs

     End of self-consistent calculation

 ------ SPIN UP ------------


          k = 0.0000 0.0000 0.0000 ( 12991 PWs)   bands (ev):

   -59.5344 -33.7655 -33.4111 -33.4111 -14.3322 -12.3412  -5.5033  -3.2158
    -3.0693  -3.0693  -1.0462  -1.0462   0.1070   0.1070   0.4437   1.2902
     1.2902   1.3413   3.6076   4.2807   4.2808   4.4518

          k = 0.0000 0.0722 0.0000 ( 12961 PWs)   bands (ev):

   -59.5329 -33.7628 -33.4256 -33.4145 -14.2830 -12.3008  -5.4476  -3.2275
    -3.1359  -3.0698  -1.1689  -1.0302   0.0161   0.1098   0.4881   1.2024
     1.2740   1.3748   3.7191   4.1293   4.2847   4.3264

          k = 0.0000 0.1443 0.0000 ( 12937 PWs)   bands (ev):

   -59.5288 -33.7553 -33.4665 -33.4239 -14.1394 -12.1830  -5.2902  -3.5297
    -3.0744  -3.0675  -1.4693  -1.0002  -0.1670   0.1295   0.4945   1.0278
     1.2637   1.4327   3.7203   3.8786   4.1955   4.2027

          k = 0.0000 0.2165 0.0000 ( 12929 PWs)   bands (ev):

   -59.5226 -33.7440 -33.5273 -33.4381 -13.9135 -11.9989  -5.0652  -4.0066
    -3.0910  -2.9991  -1.7952  -0.9939  -0.3598   0.1850   0.3942   0.7954
     1.3375   1.5137   3.2907   3.8377   3.9596   4.5744

          k = 0.0000 0.2887 0.0000 ( 12917 PWs)   bands (ev):

   -59.5153 -33.7307 -33.5983 -33.4547 -13.6267 -11.7671  -4.8802  -4.5120
    -3.1250  -3.0858  -1.9825  -1.0287  -0.5083   0.2646   0.2778   0.5500
     1.5445   1.5505   3.0085   3.7116   3.9091   4.8013

          k = 0.0000 0.3608 0.0000 ( 12903 PWs)   bands (ev):

   -59.5079 -33.7179 -33.6679 -33.4713 -13.3122 -11.5148  -5.2386  -4.5489
    -3.2985  -3.1733  -2.0538  -1.0887  -0.5832   0.1532   0.3980   0.4577
     1.4707   1.8475   2.9356   3.5087   4.0349   4.8248

          k = 0.0000 0.4330 0.0000 ( 12893 PWs)   bands (ev):

   -59.5017 -33.7303 -33.7031 -33.4853 -13.0173 -11.2798  -5.7377  -4.5291
    -3.4340  -3.2243  -2.1519  -1.1494  -0.5903   0.1219   0.5324   0.5709
     1.2847   2.1175   3.0135   3.4309   4.0540   4.7682

          k = 0.0000 0.5052 0.0000 ( 12870 PWs)   bands (ev):

   -59.4975 -33.7680 -33.6969 -33.4946 -12.8015 -11.1083  -6.0954  -4.6106
    -3.4476  -3.2627  -2.2682  -1.1927  -0.5657   0.2321   0.6485   0.7339
     1.0411   2.2320   3.1424   3.5177   3.9485   4.6689

          k = 0.0000-0.5774 0.0000 ( 12854 PWs)   bands (ev):

   -59.4960 -33.7815 -33.6944 -33.4979 -12.7214 -11.0446  -6.2258  -4.6583
    -3.4367  -3.2770  -2.3202  -1.2083  -0.5541   0.3601   0.6964   0.7732
     0.9052   2.2456   3.2127   3.5989   3.8790   4.6114

          k = 0.0625 0.1083 0.0000 ( 12951 PWs)   bands (ev):

   -59.5301 -33.7577 -33.4529 -33.4213 -14.1866 -12.2217  -5.3408  -3.4184
    -3.1188  -3.0544  -1.3738  -1.0161  -0.1065   0.1119   0.5073   1.0979
     1.2348   1.4252   3.8491   3.8999   4.0927   4.2519

          k = 0.0625 0.1804 0.0000 ( 12937 PWs)   bands (ev):

   -59.5250 -33.7483 -33.5026 -33.4342 -14.0017 -12.0706  -5.1474  -3.8061
    -3.1247  -2.9917  -1.6764  -1.0206  -0.2727   0.1277   0.4584   0.9008
     1.2746   1.5025   3.4359   3.8768   4.0099   4.3025

          k = 0.0625 0.2526 0.0000 ( 12935 PWs)   bands (ev):

   -59.5182 -33.7360 -33.5669 -33.4512 -13.7449 -11.8621  -4.9211  -4.2997
    -3.1611  -3.0127  -1.9180  -1.0530  -0.4366   0.1616   0.3732   0.6537
     1.4281   1.5800   3.0769   3.7248   3.9056   4.6373

          k = 0.0625 0.3248 0.0000 ( 12927 PWs)   bands (ev):

   -59.5109 -33.7228 -33.6357 -33.4694 -13.4430 -11.6187  -4.9880  -4.5646
    -3.2342  -3.1883  -2.0105  -1.1051  -0.5509   0.1599   0.3412   0.4876
     1.5208   1.7336   2.8927   3.5372   4.0005   4.7904

          k = 0.0625 0.3969 0.0000 ( 12903 PWs)   bands (ev):

   -59.5041 -33.7136 -33.6956 -33.4862 -13.1358 -11.3726  -5.4839  -4.4848
    -3.4288  -3.2598  -2.0798  -1.1790  -0.5852   0.1240   0.3964   0.5411
     1.3747   2.0084   2.8864   3.4629   4.1126   4.7393

          k = 0.0625 0.4691 0.0000 ( 12863 PWs)   bands (ev):

   -59.4988 -33.7484 -33.6991 -33.4991 -12.8768 -11.1659  -5.9111  -4.5287
    -3.5059  -3.2978  -2.1937  -1.2549  -0.5593   0.1579   0.5722   0.6658
     1.1416   2.1654   2.9950   3.5460   4.0885   4.5985

          k = 0.0625 0.5413 0.0000 ( 12844 PWs)   bands (ev):

   -59.4960 -33.7738 -33.6943 -33.5060 -12.7257 -11.0454  -6.1548  -4.6111
    -3.5071  -3.3088  -2.2874  -1.2989  -0.5303   0.2819   0.7074   0.7555
     0.9269   2.1887   3.1581   3.6441   3.9611   4.5116

          k = 0.1250 0.2165 0.0000 ( 12933 PWs)   bands (ev):

   -59.5192 -33.7379 -33.5539 -33.4519 -13.7856 -11.8947  -4.9440  -4.1928
    -3.2066  -2.9860  -1.8782  -1.0923  -0.3901   0.1032   0.4215   0.7015
     1.3888   1.5954   3.0998   3.7260   3.8873   4.5196

          k = 0.1250 0.2887 0.0000 ( 12935 PWs)   bands (ev):

   -59.5124 -33.7256 -33.6127 -33.4739 -13.5123 -11.6733  -4.8415  -4.5262
    -3.3215  -3.1366  -1.9752  -1.1606  -0.5138   0.0858   0.3800   0.5221
     1.5251   1.7173   2.8301   3.5363   3.9330   4.7304

          k = 0.1250 0.3608 0.0000 ( 12903 PWs)   bands (ev):

   -59.5056 -33.7139 -33.6700 -33.4962 -13.2145 -11.4328  -5.2299  -4.4289
    -3.5146  -3.3026  -2.0265  -1.2353  -0.5774   0.0922   0.2979   0.5458
     1.4263   1.9523   2.7125   3.5124   4.0512   4.7466

          k = 0.1250 0.4330 0.0000 ( 12881 PWs)   bands (ev):

   -59.4999 -33.7223 -33.6997 -33.5152 -12.9373 -11.2094  -5.6563  -4.3917
    -3.6780  -3.3715  -2.1201  -1.3557  -0.5545   0.1350   0.3577   0.6734
     1.1993   2.1087   2.7530   3.6322   4.1918   4.5419

          k = 0.1250 0.5052 0.0000 ( 12858 PWs)   bands (ev):

   -59.4960 -33.7529 -33.6942 -33.5279 -12.7362 -11.0472  -5.9616  -4.4862
    -3.7130  -3.3781  -2.2296  -1.4644  -0.5026   0.1895   0.5562   0.7397
     1.0271   2.1067   2.9732   3.6958   4.1426   4.4124

          k = 0.1250 0.5774 0.0000 ( 12856 PWs)   bands (ev):

   -59.4947 -33.7640 -33.6919 -33.5323 -12.6619 -10.9873  -6.0731  -4.5419
    -3.7149  -3.3680  -2.2794  -1.5052  -0.4796   0.2479   0.6398   0.6932
     1.0233   2.0766   3.1724   3.6110   4.0254   4.4517

          k = 0.1875 0.3248 0.0000 ( 12901 PWs)   bands (ev):

   -59.5062 -33.7146 -33.6576 -33.5025 -13.2420 -11.4535  -5.1126  -4.4042
    -3.5900  -3.3020  -2.0155  -1.2520  -0.5763   0.0377   0.3001   0.5508
     1.4400   1.9502   2.6297   3.5389   3.9790   4.7681

          k = 0.1875 0.3969 0.0000 ( 12903 PWs)   bands (ev):

   -59.5004 -33.7076 -33.6930 -33.5315 -12.9710 -11.2327  -5.4457  -4.2691
    -3.8709  -3.4217  -2.1126  -1.3718  -0.5606   0.0822   0.2370   0.6883
     1.2175   2.1380   2.5453   3.6719   4.1023   4.6711

          k = 0.1875 0.4691 0.0000 ( 12858 PWs)   bands (ev):

   -59.4960 -33.7271 -33.6938 -33.5549 -12.7466 -11.0490  -5.7190  -4.3592
    -3.9429  -3.4679  -2.2382  -1.5271  -0.5003   0.1621   0.3319   0.7310
     1.1076   2.1209   2.7153   3.6713   4.1239   4.6626

          k = 0.1875 0.5413 0.0000 ( 12848 PWs)   bands (ev):

   -59.4936 -33.7415 -33.6900 -33.5680 -12.6176 -10.9431  -5.8746  -4.4914
    -3.9353  -3.4530  -2.3251  -1.6347  -0.4546   0.2030   0.4998   0.5920
     1.2180   2.0197   3.0464   3.4979   3.9100   4.8116

          k = 0.2500 0.4330 0.0000 ( 12885 PWs)   bands (ev):

   -59.4960 -33.7141 -33.6932 -33.5690 -12.7508 -11.0497  -5.5914  -4.3474
    -4.0029  -3.5246  -2.2697  -1.5130  -0.5031   0.1575   0.2283   0.7267
     1.1332   2.1851   2.5599   3.6360   4.1155   4.8154

          k = 0.2500 0.5052 0.0000 ( 12870 PWs)   bands (ev):

   -59.4931 -33.7172 -33.6888 -33.5998 -12.5954 -10.9193  -5.6604  -4.6049
    -3.9460  -3.5600  -2.4123  -1.6388  -0.4529   0.1909   0.3687   0.5475
     1.3339   2.0644   2.8110   3.4552   3.8615   5.1836

          k = 0.2500 0.5774 0.0000 ( 12844 PWs)   bands (ev):

   -59.4920 -33.7166 -33.6871 -33.6123 -12.5390 -10.8718  -5.6762  -4.7107
    -3.9397  -3.5495  -2.4687  -1.6914  -0.4336   0.2187   0.4301   0.4617
     1.4773   1.9689   3.0869   3.2287   3.7119   5.3199

          k = 0.3125 0.5413 0.0000 ( 12856 PWs)   bands (ev):

   -59.4915 -33.6958 -33.6860 -33.6401 -12.5116 -10.8465  -5.5242  -4.8980
    -3.8734  -3.6184  -2.5372  -1.6969  -0.4302   0.2327   0.3725   0.4399
     1.6054   1.9557   2.9747   3.2260   3.6292   5.6201

 ------ SPIN DOWN ----------


          k = 0.0000 0.0000 0.0000 ( 12991 PWs)   bands (ev):

   -59.5344 -33.7655 -33.4111 -33.4111 -14.3322 -12.3412  -5.5033  -3.2158
    -3.0691  -3.0691  -1.0462  -1.0462   0.1074   0.1074   0.4438   1.2904
     1.2904   1.3414   3.6076   4.2808   4.2831   4.4520

          k = 0.0000 0.0722 0.0000 ( 12961 PWs)   bands (ev):

   -59.5329 -33.7628 -33.4255 -33.4144 -14.2830 -12.3007  -5.4475  -3.2274
    -3.1358  -3.0696  -1.1689  -1.0302   0.0164   0.1102   0.4883   1.2026
     1.2742   1.3749   3.7192   4.1295   4.2848   4.3267

          k = 0.0000 0.1443 0.0000 ( 12937 PWs)   bands (ev):

   -59.5288 -33.7552 -33.4665 -33.4239 -14.1394 -12.1830  -5.2902  -3.5295
    -3.0742  -3.0674  -1.4692  -1.0002  -0.1667   0.1298   0.4948   1.0279
     1.2639   1.4328   3.7206   3.8786   4.1958   4.2028

          k = 0.0000 0.2165 0.0000 ( 12929 PWs)   bands (ev):

   -59.5225 -33.7439 -33.5273 -33.4380 -13.9135 -11.9989  -5.0651  -4.0065
    -3.0909  -2.9990  -1.7951  -0.9939  -0.3595   0.1853   0.3945   0.7955
     1.3378   1.5139   3.2910   3.8377   3.9599   4.5745

          k = 0.0000 0.2887 0.0000 ( 12917 PWs)   bands (ev):

   -59.5152 -33.7307 -33.5982 -33.4547 -13.6267 -11.7670  -4.8801  -4.5119
    -3.1248  -3.0858  -1.9824  -1.0286  -0.5080   0.2649   0.2781   0.5500
     1.5447   1.5507   3.0088   3.7118   3.9092   4.8014

          k = 0.0000 0.3608 0.0000 ( 12903 PWs)   bands (ev):

   -59.5079 -33.7179 -33.6678 -33.4712 -13.3122 -11.5148  -5.2385  -4.5489
    -3.2985  -3.1732  -2.0538  -1.0886  -0.5829   0.1535   0.3983   0.4579
     1.4709   1.8477   2.9358   3.5089   4.0350   4.8248

          k = 0.0000 0.4330 0.0000 ( 12893 PWs)   bands (ev):

   -59.5016 -33.7302 -33.7031 -33.4852 -13.0173 -11.2798  -5.7376  -4.5290
    -3.4339  -3.2241  -2.1519  -1.1494  -0.5901   0.1223   0.5328   0.5711
     1.2850   2.1178   3.0137   3.4311   4.0541   4.7683

          k = 0.0000 0.5052 0.0000 ( 12870 PWs)   bands (ev):

   -59.4974 -33.7679 -33.6969 -33.4946 -12.8015 -11.1083  -6.0954  -4.6105
    -3.4475  -3.2626  -2.2682  -1.1927  -0.5656   0.2325   0.6489   0.7341
     1.0414   2.2324   3.1425   3.5179   3.9486   4.6690

          k = 0.0000-0.5774 0.0000 ( 12854 PWs)   bands (ev):

   -59.4960 -33.7814 -33.6943 -33.4978 -12.7214 -11.0446  -6.2258  -4.6583
    -3.4367  -3.2769  -2.3202  -1.2082  -0.5540   0.3606   0.6968   0.7734
     0.9055   2.2460   3.2127   3.5990   3.8791   4.6114

          k = 0.0625 0.1083 0.0000 ( 12951 PWs)   bands (ev):

   -59.5301 -33.7577 -33.4528 -33.4212 -14.1866 -12.2217  -5.3408  -3.4182
    -3.1187  -3.0543  -1.3738  -1.0160  -0.1063   0.1123   0.5076   1.0980
     1.2350   1.4253   3.8494   3.9000   4.0928   4.2521

          k = 0.0625 0.1804 0.0000 ( 12937 PWs)   bands (ev):

   -59.5249 -33.7483 -33.5026 -33.4342 -14.0017 -12.0706  -5.1473  -3.8060
    -3.1245  -2.9916  -1.6764  -1.0205  -0.2724   0.1280   0.4587   0.9009
     1.2748   1.5027   3.4362   3.8768   4.0101   4.3026

          k = 0.0625 0.2526 0.0000 ( 12935 PWs)   bands (ev):

   -59.5181 -33.7360 -33.5669 -33.4511 -13.7449 -11.8620  -4.9210  -4.2996
    -3.1610  -3.0127  -1.9180  -1.0530  -0.4364   0.1619   0.3735   0.6538
     1.4283   1.5802   3.0772   3.7250   3.9057   4.6374

          k = 0.0625 0.3248 0.0000 ( 12927 PWs)   bands (ev):

   -59.5108 -33.7228 -33.6356 -33.4694 -13.4430 -11.6187  -4.9879  -4.5645
    -3.2341  -3.1882  -2.0104  -1.1050  -0.5506   0.1602   0.3415   0.4878
     1.5210   1.7338   2.8929   3.5374   4.0005   4.7905

          k = 0.0625 0.3969 0.0000 ( 12903 PWs)   bands (ev):

   -59.5040 -33.7135 -33.6955 -33.4862 -13.1358 -11.3726  -5.4839  -4.4848
    -3.4288  -3.2597  -2.0798  -1.1790  -0.5850   0.1243   0.3966   0.5414
     1.3750   2.0087   2.8866   3.4631   4.1126   4.7394

          k = 0.0625 0.4691 0.0000 ( 12863 PWs)   bands (ev):

   -59.4988 -33.7484 -33.6990 -33.4990 -12.8768 -11.1659  -5.9111  -4.5286
    -3.5058  -3.2977  -2.1937  -1.2548  -0.5592   0.1582   0.5724   0.6661
     1.1419   2.1658   2.9951   3.5461   4.0886   4.5986

          k = 0.0625 0.5413 0.0000 ( 12844 PWs)   bands (ev):

   -59.4960 -33.7737 -33.6943 -33.5059 -12.7257 -11.0454  -6.1548  -4.6110
    -3.5071  -3.3087  -2.2873  -1.2989  -0.5301   0.2823   0.7076   0.7558
     0.9272   2.1891   3.1581   3.6442   3.9612   4.5117

          k = 0.1250 0.2165 0.0000 ( 12933 PWs)   bands (ev):

   -59.5192 -33.7378 -33.5538 -33.4519 -13.7856 -11.8947  -4.9440  -4.1927
    -3.2064  -2.9859  -1.8782  -1.0923  -0.3899   0.1035   0.4218   0.7016
     1.3890   1.5955   3.1001   3.7262   3.8873   4.5197

          k = 0.1250 0.2887 0.0000 ( 12935 PWs)   bands (ev):

   -59.5124 -33.7256 -33.6127 -33.4738 -13.5123 -11.6732  -4.8414  -4.5261
    -3.3213  -3.1366  -1.9751  -1.1606  -0.5135   0.0861   0.3803   0.5223
     1.5254   1.7175   2.8304   3.5365   3.9331   4.7305

          k = 0.1250 0.3608 0.0000 ( 12903 PWs)   bands (ev):

   -59.5056 -33.7139 -33.6700 -33.4961 -13.2145 -11.4327  -5.2299  -4.4289
    -3.5145  -3.3026  -2.0265  -1.2353  -0.5772   0.0924   0.2981   0.5461
     1.4267   1.9526   2.7128   3.5125   4.0513   4.7467

          k = 0.1250 0.4330 0.0000 ( 12881 PWs)   bands (ev):

   -59.4998 -33.7222 -33.6996 -33.5151 -12.9373 -11.2094  -5.6563  -4.3916
    -3.6779  -3.3715  -2.1200  -1.3556  -0.5542   0.1353   0.3579   0.6737
     1.1997   2.1090   2.7532   3.6323   4.1919   4.5420

          k = 0.1250 0.5052 0.0000 ( 12858 PWs)   bands (ev):

   -59.4960 -33.7529 -33.6942 -33.5278 -12.7362 -11.0472  -5.9616  -4.4861
    -3.7129  -3.3780  -2.2295  -1.4644  -0.5024   0.1899   0.5563   0.7400
     1.0275   2.1071   2.9733   3.6959   4.1427   4.4125

          k = 0.1250 0.5774 0.0000 ( 12856 PWs)   bands (ev):

   -59.4946 -33.7640 -33.6919 -33.5323 -12.6619 -10.9873  -6.0730  -4.5418
    -3.7148  -3.3680  -2.2793  -1.5051  -0.4794   0.2483   0.6400   0.6935
     1.0236   2.0770   3.1725   3.6111   4.0255   4.4518

          k = 0.1875 0.3248 0.0000 ( 12901 PWs)   bands (ev):

   -59.5062 -33.7146 -33.6576 -33.5024 -13.2420 -11.4535  -5.1125  -4.4042
    -3.5899  -3.3019  -2.0154  -1.2519  -0.5760   0.0379   0.3003   0.5511
     1.4403   1.9505   2.6300   3.5391   3.9790   4.7682

          k = 0.1875 0.3969 0.0000 ( 12903 PWs)   bands (ev):

   -59.5004 -33.7076 -33.6930 -33.5314 -12.9710 -11.2327  -5.4456  -4.2691
    -3.8708  -3.4217  -2.1125  -1.3718  -0.5603   0.0824   0.2373   0.6886
     1.2179   2.1383   2.5456   3.6720   4.1023   4.6712

          k = 0.1875 0.4691 0.0000 ( 12858 PWs)   bands (ev):

   -59.4960 -33.7271 -33.6938 -33.5549 -12.7465 -11.0490  -5.7190  -4.3592
    -3.9428  -3.4678  -2.2382  -1.5270  -0.5000   0.1624   0.3320   0.7313
     1.1080   2.1213   2.7154   3.6714   4.1240   4.6626

          k = 0.1875 0.5413 0.0000 ( 12848 PWs)   bands (ev):

   -59.4936 -33.7414 -33.6900 -33.5680 -12.6176 -10.9431  -5.8745  -4.4913
    -3.9353  -3.4530  -2.3251  -1.6347  -0.4543   0.2033   0.4999   0.5923
     1.2184   2.0201   3.0465   3.4980   3.9101   4.8116

          k = 0.2500 0.4330 0.0000 ( 12885 PWs)   bands (ev):

   -59.4960 -33.7140 -33.6931 -33.5689 -12.7508 -11.0497  -5.5913  -4.3473
    -4.0029  -3.5246  -2.2697  -1.5129  -0.5028   0.1578   0.2285   0.7271
     1.1336   2.1855   2.5601   3.6361   4.1155   4.8155

          k = 0.2500 0.5052 0.0000 ( 12870 PWs)   bands (ev):

   -59.4930 -33.7171 -33.6887 -33.5997 -12.5954 -10.9193  -5.6604  -4.6048
    -3.9460  -3.5600  -2.4123  -1.6387  -0.4525   0.1913   0.3688   0.5478
     1.3343   2.0649   2.8111   3.4553   3.8615   5.1837

          k = 0.2500 0.5774 0.0000 ( 12844 PWs)   bands (ev):

   -59.4920 -33.7165 -33.6871 -33.6123 -12.5390 -10.8718  -5.6762  -4.7107
    -3.9397  -3.5494  -2.4686  -1.6914  -0.4332   0.2190   0.4304   0.4618
     1.4776   1.9693   3.0869   3.2288   3.7120   5.3200

          k = 0.3125 0.5413 0.0000 ( 12856 PWs)   bands (ev):

   -59.4914 -33.6958 -33.6859 -33.6400 -12.5116 -10.8464  -5.5242  -4.8979
    -3.8733  -3.6184  -2.5372  -1.6969  -0.4298   0.2331   0.3728   0.4399
     1.6057   1.9562   2.9747   3.2261   3.6293   5.6202

     the Fermi energy is     1.9645 ev

!    total energy              =    -658.62372161 Ry
     total all-electron energy =    -12481.797612 Ry
     estimated scf accuracy    <       0.00000020 Ry
     smearing contrib. (-TS)   =      -0.00547320 Ry
     internal energy E=F+TS    =    -658.61824841 Ry

     The total energy is F=E-TS. E is the sum of the following terms:
     one-electron contribution =   -1372.50893486 Ry
     hartree contribution      =     699.69005334 Ry
     xc contribution           =     -62.52163382 Ry
     ewald contribution        =     482.87275010 Ry
     one-center paw contrib.   =    -406.15048317 Ry

     total magnetization       =     0.00 Bohr mag/cell
     absolute magnetization    =     0.00 Bohr mag/cell

     convergence has been achieved in   8 iterations

     negative rho (up, down):  2.525E-04 2.525E-04

     Forces acting on atoms (cartesian axes, Ry/au):

     atom    1 type  1   force =     0.00000000    0.00000000    0.05220496
     atom    2 type  2   force =     0.00000000    0.00000000   -0.05470142
     atom    3 type  2   force =     0.00000000    0.00000000    0.00019897
     atom    4 type  3   force =     0.00000000    0.00000000    0.00229748
     The non-local contrib.  to forces
     atom    1 type  1   force =     0.00000000    0.00000000   -0.10588926
     atom    2 type  2   force =     0.00000000    0.00000000   -0.13741911
     atom    3 type  2   force =     0.00000000    0.00000000    0.26118764
     atom    4 type  3   force =     0.00000000    0.00000000    0.03361977
     The ionic contribution  to forces
     atom    1 type  1   force =     0.00000000   -0.00000000  -35.52137622
     atom    2 type  2   force =    -0.00000000    0.00000000   21.00057781
     atom    3 type  2   force =    -0.00000000    0.00000000  -45.93527701
     atom    4 type  3   force =     0.00000000   -0.00000000   60.45607543
     The local contribution  to forces
     atom    1 type  1   force =    -0.00000000    0.00000000   35.67131378
     atom    2 type  2   force =    -0.00000000    0.00000000  -20.92417550
     atom    3 type  2   force =    -0.00000000    0.00000000   45.67518655
     atom    4 type  3   force =    -0.00000000   -0.00000000  -60.44530605
     The core correction contribution to forces
     atom    1 type  1   force =    -0.00000000    0.00000000    0.00707064
     atom    2 type  2   force =     0.00000000   -0.00000000    0.00652523
     atom    3 type  2   force =     0.00000000   -0.00000000   -0.00189688
     atom    4 type  3   force =     0.00000000   -0.00000000   -0.04223184
     The Hubbard contrib.    to forces
     atom    1 type  1   force =     0.00000000    0.00000000    0.00000000
     atom    2 type  2   force =     0.00000000    0.00000000    0.00000000
     atom    3 type  2   force =     0.00000000    0.00000000    0.00000000
     atom    4 type  3   force =     0.00000000    0.00000000    0.00000000
     The SCF correction term to forces
     atom    1 type  1   force =     0.00000000    0.00000000    0.00101427
     atom    2 type  2   force =     0.00000000    0.00000000   -0.00028161
     atom    3 type  2   force =    -0.00000000   -0.00000000    0.00092690
     atom    4 type  3   force =    -0.00000000    0.00000000    0.00006842

     Total force =     0.075650     Total SCF correction =     0.001404


     Computing stress (Cartesian axis) and pressure


     negative rho (up, down):  2.525E-04 2.525E-04
          total   stress  (Ry/bohr**3)                   (kbar)     P=        2.78
   0.00011999   0.00000000   0.00000000           17.65        0.00        0.00
   0.00000000   0.00011999   0.00000000            0.00       17.65        0.00
   0.00000000   0.00000000  -0.00018335            0.00        0.00      -26.97

     Energy error            =      3.5E-03 Ry
     Gradient error          =      5.5E-02 Ry/Bohr

     number of scf cycles    =  13
     number of bfgs steps    =  12

     energy             old  =    -658.6201800152 Ry
     energy             new  =    -658.6237216084 Ry

     CASE: energy            _new < energy            _old

     new trust radius        =       0.0601232654 bohr
     new conv_thr            =       0.0000003542 Ry


ATOMIC_POSITIONS (crystal)
Mo            0.0000000000        0.0000000000        0.5061172482
S             0.6666666667        0.3333333333        0.6107109202
S             0.6666666667        0.3333333333        0.4212102937
Co            0.0000000000        0.0000000000        0.6595976017



     Writing config-only to output data dir ./tmp/relax.save/
     NEW-OLD atomic charge density approx. for the potential

     negative rho (up, down):  2.440E-04 2.440E-04
     Generating pointlists ...

     total cpu time spent up to now is      362.5 secs

     Self-consistent Calculation

     iteration #  1     ecut=    80.00 Ry     beta= 0.70
     Davidson diagonalization with overlap
     ethr =  1.00E-06,  avg # of iterations = 10.3

     negative rho (up, down):  2.492E-04 2.492E-04

     total cpu time spent up to now is      366.4 secs

     total energy              =    -658.62699860 Ry
     estimated scf accuracy    <       0.00204602 Ry

     total magnetization       =     0.00 Bohr mag/cell
     absolute magnetization    =     0.00 Bohr mag/cell

     iteration #  2     ecut=    80.00 Ry     beta= 0.70
     Davidson diagonalization with overlap
     ethr =  5.85E-06,  avg # of iterations =  4.5

     negative rho (up, down):  2.486E-04 2.486E-04

     total cpu time spent up to now is      368.6 secs

     total energy              =    -658.62483882 Ry
     estimated scf accuracy    <       0.02818878 Ry

     total magnetization       =     0.00 Bohr mag/cell
     absolute magnetization    =     0.00 Bohr mag/cell

     iteration #  3     ecut=    80.00 Ry     beta= 0.70
     Davidson diagonalization with overlap
     ethr =  5.85E-06,  avg # of iterations =  4.2

     negative rho (up, down):  2.488E-04 2.488E-04

     total cpu time spent up to now is      370.8 secs

     total energy              =    -658.62737981 Ry
     estimated scf accuracy    <       0.01017600 Ry

     total magnetization       =     0.00 Bohr mag/cell
     absolute magnetization    =     0.00 Bohr mag/cell

     iteration #  4     ecut=    80.00 Ry     beta= 0.70
     Davidson diagonalization with overlap
     ethr =  5.85E-06,  avg # of iterations =  2.2

     negative rho (up, down):  2.496E-04 2.496E-04

     total cpu time spent up to now is      372.6 secs

     total energy              =    -658.62800221 Ry
     estimated scf accuracy    <       0.00482368 Ry

     total magnetization       =     0.00 Bohr mag/cell
     absolute magnetization    =     0.00 Bohr mag/cell

     iteration #  5     ecut=    80.00 Ry     beta= 0.70
     Davidson diagonalization with overlap
     ethr =  5.85E-06,  avg # of iterations =  1.1

     negative rho (up, down):  2.510E-04 2.510E-04

     total cpu time spent up to now is      374.2 secs

     total energy              =    -658.62825201 Ry
     estimated scf accuracy    <       0.00005877 Ry

     total magnetization       =     0.00 Bohr mag/cell
     absolute magnetization    =     0.00 Bohr mag/cell

     iteration #  6     ecut=    80.00 Ry     beta= 0.70
     Davidson diagonalization with overlap
     ethr =  1.68E-07,  avg # of iterations =  3.1

     negative rho (up, down):  2.515E-04 2.515E-04

     total cpu time spent up to now is      376.2 secs

     total energy              =    -658.62826382 Ry
     estimated scf accuracy    <       0.00003575 Ry

     total magnetization       =     0.00 Bohr mag/cell
     absolute magnetization    =     0.00 Bohr mag/cell

     iteration #  7     ecut=    80.00 Ry     beta= 0.70
     Davidson diagonalization with overlap
     ethr =  1.02E-07,  avg # of iterations =  2.6

     negative rho (up, down):  2.517E-04 2.517E-04

     total cpu time spent up to now is      378.0 secs

     total energy              =    -658.62827029 Ry
     estimated scf accuracy    <       0.00000292 Ry

     total magnetization       =     0.00 Bohr mag/cell
     absolute magnetization    =     0.00 Bohr mag/cell

     iteration #  8     ecut=    80.00 Ry     beta= 0.70
     Davidson diagonalization with overlap
     ethr =  8.35E-09,  avg # of iterations =  3.5

     negative rho (up, down):  2.519E-04 2.518E-04
 
     Magnetic moment per site  (integrated on atomic sphere of radius R)
     atom   1 (R=0.308)  charge= 10.6101  magn=  0.0000
     atom   2 (R=0.259)  charge=  2.9235  magn= -0.0000
     atom   3 (R=0.259)  charge=  2.8428  magn=  0.0000
     atom   4 (R=0.259)  charge=  6.6493  magn=  0.0002

     total cpu time spent up to now is      380.0 secs

     End of self-consistent calculation

 ------ SPIN UP ------------


          k = 0.0000 0.0000 0.0000 ( 12991 PWs)   bands (ev):

   -59.5692 -33.8057 -33.4432 -33.4432 -14.3872 -12.3352  -5.5515  -3.1606
    -3.1332  -3.1332  -1.0073  -1.0073   0.0673   0.0673   0.3122   1.2552
     1.2552   1.3361   3.7220   4.2199   4.2199   4.4693

          k = 0.0000 0.0722 0.0000 ( 12961 PWs)   bands (ev):

   -59.5677 -33.8030 -33.4577 -33.4466 -14.3381 -12.2949  -5.4954  -3.2646
    -3.1348  -3.1131  -1.1295  -0.9910  -0.0399   0.0719   0.3790   1.1687
     1.2381   1.3705   3.8271   4.1116   4.2655   4.2854

          k = 0.0000 0.1443 0.0000 ( 12937 PWs)   bands (ev):

   -59.5636 -33.7954 -33.4987 -33.4560 -14.1947 -12.1776  -5.3371  -3.5974
    -3.1428  -3.0290  -1.4284  -0.9606  -0.2330   0.0975   0.4195   0.9786
     1.2246   1.4404   3.7746   3.8838   4.2122   4.2129

          k = 0.0000 0.2165 0.0000 ( 12929 PWs)   bands (ev):

   -59.5574 -33.7839 -33.5595 -33.4702 -13.9695 -11.9936  -5.1103  -4.0853
    -3.1647  -2.9684  -1.7564  -0.9535  -0.4257   0.1627   0.3538   0.7293
     1.2931   1.5313   3.3587   3.7905   3.9765   4.6346

          k = 0.0000 0.2887 0.0000 ( 12917 PWs)   bands (ev):

   -59.5500 -33.7704 -33.6304 -33.4868 -13.6841 -11.7611  -4.9204  -4.6020
    -3.2051  -3.0600  -1.9557  -0.9857  -0.5688   0.2325   0.2640   0.4957
     1.4943   1.5708   3.0827   3.7283   3.8625   4.7497

          k = 0.0000 0.3608 0.0000 ( 12903 PWs)   bands (ev):

   -59.5427 -33.7572 -33.7004 -33.5033 -13.3718 -11.5073  -5.3083  -4.6103
    -3.2809  -3.2597  -2.0416  -1.0416  -0.6397   0.1132   0.3888   0.4335
     1.4853   1.7928   3.0189   3.5249   4.0002   4.7783

          k = 0.0000 0.4330 0.0000 ( 12893 PWs)   bands (ev):

   -59.5364 -33.7621 -33.7429 -33.5173 -13.0796 -11.2698  -5.8120  -4.5756
    -3.4383  -3.3155  -2.1483  -1.0983  -0.6454   0.0975   0.5256   0.5532
     1.2885   2.0625   3.1042   3.4409   4.0421   4.7296

          k = 0.0000 0.5052 0.0000 ( 12870 PWs)   bands (ev):

   -59.5323 -33.7997 -33.7367 -33.5267 -12.8664 -11.0957  -6.1697  -4.6454
    -3.4746  -3.3570  -2.2671  -1.1389  -0.6190   0.2226   0.6431   0.7178
     1.0359   2.1845   3.2319   3.5108   3.9604   4.6414

          k = 0.0000-0.5774 0.0000 ( 12854 PWs)   bands (ev):

   -59.5308 -33.8133 -33.7341 -33.5299 -12.7873 -11.0308  -6.2997  -4.6897
    -3.4722  -3.3722  -2.3189  -1.1536  -0.6059   0.3561   0.6915   0.7568
     0.8979   2.2025   3.2978   3.5810   3.9017   4.5910

          k = 0.0625 0.1083 0.0000 ( 12951 PWs)   bands (ev):

   -59.5649 -33.7978 -33.4850 -33.4534 -14.2418 -12.2161  -5.3880  -3.4824
    -3.1570  -3.0441  -1.3333  -0.9769  -0.1705   0.0774   0.4221   1.0547
     1.2005   1.4261   3.9064   3.9922   4.0057   4.2817

          k = 0.0625 0.1804 0.0000 ( 12937 PWs)   bands (ev):

   -59.5597 -33.7883 -33.5347 -33.4663 -14.0574 -12.0652  -5.1933  -3.8806
    -3.1897  -2.9654  -1.6370  -0.9811  -0.3380   0.0998   0.4051   0.8476
     1.2315   1.5140   3.5064   3.8211   4.0094   4.3586

          k = 0.0625 0.2526 0.0000 ( 12935 PWs)   bands (ev):

   -59.5530 -33.7758 -33.5991 -33.4832 -13.8016 -11.8565  -4.9631  -4.3857
    -3.2374  -2.9870  -1.8876  -1.0102  -0.4982   0.1383   0.3418   0.6013
     1.3816   1.5956   3.1503   3.7286   3.8538   4.6398

          k = 0.0625 0.3248 0.0000 ( 12927 PWs)   bands (ev):

   -59.5456 -33.7624 -33.6679 -33.5015 -13.5015 -11.6120  -5.0472  -4.6385
    -3.3091  -3.1741  -1.9945  -1.0582  -0.6080   0.1259   0.3145   0.4667
     1.5226   1.6964   2.9705   3.5564   3.9452   4.7598

          k = 0.0625 0.3969 0.0000 ( 12903 PWs)   bands (ev):

   -59.5388 -33.7512 -33.7297 -33.5183 -13.1969 -11.3637  -5.5574  -4.5405
    -3.4563  -3.3127  -2.0741  -1.1332  -0.6366   0.0901   0.3802   0.5339
     1.3785   1.9626   2.9664   3.4839   4.0741   4.7093

          k = 0.0625 0.4691 0.0000 ( 12863 PWs)   bands (ev):

   -59.5336 -33.7802 -33.7389 -33.5311 -12.9407 -11.1542  -5.9861  -4.5694
    -3.5574  -3.3546  -2.1937  -1.2091  -0.6066   0.1421   0.5570   0.6595
     1.1382   2.1256   3.0723   3.5588   4.0825   4.5678

          k = 0.0625 0.5413 0.0000 ( 12844 PWs)   bands (ev):

   -59.5308 -33.8056 -33.7340 -33.5380 -12.7915 -11.0317  -6.2294  -4.6441
    -3.5796  -3.3619  -2.2892  -1.2516  -0.5756   0.2769   0.6944   0.7466
     0.9211   2.1550   3.2304   3.6499   3.9744   4.4815

          k = 0.1250 0.2165 0.0000 ( 12933 PWs)   bands (ev):

   -59.5540 -33.7777 -33.5860 -33.4840 -13.8421 -11.8892  -4.9870  -4.2767
    -3.2824  -2.9598  -1.8484  -1.0484  -0.4515   0.0775   0.3843   0.6590
     1.3388   1.6101   3.1750   3.7392   3.8064   4.5548

          k = 0.1250 0.2887 0.0000 ( 12935 PWs)   bands (ev):

   -59.5472 -33.7652 -33.6449 -33.5059 -13.5704 -11.6669  -4.8829  -4.6193
    -3.4058  -3.1093  -1.9600  -1.1100  -0.5720   0.0578   0.3429   0.5059
     1.4964   1.7102   2.9068   3.5556   3.8569   4.7303

          k = 0.1250 0.3608 0.0000 ( 12903 PWs)   bands (ev):

   -59.5404 -33.7530 -33.7026 -33.5282 -13.2748 -11.4245  -5.3006  -4.4969
    -3.5854  -3.2991  -2.0193  -1.1928  -0.6262   0.0595   0.2756   0.5421
     1.4187   1.9259   2.7862   3.5375   3.9806   4.7401

          k = 0.1250 0.4330 0.0000 ( 12881 PWs)   bands (ev):

   -59.5347 -33.7543 -33.7392 -33.5472 -13.0004 -11.1984  -5.7323  -4.4446
    -3.7552  -3.3844  -2.1176  -1.3245  -0.5922   0.1109   0.3462   0.6698
     1.1921   2.0862   2.8247   3.6503   4.1326   4.5490

          k = 0.1250 0.5052 0.0000 ( 12858 PWs)   bands (ev):

   -59.5308 -33.7847 -33.7339 -33.5599 -12.8016 -11.0336  -6.0385  -4.5259
    -3.8096  -3.3932  -2.2332  -1.4329  -0.5370   0.1805   0.5448   0.7321
     1.0220   2.0896   3.0399   3.7066   4.1547   4.3717

          k = 0.1250 0.5774 0.0000 ( 12856 PWs)   bands (ev):

   -59.5295 -33.7958 -33.7316 -33.5643 -12.7283 -10.9725  -6.1498  -4.5785
    -3.8170  -3.3842  -2.2859  -1.4716  -0.5137   0.2451   0.6239   0.6871
     1.0210   2.0603   3.2324   3.6375   4.0391   4.4050

          k = 0.1875 0.3248 0.0000 ( 12901 PWs)   bands (ev):

   -59.5410 -33.7539 -33.6900 -33.5345 -13.3020 -11.4455  -5.1803  -4.4805
    -3.6662  -3.2868  -2.0077  -1.2101  -0.6248   0.0106   0.2724   0.5481
     1.4246   1.9333   2.7026   3.5646   3.8990   4.7697

          k = 0.1875 0.3969 0.0000 ( 12903 PWs)   bands (ev):

   -59.5352 -33.7446 -33.7277 -33.5635 -13.0336 -11.2221  -5.5216  -4.3438
    -3.9428  -3.4158  -2.1040  -1.3554  -0.5923   0.0621   0.2238   0.6852
     1.2049   2.1225   2.6203   3.6871   4.0274   4.6912

          k = 0.1875 0.4691 0.0000 ( 12858 PWs)   bands (ev):

   -59.5308 -33.7589 -33.7336 -33.5869 -12.8116 -11.0355  -5.7985  -4.4204
    -4.0314  -3.4633  -2.2335  -1.5199  -0.5246   0.1489   0.3289   0.7223
     1.1004   2.1132   2.7843   3.6645   4.1152   4.6534

          k = 0.1875 0.5413 0.0000 ( 12848 PWs)   bands (ev):

   -59.5284 -33.7733 -33.7296 -33.6000 -12.6843 -10.9276  -5.9554  -4.5486
    -4.0268  -3.4518  -2.3271  -1.6251  -0.4778   0.1979   0.4976   0.5807
     1.2158   2.0144   3.1014   3.5006   3.9416   4.7722

          k = 0.2500 0.4330 0.0000 ( 12885 PWs)   bands (ev):

   -59.5308 -33.7461 -33.7327 -33.6010 -12.8157 -11.0363  -5.6721  -4.4321
    -4.0749  -3.5103  -2.2600  -1.5186  -0.5232   0.1479   0.2253   0.7177
     1.1245   2.1737   2.6361   3.6215   4.1068   4.8125

          k = 0.2500 0.5052 0.0000 ( 12870 PWs)   bands (ev):

   -59.5279 -33.7490 -33.7284 -33.6317 -12.6621 -10.9034  -5.7460  -4.6867
    -4.0215  -3.5426  -2.4075  -1.6503  -0.4688   0.1828   0.3781   0.5340
     1.3297   2.0656   2.8618   3.4305   3.9203   5.1420

          k = 0.2500 0.5774 0.0000 ( 12844 PWs)   bands (ev):

   -59.5268 -33.7484 -33.7267 -33.6443 -12.6065 -10.8549  -5.7642  -4.7908
    -4.0116  -3.5354  -2.4671  -1.7029  -0.4484   0.2141   0.4141   0.4738
     1.4762   1.9717   3.1197   3.2086   3.7925   5.2713

          k = 0.3125 0.5413 0.0000 ( 12856 PWs)   bands (ev):

   -59.5263 -33.7280 -33.7253 -33.6721 -12.5793 -10.8291  -5.6196  -4.9769
    -3.9519  -3.5902  -2.5349  -1.7164  -0.4418   0.2281   0.3543   0.4584
     1.6022   1.9664   2.9875   3.1884   3.7465   5.5544

 ------ SPIN DOWN ----------


          k = 0.0000 0.0000 0.0000 ( 12991 PWs)   bands (ev):

   -59.5691 -33.8057 -33.4432 -33.4432 -14.3872 -12.3352  -5.5515  -3.1606
    -3.1331  -3.1331  -1.0073  -1.0073   0.0675   0.0675   0.3122   1.2553
     1.2553   1.3362   3.7220   4.2199   4.2199   4.4694

          k = 0.0000 0.0722 0.0000 ( 12961 PWs)   bands (ev):

   -59.5677 -33.8030 -33.4577 -33.4466 -14.3381 -12.2949  -5.4954  -3.2645
    -3.1347  -3.1131  -1.1295  -0.9910  -0.0398   0.0720   0.3791   1.1688
     1.2382   1.3706   3.8272   4.1116   4.2656   4.2810

          k = 0.0000 0.1443 0.0000 ( 12937 PWs)   bands (ev):

   -59.5635 -33.7953 -33.4986 -33.4560 -14.1947 -12.1775  -5.3371  -3.5973
    -3.1427  -3.0290  -1.4284  -0.9606  -0.2329   0.0977   0.4196   0.9786
     1.2247   1.4405   3.7747   3.8839   4.2124   4.2129

          k = 0.0000 0.2165 0.0000 ( 12929 PWs)   bands (ev):

   -59.5573 -33.7839 -33.5595 -33.4701 -13.9695 -11.9936  -5.1102  -4.0852
    -3.1646  -2.9684  -1.7564  -0.9535  -0.4256   0.1629   0.3540   0.7293
     1.2932   1.5314   3.3588   3.7905   3.9766   4.6346

          k = 0.0000 0.2887 0.0000 ( 12917 PWs)   bands (ev):

   -59.5500 -33.7704 -33.6304 -33.4868 -13.6841 -11.7611  -4.9204  -4.6020
    -3.2050  -3.0599  -1.9557  -0.9857  -0.5687   0.2326   0.2641   0.4957
     1.4944   1.5709   3.0828   3.7284   3.8625   4.7497

          k = 0.0000 0.3608 0.0000 ( 12903 PWs)   bands (ev):

   -59.5427 -33.7572 -33.7003 -33.5033 -13.3718 -11.5073  -5.3083  -4.6103
    -3.2809  -3.2596  -2.0416  -1.0416  -0.6396   0.1133   0.3890   0.4336
     1.4854   1.7929   3.0190   3.5250   4.0002   4.7784

          k = 0.0000 0.4330 0.0000 ( 12893 PWs)   bands (ev):

   -59.5364 -33.7621 -33.7429 -33.5173 -13.0796 -11.2698  -5.8120  -4.5756
    -3.4383  -3.3154  -2.1482  -1.0983  -0.6453   0.0977   0.5258   0.5532
     1.2887   2.0627   3.1043   3.4410   4.0421   4.7297

          k = 0.0000 0.5052 0.0000 ( 12870 PWs)   bands (ev):

   -59.5323 -33.7997 -33.7366 -33.5266 -12.8664 -11.0956  -6.1696  -4.6454
    -3.4746  -3.3569  -2.2671  -1.1389  -0.6189   0.2228   0.6433   0.7179
     1.0361   2.1847   3.2319   3.5108   3.9605   4.6414

          k = 0.0000-0.5774 0.0000 ( 12854 PWs)   bands (ev):

   -59.5308 -33.8133 -33.7340 -33.5299 -12.7873 -11.0308  -6.2997  -4.6897
    -3.4722  -3.3721  -2.3189  -1.1535  -0.6058   0.3563   0.6917   0.7570
     0.8980   2.2027   3.2979   3.5810   3.9018   4.5910

          k = 0.0625 0.1083 0.0000 ( 12951 PWs)   bands (ev):

   -59.5649 -33.7978 -33.4850 -33.4534 -14.2418 -12.2161  -5.3880  -3.4823
    -3.1569  -3.0441  -1.3333  -0.9769  -0.1704   0.0775   0.4222   1.0548
     1.2006   1.4262   3.9065   3.9923   4.0057   4.2818

          k = 0.0625 0.1804 0.0000 ( 12937 PWs)   bands (ev):

   -59.5597 -33.7883 -33.5347 -33.4663 -14.0574 -12.0652  -5.1933  -3.8805
    -3.1896  -2.9654  -1.6370  -0.9810  -0.3379   0.0999   0.4052   0.8477
     1.2316   1.5141   3.5066   3.8211   4.0095   4.3585

          k = 0.0625 0.2526 0.0000 ( 12935 PWs)   bands (ev):

   -59.5529 -33.7758 -33.5991 -33.4832 -13.8016 -11.8565  -4.9631  -4.3857
    -3.2373  -2.9870  -1.8876  -1.0102  -0.4981   0.1385   0.3420   0.6013
     1.3817   1.5957   3.1504   3.7286   3.8539   4.6399

          k = 0.0625 0.3248 0.0000 ( 12927 PWs)   bands (ev):

   -59.5456 -33.7624 -33.6679 -33.5015 -13.5015 -11.6120  -5.0472  -4.6385
    -3.3090  -3.1740  -1.9945  -1.0582  -0.6079   0.1260   0.3147   0.4668
     1.5228   1.6965   2.9706   3.5565   3.9452   4.7599

          k = 0.0625 0.3969 0.0000 ( 12903 PWs)   bands (ev):

   -59.5388 -33.7511 -33.7296 -33.5183 -13.1969 -11.3637  -5.5574  -4.5405
    -3.4563  -3.3126  -2.0741  -1.1332  -0.6365   0.0902   0.3803   0.5340
     1.3787   1.9627   2.9665   3.4840   4.0741   4.7094

          k = 0.0625 0.4691 0.0000 ( 12863 PWs)   bands (ev):

   -59.5336 -33.7801 -33.7389 -33.5311 -12.9406 -11.1542  -5.9861  -4.5694
    -3.5573  -3.3545  -2.1936  -1.2091  -0.6065   0.1423   0.5571   0.6596
     1.1383   2.1257   3.0724   3.5589   4.0825   4.5678

          k = 0.0625 0.5413 0.0000 ( 12844 PWs)   bands (ev):

   -59.5308 -33.8056 -33.7340 -33.5380 -12.7915 -11.0317  -6.2294  -4.6441
    -3.5795  -3.3618  -2.2892  -1.2515  -0.5755   0.2771   0.6945   0.7467
     0.9213   2.1552   3.2305   3.6499   3.9745   4.4815

          k = 0.1250 0.2165 0.0000 ( 12933 PWs)   bands (ev):

   -59.5540 -33.7777 -33.5860 -33.4840 -13.8421 -11.8892  -4.9870  -4.2767
    -3.2823  -2.9598  -1.8484  -1.0484  -0.4514   0.0777   0.3844   0.6591
     1.3389   1.6102   3.1751   3.7393   3.8065   4.5549

          k = 0.1250 0.2887 0.0000 ( 12935 PWs)   bands (ev):

   -59.5472 -33.7652 -33.6449 -33.5059 -13.5704 -11.6669  -4.8829  -4.6193
    -3.4057  -3.1093  -1.9600  -1.1100  -0.5719   0.0579   0.3430   0.5060
     1.4965   1.7103   2.9070   3.5557   3.8569   4.7304

          k = 0.1250 0.3608 0.0000 ( 12903 PWs)   bands (ev):

   -59.5404 -33.7530 -33.7026 -33.5282 -13.2748 -11.4245  -5.3006  -4.4969
    -3.5854  -3.2991  -2.0193  -1.1928  -0.6261   0.0596   0.2757   0.5422
     1.4188   1.9260   2.7863   3.5376   3.9806   4.7401

          k = 0.1250 0.4330 0.0000 ( 12881 PWs)   bands (ev):

   -59.5346 -33.7543 -33.7392 -33.5472 -13.0004 -11.1984  -5.7323  -4.4446
    -3.7552  -3.3844  -2.1176  -1.3245  -0.5921   0.1110   0.3463   0.6699
     1.1923   2.0864   2.8248   3.6504   4.1326   4.5491

          k = 0.1250 0.5052 0.0000 ( 12858 PWs)   bands (ev):

   -59.5308 -33.7847 -33.7339 -33.5599 -12.8016 -11.0336  -6.0385  -4.5259
    -3.8096  -3.3932  -2.2332  -1.4328  -0.5369   0.1807   0.5449   0.7322
     1.0222   2.0898   3.0399   3.7066   4.1547   4.3717

          k = 0.1250 0.5774 0.0000 ( 12856 PWs)   bands (ev):

   -59.5294 -33.7958 -33.7316 -33.5643 -12.7283 -10.9725  -6.1498  -4.5785
    -3.8170  -3.3842  -2.2859  -1.4716  -0.5136   0.2453   0.6240   0.6872
     1.0212   2.0605   3.2324   3.6376   4.0392   4.4050

          k = 0.1875 0.3248 0.0000 ( 12901 PWs)   bands (ev):

   -59.5410 -33.7539 -33.6900 -33.5345 -13.3020 -11.4455  -5.1803  -4.4805
    -3.6661  -3.2868  -2.0077  -1.2101  -0.6247   0.0107   0.2725   0.5483
     1.4247   1.9334   2.7028   3.5647   3.8990   4.7698

          k = 0.1875 0.3969 0.0000 ( 12903 PWs)   bands (ev):

   -59.5352 -33.7446 -33.7276 -33.5635 -13.0336 -11.2221  -5.5215  -4.3438
    -3.9428  -3.4158  -2.1040  -1.3553  -0.5922   0.0622   0.2239   0.6854
     1.2050   2.1226   2.6204   3.6872   4.0274   4.6912

          k = 0.1875 0.4691 0.0000 ( 12858 PWs)   bands (ev):

   -59.5308 -33.7589 -33.7336 -33.5869 -12.8116 -11.0355  -5.7985  -4.4204
    -4.0313  -3.4633  -2.2335  -1.5199  -0.5244   0.1490   0.3289   0.7224
     1.1006   2.1134   2.7843   3.6646   4.1152   4.6534

          k = 0.1875 0.5413 0.0000 ( 12848 PWs)   bands (ev):

   -59.5284 -33.7733 -33.7296 -33.6000 -12.6843 -10.9276  -5.9554  -4.5485
    -4.0268  -3.4518  -2.3271  -1.6251  -0.4776   0.1980   0.4977   0.5809
     1.2160   2.0146   3.1014   3.5007   3.9416   4.7722

          k = 0.2500 0.4330 0.0000 ( 12885 PWs)   bands (ev):

   -59.5308 -33.7461 -33.7327 -33.6010 -12.8157 -11.0363  -5.6721  -4.4321
    -4.0749  -3.5103  -2.2600  -1.5186  -0.5231   0.1480   0.2254   0.7179
     1.1247   2.1739   2.6362   3.6215   4.1069   4.8125

          k = 0.2500 0.5052 0.0000 ( 12870 PWs)   bands (ev):

   -59.5278 -33.7490 -33.7284 -33.6317 -12.6621 -10.9034  -5.7460  -4.6867
    -4.0215  -3.5426  -2.4075  -1.6503  -0.4686   0.1830   0.3782   0.5341
     1.3299   2.0658   2.8618   3.4305   3.9203   5.1420

          k = 0.2500 0.5774 0.0000 ( 12844 PWs)   bands (ev):

   -59.5268 -33.7484 -33.7267 -33.6443 -12.6065 -10.8549  -5.7642  -4.7908
    -4.0116  -3.5354  -2.4671  -1.7029  -0.4482   0.2143   0.4142   0.4739
     1.4764   1.9720   3.1198   3.2087   3.7925   5.2713

          k = 0.3125 0.5413 0.0000 ( 12856 PWs)   bands (ev):

   -59.5262 -33.7280 -33.7253 -33.6720 -12.5793 -10.8291  -5.6196  -4.9769
    -3.9519  -3.5902  -2.5349  -1.7163  -0.4416   0.2283   0.3545   0.4585
     1.6024   1.9667   2.9875   3.1884   3.7465   5.5544

     the Fermi energy is     1.9451 ev

!    total energy              =    -658.62827076 Ry
     total all-electron energy =    -12481.802162 Ry
     estimated scf accuracy    <       0.00000018 Ry
     smearing contrib. (-TS)   =      -0.00552372 Ry
     internal energy E=F+TS    =    -658.62274704 Ry

     The total energy is F=E-TS. E is the sum of the following terms:
     one-electron contribution =   -1386.15702835 Ry
     hartree contribution      =     706.48955843 Ry
     xc contribution           =     -62.53581519 Ry
     ewald contribution        =     489.73116120 Ry
     one-center paw contrib.   =    -406.15062312 Ry

     total magnetization       =     0.00 Bohr mag/cell
     absolute magnetization    =     0.00 Bohr mag/cell

     convergence has been achieved in   8 iterations

     negative rho (up, down):  2.519E-04 2.518E-04

     Forces acting on atoms (cartesian axes, Ry/au):

     atom    1 type  1   force =     0.00000000    0.00000000    0.03281997
     atom    2 type  2   force =     0.00000000    0.00000000   -0.05205336
     atom    3 type  2   force =     0.00000000    0.00000000    0.00931287
     atom    4 type  3   force =     0.00000000    0.00000000    0.00992052
     The non-local contrib.  to forces
     atom    1 type  1   force =     0.00000000    0.00000000   -0.09316884
     atom    2 type  2   force =     0.00000000    0.00000000   -0.13690584
     atom    3 type  2   force =     0.00000000    0.00000000    0.26540833
     atom    4 type  3   force =     0.00000000    0.00000000    0.02949718
     The ionic contribution  to forces
     atom    1 type  1   force =     0.00000000   -0.00000000  -35.92592011
     atom    2 type  2   force =    -0.00000000    0.00000000   21.14650798
     atom    3 type  2   force =    -0.00000000    0.00000000  -46.11577563
     atom    4 type  3   force =     0.00000000   -0.00000000   60.89518776
     The local contribution  to forces
     atom    1 type  1   force =     0.00000000   -0.00000000   36.04532514
     atom    2 type  2   force =    -0.00000000    0.00000000  -21.06820784
     atom    3 type  2   force =    -0.00000000    0.00000000   45.86114741
     atom    4 type  3   force =    -0.00000000   -0.00000000  -60.87282412
     The core correction contribution to forces
     atom    1 type  1   force =     0.00000000    0.00000000    0.00625760
     atom    2 type  2   force =     0.00000000   -0.00000000    0.00626340
     atom    3 type  2   force =     0.00000000   -0.00000000   -0.00211460
     atom    4 type  3   force =     0.00000000    0.00000000   -0.04233455
     The Hubbard contrib.    to forces
     atom    1 type  1   force =     0.00000000    0.00000000    0.00000000
     atom    2 type  2   force =     0.00000000    0.00000000    0.00000000
     atom    3 type  2   force =     0.00000000    0.00000000    0.00000000
     atom    4 type  3   force =     0.00000000    0.00000000    0.00000000
     The SCF correction term to forces
     atom    1 type  1   force =    -0.00000000   -0.00000000    0.00025033
     atom    2 type  2   force =     0.00000000    0.00000000    0.00021308
     atom    3 type  2   force =    -0.00000000   -0.00000000    0.00057151
     atom    4 type  3   force =    -0.00000000   -0.00000000    0.00031839

     Total force =     0.063023     Total SCF correction =     0.000732


     Computing stress (Cartesian axis) and pressure


     negative rho (up, down):  2.519E-04 2.518E-04
          total   stress  (Ry/bohr**3)                   (kbar)     P=        3.98
   0.00011976  -0.00000000   0.00000000           17.62       -0.00        0.00
  -0.00000000   0.00011976  -0.00000000           -0.00       17.62       -0.00
   0.00000000  -0.00000000  -0.00015826            0.00       -0.00      -23.28

     Energy error            =      4.5E-03 Ry
     Gradient error          =      5.2E-02 Ry/Bohr

     number of scf cycles    =  14
     number of bfgs steps    =  13

     energy             old  =    -658.6237216084 Ry
     energy             new  =    -658.6282707562 Ry

     CASE: energy            _new < energy            _old

     new trust radius        =       0.0901848982 bohr
     new conv_thr            =       0.0000004549 Ry


ATOMIC_POSITIONS (crystal)
Mo            0.0000000000        0.0000000000        0.5087408762
S             0.6666666667        0.3333333333        0.6081580044
S             0.6666666667        0.3333333333        0.4225677403
Co            0.0000000000        0.0000000000        0.6581694428



     Writing config-only to output data dir ./tmp/relax.save/
     NEW-OLD atomic charge density approx. for the potential

     negative rho (up, down):  2.414E-04 2.414E-04
     Generating pointlists ...

     total cpu time spent up to now is      383.1 secs

     Self-consistent Calculation

     iteration #  1     ecut=    80.00 Ry     beta= 0.70
     Davidson diagonalization with overlap
     ethr =  1.00E-06,  avg # of iterations = 11.3

     negative rho (up, down):  2.531E-04 2.531E-04

     total cpu time spent up to now is      387.4 secs

     total energy              =    -658.63089556 Ry
     estimated scf accuracy    <       0.00442785 Ry

     total magnetization       =     0.00 Bohr mag/cell
     absolute magnetization    =     0.00 Bohr mag/cell

     iteration #  2     ecut=    80.00 Ry     beta= 0.70
     Davidson diagonalization with overlap
     ethr =  1.27E-05,  avg # of iterations =  4.2

     negative rho (up, down):  2.525E-04 2.525E-04

     total cpu time spent up to now is      389.6 secs

     total energy              =    -658.62164456 Ry
     estimated scf accuracy    <       0.13752874 Ry

     total magnetization       =     0.00 Bohr mag/cell
     absolute magnetization    =     0.00 Bohr mag/cell

     iteration #  3     ecut=    80.00 Ry     beta= 0.70
     Davidson diagonalization with overlap
     ethr =  1.27E-05,  avg # of iterations =  6.0

     negative rho (up, down):  2.526E-04 2.526E-04

     total cpu time spent up to now is      391.9 secs

     total energy              =    -658.62858434 Ry
     estimated scf accuracy    <       0.09306690 Ry

     total magnetization       =     0.00 Bohr mag/cell
     absolute magnetization    =     0.00 Bohr mag/cell

     iteration #  4     ecut=    80.00 Ry     beta= 0.70
     Davidson diagonalization with overlap
     ethr =  1.27E-05,  avg # of iterations =  3.7

     negative rho (up, down):  2.544E-04 2.544E-04

     total cpu time spent up to now is      394.0 secs

     total energy              =    -658.63349913 Ry
     estimated scf accuracy    <       0.00140176 Ry

     total magnetization       =     0.00 Bohr mag/cell
     absolute magnetization    =     0.00 Bohr mag/cell

     iteration #  5     ecut=    80.00 Ry     beta= 0.70
     Davidson diagonalization with overlap
     ethr =  4.01E-06,  avg # of iterations =  3.6

     negative rho (up, down):  2.571E-04 2.571E-04

     total cpu time spent up to now is      395.9 secs

     total energy              =    -658.63375106 Ry
     estimated scf accuracy    <       0.00010425 Ry

     total magnetization       =     0.00 Bohr mag/cell
     absolute magnetization    =     0.00 Bohr mag/cell

     iteration #  6     ecut=    80.00 Ry     beta= 0.70
     Davidson diagonalization with overlap
     ethr =  2.98E-07,  avg # of iterations =  3.1

     negative rho (up, down):  2.580E-04 2.580E-04

     total cpu time spent up to now is      397.9 secs

     total energy              =    -658.63377323 Ry
     estimated scf accuracy    <       0.00003292 Ry

     total magnetization       =     0.00 Bohr mag/cell
     absolute magnetization    =     0.00 Bohr mag/cell

     iteration #  7     ecut=    80.00 Ry     beta= 0.70
     Davidson diagonalization with overlap
     ethr =  9.41E-08,  avg # of iterations =  2.8

     negative rho (up, down):  2.584E-04 2.584E-04

     total cpu time spent up to now is      399.7 secs

     total energy              =    -658.63377853 Ry
     estimated scf accuracy    <       0.00001668 Ry

     total magnetization       =     0.00 Bohr mag/cell
     absolute magnetization    =     0.00 Bohr mag/cell

     iteration #  8     ecut=    80.00 Ry     beta= 0.70
     Davidson diagonalization with overlap
     ethr =  4.76E-08,  avg # of iterations =  2.1

     negative rho (up, down):  2.586E-04 2.585E-04

     total cpu time spent up to now is      401.5 secs

     total energy              =    -658.63378047 Ry
     estimated scf accuracy    <       0.00000062 Ry

     total magnetization       =     0.00 Bohr mag/cell
     absolute magnetization    =     0.00 Bohr mag/cell

     iteration #  9     ecut=    80.00 Ry     beta= 0.70
     Davidson diagonalization with overlap
     ethr =  1.76E-09,  avg # of iterations =  4.9

     negative rho (up, down):  2.586E-04 2.586E-04
 
     Magnetic moment per site  (integrated on atomic sphere of radius R)
     atom   1 (R=0.308)  charge= 10.6148  magn=  0.0000
     atom   2 (R=0.259)  charge=  2.9290  magn= -0.0000
     atom   3 (R=0.259)  charge=  2.8370  magn= -0.0000
     atom   4 (R=0.259)  charge=  6.6473  magn=  0.0001

     total cpu time spent up to now is      403.7 secs

     End of self-consistent calculation

 ------ SPIN UP ------------


          k = 0.0000 0.0000 0.0000 ( 12991 PWs)   bands (ev):

   -59.6308 -33.8805 -33.5052 -33.5052 -14.4577 -12.3350  -5.6283  -3.1574
    -3.1574  -3.0630  -0.9967  -0.9967   0.0344   0.0344   0.0986   1.1845
     1.1845   1.3610   3.8123   4.0866   4.0868   4.5069

          k = 0.0000 0.0722 0.0000 ( 12961 PWs)   bands (ev):

   -59.6293 -33.8778 -33.5197 -33.5085 -14.4086 -12.2954  -5.5712  -3.2902
    -3.1629  -3.0295  -1.1165  -0.9798  -0.1215   0.0433   0.2275   1.0984
     1.1662   1.3970   3.8974   4.0035   4.1413   4.3077

          k = 0.0000 0.1443 0.0000 ( 12937 PWs)   bands (ev):

   -59.6252 -33.8699 -33.5610 -33.5180 -14.2656 -12.1796  -5.4102  -3.6486
    -3.1827  -2.9606  -1.4072  -0.9466  -0.3195   0.0834   0.3143   0.8932
     1.1468   1.4790   3.7384   3.9063   4.1610   4.2486

          k = 0.0000 0.2165 0.0000 ( 12929 PWs)   bands (ev):

   -59.6189 -33.8581 -33.6223 -33.5322 -14.0413 -11.9975  -5.1783  -4.1661
    -3.2233  -2.9252  -1.7253  -0.9321  -0.5014   0.1715   0.2925   0.6293
     1.2020   1.5802   3.4377   3.7130   3.9706   4.5800

          k = 0.0000 0.2887 0.0000 ( 12917 PWs)   bands (ev):

   -59.6116 -33.8441 -33.6938 -33.5489 -13.7580 -11.7664  -4.9638  -4.7295
    -3.2860  -3.0378  -1.9245  -0.9512  -0.6303   0.1731   0.2945   0.4266
     1.3877   1.6245   3.1896   3.7378   3.7902   4.7014

          k = 0.0000 0.3608 0.0000 ( 12903 PWs)   bands (ev):

   -59.6042 -33.8302 -33.7645 -33.5655 -13.4493 -11.5126  -5.3943  -4.7090
    -3.3620  -3.2738  -2.0229  -0.9923  -0.6967   0.0602   0.4013   0.4331
     1.5378   1.6769   3.1464   3.5422   3.9512   4.7420

          k = 0.0000 0.4330 0.0000 ( 12893 PWs)   bands (ev):

   -59.5979 -33.8259 -33.8164 -33.5796 -13.1620 -11.2733  -5.9112  -4.6578
    -3.4594  -3.4347  -2.1414  -1.0371  -0.7062   0.0961   0.5210   0.5772
     1.3374   1.9516   3.2460   3.4493   4.0277   4.7091

          k = 0.0000 0.5052 0.0000 ( 12870 PWs)   bands (ev):

   -59.5938 -33.8638 -33.8099 -33.5889 -12.9531 -11.0967  -6.2724  -4.7115
    -3.5286  -3.4865  -2.2644  -1.0707  -0.6840   0.2648   0.6893   0.6985
     1.0794   2.0949   3.3761   3.4869   3.9750   4.6411

          k = 0.0000-0.5774 0.0000 ( 12854 PWs)   bands (ev):

   -59.5923 -33.8776 -33.8071 -33.5922 -12.8759 -11.0307  -6.4031  -4.7500
    -3.5397  -3.5053  -2.3162  -1.0831  -0.6719   0.4132   0.7482   0.7566
     0.9157   2.1251   3.4385   3.5362   3.9280   4.6031

          k = 0.0625 0.1083 0.0000 ( 12951 PWs)   bands (ev):

   -59.6265 -33.8724 -33.5472 -33.5153 -14.3125 -12.2176  -5.4619  -3.5254
    -3.1901  -2.9740  -1.3149  -0.9647  -0.2570   0.0571   0.3049   0.9753
     1.1287   1.4576   3.8353   3.9873   4.0645   4.2452

          k = 0.0625 0.1804 0.0000 ( 12937 PWs)   bands (ev):

   -59.6213 -33.8626 -33.5974 -33.5283 -14.1287 -12.0685  -5.2636  -3.9487
    -3.2426  -2.9136  -1.6116  -0.9638  -0.4153   0.0956   0.3303   0.7627
     1.1435   1.5558   3.5879   3.7110   3.9945   4.4091

          k = 0.0625 0.2526 0.0000 ( 12935 PWs)   bands (ev):

   -59.6145 -33.8497 -33.6622 -33.5453 -13.8745 -11.8613  -5.0230  -4.4873
    -3.3134  -2.9568  -1.8598  -0.9789  -0.5612   0.1359   0.3007   0.5336
     1.2809   1.6429   3.2536   3.6768   3.8116   4.6341

          k = 0.0625 0.3248 0.0000 ( 12927 PWs)   bands (ev):

   -59.6072 -33.8358 -33.7317 -33.5637 -13.5774 -11.6174  -5.1142  -4.7526
    -3.4068  -3.1582  -1.9748  -1.0110  -0.6623   0.0768   0.3025   0.4676
     1.4958   1.6643   3.0884   3.5754   3.8646   4.7394

          k = 0.0625 0.3969 0.0000 ( 12903 PWs)   bands (ev):

   -59.6003 -33.8231 -33.7949 -33.5805 -13.2770 -11.3680  -5.6530  -4.6329
    -3.5450  -3.3422  -2.0662  -1.0818  -0.6840   0.0596   0.3706   0.5675
     1.4193   1.8659   3.0894   3.5121   4.0188   4.6999

          k = 0.0625 0.4691 0.0000 ( 12863 PWs)   bands (ev):

   -59.5951 -33.8440 -33.8123 -33.5934 -13.0256 -11.1561  -6.0889  -4.6440
    -3.6667  -3.4078  -2.1951  -1.1551  -0.6520   0.1626   0.5410   0.6992
     1.1838   2.0425   3.1870   3.5771   4.0723   4.5629

          k = 0.0625 0.5413 0.0000 ( 12844 PWs)   bands (ev):

   -59.5923 -33.8698 -33.8071 -33.6004 -12.8797 -11.0314  -6.3342  -4.7071
    -3.7130  -3.4203  -2.2941  -1.1939  -0.6229   0.3264   0.6972   0.7777
     0.9635   2.0895   3.3292   3.6593   3.9954   4.4755

          k = 0.1250 0.2165 0.0000 ( 12933 PWs)   bands (ev):

   -59.6156 -33.8517 -33.6491 -33.5461 -13.9147 -11.8938  -5.0503  -4.3699
    -3.3600  -2.9251  -1.8266  -1.0159  -0.5140   0.0774   0.3325   0.6031
     1.2345   1.6550   3.2840   3.6419   3.7827   4.5829

          k = 0.1250 0.2887 0.0000 ( 12935 PWs)   bands (ev):

   -59.6088 -33.8388 -33.7085 -33.5681 -13.6453 -11.6722  -4.9140  -4.7655
    -3.5070  -3.0867  -1.9479  -1.0564  -0.6247   0.0376   0.2974   0.5107
     1.4204   1.7265   3.0239   3.5582   3.7620   4.7389

          k = 0.1250 0.3608 0.0000 ( 12903 PWs)   bands (ev):

   -59.6019 -33.8259 -33.7668 -33.5905 -13.3535 -11.4291  -5.3902  -4.6023
    -3.6970  -3.2923  -2.0149  -1.1427  -0.6628   0.0199   0.2603   0.5816
     1.4296   1.8690   2.9031   3.5656   3.8840   4.7557

          k = 0.1250 0.4330 0.0000 ( 12881 PWs)   bands (ev):

   -59.5962 -33.8188 -33.8119 -33.6096 -13.0837 -11.2008  -5.8357  -4.5349
    -3.8843  -3.3938  -2.1218  -1.2867  -0.6113   0.1011   0.3318   0.7203
     1.2293   2.0279   2.9402   3.6711   4.0492   4.5906

          k = 0.1250 0.5052 0.0000 ( 12858 PWs)   bands (ev):

   -59.5923 -33.8487 -33.8071 -33.6224 -12.8891 -11.0333  -6.1470  -4.5986
    -3.9665  -3.4076  -2.2482  -1.3936  -0.5533   0.2113   0.5238   0.7806
     1.0738   2.0477   3.1381   3.7205   4.1678   4.3534

          k = 0.1250 0.5774 0.0000 ( 12856 PWs)   bands (ev):

   -59.5909 -33.8600 -33.8046 -33.6269 -12.8174 -10.9709  -6.2596  -4.6463
    -3.9828  -3.4002  -2.3058  -1.4296  -0.5314   0.2906   0.6239   0.7130
     1.0802   2.0239   3.3051   3.6826   4.0952   4.3422

          k = 0.1875 0.3248 0.0000 ( 12901 PWs)   bands (ev):

   -59.6025 -33.8270 -33.7541 -33.5969 -13.3802 -11.4501  -5.2649  -4.5948
    -3.7792  -3.2735  -2.0059  -1.1587  -0.6583  -0.0206   0.2475   0.5890
     1.4190   1.8958   2.8197   3.5866   3.7947   4.7929

          k = 0.1875 0.3969 0.0000 ( 12903 PWs)   bands (ev):

   -59.5967 -33.8163 -33.7931 -33.6260 -13.1160 -11.2246  -5.6244  -4.4609
    -4.0597  -3.4095  -2.1040  -1.3326  -0.5962   0.0370   0.2189   0.7378
     1.2311   2.0764   2.7464   3.7043   3.9201   4.7451

          k = 0.1875 0.4691 0.0000 ( 12858 PWs)   bands (ev):

   -59.5923 -33.8227 -33.8068 -33.6496 -12.8983 -11.0350  -5.9119  -4.5258
    -4.1699  -3.4563  -2.2412  -1.5086  -0.5125   0.1592   0.3162   0.7710
     1.1476   2.0866   2.8962   3.6581   4.0881   4.6783

          k = 0.1875 0.5413 0.0000 ( 12848 PWs)   bands (ev):

   -59.5899 -33.8373 -33.8026 -33.6628 -12.7737 -10.9248  -6.0736  -4.6486
    -4.1740  -3.4453  -2.3455  -1.6116  -0.4627   0.2302   0.4924   0.6196
     1.2744   2.0001   3.1709   3.5124   4.0149   4.7266

          k = 0.2500 0.4330 0.0000 ( 12885 PWs)   bands (ev):

   -59.5923 -33.8107 -33.8051 -33.6637 -12.9021 -11.0357  -5.7877  -4.5684
    -4.1887  -3.4951  -2.2595  -1.5240  -0.5000   0.1519   0.2178   0.7657
     1.1680   2.1442   2.7613   3.6054   4.0770   4.8446

          k = 0.2500 0.5052 0.0000 ( 12870 PWs)   bands (ev):

   -59.5893 -33.8129 -33.8014 -33.6946 -12.7516 -10.9000  -5.8739  -4.8181
    -4.1439  -3.5222  -2.4107  -1.6675  -0.4301   0.2032   0.3814   0.5736
     1.3792   2.0690   2.9357   3.4020   4.0210   5.0991

          k = 0.2500 0.5774 0.0000 ( 12844 PWs)   bands (ev):

   -59.5883 -33.8124 -33.7996 -33.7073 -12.6971 -10.8503  -5.8979  -4.9186
    -4.1333  -3.5167  -2.4732  -1.7223  -0.4052   0.2426   0.4499   0.4820
     1.5283   1.9858   3.1457   3.1871   3.9550   5.2075

          k = 0.3125 0.5413 0.0000 ( 12856 PWs)   bands (ev):

   -59.5877 -33.7986 -33.7915 -33.7350 -12.6704 -10.8238  -5.7678  -5.0987
    -4.0770  -3.5629  -2.5334  -1.7497  -0.3868   0.2540   0.3874   0.4741
     1.6403   2.0092   2.9871   3.1440   3.9550   5.4706

 ------ SPIN DOWN ----------


          k = 0.0000 0.0000 0.0000 ( 12991 PWs)   bands (ev):

   -59.6308 -33.8805 -33.5051 -33.5051 -14.4577 -12.3350  -5.6283  -3.1574
    -3.1574  -3.0630  -0.9966  -0.9966   0.0344   0.0344   0.0987   1.1846
     1.1846   1.3610   3.8123   4.0866   4.0867   4.5069

          k = 0.0000 0.0722 0.0000 ( 12961 PWs)   bands (ev):

   -59.6293 -33.8777 -33.5197 -33.5085 -14.4086 -12.2954  -5.5712  -3.2902
    -3.1629  -3.0294  -1.1165  -0.9798  -0.1214   0.0434   0.2275   1.0985
     1.1663   1.3970   3.8974   4.0035   4.1413   4.3077

          k = 0.0000 0.1443 0.0000 ( 12937 PWs)   bands (ev):

   -59.6251 -33.8698 -33.5610 -33.5180 -14.2656 -12.1796  -5.4102  -3.6486
    -3.1827  -2.9606  -1.4071  -0.9466  -0.3194   0.0835   0.3143   0.8933
     1.1468   1.4790   3.7384   3.9063   4.1610   4.2486

          k = 0.0000 0.2165 0.0000 ( 12929 PWs)   bands (ev):

   -59.6189 -33.8580 -33.6222 -33.5322 -14.0413 -11.9975  -5.1783  -4.1661
    -3.2233  -2.9252  -1.7252  -0.9321  -0.5014   0.1715   0.2925   0.6294
     1.2020   1.5802   3.4377   3.7130   3.9706   4.5800

          k = 0.0000 0.2887 0.0000 ( 12917 PWs)   bands (ev):

   -59.6115 -33.8441 -33.6938 -33.5488 -13.7580 -11.7664  -4.9638  -4.7295
    -3.2860  -3.0378  -1.9245  -0.9512  -0.6303   0.1732   0.2946   0.4266
     1.3878   1.6245   3.1896   3.7379   3.7903   4.7014

          k = 0.0000 0.3608 0.0000 ( 12903 PWs)   bands (ev):

   -59.6042 -33.8302 -33.7645 -33.5655 -13.4494 -11.5126  -5.3943  -4.7090
    -3.3620  -3.2738  -2.0229  -0.9923  -0.6966   0.0602   0.4013   0.4331
     1.5379   1.6770   3.1465   3.5423   3.9512   4.7420

          k = 0.0000 0.4330 0.0000 ( 12893 PWs)   bands (ev):

   -59.5979 -33.8258 -33.8163 -33.5795 -13.1620 -11.2733  -5.9112  -4.6578
    -3.4594  -3.4347  -2.1414  -1.0371  -0.7062   0.0961   0.5210   0.5773
     1.3374   1.9517   3.2460   3.4494   4.0277   4.7091

          k = 0.0000 0.5052 0.0000 ( 12870 PWs)   bands (ev):

   -59.5937 -33.8638 -33.8098 -33.5889 -12.9531 -11.0967  -6.2724  -4.7115
    -3.5286  -3.4865  -2.2644  -1.0707  -0.6840   0.2648   0.6893   0.6986
     1.0795   2.0950   3.3762   3.4870   3.9750   4.6411

          k = 0.0000-0.5774 0.0000 ( 12854 PWs)   bands (ev):

   -59.5922 -33.8775 -33.8071 -33.5922 -12.8759 -11.0307  -6.4031  -4.7500
    -3.5397  -3.5053  -2.3162  -1.0831  -0.6719   0.4133   0.7482   0.7566
     0.9158   2.1251   3.4386   3.5363   3.9280   4.6031

          k = 0.0625 0.1083 0.0000 ( 12951 PWs)   bands (ev):

   -59.6265 -33.8724 -33.5472 -33.5153 -14.3125 -12.2176  -5.4619  -3.5254
    -3.1901  -2.9740  -1.3149  -0.9647  -0.2570   0.0572   0.3049   0.9753
     1.1288   1.4576   3.8353   3.9873   4.0646   4.2452

          k = 0.0625 0.1804 0.0000 ( 12937 PWs)   bands (ev):

   -59.6213 -33.8625 -33.5973 -33.5283 -14.1288 -12.0685  -5.2636  -3.9487
    -3.2426  -2.9136  -1.6116  -0.9638  -0.4152   0.0956   0.3304   0.7627
     1.1436   1.5558   3.5880   3.7111   3.9945   4.4091

          k = 0.0625 0.2526 0.0000 ( 12935 PWs)   bands (ev):

   -59.6145 -33.8497 -33.6622 -33.5453 -13.8745 -11.8613  -5.0230  -4.4873
    -3.3134  -2.9568  -1.8598  -0.9788  -0.5611   0.1359   0.3007   0.5336
     1.2809   1.6429   3.2536   3.6769   3.8116   4.6341

          k = 0.0625 0.3248 0.0000 ( 12927 PWs)   bands (ev):

   -59.6071 -33.8357 -33.7316 -33.5636 -13.5774 -11.6174  -5.1142  -4.7526
    -3.4068  -3.1582  -1.9748  -1.0109  -0.6623   0.0769   0.3025   0.4676
     1.4959   1.6644   3.0884   3.5754   3.8646   4.7394

          k = 0.0625 0.3969 0.0000 ( 12903 PWs)   bands (ev):

   -59.6003 -33.8231 -33.7949 -33.5805 -13.2771 -11.3681  -5.6530  -4.6329
    -3.5449  -3.3422  -2.0662  -1.0818  -0.6840   0.0596   0.3706   0.5676
     1.4194   1.8659   3.0894   3.5121   4.0188   4.7000

          k = 0.0625 0.4691 0.0000 ( 12863 PWs)   bands (ev):

   -59.5951 -33.8440 -33.8123 -33.5934 -13.0256 -11.1562  -6.0889  -4.6440
    -3.6667  -3.4078  -2.1950  -1.1551  -0.6519   0.1626   0.5411   0.6993
     1.1839   2.0425   3.1870   3.5772   4.0723   4.5629

          k = 0.0625 0.5413 0.0000 ( 12844 PWs)   bands (ev):

   -59.5922 -33.8697 -33.8071 -33.6004 -12.8798 -11.0315  -6.3342  -4.7071
    -3.7130  -3.4203  -2.2941  -1.1939  -0.6229   0.3265   0.6973   0.7777
     0.9636   2.0896   3.3293   3.6593   3.9955   4.4756

          k = 0.1250 0.2165 0.0000 ( 12933 PWs)   bands (ev):

   -59.6155 -33.8516 -33.6490 -33.5461 -13.9147 -11.8939  -5.0503  -4.3699
    -3.3600  -2.9251  -1.8266  -1.0159  -0.5139   0.0775   0.3326   0.6031
     1.2345   1.6550   3.2840   3.6420   3.7827   4.5829

          k = 0.1250 0.2887 0.0000 ( 12935 PWs)   bands (ev):

   -59.6087 -33.8387 -33.7084 -33.5681 -13.6454 -11.6722  -4.9139  -4.7655
    -3.5070  -3.0867  -1.9479  -1.0564  -0.6246   0.0377   0.2975   0.5107
     1.4204   1.7266   3.0239   3.5582   3.7620   4.7389

          k = 0.1250 0.3608 0.0000 ( 12903 PWs)   bands (ev):

   -59.6019 -33.8259 -33.7668 -33.5905 -13.3535 -11.4291  -5.3902  -4.6023
    -3.6970  -3.2923  -2.0149  -1.1427  -0.6628   0.0200   0.2603   0.5817
     1.4296   1.8691   2.9032   3.5656   3.8841   4.7557

          k = 0.1250 0.4330 0.0000 ( 12881 PWs)   bands (ev):

   -59.5961 -33.8187 -33.8119 -33.6096 -13.0837 -11.2008  -5.8357  -4.5349
    -3.8843  -3.3938  -2.1217  -1.2867  -0.6113   0.1012   0.3319   0.7203
     1.2293   2.0280   2.9403   3.6711   4.0492   4.5907

          k = 0.1250 0.5052 0.0000 ( 12858 PWs)   bands (ev):

   -59.5922 -33.8487 -33.8071 -33.6223 -12.8891 -11.0333  -6.1470  -4.5986
    -3.9665  -3.4076  -2.2482  -1.3936  -0.5532   0.2114   0.5238   0.7807
     1.0739   2.0477   3.1382   3.7205   4.1679   4.3534

          k = 0.1250 0.5774 0.0000 ( 12856 PWs)   bands (ev):

   -59.5909 -33.8600 -33.8045 -33.6268 -12.8175 -10.9710  -6.2597  -4.6463
    -3.9828  -3.4002  -2.3058  -1.4296  -0.5314   0.2907   0.6239   0.7131
     1.0803   2.0240   3.3051   3.6827   4.0952   4.3423

          k = 0.1875 0.3248 0.0000 ( 12901 PWs)   bands (ev):

   -59.6025 -33.8269 -33.7540 -33.5969 -13.3803 -11.4502  -5.2649  -4.5948
    -3.7792  -3.2735  -2.0059  -1.1587  -0.6583  -0.0206   0.2475   0.5891
     1.4191   1.8958   2.8198   3.5867   3.7947   4.7930

          k = 0.1875 0.3969 0.0000 ( 12903 PWs)   bands (ev):

   -59.5967 -33.8162 -33.7930 -33.6260 -13.1160 -11.2246  -5.6244  -4.4609
    -4.0597  -3.4095  -2.1040  -1.3326  -0.5962   0.0371   0.2190   0.7379
     1.2312   2.0764   2.7464   3.7043   3.9202   4.7451

          k = 0.1875 0.4691 0.0000 ( 12858 PWs)   bands (ev):

   -59.5922 -33.8226 -33.8068 -33.6496 -12.8983 -11.0350  -5.9119  -4.5258
    -4.1699  -3.4563  -2.2412  -1.5086  -0.5125   0.1592   0.3163   0.7710
     1.1476   2.0866   2.8962   3.6582   4.0881   4.6783

          k = 0.1875 0.5413 0.0000 ( 12848 PWs)   bands (ev):

   -59.5898 -33.8373 -33.8026 -33.6627 -12.7737 -10.9248  -6.0736  -4.6486
    -4.1740  -3.4453  -2.3455  -1.6116  -0.4627   0.2303   0.4924   0.6197
     1.2745   2.0002   3.1709   3.5124   4.0149   4.7266

          k = 0.2500 0.4330 0.0000 ( 12885 PWs)   bands (ev):

   -59.5923 -33.8106 -33.8051 -33.6637 -12.9021 -11.0357  -5.7877  -4.5684
    -4.1887  -3.4951  -2.2595  -1.5240  -0.5000   0.1520   0.2178   0.7657
     1.1681   2.1442   2.7614   3.6055   4.0770   4.8447

          k = 0.2500 0.5052 0.0000 ( 12870 PWs)   bands (ev):

   -59.5893 -33.8129 -33.8013 -33.6946 -12.7516 -10.9000  -5.8739  -4.8181
    -4.1439  -3.5222  -2.4107  -1.6675  -0.4301   0.2033   0.3814   0.5736
     1.3793   2.0690   2.9357   3.4020   4.0210   5.0992

          k = 0.2500 0.5774 0.0000 ( 12844 PWs)   bands (ev):

   -59.5882 -33.8124 -33.7995 -33.7072 -12.6971 -10.8503  -5.8979  -4.9186
    -4.1333  -3.5167  -2.4732  -1.7223  -0.4052   0.2426   0.4500   0.4820
     1.5284   1.9858   3.1457   3.1871   3.9551   5.2076

          k = 0.3125 0.5413 0.0000 ( 12856 PWs)   bands (ev):

   -59.5877 -33.7986 -33.7914 -33.7350 -12.6704 -10.8238  -5.7678  -5.0987
    -4.0770  -3.5629  -2.5334  -1.7497  -0.3868   0.2540   0.3874   0.4741
     1.6403   2.0093   2.9871   3.1441   3.9551   5.4707

     the Fermi energy is     1.9065 ev

!    total energy              =    -658.63378061 Ry
     total all-electron energy =    -12481.807671 Ry
     estimated scf accuracy    <       0.00000013 Ry
     smearing contrib. (-TS)   =      -0.00589833 Ry
     internal energy E=F+TS    =    -658.62788228 Ry

     The total energy is F=E-TS. E is the sum of the following terms:
     one-electron contribution =   -1406.64856228 Ry
     hartree contribution      =     716.71064060 Ry
     xc contribution           =     -62.56039879 Ry
     ewald contribution        =     500.02057732 Ry
     one-center paw contrib.   =    -406.15013912 Ry

     total magnetization       =     0.00 Bohr mag/cell
     absolute magnetization    =     0.00 Bohr mag/cell

     convergence has been achieved in   9 iterations

     negative rho (up, down):  2.586E-04 2.586E-04

     Forces acting on atoms (cartesian axes, Ry/au):

     atom    1 type  1   force =     0.00000000    0.00000000    0.00203102
     atom    2 type  2   force =     0.00000000    0.00000000   -0.03478079
     atom    3 type  2   force =     0.00000000    0.00000000    0.01789977
     atom    4 type  3   force =     0.00000000    0.00000000    0.01485000
     The non-local contrib.  to forces
     atom    1 type  1   force =     0.00000000   -0.00000000   -0.07251297
     atom    2 type  2   force =     0.00000000   -0.00000000   -0.12141858
     atom    3 type  2   force =     0.00000000    0.00000000    0.26940597
     atom    4 type  3   force =     0.00000000    0.00000000    0.02335453
     The ionic contribution  to forces
     atom    1 type  1   force =     0.00000000   -0.00000000  -36.47351456
     atom    2 type  2   force =    -0.00000000    0.00000000   21.16953552
     atom    3 type  2   force =    -0.00000000    0.00000000  -46.39459751
     atom    4 type  3   force =     0.00000000   -0.00000000   61.69857654
     The local contribution  to forces
     atom    1 type  1   force =    -0.00000000    0.00000000   36.54287095
     atom    2 type  2   force =    -0.00000000    0.00000000  -21.08808808
     atom    3 type  2   force =    -0.00000000    0.00000000   46.14579260
     atom    4 type  3   force =    -0.00000000   -0.00000000  -61.66461126
     The core correction contribution to forces
     atom    1 type  1   force =     0.00000000    0.00000000    0.00489828
     atom    2 type  2   force =     0.00000000   -0.00000000    0.00528395
     atom    3 type  2   force =     0.00000000   -0.00000000   -0.00233819
     atom    4 type  3   force =    -0.00000000    0.00000000   -0.04276091
     The Hubbard contrib.    to forces
     atom    1 type  1   force =     0.00000000    0.00000000    0.00000000
     atom    2 type  2   force =     0.00000000    0.00000000    0.00000000
     atom    3 type  2   force =     0.00000000    0.00000000    0.00000000
     atom    4 type  3   force =     0.00000000    0.00000000    0.00000000
     The SCF correction term to forces
     atom    1 type  1   force =    -0.00000000   -0.00000000    0.00035977
     atom    2 type  2   force =     0.00000000   -0.00000000   -0.00002314
     atom    3 type  2   force =     0.00000000    0.00000000   -0.00029264
     atom    4 type  3   force =     0.00000000    0.00000000    0.00036156

     Total force =     0.041890     Total SCF correction =     0.000588


     Computing stress (Cartesian axis) and pressure


     negative rho (up, down):  2.586E-04 2.586E-04
          total   stress  (Ry/bohr**3)                   (kbar)     P=        7.49
   0.00012087   0.00000000   0.00000000           17.78        0.00        0.00
   0.00000000   0.00012087   0.00000000            0.00       17.78        0.00
   0.00000000   0.00000000  -0.00008892            0.00        0.00      -13.08

     Energy error            =      5.5E-03 Ry
     Gradient error          =      3.5E-02 Ry/Bohr

     number of scf cycles    =  15
     number of bfgs steps    =  14

     energy             old  =    -658.6282707562 Ry
     energy             new  =    -658.6337806100 Ry

     CASE: energy            _new < energy            _old

     new trust radius        =       0.0988533672 bohr
     new conv_thr            =       0.0000003478 Ry


ATOMIC_POSITIONS (crystal)
Mo            0.0000000000        0.0000000000        0.5106128755
S             0.6666666667        0.3333333333        0.6052821964
S             0.6666666667        0.3333333333        0.4239759241
Co            0.0000000000        0.0000000000        0.6577650678



     Writing config-only to output data dir ./tmp/relax.save/
     NEW-OLD atomic charge density approx. for the potential

     negative rho (up, down):  2.555E-04 2.555E-04
     Generating pointlists ...

     total cpu time spent up to now is      406.8 secs

     Self-consistent Calculation

     iteration #  1     ecut=    80.00 Ry     beta= 0.70
     Davidson diagonalization with overlap
     ethr =  1.00E-06,  avg # of iterations =  9.3

     negative rho (up, down):  2.611E-04 2.611E-04

     total cpu time spent up to now is      410.6 secs

     total energy              =    -658.63463806 Ry
     estimated scf accuracy    <       0.00221981 Ry

     total magnetization       =     0.00 Bohr mag/cell
     absolute magnetization    =     0.00 Bohr mag/cell

     iteration #  2     ecut=    80.00 Ry     beta= 0.70
     Davidson diagonalization with overlap
     ethr =  6.34E-06,  avg # of iterations =  4.5

     negative rho (up, down):  2.604E-04 2.604E-04

     total cpu time spent up to now is      412.9 secs

     total energy              =    -658.63072699 Ry
     estimated scf accuracy    <       0.05274972 Ry

     total magnetization       =     0.00 Bohr mag/cell
     absolute magnetization    =     0.00 Bohr mag/cell

     iteration #  3     ecut=    80.00 Ry     beta= 0.70
     Davidson diagonalization with overlap
     ethr =  6.34E-06,  avg # of iterations =  5.8

     negative rho (up, down):  2.604E-04 2.604E-04

     total cpu time spent up to now is      415.2 secs

     total energy              =    -658.63354712 Ry
     estimated scf accuracy    <       0.04530633 Ry

     total magnetization       =     0.00 Bohr mag/cell
     absolute magnetization    =     0.00 Bohr mag/cell

     iteration #  4     ecut=    80.00 Ry     beta= 0.70
     Davidson diagonalization with overlap
     ethr =  6.34E-06,  avg # of iterations =  3.9

     negative rho (up, down):  2.614E-04 2.614E-04

     total cpu time spent up to now is      417.2 secs

     total energy              =    -658.63584966 Ry
     estimated scf accuracy    <       0.00092338 Ry

     total magnetization       =     0.00 Bohr mag/cell
     absolute magnetization    =     0.00 Bohr mag/cell

     iteration #  5     ecut=    80.00 Ry     beta= 0.70
     Davidson diagonalization with overlap
     ethr =  2.64E-06,  avg # of iterations =  2.9

     negative rho (up, down):  2.628E-04 2.628E-04

     total cpu time spent up to now is      419.0 secs

     total energy              =    -658.63598712 Ry
     estimated scf accuracy    <       0.00006694 Ry

     total magnetization       =     0.00 Bohr mag/cell
     absolute magnetization    =     0.00 Bohr mag/cell

     iteration #  6     ecut=    80.00 Ry     beta= 0.70
     Davidson diagonalization with overlap
     ethr =  1.91E-07,  avg # of iterations =  2.6

     negative rho (up, down):  2.632E-04 2.632E-04

     total cpu time spent up to now is      420.9 secs

     total energy              =    -658.63600525 Ry
     estimated scf accuracy    <       0.00000775 Ry

     total magnetization       =     0.00 Bohr mag/cell
     absolute magnetization    =     0.00 Bohr mag/cell

     iteration #  7     ecut=    80.00 Ry     beta= 0.70
     Davidson diagonalization with overlap
     ethr =  2.21E-08,  avg # of iterations =  4.0

     negative rho (up, down):  2.634E-04 2.634E-04

     total cpu time spent up to now is      423.0 secs

     total energy              =    -658.63600644 Ry
     estimated scf accuracy    <       0.00000956 Ry

     total magnetization       =     0.00 Bohr mag/cell
     absolute magnetization    =     0.00 Bohr mag/cell

     iteration #  8     ecut=    80.00 Ry     beta= 0.70
     Davidson diagonalization with overlap
     ethr =  2.21E-08,  avg # of iterations =  2.2

     negative rho (up, down):  2.634E-04 2.634E-04
 
     Magnetic moment per site  (integrated on atomic sphere of radius R)
     atom   1 (R=0.308)  charge= 10.6262  magn=  0.0000
     atom   2 (R=0.259)  charge=  2.9317  magn= -0.0000
     atom   3 (R=0.259)  charge=  2.8385  magn=  0.0000
     atom   4 (R=0.259)  charge=  6.6378  magn=  0.0001

     total cpu time spent up to now is      424.8 secs

     End of self-consistent calculation

 ------ SPIN UP ------------


          k = 0.0000 0.0000 0.0000 ( 12991 PWs)   bands (ev):

   -59.6694 -33.9354 -33.5496 -33.5496 -14.4917 -12.3310  -5.6901  -3.0977
    -3.0977  -2.9538  -1.0339  -1.0339  -0.0486   0.0576   0.0576   1.1327
     1.1327   1.4110   3.7842   3.9923   3.9923   4.5283

          k = 0.0000 0.0722 0.0000 ( 12961 PWs)   bands (ev):

   -59.6679 -33.9326 -33.5644 -33.5530 -14.4425 -12.2923  -5.6319  -3.2407
    -3.1082  -2.9296  -1.1502  -1.0172  -0.1742   0.0718   0.1726   1.0448
     1.1142   1.4492   3.8433   3.9359   4.0481   4.3452

          k = 0.0000 0.1443 0.0000 ( 12937 PWs)   bands (ev):

   -59.6637 -33.9244 -33.6064 -33.5626 -14.2992 -12.1794  -5.4683  -3.6283
    -3.1432  -2.8826  -1.4278  -0.9809  -0.3491   0.1277   0.2776   0.8325
     1.0900   1.5366   3.6578   3.9584   4.0993   4.2264

          k = 0.0000 0.2165 0.0000 ( 12929 PWs)   bands (ev):

   -59.6574 -33.9121 -33.6687 -33.5770 -14.0751 -12.0014  -5.2332  -4.1791
    -3.2079  -2.8822  -1.7218  -0.9534  -0.5088   0.2409   0.2755   0.5692
     1.1290   1.6425   3.4569   3.7051   3.9554   4.5785

          k = 0.0000 0.2887 0.0000 ( 12917 PWs)   bands (ev):

   -59.6499 -33.8976 -33.7414 -33.5939 -13.7931 -11.7746  -5.0036  -4.7838
    -3.2995  -3.0286  -1.8981  -0.9511  -0.6242   0.1424   0.3909   0.4072
     1.2920   1.6930   3.2654   3.7430   3.7662   4.7137

          k = 0.0000 0.3608 0.0000 ( 12903 PWs)   bands (ev):

   -59.6425 -33.8831 -33.8132 -33.6107 -13.4874 -11.5241  -5.4384  -4.7777
    -3.4029  -3.2815  -1.9927  -0.9707  -0.6952   0.0555   0.3996   0.5479
     1.5672   1.6164   3.2457   3.5576   3.9466   4.7741

          k = 0.0000 0.4330 0.0000 ( 12893 PWs)   bands (ev):

   -59.6362 -33.8745 -33.8699 -33.6249 -13.2041 -11.2867  -5.9653  -4.7211
    -3.4968  -3.4862  -2.1166  -0.9999  -0.7143   0.1570   0.5058   0.7020
     1.4301   1.8467   3.3581   3.4574   4.0480   4.7614

          k = 0.0000 0.5052 0.0000 ( 12870 PWs)   bands (ev):

   -59.6319 -33.9137 -33.8624 -33.6344 -12.9993 -11.1106  -6.3300  -4.7641
    -3.5806  -3.5616  -2.2416  -1.0246  -0.6976   0.3772   0.6681   0.8280
     1.1843   2.0126   3.4659   3.4952   4.0059   4.7137

          k = 0.0000-0.5774 0.0000 ( 12854 PWs)   bands (ev):

   -59.6304 -33.9277 -33.8595 -33.6377 -12.9238 -11.0444  -6.4615  -4.7976
    -3.6033  -3.5846  -2.2927  -1.0342  -0.6873   0.5389   0.7553   0.8791
     1.0119   2.0559   3.4963   3.5595   3.9590   4.6866

          k = 0.0625 0.1083 0.0000 ( 12951 PWs)   bands (ev):

   -59.6650 -33.9270 -33.5924 -33.5599 -14.3462 -12.2165  -5.5208  -3.4950
    -3.1478  -2.8881  -1.3406  -1.0008  -0.2925   0.0940   0.2644   0.9169
     1.0753   1.5124   3.7387   3.9722   4.0921   4.1957

          k = 0.0625 0.1804 0.0000 ( 12937 PWs)   bands (ev):

   -59.6598 -33.9168 -33.6433 -33.5731 -14.1624 -12.0709  -5.3198  -3.9476
    -3.2239  -2.8543  -1.6213  -0.9896  -0.4278   0.1480   0.3140   0.7089
     1.0739   1.6145   3.5631   3.7215   3.9728   4.4140

          k = 0.0625 0.2526 0.0000 ( 12935 PWs)   bands (ev):

   -59.6529 -33.9035 -33.7092 -33.5903 -13.9089 -11.8678  -5.0751  -4.5175
    -3.3227  -2.9334  -1.8473  -0.9830  -0.5543   0.1649   0.3160   0.5220
     1.1909   1.7060   3.3200   3.6433   3.8048   4.6489

          k = 0.0625 0.3248 0.0000 ( 12927 PWs)   bands (ev):

   -59.6455 -33.8890 -33.7798 -33.6088 -13.6139 -11.6276  -5.1485  -4.8238
    -3.4449  -3.1562  -1.9507  -0.9925  -0.6513   0.0590   0.3334   0.5408
     1.4182   1.7100   3.1795   3.5946   3.8307   4.7747

          k = 0.0625 0.3969 0.0000 ( 12903 PWs)   bands (ev):

   -59.6386 -33.8756 -33.8443 -33.6259 -13.3172 -11.3808  -5.7043  -4.7005
    -3.6079  -3.3510  -2.0447  -1.0519  -0.6756   0.0809   0.3850   0.6755
     1.4869   1.7822   3.1868   3.5387   4.0062   4.7565

          k = 0.0625 0.4691 0.0000 ( 12863 PWs)   bands (ev):

   -59.6333 -33.8935 -33.8651 -33.6389 -13.0701 -11.1698  -6.1466  -4.7025
    -3.7536  -3.4295  -2.1795  -1.1200  -0.6444   0.2476   0.5306   0.8197
     1.2831   1.9632   3.2708   3.5991   4.0894   4.6301

          k = 0.0625 0.5413 0.0000 ( 12844 PWs)   bands (ev):

   -59.6304 -33.9197 -33.8595 -33.6460 -12.9273 -11.0450  -6.3939  -4.7565
    -3.8184  -3.4497  -2.2807  -1.1550  -0.6177   0.4437   0.6853   0.9041
     1.0745   2.0290   3.3834   3.6857   4.0332   4.5433

          k = 0.1250 0.2165 0.0000 ( 12933 PWs)   bands (ev):

   -59.6540 -33.9055 -33.6959 -33.5911 -13.9489 -11.8997  -5.1038  -4.3916
    -3.3729  -2.8942  -1.8249  -1.0183  -0.5059   0.1267   0.3277   0.5958
     1.1408   1.7159   3.3564   3.5759   3.7875   4.6032

          k = 0.1250 0.2887 0.0000 ( 12935 PWs)   bands (ev):

   -59.6471 -33.8921 -33.7562 -33.6134 -13.6812 -11.6816  -4.9318  -4.8457
    -3.5493  -3.0797  -1.9379  -1.0326  -0.6038   0.0468   0.3068   0.5770
     1.3329   1.7792   3.1162   3.5496   3.7304   4.7815

          k = 0.1250 0.3608 0.0000 ( 12903 PWs)   bands (ev):

   -59.6402 -33.8787 -33.8156 -33.6361 -13.3924 -11.4411  -5.4384  -4.6734
    -3.7643  -3.2908  -2.0050  -1.1088  -0.6363   0.0138   0.2914   0.6873
     1.4471   1.8389   3.0031   3.5859   3.8415   4.8224

          k = 0.1250 0.4330 0.0000 ( 12881 PWs)   bands (ev):

   -59.6344 -33.8682 -33.8644 -33.6554 -13.1266 -11.2139  -5.8946  -4.6024
    -3.9773  -3.3923  -2.1182  -1.2551  -0.5748   0.1373   0.3447   0.8426
     1.3120   1.9722   3.0411   3.6832   4.0189   4.6794

          k = 0.1250 0.5052 0.0000 ( 12858 PWs)   bands (ev):

   -59.6304 -33.8984 -33.8595 -33.6683 -12.9357 -11.0463  -6.2106  -4.6542
    -4.0867  -3.4051  -2.2533  -1.3608  -0.5143   0.3043   0.5082   0.9052
     1.1885   2.0071   3.2138   3.7350   4.1834   4.4221

          k = 0.1250 0.5774 0.0000 ( 12856 PWs)   bands (ev):

   -59.6291 -33.9099 -33.8569 -33.6728 -12.8656 -10.9837  -6.3245  -4.6974
    -4.1125  -3.3976  -2.3147  -1.3956  -0.4935   0.3977   0.6122   0.8329
     1.2082   1.9900   3.3413   3.7331   4.1964   4.3277

          k = 0.1875 0.3248 0.0000 ( 12901 PWs)   bands (ev):

   -59.6408 -33.8798 -33.8026 -33.6425 -13.4187 -11.4618  -5.3107  -4.6679
    -3.8465  -3.2718  -2.0028  -1.1210  -0.6242  -0.0252   0.2755   0.6949
     1.4184   1.8847   2.9226   3.5908   3.7549   4.8614

          k = 0.1875 0.3969 0.0000 ( 12903 PWs)   bands (ev):

   -59.6349 -33.8684 -33.8425 -33.6720 -13.1580 -11.2372  -5.6840  -4.5438
    -4.1401  -3.4049  -2.1060  -1.3017  -0.5414   0.0350   0.2592   0.8613
     1.2975   2.0361   2.8629   3.7160   3.8648   4.8378

          k = 0.1875 0.4691 0.0000 ( 12858 PWs)   bands (ev):

   -59.6304 -33.8718 -33.8595 -33.6959 -12.9441 -11.0475  -5.9807  -4.6055
    -4.2709  -3.4447  -2.2506  -1.4844  -0.4398   0.2132   0.3193   0.8921
     1.2519   2.0631   2.9990   3.6671   4.0719   4.7576

          k = 0.1875 0.5413 0.0000 ( 12848 PWs)   bands (ev):

   -59.6280 -33.8869 -33.8548 -33.7092 -12.8220 -10.9367  -6.1472  -4.7241
    -4.2872  -3.4289  -2.3627  -1.5883  -0.3853   0.3192   0.4848   0.7379
     1.3949   1.9916   3.2133   3.5545   4.0976   4.7358

          k = 0.2500 0.4330 0.0000 ( 12885 PWs)   bands (ev):

   -59.6305 -33.8603 -33.8571 -33.7102 -12.9475 -11.0480  -5.8595  -4.6679
    -4.2694  -3.4841  -2.2644  -1.5072  -0.4127   0.1688   0.2510   0.8847
     1.2662   2.1221   2.8804   3.6093   4.0533   4.9275

          k = 0.2500 0.5052 0.0000 ( 12870 PWs)   bands (ev):

   -59.6275 -33.8621 -33.8537 -33.7415 -12.7997 -10.9114  -5.9576  -4.9130
    -4.2347  -3.5075  -2.4142  -1.6629  -0.3207   0.2743   0.3812   0.6873
     1.4797   2.0842   3.0078   3.4021   4.1135   5.1180

          k = 0.2500 0.5774 0.0000 ( 12844 PWs)   bands (ev):

   -59.6264 -33.8618 -33.8517 -33.7542 -12.7463 -10.8612  -5.9872  -5.0098
    -4.2265  -3.5025  -2.4757  -1.7219  -0.2896   0.3226   0.4804   0.5676
     1.6246   2.0197   3.1281   3.2370   4.1148   5.1993

          k = 0.3125 0.5413 0.0000 ( 12856 PWs)   bands (ev):

   -59.6258 -33.8506 -33.8410 -33.7820 -12.7198 -10.8343  -5.8711  -5.1817
    -4.1681  -3.5538  -2.5229  -1.7618  -0.2539   0.3297   0.4785   0.5000
     1.7078   2.0838   2.9916   3.1406   4.1483   5.4561

 ------ SPIN DOWN ----------


          k = 0.0000 0.0000 0.0000 ( 12991 PWs)   bands (ev):

   -59.6694 -33.9355 -33.5496 -33.5496 -14.4917 -12.3310  -5.6901  -3.0977
    -3.0977  -2.9537  -1.0339  -1.0339  -0.0485   0.0577   0.0577   1.1327
     1.1327   1.4111   3.7842   3.9923   3.9923   4.5284

          k = 0.0000 0.0722 0.0000 ( 12961 PWs)   bands (ev):

   -59.6679 -33.9326 -33.5644 -33.5530 -14.4425 -12.2923  -5.6319  -3.2407
    -3.1082  -2.9296  -1.1502  -1.0172  -0.1742   0.0718   0.1726   1.0448
     1.1142   1.4492   3.8434   3.9359   4.0480   4.3452

          k = 0.0000 0.1443 0.0000 ( 12937 PWs)   bands (ev):

   -59.6637 -33.9244 -33.6064 -33.5626 -14.2992 -12.1794  -5.4683  -3.6283
    -3.1432  -2.8826  -1.4278  -0.9809  -0.3491   0.1278   0.2777   0.8325
     1.0900   1.5366   3.6578   3.9584   4.0993   4.2265

          k = 0.0000 0.2165 0.0000 ( 12929 PWs)   bands (ev):

   -59.6574 -33.9121 -33.6687 -33.5770 -14.0751 -12.0014  -5.2332  -4.1791
    -3.2079  -2.8822  -1.7218  -0.9534  -0.5088   0.2409   0.2756   0.5692
     1.1290   1.6425   3.4569   3.7051   3.9554   4.5785

          k = 0.0000 0.2887 0.0000 ( 12917 PWs)   bands (ev):

   -59.6499 -33.8977 -33.7414 -33.5939 -13.7931 -11.7746  -5.0036  -4.7838
    -3.2995  -3.0286  -1.8981  -0.9511  -0.6242   0.1425   0.3909   0.4072
     1.2920   1.6930   3.2655   3.7431   3.7662   4.7138

          k = 0.0000 0.3608 0.0000 ( 12903 PWs)   bands (ev):

   -59.6425 -33.8831 -33.8132 -33.6107 -13.4874 -11.5241  -5.4384  -4.7777
    -3.4029  -3.2815  -1.9927  -0.9707  -0.6952   0.0555   0.3997   0.5480
     1.5672   1.6164   3.2457   3.5576   3.9466   4.7741

          k = 0.0000 0.4330 0.0000 ( 12893 PWs)   bands (ev):

   -59.6362 -33.8745 -33.8699 -33.6249 -13.2041 -11.2867  -5.9653  -4.7211
    -3.4967  -3.4862  -2.1166  -0.9999  -0.7142   0.1571   0.5059   0.7020
     1.4301   1.8467   3.3581   3.4574   4.0480   4.7614

          k = 0.0000 0.5052 0.0000 ( 12870 PWs)   bands (ev):

   -59.6319 -33.9137 -33.8624 -33.6344 -12.9993 -11.1106  -6.3300  -4.7641
    -3.5806  -3.5616  -2.2416  -1.0246  -0.6976   0.3773   0.6682   0.8281
     1.1843   2.0126   3.4659   3.4952   4.0059   4.7137

          k = 0.0000-0.5774 0.0000 ( 12854 PWs)   bands (ev):

   -59.6304 -33.9277 -33.8595 -33.6377 -12.9238 -11.0444  -6.4615  -4.7976
    -3.6033  -3.5846  -2.2927  -1.0342  -0.6873   0.5389   0.7553   0.8791
     1.0119   2.0559   3.4963   3.5595   3.9590   4.6866

          k = 0.0625 0.1083 0.0000 ( 12951 PWs)   bands (ev):

   -59.6650 -33.9271 -33.5924 -33.5599 -14.3462 -12.2165  -5.5208  -3.4950
    -3.1477  -2.8881  -1.3406  -1.0008  -0.2924   0.0941   0.2644   0.9169
     1.0754   1.5124   3.7387   3.9723   4.0921   4.1957

          k = 0.0625 0.1804 0.0000 ( 12937 PWs)   bands (ev):

   -59.6598 -33.9168 -33.6433 -33.5731 -14.1624 -12.0709  -5.3198  -3.9476
    -3.2239  -2.8543  -1.6213  -0.9896  -0.4277   0.1480   0.3141   0.7089
     1.0739   1.6146   3.5631   3.7215   3.9728   4.4140

          k = 0.0625 0.2526 0.0000 ( 12935 PWs)   bands (ev):

   -59.6529 -33.9035 -33.7092 -33.5903 -13.9089 -11.8678  -5.0751  -4.5175
    -3.3226  -2.9334  -1.8473  -0.9830  -0.5543   0.1649   0.3160   0.5220
     1.1909   1.7061   3.3200   3.6433   3.8048   4.6489

          k = 0.0625 0.3248 0.0000 ( 12927 PWs)   bands (ev):

   -59.6455 -33.8890 -33.7798 -33.6088 -13.6139 -11.6276  -5.1485  -4.8238
    -3.4449  -3.1562  -1.9507  -0.9925  -0.6512   0.0590   0.3334   0.5409
     1.4182   1.7101   3.1795   3.5946   3.8307   4.7748

          k = 0.0625 0.3969 0.0000 ( 12903 PWs)   bands (ev):

   -59.6386 -33.8756 -33.8443 -33.6259 -13.3172 -11.3808  -5.7043  -4.7005
    -3.6079  -3.3510  -2.0447  -1.0519  -0.6756   0.0810   0.3851   0.6756
     1.4870   1.7822   3.1868   3.5387   4.0062   4.7565

          k = 0.0625 0.4691 0.0000 ( 12863 PWs)   bands (ev):

   -59.6333 -33.8935 -33.8651 -33.6389 -13.0701 -11.1698  -6.1466  -4.7025
    -3.7536  -3.4295  -2.1795  -1.1200  -0.6444   0.2476   0.5306   0.8198
     1.2832   1.9632   3.2708   3.5991   4.0894   4.6301

          k = 0.0625 0.5413 0.0000 ( 12844 PWs)   bands (ev):

   -59.6304 -33.9197 -33.8595 -33.6460 -12.9273 -11.0450  -6.3939  -4.7565
    -3.8184  -3.4497  -2.2807  -1.1550  -0.6177   0.4438   0.6853   0.9042
     1.0746   2.0290   3.3834   3.6857   4.0332   4.5433

          k = 0.1250 0.2165 0.0000 ( 12933 PWs)   bands (ev):

   -59.6540 -33.9055 -33.6959 -33.5911 -13.9489 -11.8997  -5.1038  -4.3916
    -3.3728  -2.8942  -1.8249  -1.0183  -0.5058   0.1267   0.3277   0.5959
     1.1408   1.7159   3.3565   3.5759   3.7875   4.6032

          k = 0.1250 0.2887 0.0000 ( 12935 PWs)   bands (ev):

   -59.6471 -33.8921 -33.7562 -33.6134 -13.6812 -11.6816  -4.9318  -4.8457
    -3.5492  -3.0797  -1.9379  -1.0326  -0.6038   0.0468   0.3069   0.5770
     1.3329   1.7792   3.1163   3.5496   3.7304   4.7815

          k = 0.1250 0.3608 0.0000 ( 12903 PWs)   bands (ev):

   -59.6402 -33.8787 -33.8156 -33.6361 -13.3924 -11.4411  -5.4384  -4.6734
    -3.7642  -3.2908  -2.0050  -1.1088  -0.6362   0.0138   0.2914   0.6873
     1.4471   1.8389   3.0031   3.5859   3.8415   4.8224

          k = 0.1250 0.4330 0.0000 ( 12881 PWs)   bands (ev):

   -59.6344 -33.8682 -33.8644 -33.6554 -13.1267 -11.2139  -5.8946  -4.6024
    -3.9773  -3.3923  -2.1182  -1.2551  -0.5748   0.1373   0.3447   0.8426
     1.3121   1.9722   3.0412   3.6832   4.0189   4.6794

          k = 0.1250 0.5052 0.0000 ( 12858 PWs)   bands (ev):

   -59.6304 -33.8984 -33.8595 -33.6683 -12.9357 -11.0463  -6.2106  -4.6542
    -4.0867  -3.4051  -2.2533  -1.3608  -0.5142   0.3043   0.5083   0.9052
     1.1885   2.0071   3.2138   3.7350   4.1834   4.4221

          k = 0.1250 0.5774 0.0000 ( 12856 PWs)   bands (ev):

   -59.6291 -33.9099 -33.8569 -33.6728 -12.8657 -10.9837  -6.3245  -4.6974
    -4.1125  -3.3976  -2.3147  -1.3956  -0.4935   0.3978   0.6122   0.8330
     1.2083   1.9901   3.3413   3.7331   4.1964   4.3277

          k = 0.1875 0.3248 0.0000 ( 12901 PWs)   bands (ev):

   -59.6408 -33.8798 -33.8026 -33.6425 -13.4187 -11.4618  -5.3107  -4.6679
    -3.8465  -3.2718  -2.0028  -1.1210  -0.6241  -0.0252   0.2756   0.6949
     1.4185   1.8848   2.9227   3.5908   3.7549   4.8614

          k = 0.1875 0.3969 0.0000 ( 12903 PWs)   bands (ev):

   -59.6349 -33.8685 -33.8425 -33.6720 -13.1580 -11.2373  -5.6840  -4.5438
    -4.1401  -3.4049  -2.1060  -1.3017  -0.5413   0.0350   0.2593   0.8614
     1.2976   2.0361   2.8629   3.7160   3.8648   4.8378

          k = 0.1875 0.4691 0.0000 ( 12858 PWs)   bands (ev):

   -59.6305 -33.8718 -33.8595 -33.6959 -12.9441 -11.0475  -5.9807  -4.6055
    -4.2709  -3.4447  -2.2506  -1.4844  -0.4397   0.2132   0.3193   0.8922
     1.2520   2.0632   2.9990   3.6671   4.0719   4.7576

          k = 0.1875 0.5413 0.0000 ( 12848 PWs)   bands (ev):

   -59.6280 -33.8869 -33.8548 -33.7092 -12.8220 -10.9367  -6.1472  -4.7241
    -4.2872  -3.4289  -2.3627  -1.5883  -0.3852   0.3193   0.4848   0.7380
     1.3950   1.9916   3.2133   3.5545   4.0976   4.7358

          k = 0.2500 0.4330 0.0000 ( 12885 PWs)   bands (ev):

   -59.6305 -33.8603 -33.8571 -33.7102 -12.9475 -11.0480  -5.8595  -4.6679
    -4.2694  -3.4841  -2.2644  -1.5072  -0.4126   0.1688   0.2510   0.8848
     1.2662   2.1221   2.8805   3.6093   4.0533   4.9275

          k = 0.2500 0.5052 0.0000 ( 12870 PWs)   bands (ev):

   -59.6275 -33.8621 -33.8537 -33.7415 -12.7997 -10.9114  -5.9576  -4.9130
    -4.2347  -3.5075  -2.4142  -1.6629  -0.3207   0.2744   0.3812   0.6874
     1.4797   2.0842   3.0079   3.4021   4.1135   5.1180

          k = 0.2500 0.5774 0.0000 ( 12844 PWs)   bands (ev):

   -59.6264 -33.8618 -33.8517 -33.7542 -12.7463 -10.8612  -5.9872  -5.0098
    -4.2265  -3.5025  -2.4757  -1.7219  -0.2895   0.3226   0.4804   0.5677
     1.6246   2.0197   3.1281   3.2370   4.1148   5.1993

          k = 0.3125 0.5413 0.0000 ( 12856 PWs)   bands (ev):

   -59.6258 -33.8506 -33.8410 -33.7820 -12.7198 -10.8343  -5.8711  -5.1817
    -4.1681  -3.5538  -2.5229  -1.7618  -0.2539   0.3297   0.4785   0.5000
     1.7079   2.0838   2.9916   3.1406   4.1483   5.4561

     the Fermi energy is     1.8866 ev

!    total energy              =    -658.63600778 Ry
     total all-electron energy =    -12481.809899 Ry
     estimated scf accuracy    <       0.00000018 Ry
     smearing contrib. (-TS)   =      -0.00672182 Ry
     internal energy E=F+TS    =    -658.62928596 Ry

     The total energy is F=E-TS. E is the sum of the following terms:
     one-electron contribution =   -1421.70874134 Ry
     hartree contribution      =     724.23459056 Ry
     xc contribution           =     -62.58013301 Ry
     ewald contribution        =     507.57398197 Ry
     one-center paw contrib.   =    -406.14898413 Ry

     total magnetization       =     0.00 Bohr mag/cell
     absolute magnetization    =     0.00 Bohr mag/cell

     convergence has been achieved in   8 iterations

     negative rho (up, down):  2.634E-04 2.634E-04

     Forces acting on atoms (cartesian axes, Ry/au):

     atom    1 type  1   force =     0.00000000    0.00000000   -0.01987067
     atom    2 type  2   force =     0.00000000    0.00000000   -0.00734007
     atom    3 type  2   force =     0.00000000    0.00000000    0.01705438
     atom    4 type  3   force =     0.00000000    0.00000000    0.01015636
     The non-local contrib.  to forces
     atom    1 type  1   force =     0.00000000    0.00000000   -0.05567335
     atom    2 type  2   force =     0.00000000    0.00000000   -0.09162474
     atom    3 type  2   force =     0.00000000    0.00000000    0.26957435
     atom    4 type  3   force =     0.00000000    0.00000000    0.02099366
     The ionic contribution  to forces
     atom    1 type  1   force =     0.00000000   -0.00000000  -36.77269278
     atom    2 type  2   force =    -0.00000000    0.00000000   20.96315363
     atom    3 type  2   force =    -0.00000000    0.00000000  -46.61836736
     atom    4 type  3   force =     0.00000000   -0.00000000   62.42790651
     The local contribution  to forces
     atom    1 type  1   force =     0.00000000   -0.00000000   36.80361028
     atom    2 type  2   force =    -0.00000000    0.00000000  -20.88369687
     atom    3 type  2   force =    -0.00000000    0.00000000   46.36789052
     atom    4 type  3   force =    -0.00000000   -0.00000000  -62.39664406
     The core correction contribution to forces
     atom    1 type  1   force =     0.00000000    0.00000000    0.00385016
     atom    2 type  2   force =     0.00000000   -0.00000000    0.00379925
     atom    3 type  2   force =     0.00000000   -0.00000000   -0.00238426
     atom    4 type  3   force =    -0.00000000   -0.00000000   -0.04262012
     The Hubbard contrib.    to forces
     atom    1 type  1   force =     0.00000000    0.00000000    0.00000000
     atom    2 type  2   force =     0.00000000    0.00000000    0.00000000
     atom    3 type  2   force =     0.00000000    0.00000000    0.00000000
     atom    4 type  3   force =     0.00000000    0.00000000    0.00000000
     The SCF correction term to forces
     atom    1 type  1   force =    -0.00000000   -0.00000000    0.00088790
     atom    2 type  2   force =     0.00000000    0.00000000    0.00088154
     atom    3 type  2   force =    -0.00000000   -0.00000000    0.00019402
     atom    4 type  3   force =     0.00000000    0.00000000    0.00037325

     Total force =     0.029030     Total SCF correction =     0.001320


     Computing stress (Cartesian axis) and pressure


     negative rho (up, down):  2.634E-04 2.634E-04
          total   stress  (Ry/bohr**3)                   (kbar)     P=        8.84
   0.00010453   0.00000000   0.00000000           15.38        0.00        0.00
   0.00000000   0.00010453   0.00000000            0.00       15.38        0.00
   0.00000000   0.00000000  -0.00002881            0.00        0.00       -4.24

     Energy error            =      2.2E-03 Ry
     Gradient error          =      2.0E-02 Ry/Bohr

     number of scf cycles    =  16
     number of bfgs steps    =  15

     energy             old  =    -658.6337806100 Ry
     energy             new  =    -658.6360077814 Ry

     CASE: energy            _new < energy            _old

     new trust radius        =       0.0196956013 bohr
     new conv_thr            =       0.0000001987 Ry


ATOMIC_POSITIONS (crystal)
Mo            0.0000000000        0.0000000000        0.5102170793
S             0.6666666667        0.3333333333        0.6049304858
S             0.6666666667        0.3333333333        0.4241504532
Co            0.0000000000        0.0000000000        0.6583380454



     Writing config-only to output data dir ./tmp/relax.save/
     NEW-OLD atomic charge density approx. for the potential

     negative rho (up, down):  2.616E-04 2.616E-04
     Generating pointlists ...

     total cpu time spent up to now is      427.9 secs

     Self-consistent Calculation

     iteration #  1     ecut=    80.00 Ry     beta= 0.70
     Davidson diagonalization with overlap
     ethr =  1.00E-06,  avg # of iterations =  6.8

     negative rho (up, down):  2.617E-04 2.617E-04

     total cpu time spent up to now is      430.9 secs

     total energy              =    -658.63612774 Ry
     estimated scf accuracy    <       0.00047365 Ry

     total magnetization       =     0.00 Bohr mag/cell
     absolute magnetization    =     0.00 Bohr mag/cell

     iteration #  2     ecut=    80.00 Ry     beta= 0.70
     Davidson diagonalization with overlap
     ethr =  1.35E-06,  avg # of iterations =  6.5

     negative rho (up, down):  2.616E-04 2.616E-04

     total cpu time spent up to now is      433.3 secs

     total energy              =    -658.63289092 Ry
     estimated scf accuracy    <       0.08502997 Ry

     total magnetization       =     0.00 Bohr mag/cell
     absolute magnetization    =     0.00 Bohr mag/cell

     iteration #  3     ecut=    80.00 Ry     beta= 0.70
     Davidson diagonalization with overlap
     ethr =  1.35E-06,  avg # of iterations =  7.4

     negative rho (up, down):  2.616E-04 2.616E-04

     total cpu time spent up to now is      435.8 secs

     total energy              =    -658.63633920 Ry
     estimated scf accuracy    <       0.00108088 Ry

     total magnetization       =     0.00 Bohr mag/cell
     absolute magnetization    =     0.00 Bohr mag/cell

     iteration #  4     ecut=    80.00 Ry     beta= 0.70
     Davidson diagonalization with overlap
     ethr =  1.35E-06,  avg # of iterations =  2.1

     negative rho (up, down):  2.616E-04 2.616E-04

     total cpu time spent up to now is      437.6 secs

     total energy              =    -658.63645449 Ry
     estimated scf accuracy    <       0.00010145 Ry

     total magnetization       =     0.00 Bohr mag/cell
     absolute magnetization    =     0.00 Bohr mag/cell

     iteration #  5     ecut=    80.00 Ry     beta= 0.70
     Davidson diagonalization with overlap
     ethr =  2.90E-07,  avg # of iterations =  2.0

     negative rho (up, down):  2.616E-04 2.616E-04

     total cpu time spent up to now is      439.4 secs

     total energy              =    -658.63647310 Ry
     estimated scf accuracy    <       0.00001852 Ry

     total magnetization       =     0.00 Bohr mag/cell
     absolute magnetization    =     0.00 Bohr mag/cell

     iteration #  6     ecut=    80.00 Ry     beta= 0.70
     Davidson diagonalization with overlap
     ethr =  5.29E-08,  avg # of iterations =  2.6

     negative rho (up, down):  2.615E-04 2.615E-04

     total cpu time spent up to now is      441.3 secs

     total energy              =    -658.63647603 Ry
     estimated scf accuracy    <       0.00000976 Ry

     total magnetization       =     0.00 Bohr mag/cell
     absolute magnetization    =     0.00 Bohr mag/cell

     iteration #  7     ecut=    80.00 Ry     beta= 0.70
     Davidson diagonalization with overlap
     ethr =  2.79E-08,  avg # of iterations =  2.1

     negative rho (up, down):  2.614E-04 2.614E-04

     total cpu time spent up to now is      443.1 secs

     total energy              =    -658.63647726 Ry
     estimated scf accuracy    <       0.00000059 Ry

     total magnetization       =     0.00 Bohr mag/cell
     absolute magnetization    =     0.00 Bohr mag/cell

     iteration #  8     ecut=    80.00 Ry     beta= 0.70
     Davidson diagonalization with overlap
     ethr =  1.67E-09,  avg # of iterations =  4.5

     negative rho (up, down):  2.614E-04 2.614E-04
 
     Magnetic moment per site  (integrated on atomic sphere of radius R)
     atom   1 (R=0.308)  charge= 10.6285  magn=  0.0000
     atom   2 (R=0.259)  charge=  2.9268  magn=  0.0000
     atom   3 (R=0.259)  charge=  2.8418  magn=  0.0000
     atom   4 (R=0.259)  charge=  6.6337  magn=  0.0000

     total cpu time spent up to now is      445.1 secs

     End of self-consistent calculation

 ------ SPIN UP ------------


          k = 0.0000 0.0000 0.0000 ( 12991 PWs)   bands (ev):

   -59.6685 -33.9347 -33.5512 -33.5512 -14.4726 -12.3434  -5.6824  -3.0245
    -3.0245  -2.9611  -1.0743  -1.0743  -0.0071   0.0955   0.0955   1.1233
     1.1233   1.4222   3.7066   4.0069   4.0070   4.4956

          k = 0.0000 0.0722 0.0000 ( 12961 PWs)   bands (ev):

   -59.6671 -33.9318 -33.5660 -33.5546 -14.4232 -12.3050  -5.6242  -3.1732
    -3.0358  -2.9347  -1.1896  -1.0583  -0.1347   0.1096   0.2120   1.0361
     1.1058   1.4597   3.7974   3.9235   4.0675   4.3138

          k = 0.0000 0.1443 0.0000 ( 12937 PWs)   bands (ev):

   -59.6628 -33.9236 -33.6081 -33.5642 -14.2792 -12.1929  -5.4604  -3.5685
    -3.0737  -2.8897  -1.4642  -1.0228  -0.3087   0.1652   0.3142   0.8280
     1.0832   1.5452   3.6714   3.9304   4.1201   4.1648

          k = 0.0000 0.2165 0.0000 ( 12929 PWs)   bands (ev):

   -59.6565 -33.9113 -33.6706 -33.5786 -14.0541 -12.0164  -5.2251  -4.1288
    -3.1435  -2.8955  -1.7499  -0.9941  -0.4664   0.2791   0.3040   0.5724
     1.1223   1.6493   3.4615   3.6965   3.9610   4.5742

          k = 0.0000 0.2887 0.0000 ( 12917 PWs)   bands (ev):

   -59.6491 -33.8967 -33.7436 -33.5955 -13.7708 -11.7916  -4.9913  -4.7475
    -3.2417  -3.0501  -1.9129  -0.9889  -0.5807   0.1612   0.4172   0.4316
     1.2830   1.7013   3.2603   3.7455   3.7758   4.7239

          k = 0.0000 0.3608 0.0000 ( 12903 PWs)   bands (ev):

   -59.6416 -33.8822 -33.8156 -33.6124 -13.4634 -11.5435  -5.4040  -4.7743
    -3.3516  -3.3034  -1.9982  -1.0055  -0.6551   0.0776   0.4064   0.5915
     1.5564   1.6322   3.2372   3.5602   3.9636   4.7938

          k = 0.0000 0.4330 0.0000 ( 12893 PWs)   bands (ev):

   -59.6353 -33.8769 -33.8691 -33.6267 -13.1785 -11.3086  -5.9373  -4.7225
    -3.5010  -3.4507  -2.1186  -1.0325  -0.6811   0.1912   0.5054   0.7471
     1.4575   1.8375   3.3458   3.4591   4.0666   4.7871

          k = 0.0000 0.5052 0.0000 ( 12870 PWs)   bands (ev):

   -59.6310 -33.9165 -33.8613 -33.6362 -12.9723 -11.1344  -6.3063  -4.7691
    -3.5887  -3.5188  -2.2434  -1.0559  -0.6700   0.4222   0.6626   0.8735
     1.2225   2.0080   3.4645   3.4811   4.0173   4.7421

          k = 0.0000-0.5774 0.0000 ( 12854 PWs)   bands (ev):

   -59.6295 -33.9305 -33.8584 -33.6395 -12.8963 -11.0690  -6.4395  -4.8035
    -3.6090  -3.5429  -2.2949  -1.0651  -0.6617   0.5844   0.7526   0.9244
     1.0536   2.0538   3.4931   3.5465   3.9637   4.7157

          k = 0.0625 0.1083 0.0000 ( 12951 PWs)   bands (ev):

   -59.6642 -33.9263 -33.5941 -33.5615 -14.3265 -12.2298  -5.5130  -3.4323
    -3.0813  -2.8909  -1.3784  -1.0418  -0.2527   0.1309   0.3025   0.9110
     1.0685   1.5215   3.7584   3.9348   4.0660   4.1831

          k = 0.0625 0.1804 0.0000 ( 12937 PWs)   bands (ev):

   -59.6589 -33.9160 -33.6452 -33.5747 -14.1418 -12.0853  -5.3117  -3.8931
    -3.1622  -2.8610  -1.6541  -1.0281  -0.3875   0.1828   0.3469   0.7112
     1.0677   1.6215   3.5807   3.6991   3.9768   4.3677

          k = 0.0625 0.2526 0.0000 ( 12935 PWs)   bands (ev):

   -59.6521 -33.9026 -33.7113 -33.5919 -13.8872 -11.8839  -5.0667  -4.4724
    -3.2656  -2.9508  -1.8682  -1.0187  -0.5122   0.1884   0.3462   0.5384
     1.1834   1.7128   3.3151   3.6488   3.8083   4.6414

          k = 0.0625 0.3248 0.0000 ( 12927 PWs)   bands (ev):

   -59.6446 -33.8880 -33.7821 -33.6105 -13.5906 -11.6460  -5.1114  -4.8171
    -3.3962  -3.1773  -1.9603  -1.0263  -0.6080   0.0760   0.3523   0.5761
     1.4111   1.7189   3.1728   3.5960   3.8452   4.7899

          k = 0.0625 0.3969 0.0000 ( 12903 PWs)   bands (ev):

   -59.6377 -33.8746 -33.8468 -33.6277 -13.2923 -11.4016  -5.6734  -4.6988
    -3.5809  -3.3518  -2.0490  -1.0800  -0.6403   0.1055   0.3938   0.7175
     1.5073   1.7741   3.1798   3.5368   4.0250   4.7802

          k = 0.0625 0.4691 0.0000 ( 12863 PWs)   bands (ev):

   -59.6324 -33.8962 -33.8640 -33.6407 -13.0436 -11.1928  -6.1210  -4.7058
    -3.7348  -3.4180  -2.1825  -1.1453  -0.6162   0.2857   0.5287   0.8644
     1.3181   1.9563   3.2627   3.5932   4.1059   4.6561

          k = 0.0625 0.5413 0.0000 ( 12844 PWs)   bands (ev):

   -59.6295 -33.9225 -33.8584 -33.6478 -12.8999 -11.0694  -6.3713  -4.7620
    -3.7999  -3.4350  -2.2841  -1.1804  -0.5927   0.4878   0.6794   0.9524
     1.1158   2.0265   3.3731   3.6791   4.0403   4.5716

          k = 0.1250 0.2165 0.0000 ( 12933 PWs)   bands (ev):

   -59.6531 -33.9046 -33.6979 -33.5927 -13.9273 -11.9155  -5.0957  -4.3437
    -3.3177  -2.9095  -1.8488  -1.0515  -0.4647   0.1535   0.3555   0.6122
     1.1338   1.7221   3.3490   3.5851   3.7883   4.5843

          k = 0.1250 0.2887 0.0000 ( 12935 PWs)   bands (ev):

   -59.6462 -33.8912 -33.7585 -33.6151 -13.6583 -11.6994  -4.9049  -4.8240
    -3.5013  -3.1038  -1.9516  -1.0641  -0.5581   0.0623   0.3315   0.6089
     1.3270   1.7861   3.1085   3.5555   3.7388   4.7898

          k = 0.1250 0.3608 0.0000 ( 12903 PWs)   bands (ev):

   -59.6393 -33.8777 -33.8180 -33.6378 -13.3679 -11.4612  -5.4048  -4.6668
    -3.7313  -3.3067  -2.0143  -1.1317  -0.5953   0.0263   0.3119   0.7278
     1.4600   1.8359   2.9973   3.5836   3.8581   4.8446

          k = 0.1250 0.4330 0.0000 ( 12881 PWs)   bands (ev):

   -59.6335 -33.8692 -33.8649 -33.6572 -13.1005 -11.2363  -5.8665  -4.6012
    -3.9549  -3.3952  -2.1262  -1.2706  -0.5413   0.1586   0.3545   0.8872
     1.3441   1.9647   3.0339   3.6773   4.0396   4.7020

          k = 0.1250 0.5052 0.0000 ( 12858 PWs)   bands (ev):

   -59.6295 -33.9011 -33.8584 -33.6702 -12.9083 -11.0705  -6.1865  -4.6572
    -4.0666  -3.4012  -2.2607  -1.3770  -0.4830   0.3419   0.5018   0.9536
     1.2293   2.0045   3.2030   3.7299   4.2059   4.4368

          k = 0.1250 0.5774 0.0000 ( 12856 PWs)   bands (ev):

   -59.6282 -33.9126 -33.8557 -33.6747 -12.8378 -11.0086  -6.3018  -4.7012
    -4.0933  -3.3914  -2.3222  -1.4129  -0.4630   0.4369   0.6038   0.8848
     1.2513   1.9899   3.3290   3.7288   4.2185   4.3385

          k = 0.1875 0.3248 0.0000 ( 12901 PWs)   bands (ev):

   -59.6399 -33.8788 -33.8050 -33.6443 -13.3943 -11.4816  -5.2761  -4.6582
    -3.8135  -3.2929  -2.0150  -1.1417  -0.5803  -0.0166   0.2998   0.7352
     1.4295   1.8832   2.9166   3.5909   3.7682   4.8821

          k = 0.1875 0.3969 0.0000 ( 12903 PWs)   bands (ev):

   -59.6340 -33.8675 -33.8450 -33.6739 -13.1321 -11.2593  -5.6538  -4.5343
    -4.1210  -3.4186  -2.1201  -1.3076  -0.5039   0.0397   0.2824   0.9061
     1.3271   2.0299   2.8560   3.7122   3.8834   4.8601

          k = 0.1875 0.4691 0.0000 ( 12858 PWs)   bands (ev):

   -59.6295 -33.8744 -33.8584 -33.6979 -12.9167 -11.0715  -5.9544  -4.5969
    -4.2591  -3.4528  -2.2643  -1.4876  -0.4011   0.2311   0.3255   0.9398
     1.2903   2.0628   2.9891   3.6698   4.0888   4.7727

          k = 0.1875 0.5413 0.0000 ( 12848 PWs)   bands (ev):

   -59.6271 -33.8896 -33.8537 -33.7112 -12.7938 -10.9619  -6.1233  -4.7166
    -4.2782  -3.4338  -2.3747  -1.5941  -0.3458   0.3536   0.4739   0.7898
     1.4349   1.9956   3.2024   3.5612   4.1117   4.7451

          k = 0.2500 0.4330 0.0000 ( 12885 PWs)   bands (ev):

   -59.6295 -33.8612 -33.8576 -33.7122 -12.9202 -11.0718  -5.8318  -4.6519
    -4.2630  -3.4990  -2.2806  -1.5042  -0.3709   0.1663   0.2743   0.9319
     1.3030   2.1237   2.8708   3.6161   4.0653   4.9451

          k = 0.2500 0.5052 0.0000 ( 12870 PWs)   bands (ev):

   -59.6265 -33.8648 -33.8526 -33.7435 -12.7714 -10.9366  -5.9315  -4.8989
    -4.2302  -3.5243  -2.4272  -1.6602  -0.2738   0.3041   0.3691   0.7376
     1.5140   2.0939   3.0005   3.4131   4.1195   5.1352

          k = 0.2500 0.5774 0.0000 ( 12844 PWs)   bands (ev):

   -59.6255 -33.8645 -33.8505 -33.7563 -12.7175 -10.8869  -5.9617  -4.9965
    -4.2229  -3.5202  -2.4861  -1.7206  -0.2414   0.3532   0.4666   0.6204
     1.6555   2.0333   3.1112   3.2627   4.1159   5.2157

          k = 0.3125 0.5413 0.0000 ( 12856 PWs)   bands (ev):

   -59.6249 -33.8495 -33.8437 -33.7841 -12.6908 -10.8602  -5.8433  -5.1699
    -4.1626  -3.5796  -2.5306  -1.7586  -0.2019   0.3587   0.4665   0.5496
     1.7322   2.1037   2.9801   3.1648   4.1459   5.4817

 ------ SPIN DOWN ----------


          k = 0.0000 0.0000 0.0000 ( 12991 PWs)   bands (ev):

   -59.6685 -33.9347 -33.5512 -33.5512 -14.4726 -12.3434  -5.6824  -3.0245
    -3.0245  -2.9611  -1.0743  -1.0743  -0.0071   0.0956   0.0956   1.1233
     1.1233   1.4222   3.7066   4.0069   4.0070   4.4956

          k = 0.0000 0.0722 0.0000 ( 12961 PWs)   bands (ev):

   -59.6671 -33.9318 -33.5660 -33.5546 -14.4232 -12.3050  -5.6242  -3.1732
    -3.0358  -2.9346  -1.1896  -1.0583  -0.1347   0.1096   0.2121   1.0361
     1.1058   1.4598   3.7974   3.9235   4.0675   4.3138

          k = 0.0000 0.1443 0.0000 ( 12937 PWs)   bands (ev):

   -59.6628 -33.9236 -33.6081 -33.5642 -14.2792 -12.1929  -5.4603  -3.5685
    -3.0736  -2.8897  -1.4642  -1.0228  -0.3086   0.1653   0.3142   0.8280
     1.0833   1.5453   3.6714   3.9304   4.1201   4.1648

          k = 0.0000 0.2165 0.0000 ( 12929 PWs)   bands (ev):

   -59.6565 -33.9113 -33.6706 -33.5786 -14.0541 -12.0164  -5.2251  -4.1288
    -3.1435  -2.8955  -1.7499  -0.9941  -0.4664   0.2791   0.3040   0.5724
     1.1223   1.6494   3.4615   3.6965   3.9610   4.5742

          k = 0.0000 0.2887 0.0000 ( 12917 PWs)   bands (ev):

   -59.6491 -33.8967 -33.7435 -33.5955 -13.7708 -11.7916  -4.9912  -4.7475
    -3.2416  -3.0501  -1.9129  -0.9888  -0.5807   0.1613   0.4172   0.4316
     1.2830   1.7013   3.2603   3.7456   3.7758   4.7240

          k = 0.0000 0.3608 0.0000 ( 12903 PWs)   bands (ev):

   -59.6416 -33.8822 -33.8156 -33.6124 -13.4634 -11.5435  -5.4039  -4.7743
    -3.3516  -3.3034  -1.9982  -1.0055  -0.6551   0.0776   0.4065   0.5916
     1.5564   1.6322   3.2373   3.5602   3.9636   4.7938

          k = 0.0000 0.4330 0.0000 ( 12893 PWs)   bands (ev):

   -59.6353 -33.8769 -33.8691 -33.6267 -13.1785 -11.3086  -5.9373  -4.7225
    -3.5010  -3.4507  -2.1186  -1.0325  -0.6811   0.1913   0.5054   0.7471
     1.4576   1.8376   3.3458   3.4591   4.0666   4.7871

          k = 0.0000 0.5052 0.0000 ( 12870 PWs)   bands (ev):

   -59.6310 -33.9165 -33.8613 -33.6362 -12.9723 -11.1344  -6.3063  -4.7691
    -3.5887  -3.5188  -2.2434  -1.0559  -0.6700   0.4222   0.6626   0.8735
     1.2226   2.0080   3.4645   3.4811   4.0173   4.7421

          k = 0.0000-0.5774 0.0000 ( 12854 PWs)   bands (ev):

   -59.6295 -33.9305 -33.8584 -33.6395 -12.8963 -11.0690  -6.4395  -4.8035
    -3.6090  -3.5429  -2.2949  -1.0651  -0.6617   0.5845   0.7526   0.9245
     1.0536   2.0538   3.4931   3.5465   3.9637   4.7157

          k = 0.0625 0.1083 0.0000 ( 12951 PWs)   bands (ev):

   -59.6642 -33.9263 -33.5941 -33.5615 -14.3265 -12.2298  -5.5129  -3.4323
    -3.0813  -2.8908  -1.3784  -1.0418  -0.2527   0.1309   0.3026   0.9110
     1.0685   1.5215   3.7584   3.9348   4.0661   4.1831

          k = 0.0625 0.1804 0.0000 ( 12937 PWs)   bands (ev):

   -59.6589 -33.9160 -33.6452 -33.5747 -14.1418 -12.0853  -5.3117  -3.8931
    -3.1622  -2.8610  -1.6540  -1.0281  -0.3875   0.1828   0.3469   0.7112
     1.0678   1.6216   3.5807   3.6992   3.9768   4.3678

          k = 0.0625 0.2526 0.0000 ( 12935 PWs)   bands (ev):

   -59.6521 -33.9026 -33.7113 -33.5919 -13.8872 -11.8839  -5.0667  -4.4724
    -3.2656  -2.9508  -1.8682  -1.0187  -0.5122   0.1884   0.3462   0.5384
     1.1834   1.7128   3.3152   3.6488   3.8084   4.6414

          k = 0.0625 0.3248 0.0000 ( 12927 PWs)   bands (ev):

   -59.6446 -33.8880 -33.7821 -33.6105 -13.5906 -11.6460  -5.1114  -4.8171
    -3.3962  -3.1773  -1.9603  -1.0263  -0.6080   0.0761   0.3523   0.5762
     1.4111   1.7190   3.1728   3.5961   3.8452   4.7899

          k = 0.0625 0.3969 0.0000 ( 12903 PWs)   bands (ev):

   -59.6377 -33.8746 -33.8468 -33.6277 -13.2923 -11.4016  -5.6734  -4.6988
    -3.5809  -3.3518  -2.0489  -1.0800  -0.6403   0.1055   0.3939   0.7176
     1.5074   1.7742   3.1798   3.5368   4.0250   4.7802

          k = 0.0625 0.4691 0.0000 ( 12863 PWs)   bands (ev):

   -59.6324 -33.8962 -33.8640 -33.6407 -13.0436 -11.1928  -6.1210  -4.7058
    -3.7348  -3.4180  -2.1825  -1.1453  -0.6162   0.2857   0.5287   0.8645
     1.3181   1.9563   3.2627   3.5932   4.1059   4.6561

          k = 0.0625 0.5413 0.0000 ( 12844 PWs)   bands (ev):

   -59.6295 -33.9225 -33.8584 -33.6478 -12.8999 -11.0694  -6.3713  -4.7620
    -3.7998  -3.4350  -2.2841  -1.1804  -0.5926   0.4878   0.6794   0.9524
     1.1159   2.0265   3.3731   3.6792   4.0403   4.5716

          k = 0.1250 0.2165 0.0000 ( 12933 PWs)   bands (ev):

   -59.6531 -33.9046 -33.6979 -33.5927 -13.9273 -11.9155  -5.0957  -4.3437
    -3.3177  -2.9095  -1.8488  -1.0515  -0.4647   0.1535   0.3555   0.6122
     1.1339   1.7222   3.3490   3.5851   3.7883   4.5843

          k = 0.1250 0.2887 0.0000 ( 12935 PWs)   bands (ev):

   -59.6462 -33.8912 -33.7585 -33.6151 -13.6583 -11.6994  -4.9049  -4.8240
    -3.5012  -3.1038  -1.9516  -1.0641  -0.5581   0.0623   0.3315   0.6089
     1.3271   1.7862   3.1086   3.5556   3.7389   4.7898

          k = 0.1250 0.3608 0.0000 ( 12903 PWs)   bands (ev):

   -59.6393 -33.8777 -33.8180 -33.6378 -13.3679 -11.4612  -5.4048  -4.6668
    -3.7313  -3.3067  -2.0143  -1.1317  -0.5953   0.0263   0.3120   0.7278
     1.4600   1.8359   2.9974   3.5836   3.8582   4.8446

          k = 0.1250 0.4330 0.0000 ( 12881 PWs)   bands (ev):

   -59.6334 -33.8692 -33.8649 -33.6572 -13.1005 -11.2363  -5.8665  -4.6012
    -3.9549  -3.3952  -2.1262  -1.2706  -0.5412   0.1586   0.3545   0.8873
     1.3441   1.9648   3.0340   3.6773   4.0396   4.7020

          k = 0.1250 0.5052 0.0000 ( 12858 PWs)   bands (ev):

   -59.6295 -33.9011 -33.8584 -33.6702 -12.9083 -11.0705  -6.1865  -4.6572
    -4.0666  -3.4012  -2.2607  -1.3770  -0.4830   0.3419   0.5019   0.9537
     1.2294   2.0046   3.2030   3.7299   4.2059   4.4368

          k = 0.1250 0.5774 0.0000 ( 12856 PWs)   bands (ev):

   -59.6282 -33.9126 -33.8557 -33.6747 -12.8378 -11.0086  -6.3018  -4.7012
    -4.0933  -3.3914  -2.3222  -1.4129  -0.4630   0.4369   0.6038   0.8849
     1.2513   1.9900   3.3290   3.7288   4.2185   4.3385

          k = 0.1875 0.3248 0.0000 ( 12901 PWs)   bands (ev):

   -59.6399 -33.8788 -33.8050 -33.6443 -13.3943 -11.4816  -5.2761  -4.6582
    -3.8135  -3.2929  -2.0150  -1.1417  -0.5803  -0.0166   0.2998   0.7353
     1.4295   1.8832   2.9167   3.5909   3.7682   4.8821

          k = 0.1875 0.3969 0.0000 ( 12903 PWs)   bands (ev):

   -59.6340 -33.8674 -33.8450 -33.6739 -13.1321 -11.2593  -5.6538  -4.5343
    -4.1210  -3.4186  -2.1201  -1.3075  -0.5039   0.0397   0.2824   0.9062
     1.3271   2.0299   2.8560   3.7122   3.8834   4.8601

          k = 0.1875 0.4691 0.0000 ( 12858 PWs)   bands (ev):

   -59.6295 -33.8744 -33.8584 -33.6979 -12.9167 -11.0715  -5.9544  -4.5969
    -4.2591  -3.4528  -2.2643  -1.4876  -0.4011   0.2312   0.3255   0.9399
     1.2903   2.0629   2.9891   3.6698   4.0888   4.7727

          k = 0.1875 0.5413 0.0000 ( 12848 PWs)   bands (ev):

   -59.6271 -33.8896 -33.8537 -33.7112 -12.7938 -10.9619  -6.1233  -4.7166
    -4.2782  -3.4338  -2.3747  -1.5940  -0.3458   0.3536   0.4740   0.7898
     1.4349   1.9957   3.2024   3.5612   4.1117   4.7451

          k = 0.2500 0.4330 0.0000 ( 12885 PWs)   bands (ev):

   -59.6295 -33.8612 -33.8576 -33.7122 -12.9202 -11.0718  -5.8318  -4.6519
    -4.2630  -3.4990  -2.2806  -1.5042  -0.3708   0.1663   0.2744   0.9320
     1.3031   2.1238   2.8708   3.6161   4.0653   4.9451

          k = 0.2500 0.5052 0.0000 ( 12870 PWs)   bands (ev):

   -59.6265 -33.8648 -33.8526 -33.7435 -12.7714 -10.9366  -5.9315  -4.8989
    -4.2302  -3.5243  -2.4272  -1.6602  -0.2738   0.3042   0.3691   0.7376
     1.5140   2.0939   3.0005   3.4131   4.1195   5.1352

          k = 0.2500 0.5774 0.0000 ( 12844 PWs)   bands (ev):

   -59.6255 -33.8645 -33.8505 -33.7563 -12.7175 -10.8869  -5.9617  -4.9965
    -4.2229  -3.5202  -2.4861  -1.7206  -0.2414   0.3532   0.4666   0.6205
     1.6556   2.0333   3.1112   3.2627   4.1159   5.2157

          k = 0.3125 0.5413 0.0000 ( 12856 PWs)   bands (ev):

   -59.6249 -33.8495 -33.8437 -33.7841 -12.6908 -10.8602  -5.8432  -5.1699
    -4.1626  -3.5796  -2.5306  -1.7586  -0.2018   0.3587   0.4665   0.5497
     1.7322   2.1037   2.9801   3.1648   4.1459   5.4817

     the Fermi energy is     1.8879 ev

!    total energy              =    -658.63647738 Ry
     total all-electron energy =    -12481.810368 Ry
     estimated scf accuracy    <       0.00000006 Ry
     smearing contrib. (-TS)   =      -0.00686001 Ry
     internal energy E=F+TS    =    -658.62961738 Ry

     The total energy is F=E-TS. E is the sum of the following terms:
     one-electron contribution =   -1419.34737769 Ry
     hartree contribution      =     723.06516131 Ry
     xc contribution           =     -62.57666798 Ry
     ewald contribution        =     506.37745472 Ry
     one-center paw contrib.   =    -406.14818773 Ry

     total magnetization       =     0.00 Bohr mag/cell
     absolute magnetization    =     0.00 Bohr mag/cell

     convergence has been achieved in   8 iterations

     negative rho (up, down):  2.614E-04 2.614E-04

     Forces acting on atoms (cartesian axes, Ry/au):

     atom    1 type  1   force =     0.00000000    0.00000000   -0.01084386
     atom    2 type  2   force =     0.00000000    0.00000000   -0.00253697
     atom    3 type  2   force =     0.00000000    0.00000000    0.01093049
     atom    4 type  3   force =     0.00000000    0.00000000    0.00245034
     The non-local contrib.  to forces
     atom    1 type  1   force =     0.00000000    0.00000000   -0.05756371
     atom    2 type  2   force =     0.00000000    0.00000000   -0.08623116
     atom    3 type  2   force =     0.00000000    0.00000000    0.26691563
     atom    4 type  3   force =     0.00000000    0.00000000    0.02136350
     The ionic contribution  to forces
     atom    1 type  1   force =     0.00000000   -0.00000000  -36.66236224
     atom    2 type  2   force =    -0.00000000    0.00000000   20.85411795
     atom    3 type  2   force =    -0.00000000    0.00000000  -46.60199927
     atom    4 type  3   force =     0.00000000   -0.00000000   62.41024355
     The local contribution  to forces
     atom    1 type  1   force =     0.00000000   -0.00000000   36.70427829
     atom    2 type  2   force =    -0.00000000    0.00000000  -20.77439534
     atom    3 type  2   force =    -0.00000000    0.00000000   46.34826071
     atom    4 type  3   force =     0.00000000   -0.00000000  -62.38704874
     The core correction contribution to forces
     atom    1 type  1   force =     0.00000000   -0.00000000    0.00401533
     atom    2 type  2   force =     0.00000000   -0.00000000    0.00359869
     atom    3 type  2   force =     0.00000000   -0.00000000   -0.00224523
     atom    4 type  3   force =     0.00000000   -0.00000000   -0.04244306
     The Hubbard contrib.    to forces
     atom    1 type  1   force =     0.00000000    0.00000000    0.00000000
     atom    2 type  2   force =     0.00000000    0.00000000    0.00000000
     atom    3 type  2   force =     0.00000000    0.00000000    0.00000000
     atom    4 type  3   force =     0.00000000    0.00000000    0.00000000
     The SCF correction term to forces
     atom    1 type  1   force =    -0.00000000   -0.00000000    0.00080744
     atom    2 type  2   force =     0.00000000    0.00000000    0.00039187
     atom    3 type  2   force =     0.00000000    0.00000000    0.00001762
     atom    4 type  3   force =    -0.00000000   -0.00000000    0.00035406

     Total force =     0.015796     Total SCF correction =     0.000965


     Computing stress (Cartesian axis) and pressure


     negative rho (up, down):  2.614E-04 2.614E-04
          total   stress  (Ry/bohr**3)                   (kbar)     P=        8.49
   0.00010082   0.00000000   0.00000000           14.83        0.00        0.00
   0.00000000   0.00010082  -0.00000000            0.00       14.83       -0.00
   0.00000000   0.00000000  -0.00002853            0.00        0.00       -4.20

     Energy error            =      4.7E-04 Ry
     Gradient error          =      1.1E-02 Ry/Bohr

     number of scf cycles    =  17
     number of bfgs steps    =  16

     energy             old  =    -658.6360077814 Ry
     energy             new  =    -658.6364773829 Ry

     CASE: energy            _new < energy            _old

     new trust radius        =       0.0135584251 bohr
     new conv_thr            =       0.0000000470 Ry


ATOMIC_POSITIONS (crystal)
Mo            0.0000000000        0.0000000000        0.5099023925
S             0.6666666667        0.3333333333        0.6046223612
S             0.6666666667        0.3333333333        0.4245448903
Co            0.0000000000        0.0000000000        0.6585664198



     Writing config-only to output data dir ./tmp/relax.save/
     NEW-OLD atomic charge density approx. for the potential

     negative rho (up, down):  2.608E-04 2.608E-04
     Generating pointlists ...

     total cpu time spent up to now is      448.3 secs

     Self-consistent Calculation

     iteration #  1     ecut=    80.00 Ry     beta= 0.70
     Davidson diagonalization with overlap
     ethr =  1.00E-06,  avg # of iterations =  6.1

     negative rho (up, down):  2.605E-04 2.605E-04

     total cpu time spent up to now is      451.1 secs

     total energy              =    -658.63662499 Ry
     estimated scf accuracy    <       0.00004557 Ry

     total magnetization       =     0.00 Bohr mag/cell
     absolute magnetization    =     0.00 Bohr mag/cell

     iteration #  2     ecut=    80.00 Ry     beta= 0.70
     Davidson diagonalization with overlap
     ethr =  1.30E-07,  avg # of iterations =  3.8

     negative rho (up, down):  2.606E-04 2.606E-04

     total cpu time spent up to now is      453.2 secs

     total energy              =    -658.63660270 Ry
     estimated scf accuracy    <       0.00027057 Ry

     total magnetization       =     0.00 Bohr mag/cell
     absolute magnetization    =     0.00 Bohr mag/cell

     iteration #  3     ecut=    80.00 Ry     beta= 0.70
     Davidson diagonalization with overlap
     ethr =  1.30E-07,  avg # of iterations =  3.3

     negative rho (up, down):  2.605E-04 2.605E-04

     total cpu time spent up to now is      455.2 secs

     total energy              =    -658.63661658 Ry
     estimated scf accuracy    <       0.00049249 Ry

     total magnetization       =     0.00 Bohr mag/cell
     absolute magnetization    =     0.00 Bohr mag/cell

     iteration #  4     ecut=    80.00 Ry     beta= 0.70
     Davidson diagonalization with overlap
     ethr =  1.30E-07,  avg # of iterations =  2.5

     negative rho (up, down):  2.605E-04 2.605E-04

     total cpu time spent up to now is      457.0 secs

     total energy              =    -658.63664049 Ry
     estimated scf accuracy    <       0.00012517 Ry

     total magnetization       =     0.00 Bohr mag/cell
     absolute magnetization    =     0.00 Bohr mag/cell

     iteration #  5     ecut=    80.00 Ry     beta= 0.70
     Davidson diagonalization with overlap
     ethr =  1.30E-07,  avg # of iterations =  1.9

     negative rho (up, down):  2.604E-04 2.604E-04

     total cpu time spent up to now is      458.8 secs

     total energy              =    -658.63664925 Ry
     estimated scf accuracy    <       0.00000570 Ry

     total magnetization       =     0.00 Bohr mag/cell
     absolute magnetization    =     0.00 Bohr mag/cell

     iteration #  6     ecut=    80.00 Ry     beta= 0.70
     Davidson diagonalization with overlap
     ethr =  1.63E-08,  avg # of iterations =  2.5

     negative rho (up, down):  2.604E-04 2.604E-04

     total cpu time spent up to now is      460.6 secs

     total energy              =    -658.63665010 Ry
     estimated scf accuracy    <       0.00000281 Ry

     total magnetization       =     0.00 Bohr mag/cell
     absolute magnetization    =     0.00 Bohr mag/cell

     iteration #  7     ecut=    80.00 Ry     beta= 0.70
     Davidson diagonalization with overlap
     ethr =  8.04E-09,  avg # of iterations =  2.1

     negative rho (up, down):  2.604E-04 2.604E-04
 
     Magnetic moment per site  (integrated on atomic sphere of radius R)
     atom   1 (R=0.308)  charge= 10.6326  magn=  0.0000
     atom   2 (R=0.259)  charge=  2.9243  magn=  0.0000
     atom   3 (R=0.259)  charge=  2.8458  magn=  0.0000
     atom   4 (R=0.259)  charge=  6.6309  magn=  0.0000

     total cpu time spent up to now is      462.4 secs

     End of self-consistent calculation

 ------ SPIN UP ------------


          k = 0.0000 0.0000 0.0000 ( 12991 PWs)   bands (ev):

   -59.6660 -33.9334 -33.5519 -33.5519 -14.4667 -12.3572  -5.6824  -2.9863
    -2.9863  -2.9754  -1.1275  -1.1275   0.0352   0.1137   0.1137   1.1132
     1.1132   1.4331   3.6596   4.0266   4.0267   4.4792

          k = 0.0000 0.0722 0.0000 ( 12961 PWs)   bands (ev):

   -59.6645 -33.9305 -33.5669 -33.5553 -14.4171 -12.3192  -5.6242  -3.1400
    -2.9980  -2.9461  -1.2410  -1.1122  -0.1045   0.1277   0.2416   1.0270
     1.0966   1.4700   3.7590   3.9377   4.0928   4.2981

          k = 0.0000 0.1443 0.0000 ( 12937 PWs)   bands (ev):

   -59.6603 -33.9223 -33.6091 -33.5650 -14.2726 -12.2081  -5.4606  -3.5390
    -3.0372  -2.9043  -1.5106  -1.0775  -0.2811   0.1832   0.3433   0.8243
     1.0757   1.5523   3.6908   3.9146   4.1300   4.1487

          k = 0.0000 0.2165 0.0000 ( 12929 PWs)   bands (ev):

   -59.6540 -33.9099 -33.6719 -33.5795 -14.0466 -12.0332  -5.2259  -4.1043
    -3.1100  -2.9169  -1.7852  -1.0474  -0.4393   0.2974   0.3258   0.5774
     1.1149   1.6528   3.4710   3.6997   3.9727   4.5790

          k = 0.0000 0.2887 0.0000 ( 12917 PWs)   bands (ev):

   -59.6465 -33.8952 -33.7452 -33.5965 -13.7621 -11.8107  -4.9916  -4.7299
    -3.2123  -3.0793  -1.9322  -1.0384  -0.5534   0.1758   0.4259   0.4519
     1.2734   1.7040   3.2616   3.7521   3.7935   4.7412

          k = 0.0000 0.3608 0.0000 ( 12903 PWs)   bands (ev):

   -59.6390 -33.8806 -33.8176 -33.6134 -13.4535 -11.5656  -5.3883  -4.7803
    -3.3306  -3.3266  -2.0072  -1.0509  -0.6290   0.0930   0.4106   0.6139
     1.5452   1.6386   3.2350   3.5638   3.9867   4.8190

          k = 0.0000 0.4330 0.0000 ( 12893 PWs)   bands (ev):

   -59.6326 -33.8791 -33.8675 -33.6277 -13.1674 -11.3336  -5.9248  -4.7338
    -3.5187  -3.4292  -2.1242  -1.0745  -0.6581   0.2122   0.5047   0.7705
     1.4707   1.8282   3.3385   3.4592   4.0897   4.8165

          k = 0.0000 0.5052 0.0000 ( 12870 PWs)   bands (ev):

   -59.6284 -33.9189 -33.8595 -33.6372 -12.9604 -11.1618  -6.2960  -4.7834
    -3.5983  -3.4995  -2.2495  -1.0959  -0.6496   0.4475   0.6605   0.8971
     1.2422   2.0028   3.4605   3.4705   4.0326   4.7727

          k = 0.0000-0.5774 0.0000 ( 12854 PWs)   bands (ev):

   -59.6269 -33.9330 -33.8566 -33.6406 -12.8841 -11.0973  -6.4299  -4.8182
    -3.6159  -3.5244  -2.3016  -1.1044  -0.6422   0.6082   0.7538   0.9481
     1.0760   2.0508   3.4873   3.5364   3.9722   4.7464

          k = 0.0625 0.1083 0.0000 ( 12951 PWs)   bands (ev):

   -59.6617 -33.9249 -33.5950 -33.5623 -14.3200 -12.2446  -5.5132  -3.4012
    -3.0489  -2.9002  -1.4270  -1.0956  -0.2249   0.1485   0.3326   0.9054
     1.0607   1.5296   3.7834   3.9083   4.0490   4.1995

          k = 0.0625 0.1804 0.0000 ( 12937 PWs)   bands (ev):

   -59.6564 -33.9146 -33.6464 -33.5755 -14.1346 -12.1014  -5.3123  -3.8665
    -3.1315  -2.8759  -1.6952  -1.0794  -0.3615   0.1994   0.3722   0.7140
     1.0608   1.6260   3.6009   3.6914   3.9887   4.3375

          k = 0.0625 0.2526 0.0000 ( 12935 PWs)   bands (ev):

   -59.6495 -33.9011 -33.7128 -33.5929 -13.8789 -11.9021  -5.0680  -4.4507
    -3.2368  -2.9768  -1.8946  -1.0669  -0.4859   0.2019   0.3662   0.5496
     1.1754   1.7151   3.3156   3.6636   3.8181   4.6397

          k = 0.0625 0.3248 0.0000 ( 12927 PWs)   bands (ev):

   -59.6420 -33.8865 -33.7840 -33.6115 -13.5812 -11.6668  -5.0951  -4.8195
    -3.3740  -3.2045  -1.9738  -1.0708  -0.5808   0.0880   0.3640   0.5950
     1.4024   1.7217   3.1719   3.6002   3.8672   4.8102

          k = 0.0625 0.3969 0.0000 ( 12903 PWs)   bands (ev):

   -59.6351 -33.8730 -33.8488 -33.6287 -13.2817 -11.4253  -5.6595  -4.7069
    -3.5773  -3.3574  -2.0569  -1.1174  -0.6180   0.1212   0.3981   0.7397
     1.5156   1.7662   3.1773   3.5356   4.0497   4.8075

          k = 0.0625 0.4691 0.0000 ( 12863 PWs)   bands (ev):

   -59.6298 -33.8986 -33.8622 -33.6418 -13.0319 -11.2193  -6.1097  -4.7187
    -3.7327  -3.4146  -2.1897  -1.1782  -0.5983   0.3082   0.5268   0.8880
     1.3355   1.9498   3.2566   3.5879   4.1262   4.6843

          k = 0.0625 0.5413 0.0000 ( 12844 PWs)   bands (ev):

   -59.6269 -33.9250 -33.8566 -33.6489 -12.8876 -11.0976  -6.3615  -4.7765
    -3.7962  -3.4287  -2.2924  -1.2122  -0.5762   0.5118   0.6770   0.9779
     1.1373   2.0236   3.3631   3.6744   4.0493   4.6019

          k = 0.1250 0.2165 0.0000 ( 12933 PWs)   bands (ev):

   -59.6505 -33.9032 -33.6994 -33.5937 -13.9193 -11.9333  -5.0968  -4.3208
    -3.2897  -2.9341  -1.8787  -1.0972  -0.4391   0.1663   0.3766   0.6231
     1.1267   1.7244   3.3450   3.6060   3.7958   4.5725

          k = 0.1250 0.2887 0.0000 ( 12935 PWs)   bands (ev):

   -59.6436 -33.8896 -33.7602 -33.6161 -13.6491 -11.7195  -4.8997  -4.8120
    -3.4771  -3.1362  -1.9697  -1.1056  -0.5298   0.0709   0.3492   0.6261
     1.3200   1.7880   3.1057   3.5658   3.7557   4.8021

          k = 0.1250 0.3608 0.0000 ( 12903 PWs)   bands (ev):

   -59.6367 -33.8761 -33.8200 -33.6389 -13.3575 -11.4840  -5.3899  -4.6706
    -3.7196  -3.3285  -2.0276  -1.1623  -0.5712   0.0334   0.3248   0.7492
     1.4639   1.8318   2.9960   3.5825   3.8828   4.8698

          k = 0.1250 0.4330 0.0000 ( 12881 PWs)   bands (ev):

   -59.6308 -33.8710 -33.8637 -33.6584 -13.0891 -11.2620  -5.8541  -4.6105
    -3.9495  -3.4043  -2.1387  -1.2914  -0.5232   0.1702   0.3596   0.9108
     1.3598   1.9587   3.0304   3.6717   4.0668   4.7255

          k = 0.1250 0.5052 0.0000 ( 12858 PWs)   bands (ev):

   -59.6269 -33.9035 -33.8566 -33.6714 -12.8961 -11.0984  -6.1760  -4.6702
    -4.0614  -3.4030  -2.2736  -1.3963  -0.4659   0.3634   0.4964   0.9795
     1.2502   2.0025   3.1949   3.7256   4.2322   4.4512

          k = 0.1250 0.5774 0.0000 ( 12856 PWs)   bands (ev):

   -59.6255 -33.9151 -33.8540 -33.6760 -12.8253 -11.0373  -6.2921  -4.7148
    -4.0884  -3.3906  -2.3356  -1.4325  -0.4459   0.4581   0.5981   0.9130
     1.2734   1.9895   3.3185   3.7262   4.2369   4.3552

          k = 0.1875 0.3248 0.0000 ( 12901 PWs)   bands (ev):

   -59.6373 -33.8772 -33.8069 -33.6455 -13.3841 -11.5042  -5.2608  -4.6594
    -3.8001  -3.3208  -2.0312  -1.1690  -0.5551  -0.0126   0.3161   0.7565
     1.4327   1.8800   2.9149   3.5923   3.7905   4.9059

          k = 0.1875 0.3969 0.0000 ( 12903 PWs)   bands (ev):

   -59.6314 -33.8659 -33.8470 -33.6752 -13.1208 -11.2845  -5.6406  -4.5375
    -4.1160  -3.4384  -2.1381  -1.3172  -0.4858   0.0402   0.2966   0.9298
     1.3417   2.0250   2.8532   3.7082   3.9103   4.8836

          k = 0.1875 0.4691 0.0000 ( 12858 PWs)   bands (ev):

   -59.6269 -33.8767 -33.8566 -33.6992 -12.9045 -11.0990  -5.9431  -4.6023
    -4.2576  -3.4662  -2.2825  -1.4921  -0.3821   0.2367   0.3304   0.9652
     1.3097   2.0630   2.9827   3.6722   4.1117   4.7877

          k = 0.1875 0.5413 0.0000 ( 12848 PWs)   bands (ev):

   -59.6244 -33.8920 -33.8519 -33.7126 -12.7811 -10.9908  -6.1131  -4.7221
    -4.2792  -3.4433  -2.3919  -1.5995  -0.3253   0.3726   0.4641   0.8179
     1.4549   1.9986   3.1940   3.5667   4.1299   4.7558

          k = 0.2500 0.4330 0.0000 ( 12885 PWs)   bands (ev):

   -59.6269 -33.8631 -33.8562 -33.7136 -12.9080 -11.0992  -5.8200  -4.6510
    -4.2648  -3.5195  -2.3002  -1.5021  -0.3513   0.1600   0.2888   0.9570
     1.3217   2.1255   2.8645   3.6234   4.0829   4.9636

          k = 0.2500 0.5052 0.0000 ( 12870 PWs)   bands (ev):

   -59.6239 -33.8671 -33.8507 -33.7450 -12.7585 -10.9656  -5.9207  -4.8975
    -4.2344  -3.5462  -2.4429  -1.6571  -0.2502   0.3206   0.3570   0.7648
     1.5309   2.1006   2.9937   3.4248   4.1297   5.1552

          k = 0.2500 0.5774 0.0000 ( 12844 PWs)   bands (ev):

   -59.6228 -33.8668 -33.8487 -33.7579 -12.7045 -10.9166  -5.9512  -4.9949
    -4.2282  -3.5427  -2.4988  -1.7186  -0.2167   0.3696   0.4532   0.6496
     1.6706   2.0414   3.0954   3.2866   4.1211   5.2356

          k = 0.3125 0.5413 0.0000 ( 12856 PWs)   bands (ev):

   -59.6222 -33.8477 -33.8459 -33.7857 -12.6776 -10.8901  -5.8321  -5.1675
    -4.1659  -3.6106  -2.5390  -1.7550  -0.1752   0.3741   0.4520   0.5787
     1.7444   2.1139   2.9655   3.1912   4.1476   5.5134

 ------ SPIN DOWN ----------


          k = 0.0000 0.0000 0.0000 ( 12991 PWs)   bands (ev):

   -59.6660 -33.9334 -33.5519 -33.5519 -14.4667 -12.3572  -5.6824  -2.9863
    -2.9863  -2.9754  -1.1275  -1.1275   0.0352   0.1137   0.1137   1.1133
     1.1133   1.4331   3.6596   4.0266   4.0266   4.4792

          k = 0.0000 0.0722 0.0000 ( 12961 PWs)   bands (ev):

   -59.6645 -33.9305 -33.5668 -33.5553 -14.4171 -12.3192  -5.6242  -3.1400
    -2.9980  -2.9461  -1.2410  -1.1122  -0.1045   0.1277   0.2416   1.0270
     1.0966   1.4700   3.7591   3.9377   4.0928   4.2981

          k = 0.0000 0.1443 0.0000 ( 12937 PWs)   bands (ev):

   -59.6603 -33.9223 -33.6091 -33.5650 -14.2726 -12.2081  -5.4606  -3.5390
    -3.0372  -2.9043  -1.5106  -1.0775  -0.2811   0.1832   0.3434   0.8243
     1.0757   1.5524   3.6908   3.9146   4.1300   4.1487

          k = 0.0000 0.2165 0.0000 ( 12929 PWs)   bands (ev):

   -59.6540 -33.9099 -33.6719 -33.5795 -14.0466 -12.0332  -5.2259  -4.1043
    -3.1100  -2.9169  -1.7852  -1.0473  -0.4393   0.2975   0.3258   0.5775
     1.1149   1.6528   3.4710   3.6997   3.9727   4.5790

          k = 0.0000 0.2887 0.0000 ( 12917 PWs)   bands (ev):

   -59.6465 -33.8952 -33.7452 -33.5965 -13.7621 -11.8107  -4.9916  -4.7299
    -3.2123  -3.0793  -1.9322  -1.0384  -0.5534   0.1758   0.4259   0.4519
     1.2734   1.7041   3.2616   3.7521   3.7935   4.7412

          k = 0.0000 0.3608 0.0000 ( 12903 PWs)   bands (ev):

   -59.6390 -33.8806 -33.8176 -33.6134 -13.4535 -11.5656  -5.3883  -4.7803
    -3.3306  -3.3266  -2.0072  -1.0509  -0.6289   0.0930   0.4106   0.6139
     1.5452   1.6386   3.2350   3.5639   3.9867   4.8190

          k = 0.0000 0.4330 0.0000 ( 12893 PWs)   bands (ev):

   -59.6326 -33.8791 -33.8674 -33.6277 -13.1674 -11.3336  -5.9248  -4.7338
    -3.5187  -3.4292  -2.1242  -1.0745  -0.6581   0.2122   0.5047   0.7706
     1.4707   1.8282   3.3385   3.4592   4.0897   4.8165

          k = 0.0000 0.5052 0.0000 ( 12870 PWs)   bands (ev):

   -59.6284 -33.9189 -33.8595 -33.6372 -12.9604 -11.1618  -6.2960  -4.7834
    -3.5983  -3.4995  -2.2495  -1.0959  -0.6495   0.4476   0.6605   0.8971
     1.2423   2.0029   3.4605   3.4705   4.0326   4.7728

          k = 0.0000-0.5774 0.0000 ( 12854 PWs)   bands (ev):

   -59.6269 -33.9330 -33.8566 -33.6406 -12.8841 -11.0973  -6.4299  -4.8182
    -3.6159  -3.5244  -2.3016  -1.1044  -0.6422   0.6083   0.7538   0.9481
     1.0760   2.0508   3.4873   3.5364   3.9722   4.7464

          k = 0.0625 0.1083 0.0000 ( 12951 PWs)   bands (ev):

   -59.6617 -33.9249 -33.5950 -33.5623 -14.3200 -12.2446  -5.5132  -3.4012
    -3.0489  -2.9002  -1.4270  -1.0956  -0.2249   0.1485   0.3326   0.9054
     1.0608   1.5296   3.7834   3.9084   4.0490   4.1995

          k = 0.0625 0.1804 0.0000 ( 12937 PWs)   bands (ev):

   -59.6564 -33.9146 -33.6464 -33.5755 -14.1346 -12.1014  -5.3123  -3.8664
    -3.1315  -2.8759  -1.6952  -1.0794  -0.3614   0.1994   0.3722   0.7141
     1.0609   1.6260   3.6009   3.6914   3.9887   4.3376

          k = 0.0625 0.2526 0.0000 ( 12935 PWs)   bands (ev):

   -59.6495 -33.9011 -33.7128 -33.5928 -13.8789 -11.9021  -5.0680  -4.4507
    -3.2368  -2.9768  -1.8946  -1.0668  -0.4859   0.2019   0.3662   0.5496
     1.1754   1.7151   3.3156   3.6636   3.8181   4.6397

          k = 0.0625 0.3248 0.0000 ( 12927 PWs)   bands (ev):

   -59.6420 -33.8864 -33.7840 -33.6115 -13.5812 -11.6668  -5.0951  -4.8195
    -3.3740  -3.2045  -1.9738  -1.0708  -0.5808   0.0880   0.3641   0.5950
     1.4024   1.7218   3.1720   3.6002   3.8672   4.8102

          k = 0.0625 0.3969 0.0000 ( 12903 PWs)   bands (ev):

   -59.6351 -33.8730 -33.8488 -33.6287 -13.2817 -11.4253  -5.6595  -4.7069
    -3.5773  -3.3574  -2.0569  -1.1174  -0.6179   0.1212   0.3981   0.7397
     1.5157   1.7662   3.1773   3.5356   4.0497   4.8075

          k = 0.0625 0.4691 0.0000 ( 12863 PWs)   bands (ev):

   -59.6298 -33.8986 -33.8622 -33.6418 -13.0319 -11.2193  -6.1097  -4.7187
    -3.7327  -3.4146  -2.1897  -1.1782  -0.5983   0.3082   0.5268   0.8880
     1.3356   1.9499   3.2566   3.5879   4.1262   4.6843

          k = 0.0625 0.5413 0.0000 ( 12844 PWs)   bands (ev):

   -59.6269 -33.9250 -33.8566 -33.6489 -12.8876 -11.0976  -6.3615  -4.7765
    -3.7962  -3.4287  -2.2924  -1.2122  -0.5762   0.5118   0.6771   0.9780
     1.1374   2.0236   3.3631   3.6744   4.0493   4.6019

          k = 0.1250 0.2165 0.0000 ( 12933 PWs)   bands (ev):

   -59.6505 -33.9032 -33.6994 -33.5937 -13.9193 -11.9333  -5.0968  -4.3208
    -3.2897  -2.9341  -1.8787  -1.0972  -0.4391   0.1663   0.3766   0.6232
     1.1267   1.7245   3.3451   3.6061   3.7958   4.5725

          k = 0.1250 0.2887 0.0000 ( 12935 PWs)   bands (ev):

   -59.6436 -33.8896 -33.7602 -33.6161 -13.6491 -11.7195  -4.8997  -4.8120
    -3.4771  -3.1362  -1.9697  -1.1056  -0.5297   0.0709   0.3493   0.6261
     1.3200   1.7880   3.1057   3.5659   3.7557   4.8021

          k = 0.1250 0.3608 0.0000 ( 12903 PWs)   bands (ev):

   -59.6367 -33.8761 -33.8200 -33.6389 -13.3575 -11.4840  -5.3899  -4.6706
    -3.7196  -3.3285  -2.0276  -1.1623  -0.5712   0.0334   0.3248   0.7492
     1.4639   1.8318   2.9960   3.5825   3.8828   4.8698

          k = 0.1250 0.4330 0.0000 ( 12881 PWs)   bands (ev):

   -59.6308 -33.8710 -33.8637 -33.6584 -13.0891 -11.2620  -5.8541  -4.6105
    -3.9495  -3.4043  -2.1387  -1.2914  -0.5232   0.1702   0.3597   0.9109
     1.3599   1.9587   3.0304   3.6717   4.0668   4.7255

          k = 0.1250 0.5052 0.0000 ( 12858 PWs)   bands (ev):

   -59.6269 -33.9035 -33.8566 -33.6714 -12.8961 -11.0984  -6.1760  -4.6702
    -4.0614  -3.4030  -2.2736  -1.3963  -0.4659   0.3634   0.4964   0.9795
     1.2502   2.0025   3.1949   3.7256   4.2322   4.4512

          k = 0.1250 0.5774 0.0000 ( 12856 PWs)   bands (ev):

   -59.6255 -33.9151 -33.8539 -33.6760 -12.8253 -11.0373  -6.2921  -4.7148
    -4.0884  -3.3906  -2.3356  -1.4325  -0.4459   0.4581   0.5981   0.9130
     1.2734   1.9896   3.3185   3.7262   4.2369   4.3552

          k = 0.1875 0.3248 0.0000 ( 12901 PWs)   bands (ev):

   -59.6373 -33.8772 -33.8069 -33.6455 -13.3841 -11.5042  -5.2608  -4.6594
    -3.8001  -3.3208  -2.0312  -1.1690  -0.5551  -0.0126   0.3161   0.7565
     1.4327   1.8800   2.9150   3.5923   3.7905   4.9059

          k = 0.1875 0.3969 0.0000 ( 12903 PWs)   bands (ev):

   -59.6314 -33.8659 -33.8470 -33.6751 -13.1208 -11.2845  -5.6406  -4.5375
    -4.1160  -3.4384  -2.1381  -1.3172  -0.4858   0.0402   0.2966   0.9298
     1.3417   2.0250   2.8532   3.7082   3.9103   4.8836

          k = 0.1875 0.4691 0.0000 ( 12858 PWs)   bands (ev):

   -59.6269 -33.8767 -33.8566 -33.6992 -12.9045 -11.0990  -5.9431  -4.6023
    -4.2576  -3.4662  -2.2825  -1.4921  -0.3821   0.2367   0.3304   0.9652
     1.3097   2.0630   2.9828   3.6722   4.1117   4.7877

          k = 0.1875 0.5413 0.0000 ( 12848 PWs)   bands (ev):

   -59.6244 -33.8920 -33.8519 -33.7126 -12.7811 -10.9908  -6.1131  -4.7221
    -4.2792  -3.4433  -2.3919  -1.5995  -0.3253   0.3726   0.4641   0.8179
     1.4550   1.9987   3.1940   3.5667   4.1299   4.7558

          k = 0.2500 0.4330 0.0000 ( 12885 PWs)   bands (ev):

   -59.6269 -33.8631 -33.8562 -33.7136 -12.9080 -11.0992  -5.8200  -4.6510
    -4.2648  -3.5195  -2.3002  -1.5021  -0.3513   0.1600   0.2888   0.9570
     1.3217   2.1255   2.8645   3.6234   4.0829   4.9636

          k = 0.2500 0.5052 0.0000 ( 12870 PWs)   bands (ev):

   -59.6239 -33.8671 -33.8507 -33.7450 -12.7585 -10.9656  -5.9207  -4.8975
    -4.2344  -3.5462  -2.4429  -1.6571  -0.2502   0.3206   0.3570   0.7648
     1.5310   2.1006   2.9937   3.4248   4.1297   5.1552

          k = 0.2500 0.5774 0.0000 ( 12844 PWs)   bands (ev):

   -59.6228 -33.8668 -33.8487 -33.7579 -12.7045 -10.9166  -5.9512  -4.9949
    -4.2282  -3.5427  -2.4988  -1.7186  -0.2166   0.3696   0.4532   0.6497
     1.6706   2.0414   3.0954   3.2866   4.1211   5.2356

          k = 0.3125 0.5413 0.0000 ( 12856 PWs)   bands (ev):

   -59.6222 -33.8477 -33.8459 -33.7857 -12.6776 -10.8901  -5.8321  -5.1675
    -4.1659  -3.6106  -2.5390  -1.7550  -0.1752   0.3742   0.4520   0.5787
     1.7444   2.1139   2.9655   3.1912   4.1476   5.5134

     the Fermi energy is     1.8873 ev

!    total energy              =    -658.63665050 Ry
     total all-electron energy =    -12481.810541 Ry
     estimated scf accuracy    <       0.00000004 Ry
     smearing contrib. (-TS)   =      -0.00692614 Ry
     internal energy E=F+TS    =    -658.62972436 Ry

     The total energy is F=E-TS. E is the sum of the following terms:
     one-electron contribution =   -1419.27764789 Ry
     hartree contribution      =     723.03206386 Ry
     xc contribution           =     -62.57959060 Ry
     ewald contribution        =     506.34370533 Ry
     one-center paw contrib.   =    -406.14825506 Ry

     total magnetization       =     0.00 Bohr mag/cell
     absolute magnetization    =     0.00 Bohr mag/cell

     convergence has been achieved in   7 iterations

     negative rho (up, down):  2.604E-04 2.604E-04

     Forces acting on atoms (cartesian axes, Ry/au):

     atom    1 type  1   force =     0.00000000    0.00000000   -0.00186914
     atom    2 type  2   force =     0.00000000    0.00000000    0.00082421
     atom    3 type  2   force =     0.00000000    0.00000000    0.00299168
     atom    4 type  3   force =     0.00000000    0.00000000   -0.00194675
     The non-local contrib.  to forces
     atom    1 type  1   force =     0.00000000    0.00000000   -0.06016092
     atom    2 type  2   force =     0.00000000    0.00000000   -0.08249331
     atom    3 type  2   force =     0.00000000    0.00000000    0.26344370
     atom    4 type  3   force =     0.00000000    0.00000000    0.02137088
     The ionic contribution  to forces
     atom    1 type  1   force =     0.00000000   -0.00000000  -36.61301383
     atom    2 type  2   force =    -0.00000000    0.00000000   20.80513672
     atom    3 type  2   force =    -0.00000000    0.00000000  -46.61043242
     atom    4 type  3   force =     0.00000000   -0.00000000   62.41830953
     The local contribution  to forces
     atom    1 type  1   force =    -0.00000000   -0.00000000   36.66716595
     atom    2 type  2   force =    -0.00000000    0.00000000  -20.72493724
     atom    3 type  2   force =    -0.00000000    0.00000000   46.35212587
     atom    4 type  3   force =     0.00000000    0.00000000  -62.39918503
     The core correction contribution to forces
     atom    1 type  1   force =    -0.00000000    0.00000000    0.00420189
     atom    2 type  2   force =     0.00000000   -0.00000000    0.00346572
     atom    3 type  2   force =     0.00000000   -0.00000000   -0.00207408
     atom    4 type  3   force =     0.00000000    0.00000000   -0.04232185
     The Hubbard contrib.    to forces
     atom    1 type  1   force =     0.00000000    0.00000000    0.00000000
     atom    2 type  2   force =     0.00000000    0.00000000    0.00000000
     atom    3 type  2   force =     0.00000000    0.00000000    0.00000000
     atom    4 type  3   force =     0.00000000    0.00000000    0.00000000
     The SCF correction term to forces
     atom    1 type  1   force =     0.00000000    0.00000000   -0.00002365
     atom    2 type  2   force =    -0.00000000   -0.00000000   -0.00030911
     atom    3 type  2   force =    -0.00000000   -0.00000000   -0.00003281
     atom    4 type  3   force =     0.00000000    0.00000000   -0.00008170

     Total force =     0.004113     Total SCF correction =     0.000322


     Computing stress (Cartesian axis) and pressure


     negative rho (up, down):  2.604E-04 2.604E-04
          total   stress  (Ry/bohr**3)                   (kbar)     P=        9.08
   0.00010112   0.00000000   0.00000000           14.88        0.00        0.00
   0.00000000   0.00010112   0.00000000            0.00       14.88        0.00
   0.00000000   0.00000000  -0.00001705            0.00        0.00       -2.51

     Energy error            =      1.7E-04 Ry
     Gradient error          =      3.0E-03 Ry/Bohr

     number of scf cycles    =  18
     number of bfgs steps    =  17

     energy             old  =    -658.6364773829 Ry
     energy             new  =    -658.6366505019 Ry

     CASE: energy            _new < energy            _old

     new trust radius        =       0.0055862733 bohr
     new conv_thr            =       0.0000000173 Ry


ATOMIC_POSITIONS (crystal)
Mo            0.0000000000        0.0000000000        0.5098753677
S             0.6666666667        0.3333333333        0.6046052543
S             0.6666666667        0.3333333333        0.4247074042
Co            0.0000000000        0.0000000000        0.6584480375



     Writing config-only to output data dir ./tmp/relax.save/
     NEW-OLD atomic charge density approx. for the potential

     negative rho (up, down):  2.607E-04 2.607E-04
     Generating pointlists ...

     total cpu time spent up to now is      465.6 secs

     Self-consistent Calculation

     iteration #  1     ecut=    80.00 Ry     beta= 0.70
     Davidson diagonalization with overlap
     ethr =  1.00E-06,  avg # of iterations =  3.0

     Threshold (ethr) on eigenvalues was too large:
     Diagonalizing with lowered threshold

     Davidson diagonalization with overlap
     ethr =  6.04E-08,  avg # of iterations =  3.5

     negative rho (up, down):  2.607E-04 2.607E-04

     total cpu time spent up to now is      469.5 secs

     total energy              =    -658.63664669 Ry
     estimated scf accuracy    <       0.00002752 Ry

     total magnetization       =     0.00 Bohr mag/cell
     absolute magnetization    =     0.00 Bohr mag/cell

     iteration #  2     ecut=    80.00 Ry     beta= 0.70
     Davidson diagonalization with overlap
     ethr =  7.86E-08,  avg # of iterations =  5.3

     negative rho (up, down):  2.607E-04 2.607E-04

     total cpu time spent up to now is      471.8 secs

     total energy              =    -658.63643151 Ry
     estimated scf accuracy    <       0.00582046 Ry

     total magnetization       =     0.00 Bohr mag/cell
     absolute magnetization    =     0.00 Bohr mag/cell

     iteration #  3     ecut=    80.00 Ry     beta= 0.70
     Davidson diagonalization with overlap
     ethr =  7.86E-08,  avg # of iterations =  4.9

     negative rho (up, down):  2.607E-04 2.607E-04

     total cpu time spent up to now is      473.9 secs

     total energy              =    -658.63666681 Ry
     estimated scf accuracy    <       0.00000481 Ry

     total magnetization       =     0.00 Bohr mag/cell
     absolute magnetization    =     0.00 Bohr mag/cell

     iteration #  4     ecut=    80.00 Ry     beta= 0.70
     Davidson diagonalization with overlap
     ethr =  1.37E-08,  avg # of iterations =  3.1

     negative rho (up, down):  2.607E-04 2.607E-04

     total cpu time spent up to now is      475.9 secs

     total energy              =    -658.63666777 Ry
     estimated scf accuracy    <       0.00000467 Ry

     total magnetization       =     0.00 Bohr mag/cell
     absolute magnetization    =     0.00 Bohr mag/cell

     iteration #  5     ecut=    80.00 Ry     beta= 0.70
     Davidson diagonalization with overlap
     ethr =  1.34E-08,  avg # of iterations =  2.0

     negative rho (up, down):  2.607E-04 2.607E-04

     total cpu time spent up to now is      477.6 secs

     total energy              =    -658.63666833 Ry
     estimated scf accuracy    <       0.00000061 Ry

     total magnetization       =     0.00 Bohr mag/cell
     absolute magnetization    =     0.00 Bohr mag/cell

     iteration #  6     ecut=    80.00 Ry     beta= 0.70
     Davidson diagonalization with overlap
     ethr =  1.73E-09,  avg # of iterations =  2.0

     negative rho (up, down):  2.607E-04 2.607E-04

     total cpu time spent up to now is      479.4 secs

     total energy              =    -658.63666842 Ry
     estimated scf accuracy    <       0.00000003 Ry

     total magnetization       =     0.00 Bohr mag/cell
     absolute magnetization    =     0.00 Bohr mag/cell

     iteration #  7     ecut=    80.00 Ry     beta= 0.70
     Davidson diagonalization with overlap
     ethr =  8.18E-11,  avg # of iterations =  4.1

     negative rho (up, down):  2.607E-04 2.607E-04

     total cpu time spent up to now is      481.5 secs

     total energy              =    -658.63666843 Ry
     estimated scf accuracy    <       0.00000002 Ry

     total magnetization       =     0.00 Bohr mag/cell
     absolute magnetization    =     0.00 Bohr mag/cell

     iteration #  8     ecut=    80.00 Ry     beta= 0.70
     Davidson diagonalization with overlap
     ethr =  5.08E-11,  avg # of iterations =  2.4

     negative rho (up, down):  2.607E-04 2.607E-04
 
     Magnetic moment per site  (integrated on atomic sphere of radius R)
     atom   1 (R=0.308)  charge= 10.6338  magn=  0.0000
     atom   2 (R=0.259)  charge=  2.9249  magn=  0.0000
     atom   3 (R=0.259)  charge=  2.8469  magn=  0.0000
     atom   4 (R=0.259)  charge=  6.6314  magn=  0.0000

     total cpu time spent up to now is      483.3 secs

     End of self-consistent calculation

 ------ SPIN UP ------------


          k = 0.0000 0.0000 0.0000 ( 12991 PWs)   bands (ev):

   -59.6646 -33.9327 -33.5515 -33.5515 -14.4713 -12.3610  -5.6855  -2.9954
    -2.9954  -2.9822  -1.1427  -1.1427   0.0433   0.1079   0.1079   1.1107
     1.1107   1.4349   3.6658   4.0331   4.0332   4.4828

          k = 0.0000 0.0722 0.0000 ( 12961 PWs)   bands (ev):

   -59.6631 -33.9298 -33.5665 -33.5549 -14.4216 -12.3231  -5.6274  -3.1489
    -3.0070  -2.9530  -1.2556  -1.1274  -0.1036   0.1218   0.2426   1.0249
     1.0942   1.4715   3.7649   3.9444   4.1004   4.3015

          k = 0.0000 0.1443 0.0000 ( 12937 PWs)   bands (ev):

   -59.6589 -33.9215 -33.6088 -33.5646 -14.2770 -12.2122  -5.4640  -3.5470
    -3.0458  -2.9114  -1.5237  -1.0927  -0.2822   0.1772   0.3451   0.8237
     1.0736   1.5528   3.6985   3.9168   4.1354   4.1577

          k = 0.0000 0.2165 0.0000 ( 12929 PWs)   bands (ev):

   -59.6526 -33.9091 -33.6717 -33.5791 -14.0509 -12.0377  -5.2296  -4.1113
    -3.1181  -2.9252  -1.7953  -1.0623  -0.4415   0.2912   0.3266   0.5787
     1.1130   1.6518   3.4764   3.7043   3.9781   4.5832

          k = 0.0000 0.2887 0.0000 ( 12917 PWs)   bands (ev):

   -59.6451 -33.8944 -33.7451 -33.5961 -13.7664 -11.8157  -4.9960  -4.7356
    -3.2199  -3.0885  -1.9385  -1.0527  -0.5559   0.1767   0.4259   0.4455
     1.2715   1.7020   3.2649   3.7552   3.7999   4.7469

          k = 0.0000 0.3608 0.0000 ( 12903 PWs)   bands (ev):

   -59.6376 -33.8798 -33.8176 -33.6131 -13.4577 -11.5713  -5.3935  -4.7853
    -3.3384  -3.3337  -2.0110  -1.0643  -0.6308   0.0929   0.4091   0.6076
     1.5434   1.6356   3.2371   3.5650   3.9933   4.8254

          k = 0.0000 0.4330 0.0000 ( 12893 PWs)   bands (ev):

   -59.6312 -33.8791 -33.8666 -33.6274 -13.1717 -11.3401  -5.9291  -4.7398
    -3.5236  -3.4361  -2.1274  -1.0870  -0.6588   0.2099   0.5035   0.7643
     1.4665   1.8269   3.3390   3.4586   4.0955   4.8229

          k = 0.0000 0.5052 0.0000 ( 12870 PWs)   bands (ev):

   -59.6269 -33.9190 -33.8587 -33.6369 -12.9648 -11.1688  -6.2998  -4.7898
    -3.6009  -3.5063  -2.2531  -1.1078  -0.6494   0.4427   0.6613   0.8910
     1.2370   2.0022   3.4587   3.4696   4.0366   4.7786

          k = 0.0000-0.5774 0.0000 ( 12854 PWs)   bands (ev):

   -59.6254 -33.9331 -33.8558 -33.6403 -12.8885 -11.1046  -6.4335  -4.8247
    -3.6178  -3.5311  -2.3054  -1.1160  -0.6418   0.6025   0.7556   0.9419
     1.0703   2.0504   3.4852   3.5352   3.9750   4.7519

          k = 0.0625 0.1083 0.0000 ( 12951 PWs)   bands (ev):

   -59.6603 -33.9242 -33.5947 -33.5619 -14.3245 -12.2486  -5.5164  -3.4096
    -3.0573  -2.9074  -1.4407  -1.1107  -0.2256   0.1427   0.3342   0.9042
     1.0586   1.5305   3.7908   3.9132   4.0527   4.2084

          k = 0.0625 0.1804 0.0000 ( 12937 PWs)   bands (ev):

   -59.6550 -33.9139 -33.6461 -33.5752 -14.1390 -12.1057  -5.3158  -3.8740
    -3.1393  -2.8839  -1.7067  -1.0940  -0.3636   0.1939   0.3730   0.7143
     1.0590   1.6255   3.6074   3.6949   3.9951   4.3400

          k = 0.0625 0.2526 0.0000 ( 12935 PWs)   bands (ev):

   -59.6481 -33.9003 -33.7127 -33.5925 -13.8833 -11.9069  -5.0719  -4.4572
    -3.2440  -2.9862  -1.9024  -1.0808  -0.4887   0.1998   0.3650   0.5480
     1.1738   1.7135   3.3187   3.6697   3.8228   4.6430

          k = 0.0625 0.3248 0.0000 ( 12927 PWs)   bands (ev):

   -59.6406 -33.8856 -33.7839 -33.6112 -13.5855 -11.6722  -5.1007  -4.8240
    -3.3810  -3.2134  -1.9787  -1.0838  -0.5834   0.0881   0.3625   0.5896
     1.4006   1.7193   3.1743   3.6021   3.8743   4.8159

          k = 0.0625 0.3969 0.0000 ( 12903 PWs)   bands (ev):

   -59.6336 -33.8722 -33.8488 -33.6284 -13.2859 -11.4315  -5.6642  -4.7123
    -3.5841  -3.3639  -2.0606  -1.1286  -0.6203   0.1202   0.3958   0.7338
     1.5121   1.7648   3.1786   3.5355   4.0566   4.8135

          k = 0.0625 0.4691 0.0000 ( 12863 PWs)   bands (ev):

   -59.6283 -33.8986 -33.8613 -33.6415 -13.0363 -11.2262  -6.1138  -4.7250
    -3.7380  -3.4196  -2.1935  -1.1880  -0.6003   0.3049   0.5258   0.8819
     1.3307   1.9493   3.2562   3.5870   4.1312   4.6898

          k = 0.0625 0.5413 0.0000 ( 12844 PWs)   bands (ev):

   -59.6254 -33.9251 -33.8558 -33.6486 -12.8920 -11.1049  -6.3652  -4.7830
    -3.8008  -3.4327  -2.2966  -1.2215  -0.5777   0.5064   0.6782   0.9716
     1.1318   2.0234   3.3613   3.6741   4.0514   4.6075

          k = 0.1250 0.2165 0.0000 ( 12933 PWs)   bands (ev):

   -59.6491 -33.9024 -33.6992 -33.5933 -13.9236 -11.9380  -5.1006  -4.3276
    -3.2966  -2.9435  -1.8874  -1.1107  -0.4421   0.1623   0.3769   0.6217
     1.1254   1.7230   3.3471   3.6136   3.8004   4.5750

          k = 0.1250 0.2887 0.0000 ( 12935 PWs)   bands (ev):

   -59.6422 -33.8888 -33.7601 -33.6158 -13.6534 -11.7247  -4.9048  -4.8172
    -3.4833  -3.1463  -1.9755  -1.1179  -0.5329   0.0694   0.3489   0.6214
     1.3186   1.7858   3.1074   3.5695   3.7623   4.8066

          k = 0.1250 0.3608 0.0000 ( 12903 PWs)   bands (ev):

   -59.6353 -33.8753 -33.8199 -33.6386 -13.3618 -11.4899  -5.3951  -4.6754
    -3.7259  -3.3366  -2.0323  -1.1716  -0.5751   0.0325   0.3228   0.7435
     1.4613   1.8302   2.9976   3.5827   3.8905   4.8754

          k = 0.1250 0.4330 0.0000 ( 12881 PWs)   bands (ev):

   -59.6294 -33.8710 -33.8628 -33.6581 -13.0934 -11.2686  -5.8585  -4.6163
    -3.9551  -3.4099  -2.1434  -1.2978  -0.5276   0.1687   0.3567   0.9048
     1.3554   1.9584   3.0310   3.6708   4.0743   4.7294

          k = 0.1250 0.5052 0.0000 ( 12858 PWs)   bands (ev):

   -59.6254 -33.9036 -33.8558 -33.6711 -12.9005 -11.1056  -6.1799  -4.6767
    -4.0662  -3.4070  -2.2788  -1.4017  -0.4698   0.3594   0.4954   0.9731
     1.2447   2.0027   3.1944   3.7251   4.2385   4.4530

          k = 0.1250 0.5774 0.0000 ( 12856 PWs)   bands (ev):

   -59.6241 -33.9152 -33.8531 -33.6757 -12.8297 -11.0447  -6.2958  -4.7213
    -4.0931  -3.3938  -2.3411  -1.4377  -0.4494   0.4531   0.5982   0.9064
     1.2676   1.9897   3.3174   3.7263   4.2384   4.3601

          k = 0.1875 0.3248 0.0000 ( 12901 PWs)   bands (ev):

   -59.6358 -33.8764 -33.8069 -33.6452 -13.3883 -11.5100  -5.2663  -4.6640
    -3.8058  -3.3299  -2.0363  -1.1774  -0.5595  -0.0140   0.3147   0.7508
     1.4306   1.8782   2.9164   3.5930   3.7981   4.9113

          k = 0.1875 0.3969 0.0000 ( 12903 PWs)   bands (ev):

   -59.6300 -33.8650 -33.8470 -33.6749 -13.1251 -11.2910  -5.6454  -4.5429
    -4.1209  -3.4457  -2.1435  -1.3211  -0.4918   0.0383   0.2942   0.9238
     1.3378   2.0247   2.8540   3.7075   3.9184   4.8879

          k = 0.1875 0.4691 0.0000 ( 12858 PWs)   bands (ev):

   -59.6254 -33.8768 -33.8557 -33.6990 -12.9089 -11.1061  -5.9474  -4.6088
    -4.2616  -3.4719  -2.2882  -1.4940  -0.3880   0.2344   0.3272   0.9590
     1.3047   2.0634   2.9827   3.6727   4.1180   4.7897

          k = 0.1875 0.5413 0.0000 ( 12848 PWs)   bands (ev):

   -59.6230 -33.8920 -33.8510 -33.7124 -12.7855 -10.9983  -6.1170  -4.7283
    -4.2834  -3.4479  -2.3976  -1.6011  -0.3306   0.3683   0.4625   0.8113
     1.4495   1.9988   3.1936   3.5671   4.1338   4.7582

          k = 0.2500 0.4330 0.0000 ( 12885 PWs)   bands (ev):

   -59.6254 -33.8631 -33.8554 -33.7134 -12.9124 -11.1063  -5.8246  -4.6569
    -4.2684  -3.5265  -2.3058  -1.5027  -0.3582   0.1573   0.2859   0.9509
     1.3170   2.1260   2.8644   3.6251   4.0880   4.9668

          k = 0.2500 0.5052 0.0000 ( 12870 PWs)   bands (ev):

   -59.6224 -33.8671 -33.8499 -33.7449 -12.7629 -10.9731  -5.9251  -4.9024
    -4.2384  -3.5531  -2.4474  -1.6570  -0.2569   0.3170   0.3542   0.7583
     1.5264   2.1004   2.9928   3.4268   4.1324   5.1598

          k = 0.2500 0.5774 0.0000 ( 12844 PWs)   bands (ev):

   -59.6214 -33.8668 -33.8478 -33.7577 -12.7089 -10.9242  -5.9556  -4.9995
    -4.2325  -3.5496  -2.5026  -1.7186  -0.2231   0.3657   0.4506   0.6430
     1.6665   2.0402   3.0932   3.2897   4.1226   5.2407

          k = 0.3125 0.5413 0.0000 ( 12856 PWs)   bands (ev):

   -59.6208 -33.8469 -33.8459 -33.7855 -12.6821 -10.8978  -5.8370  -5.1709
    -4.1698  -3.6192  -2.5414  -1.7548  -0.1821   0.3706   0.4490   0.5719
     1.7415   2.1114   2.9626   3.1953   4.1485   5.5214

 ------ SPIN DOWN ----------


          k = 0.0000 0.0000 0.0000 ( 12991 PWs)   bands (ev):

   -59.6646 -33.9327 -33.5515 -33.5515 -14.4713 -12.3610  -5.6855  -2.9954
    -2.9954  -2.9822  -1.1427  -1.1427   0.0433   0.1079   0.1079   1.1108
     1.1108   1.4349   3.6658   4.0331   4.0331   4.4829

          k = 0.0000 0.0722 0.0000 ( 12961 PWs)   bands (ev):

   -59.6631 -33.9298 -33.5665 -33.5549 -14.4216 -12.3231  -5.6274  -3.1489
    -3.0070  -2.9530  -1.2556  -1.1274  -0.1036   0.1219   0.2426   1.0249
     1.0942   1.4716   3.7649   3.9444   4.1004   4.3015

          k = 0.0000 0.1443 0.0000 ( 12937 PWs)   bands (ev):

   -59.6589 -33.9215 -33.6088 -33.5646 -14.2770 -12.2122  -5.4640  -3.5470
    -3.0458  -2.9114  -1.5237  -1.0927  -0.2822   0.1772   0.3451   0.8237
     1.0736   1.5528   3.6985   3.9168   4.1354   4.1577

          k = 0.0000 0.2165 0.0000 ( 12929 PWs)   bands (ev):

   -59.6526 -33.9091 -33.6717 -33.5791 -14.0509 -12.0377  -5.2296  -4.1113
    -3.1181  -2.9252  -1.7953  -1.0623  -0.4415   0.2913   0.3266   0.5787
     1.1130   1.6519   3.4764   3.7043   3.9781   4.5832

          k = 0.0000 0.2887 0.0000 ( 12917 PWs)   bands (ev):

   -59.6451 -33.8944 -33.7451 -33.5961 -13.7664 -11.8157  -4.9960  -4.7356
    -3.2199  -3.0885  -1.9385  -1.0527  -0.5559   0.1767   0.4259   0.4455
     1.2715   1.7020   3.2649   3.7553   3.7999   4.7469

          k = 0.0000 0.3608 0.0000 ( 12903 PWs)   bands (ev):

   -59.6376 -33.8798 -33.8176 -33.6131 -13.4577 -11.5713  -5.3934  -4.7853
    -3.3384  -3.3337  -2.0110  -1.0643  -0.6308   0.0929   0.4091   0.6077
     1.5434   1.6356   3.2371   3.5651   3.9933   4.8254

          k = 0.0000 0.4330 0.0000 ( 12893 PWs)   bands (ev):

   -59.6312 -33.8791 -33.8666 -33.6274 -13.1717 -11.3401  -5.9291  -4.7398
    -3.5236  -3.4361  -2.1274  -1.0870  -0.6588   0.2099   0.5035   0.7644
     1.4665   1.8269   3.3390   3.4586   4.0955   4.8229

          k = 0.0000 0.5052 0.0000 ( 12870 PWs)   bands (ev):

   -59.6269 -33.9190 -33.8587 -33.6369 -12.9648 -11.1688  -6.2998  -4.7898
    -3.6009  -3.5063  -2.2531  -1.1078  -0.6494   0.4428   0.6613   0.8910
     1.2371   2.0022   3.4587   3.4696   4.0366   4.7786

          k = 0.0000-0.5774 0.0000 ( 12854 PWs)   bands (ev):

   -59.6254 -33.9331 -33.8558 -33.6403 -12.8885 -11.1046  -6.4335  -4.8247
    -3.6178  -3.5311  -2.3054  -1.1160  -0.6418   0.6025   0.7556   0.9420
     1.0703   2.0504   3.4852   3.5353   3.9750   4.7519

          k = 0.0625 0.1083 0.0000 ( 12951 PWs)   bands (ev):

   -59.6603 -33.9242 -33.5947 -33.5619 -14.3245 -12.2486  -5.5164  -3.4096
    -3.0572  -2.9074  -1.4407  -1.1107  -0.2256   0.1427   0.3342   0.9042
     1.0586   1.5305   3.7908   3.9133   4.0527   4.2085

          k = 0.0625 0.1804 0.0000 ( 12937 PWs)   bands (ev):

   -59.6550 -33.9139 -33.6461 -33.5752 -14.1390 -12.1057  -5.3158  -3.8740
    -3.1393  -2.8839  -1.7067  -1.0940  -0.3635   0.1939   0.3730   0.7143
     1.0591   1.6255   3.6074   3.6949   3.9951   4.3400

          k = 0.0625 0.2526 0.0000 ( 12935 PWs)   bands (ev):

   -59.6481 -33.9003 -33.7127 -33.5925 -13.8833 -11.9069  -5.0719  -4.4572
    -3.2440  -2.9862  -1.9024  -1.0808  -0.4887   0.1998   0.3650   0.5480
     1.1738   1.7135   3.3187   3.6697   3.8228   4.6431

          k = 0.0625 0.3248 0.0000 ( 12927 PWs)   bands (ev):

   -59.6406 -33.8856 -33.7839 -33.6112 -13.5855 -11.6722  -5.1007  -4.8240
    -3.3810  -3.2134  -1.9787  -1.0838  -0.5834   0.0881   0.3625   0.5897
     1.4006   1.7193   3.1743   3.6021   3.8743   4.8159

          k = 0.0625 0.3969 0.0000 ( 12903 PWs)   bands (ev):

   -59.6336 -33.8722 -33.8488 -33.6284 -13.2859 -11.4315  -5.6642  -4.7123
    -3.5841  -3.3639  -2.0606  -1.1286  -0.6203   0.1202   0.3958   0.7338
     1.5122   1.7648   3.1787   3.5355   4.0566   4.8135

          k = 0.0625 0.4691 0.0000 ( 12863 PWs)   bands (ev):

   -59.6283 -33.8986 -33.8613 -33.6415 -13.0363 -11.2262  -6.1138  -4.7250
    -3.7380  -3.4196  -2.1935  -1.1880  -0.6002   0.3049   0.5258   0.8819
     1.3307   1.9493   3.2562   3.5870   4.1312   4.6898

          k = 0.0625 0.5413 0.0000 ( 12844 PWs)   bands (ev):

   -59.6254 -33.9251 -33.8558 -33.6486 -12.8920 -11.1049  -6.3652  -4.7830
    -3.8008  -3.4327  -2.2966  -1.2215  -0.5777   0.5065   0.6782   0.9716
     1.1318   2.0234   3.3613   3.6741   4.0514   4.6075

          k = 0.1250 0.2165 0.0000 ( 12933 PWs)   bands (ev):

   -59.6491 -33.9024 -33.6992 -33.5933 -13.9236 -11.9380  -5.1006  -4.3276
    -3.2966  -2.9435  -1.8874  -1.1107  -0.4421   0.1623   0.3769   0.6217
     1.1254   1.7230   3.3471   3.6136   3.8004   4.5750

          k = 0.1250 0.2887 0.0000 ( 12935 PWs)   bands (ev):

   -59.6422 -33.8888 -33.7601 -33.6158 -13.6534 -11.7247  -4.9048  -4.8172
    -3.4833  -3.1463  -1.9755  -1.1179  -0.5329   0.0694   0.3489   0.6214
     1.3186   1.7858   3.1074   3.5695   3.7623   4.8066

          k = 0.1250 0.3608 0.0000 ( 12903 PWs)   bands (ev):

   -59.6353 -33.8753 -33.8199 -33.6386 -13.3618 -11.4899  -5.3951  -4.6754
    -3.7259  -3.3366  -2.0323  -1.1716  -0.5751   0.0325   0.3228   0.7435
     1.4613   1.8302   2.9976   3.5827   3.8905   4.8754

          k = 0.1250 0.4330 0.0000 ( 12881 PWs)   bands (ev):

   -59.6294 -33.8710 -33.8628 -33.6581 -13.0934 -11.2686  -5.8585  -4.6163
    -3.9551  -3.4099  -2.1434  -1.2978  -0.5276   0.1687   0.3568   0.9048
     1.3555   1.9585   3.0310   3.6708   4.0743   4.7294

          k = 0.1250 0.5052 0.0000 ( 12858 PWs)   bands (ev):

   -59.6254 -33.9036 -33.8558 -33.6711 -12.9005 -11.1056  -6.1799  -4.6767
    -4.0662  -3.4070  -2.2788  -1.4017  -0.4698   0.3594   0.4954   0.9732
     1.2447   2.0027   3.1944   3.7251   4.2385   4.4530

          k = 0.1250 0.5774 0.0000 ( 12856 PWs)   bands (ev):

   -59.6241 -33.9152 -33.8531 -33.6757 -12.8297 -11.0447  -6.2958  -4.7213
    -4.0931  -3.3938  -2.3411  -1.4377  -0.4494   0.4531   0.5982   0.9064
     1.2676   1.9897   3.3174   3.7263   4.2384   4.3601

          k = 0.1875 0.3248 0.0000 ( 12901 PWs)   bands (ev):

   -59.6358 -33.8764 -33.8069 -33.6452 -13.3883 -11.5100  -5.2663  -4.6640
    -3.8058  -3.3299  -2.0363  -1.1774  -0.5595  -0.0140   0.3147   0.7508
     1.4306   1.8782   2.9164   3.5930   3.7981   4.9113

          k = 0.1875 0.3969 0.0000 ( 12903 PWs)   bands (ev):

   -59.6299 -33.8650 -33.8470 -33.6749 -13.1251 -11.2910  -5.6454  -4.5429
    -4.1209  -3.4457  -2.1435  -1.3211  -0.4918   0.0383   0.2942   0.9238
     1.3378   2.0247   2.8540   3.7075   3.9184   4.8879

          k = 0.1875 0.4691 0.0000 ( 12858 PWs)   bands (ev):

   -59.6254 -33.8768 -33.8557 -33.6990 -12.9089 -11.1061  -5.9474  -4.6088
    -4.2616  -3.4719  -2.2882  -1.4940  -0.3880   0.2344   0.3273   0.9590
     1.3047   2.0634   2.9827   3.6727   4.1180   4.7897

          k = 0.1875 0.5413 0.0000 ( 12848 PWs)   bands (ev):

   -59.6230 -33.8920 -33.8510 -33.7124 -12.7855 -10.9983  -6.1170  -4.7283
    -4.2833  -3.4479  -2.3976  -1.6011  -0.3306   0.3683   0.4625   0.8113
     1.4495   1.9988   3.1936   3.5671   4.1338   4.7582

          k = 0.2500 0.4330 0.0000 ( 12885 PWs)   bands (ev):

   -59.6254 -33.8631 -33.8554 -33.7134 -12.9123 -11.1063  -5.8246  -4.6568
    -4.2684  -3.5265  -2.3058  -1.5027  -0.3582   0.1573   0.2859   0.9509
     1.3170   2.1260   2.8644   3.6251   4.0880   4.9668

          k = 0.2500 0.5052 0.0000 ( 12870 PWs)   bands (ev):

   -59.6224 -33.8671 -33.8499 -33.7449 -12.7629 -10.9731  -5.9251  -4.9024
    -4.2384  -3.5531  -2.4474  -1.6570  -0.2568   0.3171   0.3542   0.7583
     1.5264   2.1004   2.9928   3.4268   4.1324   5.1598

          k = 0.2500 0.5774 0.0000 ( 12844 PWs)   bands (ev):

   -59.6214 -33.8668 -33.8478 -33.7577 -12.7089 -10.9242  -5.9556  -4.9995
    -4.2325  -3.5496  -2.5026  -1.7186  -0.2231   0.3657   0.4506   0.6430
     1.6665   2.0402   3.0932   3.2897   4.1226   5.2407

          k = 0.3125 0.5413 0.0000 ( 12856 PWs)   bands (ev):

   -59.6208 -33.8469 -33.8459 -33.7855 -12.6821 -10.8978  -5.8370  -5.1709
    -4.1698  -3.6192  -2.5414  -1.7548  -0.1821   0.3706   0.4490   0.5720
     1.7415   2.1114   2.9626   3.1953   4.1485   5.5214

     the Fermi energy is     1.8863 ev

!    total energy              =    -658.63666843 Ry
     total all-electron energy =    -12481.810559 Ry
     estimated scf accuracy    <          1.1E-09 Ry
     smearing contrib. (-TS)   =      -0.00689607 Ry
     internal energy E=F+TS    =    -658.62977236 Ry

     The total energy is F=E-TS. E is the sum of the following terms:
     one-electron contribution =   -1420.25016567 Ry
     hartree contribution      =     723.51600675 Ry
     xc contribution           =     -62.58331163 Ry
     ewald contribution        =     506.83635702 Ry
     one-center paw contrib.   =    -406.14865884 Ry

     total magnetization       =     0.00 Bohr mag/cell
     absolute magnetization    =     0.00 Bohr mag/cell

     convergence has been achieved in   8 iterations

     negative rho (up, down):  2.607E-04 2.607E-04

     Forces acting on atoms (cartesian axes, Ry/au):

     atom    1 type  1   force =     0.00000000    0.00000000   -0.00024149
     atom    2 type  2   force =     0.00000000    0.00000000    0.00056391
     atom    3 type  2   force =     0.00000000    0.00000000    0.00088795
     atom    4 type  3   force =     0.00000000    0.00000000   -0.00121038
     The non-local contrib.  to forces
     atom    1 type  1   force =     0.00000000    0.00000000   -0.06103935
     atom    2 type  2   force =     0.00000000    0.00000000   -0.08275658
     atom    3 type  2   force =     0.00000000    0.00000000    0.26240698
     atom    4 type  3   force =     0.00000000    0.00000000    0.02138155
     The ionic contribution  to forces
     atom    1 type  1   force =     0.00000000   -0.00000000  -36.63061675
     atom    2 type  2   force =    -0.00000000    0.00000000   20.82402732
     atom    3 type  2   force =    -0.00000000   -0.00000000  -46.62244181
     atom    4 type  3   force =     0.00000000   -0.00000000   62.42903124
     The local contribution  to forces
     atom    1 type  1   force =    -0.00000000   -0.00000000   36.68710025
     atom    2 type  2   force =    -0.00000000    0.00000000  -20.74414865
     atom    3 type  2   force =    -0.00000000    0.00000000   46.36292615
     atom    4 type  3   force =    -0.00000000    0.00000000  -62.40919137
     The core correction contribution to forces
     atom    1 type  1   force =    -0.00000000   -0.00000000    0.00424606
     atom    2 type  2   force =     0.00000000   -0.00000000    0.00347799
     atom    3 type  2   force =     0.00000000   -0.00000000   -0.00202523
     atom    4 type  3   force =    -0.00000000    0.00000000   -0.04234295
     The Hubbard contrib.    to forces
     atom    1 type  1   force =     0.00000000    0.00000000    0.00000000
     atom    2 type  2   force =     0.00000000    0.00000000    0.00000000
     atom    3 type  2   force =     0.00000000    0.00000000    0.00000000
     atom    4 type  3   force =     0.00000000    0.00000000    0.00000000
     The SCF correction term to forces
     atom    1 type  1   force =    -0.00000000   -0.00000000    0.00005225
     atom    2 type  2   force =    -0.00000000    0.00000000   -0.00005222
     atom    3 type  2   force =     0.00000000    0.00000000    0.00000582
     atom    4 type  3   force =     0.00000000    0.00000000   -0.00010489

     Total force =     0.001622     Total SCF correction =     0.000128


     Computing stress (Cartesian axis) and pressure


     negative rho (up, down):  2.607E-04 2.607E-04
          total   stress  (Ry/bohr**3)                   (kbar)     P=        9.82
   0.00010446   0.00000000   0.00000000           15.37        0.00        0.00
   0.00000000   0.00010446   0.00000000            0.00       15.37        0.00
   0.00000000   0.00000000  -0.00000863            0.00        0.00       -1.27

     Energy error            =      1.8E-05 Ry
     Gradient error          =      1.2E-03 Ry/Bohr

     number of scf cycles    =  19
     number of bfgs steps    =  18

     energy             old  =    -658.6366505019 Ry
     energy             new  =    -658.6366684305 Ry

     CASE: energy            _new < energy            _old

     new trust radius        =       0.0043998782 bohr
     new conv_thr            =       0.0000000100 Ry


ATOMIC_POSITIONS (crystal)
Mo            0.0000000000        0.0000000000        0.5098918455
S             0.6666666667        0.3333333333        0.6046147887
S             0.6666666667        0.3333333333        0.4248093918
Co            0.0000000000        0.0000000000        0.6583200378



     Writing config-only to output data dir ./tmp/relax.save/
     NEW-OLD atomic charge density approx. for the potential

     negative rho (up, down):  2.611E-04 2.611E-04
     Generating pointlists ...

     total cpu time spent up to now is      486.5 secs

     Self-consistent Calculation

     iteration #  1     ecut=    80.00 Ry     beta= 0.70
     Davidson diagonalization with overlap
     ethr =  1.00E-06,  avg # of iterations =  3.0

     Threshold (ethr) on eigenvalues was too large:
     Diagonalizing with lowered threshold

     Davidson diagonalization with overlap
     ethr =  3.87E-08,  avg # of iterations =  3.9

     negative rho (up, down):  2.611E-04 2.611E-04

     total cpu time spent up to now is      490.4 secs

     total energy              =    -658.63665874 Ry
     estimated scf accuracy    <       0.00001860 Ry

     total magnetization       =     0.00 Bohr mag/cell
     absolute magnetization    =     0.00 Bohr mag/cell

     iteration #  2     ecut=    80.00 Ry     beta= 0.70
     Davidson diagonalization with overlap
     ethr =  5.32E-08,  avg # of iterations =  5.0

     negative rho (up, down):  2.611E-04 2.611E-04

     total cpu time spent up to now is      492.6 secs

     total energy              =    -658.63652849 Ry
     estimated scf accuracy    <       0.00342590 Ry

     total magnetization       =     0.00 Bohr mag/cell
     absolute magnetization    =     0.00 Bohr mag/cell

     iteration #  3     ecut=    80.00 Ry     beta= 0.70
     Davidson diagonalization with overlap
     ethr =  5.32E-08,  avg # of iterations =  4.8

     negative rho (up, down):  2.611E-04 2.611E-04

     total cpu time spent up to now is      494.8 secs

     total energy              =    -658.63666974 Ry
     estimated scf accuracy    <       0.00001582 Ry

     total magnetization       =     0.00 Bohr mag/cell
     absolute magnetization    =     0.00 Bohr mag/cell

     iteration #  4     ecut=    80.00 Ry     beta= 0.70
     Davidson diagonalization with overlap
     ethr =  4.52E-08,  avg # of iterations =  2.0

     negative rho (up, down):  2.611E-04 2.611E-04

     total cpu time spent up to now is      496.6 secs

     total energy              =    -658.63667192 Ry
     estimated scf accuracy    <       0.00000374 Ry

     total magnetization       =     0.00 Bohr mag/cell
     absolute magnetization    =     0.00 Bohr mag/cell

     iteration #  5     ecut=    80.00 Ry     beta= 0.70
     Davidson diagonalization with overlap
     ethr =  1.07E-08,  avg # of iterations =  2.0

     negative rho (up, down):  2.611E-04 2.611E-04

     total cpu time spent up to now is      498.3 secs

     total energy              =    -658.63667247 Ry
     estimated scf accuracy    <       0.00000045 Ry

     total magnetization       =     0.00 Bohr mag/cell
     absolute magnetization    =     0.00 Bohr mag/cell

     iteration #  6     ecut=    80.00 Ry     beta= 0.70
     Davidson diagonalization with overlap
     ethr =  1.28E-09,  avg # of iterations =  2.3

     negative rho (up, down):  2.611E-04 2.611E-04

     total cpu time spent up to now is      500.2 secs

     total energy              =    -658.63667255 Ry
     estimated scf accuracy    <       0.00000004 Ry

     total magnetization       =     0.00 Bohr mag/cell
     absolute magnetization    =     0.00 Bohr mag/cell

     iteration #  7     ecut=    80.00 Ry     beta= 0.70
     Davidson diagonalization with overlap
     ethr =  1.21E-10,  avg # of iterations =  4.2

     negative rho (up, down):  2.611E-04 2.611E-04

     total cpu time spent up to now is      502.2 secs

     total energy              =    -658.63667256 Ry
     estimated scf accuracy    <       0.00000003 Ry

     total magnetization       =     0.00 Bohr mag/cell
     absolute magnetization    =     0.00 Bohr mag/cell

     iteration #  8     ecut=    80.00 Ry     beta= 0.70
     Davidson diagonalization with overlap
     ethr =  9.32E-11,  avg # of iterations =  2.1

     negative rho (up, down):  2.611E-04 2.611E-04
 
     Magnetic moment per site  (integrated on atomic sphere of radius R)
     atom   1 (R=0.308)  charge= 10.6345  magn=  0.0000
     atom   2 (R=0.259)  charge=  2.9256  magn= -0.0000
     atom   3 (R=0.259)  charge=  2.8474  magn=  0.0000
     atom   4 (R=0.259)  charge=  6.6320  magn=  0.0000

     total cpu time spent up to now is      504.0 secs

     End of self-consistent calculation

 ------ SPIN UP ------------


          k = 0.0000 0.0000 0.0000 ( 12991 PWs)   bands (ev):

   -59.6644 -33.9330 -33.5518 -33.5518 -14.4761 -12.3631  -5.6885  -3.0077
    -3.0077  -2.9864  -1.1504  -1.1504   0.0450   0.1006   0.1006   1.1092
     1.1092   1.4353   3.6761   4.0362   4.0362   4.4874

          k = 0.0000 0.0722 0.0000 ( 12961 PWs)   bands (ev):

   -59.6629 -33.9301 -33.5667 -33.5552 -14.4265 -12.3252  -5.6305  -3.1603
    -3.0190  -2.9576  -1.2630  -1.1352  -0.1067   0.1145   0.2399   1.0235
     1.0926   1.4718   3.7742   3.9480   4.1037   4.3058

          k = 0.0000 0.1443 0.0000 ( 12937 PWs)   bands (ev):

   -59.6587 -33.9218 -33.6091 -33.5649 -14.2819 -12.2144  -5.4672  -3.5575
    -3.0574  -2.9160  -1.5303  -1.1004  -0.2866   0.1698   0.3431   0.8230
     1.0720   1.5525   3.7026   3.9200   4.1435   4.1622

          k = 0.0000 0.2165 0.0000 ( 12929 PWs)   bands (ev):

   -59.6523 -33.9094 -33.6720 -33.5794 -14.0558 -12.0400  -5.2331  -4.1204
    -3.1290  -2.9302  -1.8004  -1.0699  -0.4467   0.2836   0.3246   0.5787
     1.1116   1.6506   3.4800   3.7073   3.9813   4.5858

          k = 0.0000 0.2887 0.0000 ( 12917 PWs)   bands (ev):

   -59.6449 -33.8947 -33.7455 -33.5964 -13.7714 -11.8183  -5.0002  -4.7428
    -3.2299  -3.0935  -1.9419  -1.0600  -0.5616   0.1755   0.4246   0.4377
     1.2703   1.6999   3.2676   3.7570   3.8030   4.7497

          k = 0.0000 0.3608 0.0000 ( 12903 PWs)   bands (ev):

   -59.6373 -33.8800 -33.8180 -33.6134 -13.4628 -11.5741  -5.4000  -4.7892
    -3.3431  -3.3425  -2.0135  -1.0711  -0.6357   0.0909   0.4070   0.5997
     1.5424   1.6322   3.2392   3.5654   3.9961   4.8280

          k = 0.0000 0.4330 0.0000 ( 12893 PWs)   bands (ev):

   -59.6310 -33.8796 -33.8668 -33.6277 -13.1769 -11.3433  -5.9347  -4.7441
    -3.5263  -3.4449  -2.1298  -1.0934  -0.6623   0.2055   0.5022   0.7563
     1.4614   1.8261   3.3402   3.4577   4.0977   4.8251

          k = 0.0000 0.5052 0.0000 ( 12870 PWs)   bands (ev):

   -59.6267 -33.9195 -33.8589 -33.6372 -12.9701 -11.1723  -6.3046  -4.7942
    -3.6026  -3.5147  -2.2557  -1.1139  -0.6519   0.4358   0.6618   0.8830
     1.2303   2.0016   3.4571   3.4699   4.0383   4.7803

          k = 0.0000-0.5774 0.0000 ( 12854 PWs)   bands (ev):

   -59.6252 -33.9336 -33.8559 -33.6406 -12.8939 -11.1081  -6.4381  -4.8290
    -3.6192  -3.5395  -2.3082  -1.1220  -0.6439   0.5950   0.7567   0.9340
     1.0628   2.0497   3.4835   3.5354   3.9764   4.7533

          k = 0.0625 0.1083 0.0000 ( 12951 PWs)   bands (ev):

   -59.6601 -33.9245 -33.5950 -33.5622 -14.3294 -12.2508  -5.5196  -3.4205
    -3.0681  -2.9128  -1.4476  -1.1182  -0.2298   0.1354   0.3320   0.9032
     1.0571   1.5303   3.7940   3.9202   4.0577   4.2134

          k = 0.0625 0.1804 0.0000 ( 12937 PWs)   bands (ev):

   -59.6548 -33.9141 -33.6465 -33.5755 -14.1439 -12.1080  -5.3192  -3.8837
    -3.1497  -2.8894  -1.7125  -1.1014  -0.3687   0.1870   0.3707   0.7138
     1.0577   1.6247   3.6112   3.6976   3.9993   4.3457

          k = 0.0625 0.2526 0.0000 ( 12935 PWs)   bands (ev):

   -59.6479 -33.9006 -33.7130 -33.5928 -13.8882 -11.9093  -5.0756  -4.4655
    -3.2538  -2.9917  -1.9066  -1.0880  -0.4944   0.1962   0.3615   0.5451
     1.1726   1.7118   3.3214   3.6728   3.8254   4.6465

          k = 0.0625 0.3248 0.0000 ( 12927 PWs)   bands (ev):

   -59.6404 -33.8859 -33.7843 -33.6115 -13.5905 -11.6749  -5.1078  -4.8279
    -3.3898  -3.2186  -1.9816  -1.0905  -0.5891   0.0865   0.3596   0.5828
     1.3994   1.7169   3.1765   3.6030   3.8775   4.8184

          k = 0.0625 0.3969 0.0000 ( 12903 PWs)   bands (ev):

   -59.6334 -33.8725 -33.8492 -33.6287 -13.2911 -11.4345  -5.6703  -4.7165
    -3.5905  -3.3695  -2.0631  -1.1345  -0.6253   0.1175   0.3931   0.7262
     1.5080   1.7639   3.1801   3.5353   4.0594   4.8156

          k = 0.0625 0.4691 0.0000 ( 12863 PWs)   bands (ev):

   -59.6281 -33.8991 -33.8615 -33.6419 -13.0416 -11.2295  -6.1189  -4.7294
    -3.7432  -3.4246  -2.1962  -1.1931  -0.6043   0.2996   0.5248   0.8740
     1.3245   1.9489   3.2564   3.5865   4.1331   4.6914

          k = 0.0625 0.5413 0.0000 ( 12844 PWs)   bands (ev):

   -59.6252 -33.9257 -33.8559 -33.6490 -12.8974 -11.1084  -6.3698  -4.7873
    -3.8057  -3.4372  -2.2996  -1.2261  -0.5811   0.4992   0.6790   0.9633
     1.1245   2.0229   3.3606   3.6741   4.0521   4.6090

          k = 0.1250 0.2165 0.0000 ( 12933 PWs)   bands (ev):

   -59.6489 -33.9026 -33.6995 -33.5936 -13.9285 -11.9405  -5.1042  -4.3364
    -3.3059  -2.9493  -1.8918  -1.1177  -0.4478   0.1571   0.3746   0.6189
     1.1244   1.7215   3.3494   3.6170   3.8033   4.5788

          k = 0.1250 0.2887 0.0000 ( 12935 PWs)   bands (ev):

   -59.6420 -33.8891 -33.7605 -33.6161 -13.6584 -11.7274  -4.9102  -4.8232
    -3.4917  -3.1517  -1.9788  -1.1242  -0.5391   0.0669   0.3464   0.6153
     1.3176   1.7837   3.1092   3.5712   3.7654   4.8092

          k = 0.1250 0.3608 0.0000 ( 12903 PWs)   bands (ev):

   -59.6350 -33.8755 -33.8204 -33.6390 -13.3669 -11.4929  -5.4017  -4.6795
    -3.7331  -3.3415  -2.0351  -1.1764  -0.5815   0.0306   0.3195   0.7361
     1.4583   1.8289   2.9991   3.5827   3.8940   4.8774

          k = 0.1250 0.4330 0.0000 ( 12881 PWs)   bands (ev):

   -59.6292 -33.8714 -33.8630 -33.6584 -13.0987 -11.2718  -5.8642  -4.6208
    -3.9611  -3.4142  -2.1464  -1.3014  -0.5337   0.1659   0.3534   0.8969
     1.3498   1.9584   3.0319   3.6702   4.0774   4.7302

          k = 0.1250 0.5052 0.0000 ( 12858 PWs)   bands (ev):

   -59.6252 -33.9041 -33.8559 -33.6715 -12.9059 -11.1090  -6.1848  -4.6813
    -4.0715  -3.4105  -2.2822  -1.4045  -0.4753   0.3536   0.4948   0.9648
     1.2376   2.0026   3.1946   3.7247   4.2407   4.4530

          k = 0.1250 0.5774 0.0000 ( 12856 PWs)   bands (ev):

   -59.6238 -33.9157 -33.8533 -33.6761 -12.8352 -11.0483  -6.3005  -4.7259
    -4.0983  -3.3969  -2.3447  -1.4402  -0.4546   0.4465   0.5985   0.8977
     1.2601   1.9894   3.3173   3.7263   4.2379   4.3621

          k = 0.1875 0.3248 0.0000 ( 12901 PWs)   bands (ev):

   -59.6356 -33.8766 -33.8073 -33.6455 -13.3934 -11.5129  -5.2732  -4.6682
    -3.8127  -3.3350  -2.0393  -1.1819  -0.5665  -0.0160   0.3116   0.7435
     1.4280   1.8768   2.9178   3.5932   3.8017   4.9134

          k = 0.1875 0.3969 0.0000 ( 12903 PWs)   bands (ev):

   -59.6297 -33.8652 -33.8474 -33.6752 -13.1303 -11.2942  -5.6515  -4.5477
    -4.1262  -3.4502  -2.1466  -1.3235  -0.4993   0.0362   0.2904   0.9159
     1.3327   2.0246   2.8551   3.7070   3.9218   4.8890

          k = 0.1875 0.4691 0.0000 ( 12858 PWs)   bands (ev):

   -59.6252 -33.8773 -33.8559 -33.6993 -12.9143 -11.1095  -5.9528  -4.6142
    -4.2656  -3.4757  -2.2914  -1.4954  -0.3954   0.2318   0.3236   0.9508
     1.2981   2.0633   2.9834   3.6725   4.1203   4.7899

          k = 0.1875 0.5413 0.0000 ( 12848 PWs)   bands (ev):

   -59.6228 -33.8925 -33.8512 -33.7128 -12.7910 -11.0019  -6.1220  -4.7336
    -4.2874  -3.4511  -2.4010  -1.6021  -0.3376   0.3625   0.4618   0.8026
     1.4425   1.9983   3.1939   3.5666   4.1351   4.7590

          k = 0.2500 0.4330 0.0000 ( 12885 PWs)   bands (ev):

   -59.6252 -33.8636 -33.8556 -33.7137 -12.9178 -11.1097  -5.8303  -4.6625
    -4.2718  -3.5306  -2.3088  -1.5037  -0.3664   0.1553   0.2817   0.9428
     1.3108   2.1258   2.8650   3.6255   4.0900   4.9675

          k = 0.2500 0.5052 0.0000 ( 12870 PWs)   bands (ev):

   -59.6222 -33.8676 -33.8500 -33.7452 -12.7685 -10.9767  -5.9306  -4.9073
    -4.2419  -3.5570  -2.4499  -1.6575  -0.2653   0.3121   0.3527   0.7497
     1.5205   2.0991   2.9926   3.4270   4.1335   5.1613

          k = 0.2500 0.5774 0.0000 ( 12844 PWs)   bands (ev):

   -59.6211 -33.8673 -33.8480 -33.7581 -12.7145 -10.9279  -5.9611  -5.0041
    -4.2360  -3.5535  -2.5048  -1.7191  -0.2314   0.3605   0.4494   0.6340
     1.6611   2.0381   3.0925   3.2897   4.1235   5.2427

          k = 0.3125 0.5413 0.0000 ( 12856 PWs)   bands (ev):

   -59.6206 -33.8472 -33.8463 -33.7859 -12.6877 -10.9015  -5.8431  -5.1747
    -4.1733  -3.6235  -2.5429  -1.7553  -0.1911   0.3657   0.4476   0.5629
     1.7374   2.1079   2.9614   3.1957   4.1494   5.5246

 ------ SPIN DOWN ----------


          k = 0.0000 0.0000 0.0000 ( 12991 PWs)   bands (ev):

   -59.6644 -33.9330 -33.5518 -33.5518 -14.4761 -12.3631  -5.6885  -3.0077
    -3.0077  -2.9864  -1.1504  -1.1504   0.0450   0.1006   0.1006   1.1092
     1.1092   1.4353   3.6761   4.0362   4.0362   4.4874

          k = 0.0000 0.0722 0.0000 ( 12961 PWs)   bands (ev):

   -59.6629 -33.9301 -33.5667 -33.5552 -14.4265 -12.3252  -5.6305  -3.1603
    -3.0190  -2.9576  -1.2630  -1.1352  -0.1067   0.1145   0.2399   1.0235
     1.0926   1.4718   3.7742   3.9480   4.1037   4.3058

          k = 0.0000 0.1443 0.0000 ( 12937 PWs)   bands (ev):

   -59.6587 -33.9218 -33.6091 -33.5649 -14.2819 -12.2144  -5.4672  -3.5575
    -3.0574  -2.9160  -1.5303  -1.1004  -0.2866   0.1698   0.3431   0.8230
     1.0721   1.5525   3.7027   3.9201   4.1435   4.1622

          k = 0.0000 0.2165 0.0000 ( 12929 PWs)   bands (ev):

   -59.6523 -33.9094 -33.6720 -33.5794 -14.0558 -12.0400  -5.2331  -4.1204
    -3.1290  -2.9301  -1.8004  -1.0699  -0.4467   0.2837   0.3246   0.5787
     1.1116   1.6506   3.4800   3.7073   3.9813   4.5858

          k = 0.0000 0.2887 0.0000 ( 12917 PWs)   bands (ev):

   -59.6448 -33.8947 -33.7455 -33.5964 -13.7714 -11.8183  -5.0002  -4.7428
    -3.2299  -3.0935  -1.9419  -1.0600  -0.5615   0.1755   0.4247   0.4377
     1.2703   1.6999   3.2676   3.7570   3.8030   4.7497

          k = 0.0000 0.3608 0.0000 ( 12903 PWs)   bands (ev):

   -59.6373 -33.8800 -33.8180 -33.6134 -13.4628 -11.5741  -5.4000  -4.7892
    -3.3431  -3.3425  -2.0135  -1.0711  -0.6357   0.0909   0.4070   0.5997
     1.5424   1.6322   3.2392   3.5654   3.9961   4.8280

          k = 0.0000 0.4330 0.0000 ( 12893 PWs)   bands (ev):

   -59.6310 -33.8796 -33.8668 -33.6277 -13.1769 -11.3433  -5.9347  -4.7441
    -3.5263  -3.4449  -2.1298  -1.0934  -0.6623   0.2055   0.5022   0.7563
     1.4615   1.8261   3.3402   3.4577   4.0977   4.8251

          k = 0.0000 0.5052 0.0000 ( 12870 PWs)   bands (ev):

   -59.6267 -33.9195 -33.8589 -33.6372 -12.9701 -11.1723  -6.3046  -4.7942
    -3.6026  -3.5147  -2.2557  -1.1139  -0.6519   0.4358   0.6618   0.8830
     1.2304   2.0016   3.4571   3.4699   4.0383   4.7803

          k = 0.0000-0.5774 0.0000 ( 12854 PWs)   bands (ev):

   -59.6252 -33.9336 -33.8559 -33.6406 -12.8939 -11.1081  -6.4381  -4.8290
    -3.6192  -3.5395  -2.3082  -1.1220  -0.6439   0.5950   0.7567   0.9340
     1.0628   2.0497   3.4835   3.5354   3.9764   4.7533

          k = 0.0625 0.1083 0.0000 ( 12951 PWs)   bands (ev):

   -59.6601 -33.9245 -33.5950 -33.5622 -14.3294 -12.2508  -5.5196  -3.4205
    -3.0681  -2.9128  -1.4476  -1.1182  -0.2298   0.1354   0.3320   0.9032
     1.0571   1.5303   3.7940   3.9203   4.0577   4.2134

          k = 0.0625 0.1804 0.0000 ( 12937 PWs)   bands (ev):

   -59.6548 -33.9141 -33.6465 -33.5754 -14.1439 -12.1080  -5.3192  -3.8837
    -3.1497  -2.8894  -1.7125  -1.1014  -0.3687   0.1870   0.3707   0.7138
     1.0577   1.6247   3.6112   3.6976   3.9993   4.3458

          k = 0.0625 0.2526 0.0000 ( 12935 PWs)   bands (ev):

   -59.6479 -33.9006 -33.7130 -33.5928 -13.8882 -11.9093  -5.0756  -4.4655
    -3.2538  -2.9917  -1.9066  -1.0880  -0.4944   0.1962   0.3615   0.5451
     1.1726   1.7119   3.3214   3.6728   3.8254   4.6465

          k = 0.0625 0.3248 0.0000 ( 12927 PWs)   bands (ev):

   -59.6404 -33.8859 -33.7843 -33.6115 -13.5905 -11.6749  -5.1078  -4.8279
    -3.3898  -3.2186  -1.9816  -1.0905  -0.5891   0.0865   0.3596   0.5828
     1.3994   1.7169   3.1765   3.6031   3.8775   4.8184

          k = 0.0625 0.3969 0.0000 ( 12903 PWs)   bands (ev):

   -59.6334 -33.8724 -33.8492 -33.6287 -13.2911 -11.4345  -5.6703  -4.7165
    -3.5905  -3.3695  -2.0631  -1.1344  -0.6253   0.1175   0.3931   0.7262
     1.5080   1.7639   3.1801   3.5353   4.0594   4.8156

          k = 0.0625 0.4691 0.0000 ( 12863 PWs)   bands (ev):

   -59.6281 -33.8991 -33.8615 -33.6419 -13.0416 -11.2295  -6.1189  -4.7294
    -3.7432  -3.4246  -2.1962  -1.1931  -0.6043   0.2996   0.5248   0.8740
     1.3245   1.9489   3.2564   3.5865   4.1331   4.6914

          k = 0.0625 0.5413 0.0000 ( 12844 PWs)   bands (ev):

   -59.6252 -33.9256 -33.8559 -33.6490 -12.8974 -11.1084  -6.3698  -4.7873
    -3.8057  -3.4372  -2.2996  -1.2261  -0.5811   0.4992   0.6790   0.9633
     1.1245   2.0229   3.3606   3.6741   4.0521   4.6090

          k = 0.1250 0.2165 0.0000 ( 12933 PWs)   bands (ev):

   -59.6489 -33.9026 -33.6995 -33.5936 -13.9285 -11.9405  -5.1042  -4.3364
    -3.3059  -2.9493  -1.8918  -1.1177  -0.4478   0.1571   0.3746   0.6189
     1.1244   1.7215   3.3494   3.6170   3.8033   4.5788

          k = 0.1250 0.2887 0.0000 ( 12935 PWs)   bands (ev):

   -59.6420 -33.8890 -33.7605 -33.6161 -13.6584 -11.7274  -4.9102  -4.8232
    -3.4917  -3.1517  -1.9788  -1.1242  -0.5391   0.0669   0.3464   0.6154
     1.3176   1.7837   3.1092   3.5712   3.7655   4.8092

          k = 0.1250 0.3608 0.0000 ( 12903 PWs)   bands (ev):

   -59.6350 -33.8755 -33.8203 -33.6390 -13.3669 -11.4929  -5.4017  -4.6795
    -3.7331  -3.3415  -2.0351  -1.1764  -0.5815   0.0306   0.3195   0.7361
     1.4583   1.8289   2.9991   3.5827   3.8940   4.8774

          k = 0.1250 0.4330 0.0000 ( 12881 PWs)   bands (ev):

   -59.6292 -33.8714 -33.8630 -33.6584 -13.0987 -11.2718  -5.8642  -4.6208
    -3.9611  -3.4142  -2.1464  -1.3014  -0.5337   0.1659   0.3534   0.8969
     1.3498   1.9584   3.0319   3.6702   4.0774   4.7303

          k = 0.1250 0.5052 0.0000 ( 12858 PWs)   bands (ev):

   -59.6252 -33.9041 -33.8559 -33.6715 -12.9059 -11.1090  -6.1848  -4.6813
    -4.0715  -3.4105  -2.2822  -1.4045  -0.4753   0.3536   0.4948   0.9648
     1.2376   2.0026   3.1947   3.7247   4.2407   4.4530

          k = 0.1250 0.5774 0.0000 ( 12856 PWs)   bands (ev):

   -59.6238 -33.9157 -33.8532 -33.6761 -12.8352 -11.0483  -6.3005  -4.7259
    -4.0983  -3.3969  -2.3447  -1.4402  -0.4546   0.4465   0.5985   0.8977
     1.2601   1.9894   3.3173   3.7263   4.2379   4.3621

          k = 0.1875 0.3248 0.0000 ( 12901 PWs)   bands (ev):

   -59.6356 -33.8766 -33.8073 -33.6455 -13.3934 -11.5129  -5.2732  -4.6682
    -3.8127  -3.3350  -2.0393  -1.1819  -0.5665  -0.0160   0.3116   0.7435
     1.4280   1.8768   2.9178   3.5932   3.8017   4.9134

          k = 0.1875 0.3969 0.0000 ( 12903 PWs)   bands (ev):

   -59.6297 -33.8652 -33.8474 -33.6752 -13.1303 -11.2942  -5.6515  -4.5477
    -4.1262  -3.4502  -2.1466  -1.3235  -0.4993   0.0362   0.2904   0.9159
     1.3327   2.0246   2.8551   3.7070   3.9218   4.8890

          k = 0.1875 0.4691 0.0000 ( 12858 PWs)   bands (ev):

   -59.6252 -33.8773 -33.8559 -33.6993 -12.9143 -11.1095  -5.9528  -4.6142
    -4.2656  -3.4757  -2.2914  -1.4954  -0.3954   0.2318   0.3236   0.9508
     1.2981   2.0633   2.9834   3.6725   4.1204   4.7899

          k = 0.1875 0.5413 0.0000 ( 12848 PWs)   bands (ev):

   -59.6228 -33.8925 -33.8512 -33.7128 -12.7910 -11.0019  -6.1220  -4.7336
    -4.2874  -3.4511  -2.4010  -1.6021  -0.3376   0.3625   0.4619   0.8026
     1.4425   1.9983   3.1939   3.5666   4.1351   4.7590

          k = 0.2500 0.4330 0.0000 ( 12885 PWs)   bands (ev):

   -59.6252 -33.8636 -33.8556 -33.7137 -12.9178 -11.1097  -5.8303  -4.6625
    -4.2718  -3.5306  -2.3088  -1.5037  -0.3664   0.1553   0.2817   0.9428
     1.3108   2.1258   2.8650   3.6255   4.0900   4.9675

          k = 0.2500 0.5052 0.0000 ( 12870 PWs)   bands (ev):

   -59.6222 -33.8676 -33.8500 -33.7452 -12.7685 -10.9767  -5.9306  -4.9073
    -4.2419  -3.5570  -2.4499  -1.6575  -0.2653   0.3121   0.3527   0.7497
     1.5205   2.0991   2.9926   3.4270   4.1335   5.1613

          k = 0.2500 0.5774 0.0000 ( 12844 PWs)   bands (ev):

   -59.6211 -33.8673 -33.8480 -33.7581 -12.7145 -10.9279  -5.9611  -5.0041
    -4.2360  -3.5535  -2.5048  -1.7191  -0.2314   0.3605   0.4494   0.6340
     1.6611   2.0381   3.0925   3.2897   4.1235   5.2427

          k = 0.3125 0.5413 0.0000 ( 12856 PWs)   bands (ev):

   -59.6206 -33.8472 -33.8463 -33.7859 -12.6877 -10.9015  -5.8431  -5.1747
    -4.1733  -3.6235  -2.5429  -1.7553  -0.1910   0.3657   0.4476   0.5629
     1.7374   2.1079   2.9614   3.1957   4.1494   5.5246

     the Fermi energy is     1.8851 ev

!    total energy              =    -658.63667257 Ry
     total all-electron energy =    -12481.810563 Ry
     estimated scf accuracy    <          7.1E-10 Ry
     smearing contrib. (-TS)   =      -0.00686754 Ry
     internal energy E=F+TS    =    -658.62980503 Ry

     The total energy is F=E-TS. E is the sum of the following terms:
     one-electron contribution =   -1421.14411610 Ry
     hartree contribution      =     723.96122492 Ry
     xc contribution           =     -62.58635471 Ry
     ewald contribution        =     507.28844992 Ry
     one-center paw contrib.   =    -406.14900905 Ry

     total magnetization       =     0.00 Bohr mag/cell
     absolute magnetization    =     0.00 Bohr mag/cell

     convergence has been achieved in   8 iterations

     negative rho (up, down):  2.611E-04 2.611E-04

     Forces acting on atoms (cartesian axes, Ry/au):

     atom    1 type  1   force =     0.00000000    0.00000000    0.00008861
     atom    2 type  2   force =     0.00000000    0.00000000    0.00009206
     atom    3 type  2   force =     0.00000000    0.00000000   -0.00014935
     atom    4 type  3   force =     0.00000000    0.00000000   -0.00003132
     The non-local contrib.  to forces
     atom    1 type  1   force =     0.00000000    0.00000000   -0.06146207
     atom    2 type  2   force =     0.00000000    0.00000000   -0.08338869
     atom    3 type  2   force =     0.00000000    0.00000000    0.26192368
     atom    4 type  3   force =     0.00000000    0.00000000    0.02135307
     The ionic contribution  to forces
     atom    1 type  1   force =     0.00000000   -0.00000000  -36.65188787
     atom    2 type  2   force =    -0.00000000    0.00000000   20.84499960
     atom    3 type  2   force =    -0.00000000   -0.00000000  -46.63267221
     atom    4 type  3   force =     0.00000000   -0.00000000   62.43956048
     The local contribution  to forces
     atom    1 type  1   force =     0.00000000   -0.00000000   36.70914383
     atom    2 type  2   force =    -0.00000000    0.00000000  -20.76505338
     atom    3 type  2   force =    -0.00000000    0.00000000   46.37260282
     atom    4 type  3   force =     0.00000000   -0.00000000  -62.41866071
     The core correction contribution to forces
     atom    1 type  1   force =     0.00000000    0.00000000    0.00426447
     atom    2 type  2   force =     0.00000000   -0.00000000    0.00350449
     atom    3 type  2   force =     0.00000000   -0.00000000   -0.00200329
     atom    4 type  3   force =     0.00000000    0.00000000   -0.04237388
     The Hubbard contrib.    to forces
     atom    1 type  1   force =     0.00000000    0.00000000    0.00000000
     atom    2 type  2   force =     0.00000000    0.00000000    0.00000000
     atom    3 type  2   force =     0.00000000    0.00000000    0.00000000
     atom    4 type  3   force =     0.00000000    0.00000000    0.00000000
     The SCF correction term to forces
     atom    1 type  1   force =     0.00000000    0.00000000    0.00003998
     atom    2 type  2   force =     0.00000000    0.00000000    0.00003978
     atom    3 type  2   force =    -0.00000000   -0.00000000    0.00000939
     atom    4 type  3   force =    -0.00000000   -0.00000000    0.00009946

     Total force =     0.000199     Total SCF correction =     0.000115
     SCF correction compared to forces is large: reduce conv_thr to get better values


     Computing stress (Cartesian axis) and pressure


     negative rho (up, down):  2.611E-04 2.611E-04
          total   stress  (Ry/bohr**3)                   (kbar)     P=       10.49
   0.00010785   0.00000000   0.00000000           15.86        0.00        0.00
   0.00000000   0.00010785  -0.00000000            0.00       15.86       -0.00
   0.00000000   0.00000000  -0.00000175            0.00        0.00       -0.26

     Energy error            =      4.1E-06 Ry
     Gradient error          =      1.5E-04 Ry/Bohr

     bfgs converged in  20 scf cycles and  19 bfgs steps
     (criteria: energy <  1.0E-04 Ry, force <  1.0E-03 Ry/Bohr)

     End of BFGS Geometry Optimization

     Final energy             =    -658.6366725673 Ry

     File ./tmp/relax.bfgs deleted, as requested
Begin final coordinates

ATOMIC_POSITIONS (crystal)
Mo            0.0000000000        0.0000000000        0.5098918455
S             0.6666666667        0.3333333333        0.6046147887
S             0.6666666667        0.3333333333        0.4248093918
Co            0.0000000000        0.0000000000        0.6583200378
End final coordinates



     Writing all to output data dir ./tmp/relax.save/
 
     init_run     :      0.80s CPU      0.89s WALL (       1 calls)
     electrons    :    433.76s CPU    442.59s WALL (      20 calls)
     update_pot   :      6.94s CPU      8.37s WALL (      19 calls)
     forces       :      6.15s CPU      6.21s WALL (      20 calls)
     stress       :     44.34s CPU     44.52s WALL (      20 calls)

     Called by init_run:
     wfcinit      :      0.40s CPU      0.43s WALL (       1 calls)
     potinit      :      0.16s CPU      0.17s WALL (       1 calls)
     hinit0       :      0.14s CPU      0.18s WALL (       1 calls)

     Called by electrons:
     c_bands      :    351.87s CPU    359.37s WALL (     201 calls)
     sum_band     :     47.66s CPU     48.60s WALL (     201 calls)
     v_of_rho     :      2.21s CPU      2.48s WALL (     219 calls)
     newd         :     11.94s CPU     11.96s WALL (     219 calls)
     PAW_pot      :     24.35s CPU     24.41s WALL (     238 calls)
     mix_rho      :      0.66s CPU      0.68s WALL (     201 calls)

     Called by c_bands:
     init_us_2    :      6.61s CPU      6.74s WALL (   27720 calls)
     init_us_2:cp :      6.56s CPU      6.69s WALL (   27720 calls)
     cegterg      :    232.33s CPU    239.17s WALL (   12135 calls)

     Called by *egterg:
     cdiaghg      :     26.85s CPU     27.41s WALL (   64294 calls)
     h_psi        :    163.65s CPU    169.04s WALL (   65689 calls)
     s_psi        :      7.08s CPU      7.26s WALL (   65689 calls)
     g_psi        :      1.09s CPU      1.12s WALL (   53494 calls)

     Called by h_psi:
     h_psi:calbec :     13.68s CPU     14.07s WALL (   65689 calls)
     vloc_psi     :    140.01s CPU    144.76s WALL (   65689 calls)
     add_vuspsi   :      8.23s CPU      8.45s WALL (   65689 calls)

     General routines
     calbec       :     18.97s CPU     19.52s WALL (   84889 calls)
     fft          :      3.77s CPU      5.49s WALL (    5462 calls)
     ffts         :      0.06s CPU      0.06s WALL (     402 calls)
     fftw         :    136.50s CPU    141.00s WALL ( 1965594 calls)
 
     Parallel routines
 
     PWSCF        :   8m15.94s CPU   8m26.83s WALL

 
   This run was terminated on:  15: 5:13  20Jun2025            

=------------------------------------------------------------------------------=
   JOB DONE.
=------------------------------------------------------------------------------=
