
     Program PWSCF v.7.2 starts on  9Jul2025 at 21: 7:35 

     This program is part of the open-source Quantum ESPRESSO suite
     for quantum simulation of materials; please cite
         "P. Giannozzi et al., J. Phys.:Condens. Matter 21 395502 (2009);
         "P. Giannozzi et al., J. Phys.:Condens. Matter 29 465901 (2017);
         "P. Giannozzi et al., J. Chem. Phys. 152 154105 (2020);
          URL http://www.quantum-espresso.org", 
     in publications or presentations arising from this work. More details at
     http://www.quantum-espresso.org/quote

     Parallel version (MPI), running on    16 processors

     MPI processes distributed on     1 nodes
     26944 MiB available memory on the printing compute node when the environment starts
 
     Waiting for input...
     Reading input from standard input

     Current dimensions of program PWSCF are:
     Max number of different atomic species (ntypx) = 10
     Max number of k-points (npk) =  40000
     Max angular momentum in pseudopotentials (lmaxx) =  4
     file Mo.rel-pbe-spn-kjpaw_psl.1.0.0.UPF: wavefunction(s)  4S 4P 4D renormalized
     file S.rel-pbe-n-kjpaw_psl.1.0.0.UPF: wavefunction(s)  3S 3P 3P renormalized
     file Co.rel-pbe-n-kjpaw_psl.1.0.0.UPF: wavefunction(s)  4S 3D 3D renormalized

     Fixed quantization axis for GGA:     0.000000    0.000000    1.000000
     Message from routine setup:
     using ibrav=0 with symmetry is DISCOURAGED, use correct ibrav instead
 
     R & G space division:  proc/nbgrp/npool/nimage =      16
     Subspace diagonalization in iterative solution of the eigenvalue problem:
     a serial algorithm will be used

 
     Parallelization info
     --------------------
     sticks:   dense  smooth     PW     G-vecs:    dense   smooth      PW
     Min          49      49     13                 6439     6439     975
     Max          50      50     14                 6452     6452     996
     Sum         793     793    223               103119   103119   15795
 
     Using Slab Decomposition
 


     bravais-lattice index     =            0
     lattice parameter (alat)  =       5.9876  a.u.
     unit-cell volume          =    1067.2529 (a.u.)^3
     number of atoms/cell      =            4
     number of atomic types    =            3
     number of electrons       =        35.00
     number of Kohn-Sham states=           44
     kinetic-energy cutoff     =      80.0000  Ry
     charge density cutoff     =     320.0000  Ry
     scf convergence threshold =      1.0E-06
     mixing beta               =       0.7000
     number of iterations used =            8  plain     mixing
     energy convergence thresh.=      1.0E-04
     force convergence thresh. =      1.0E-03
     Exchange-correlation= SLA  PW   PBX  PBC
                           (   1   4   3   4   0   0   0)
     nstep                     =          100

     Noncollinear calculation with spin-orbit


     celldm(1)=   5.987597  celldm(2)=   0.000000  celldm(3)=   0.000000
     celldm(4)=   0.000000  celldm(5)=   0.000000  celldm(6)=   0.000000

     crystal axes: (cart. coord. in units of alat)
               a(1) = (   1.000000   0.000000   0.000000 )  
               a(2) = (  -0.500000   0.866025   0.000000 )  
               a(3) = (   0.000000   0.000000   5.740887 )  

     reciprocal axes: (cart. coord. in units 2 pi/alat)
               b(1) = (  1.000000  0.577350  0.000000 )  
               b(2) = (  0.000000  1.154701  0.000000 )  
               b(3) = (  0.000000  0.000000  0.174189 )  


     PseudoPot. # 1 for Mo read from file:
     /home/antonio/PROJ_MetalTMD/antonio/PSEUDO/Mo.rel-pbe-spn-kjpaw_psl.1.0.0.UPF
     MD5 check sum: 6cda9dff73cdab358834687290e4775f
     Pseudo is Projector augmented-wave + core cor, Zval = 14.0
     Generated using &quot;atomic&quot; code by A. Dal Corso  v.6.3
     Shape of augmentation charge: PSQ
     Using radial grid of 1229 points, 10 beta functions with: 
                l(1) =   0
                l(2) =   0
                l(3) =   1
                l(4) =   1
                l(5) =   1
                l(6) =   1
                l(7) =   2
                l(8) =   2
                l(9) =   2
               l(10) =   2
     Q(r) pseudized with 0 coefficients 


     PseudoPot. # 2 for S  read from file:
     /home/antonio/PROJ_MetalTMD/antonio/PSEUDO/S.rel-pbe-n-kjpaw_psl.1.0.0.UPF
     MD5 check sum: 665a6610193808042cdd4f03574b9f7b
     Pseudo is Projector augmented-wave + core cor, Zval =  6.0
     Generated using &quot;atomic&quot; code by A. Dal Corso  v.6.3
     Shape of augmentation charge: PSQ
     Using radial grid of 1151 points, 10 beta functions with: 
                l(1) =   0
                l(2) =   0
                l(3) =   1
                l(4) =   1
                l(5) =   1
                l(6) =   1
                l(7) =   2
                l(8) =   2
                l(9) =   2
               l(10) =   2
     Q(r) pseudized with 0 coefficients 


     PseudoPot. # 3 for Co read from file:
     /home/antonio/PROJ_MetalTMD/antonio/PSEUDO/Co.rel-pbe-n-kjpaw_psl.1.0.0.UPF
     MD5 check sum: 24189b0fbe424dfc94bf49ee084f82bd
     Pseudo is Projector augmented-wave + core cor, Zval =  9.0
     Generated using "atomic" code by A. Dal Corso  (Quantum ESPRESSO distribution)
     Shape of augmentation charge: PSQ
     Using radial grid of 1193 points, 10 beta functions with: 
                l(1) =   0
                l(2) =   0
                l(3) =   1
                l(4) =   1
                l(5) =   1
                l(6) =   1
                l(7) =   2
                l(8) =   2
                l(9) =   2
               l(10) =   2
     Q(r) pseudized with 0 coefficients 


     atomic species   valence    mass     pseudopotential
        Mo            14.00    95.94000     Mo( 1.00)
        S              6.00    32.06500     S ( 1.00)
        Co             9.00    58.93320     Co( 1.00)

      6 Sym. Ops. (no inversion) found



   Cartesian axes

     site n.     atom                  positions (alat units)
         1           Mo  tau(   1) = (   0.0000000   0.0000000   2.8704434  )
         2           S   tau(   2) = (   0.5000000   0.2886751   3.3738362  )
         3           S   tau(   3) = (   0.5000000   0.2886751   2.3670507  )
         4           Co  tau(   4) = (   0.0000000   0.0000000   4.0050497  )

     number of k points=    22  Fermi-Dirac smearing, width (Ry)=  0.0070
                       cart. coord. in units 2pi/alat
        k(    1) = (   0.0000000   0.0000000   0.0000000), wk =   0.0100000
        k(    2) = (   0.0000000   0.1154701   0.0000000), wk =   0.0600000
        k(    3) = (   0.0000000   0.2309401   0.0000000), wk =   0.0600000
        k(    4) = (   0.0000000   0.3464102   0.0000000), wk =   0.0600000
        k(    5) = (   0.0000000   0.4618802   0.0000000), wk =   0.0600000
        k(    6) = (   0.0000000  -0.5773503   0.0000000), wk =   0.0300000
        k(    7) = (   0.1000000   0.1732051   0.0000000), wk =   0.0300000
        k(    8) = (   0.1000000   0.2886751   0.0000000), wk =   0.0600000
        k(    9) = (   0.1000000   0.4041452   0.0000000), wk =   0.0600000
        k(   10) = (   0.1000000   0.5196152   0.0000000), wk =   0.0600000
        k(   11) = (   0.2000000   0.3464102   0.0000000), wk =   0.0300000
        k(   12) = (   0.2000000   0.4618802   0.0000000), wk =   0.0600000
        k(   13) = (   0.2000000   0.5773503   0.0000000), wk =   0.0300000
        k(   14) = (   0.3000000   0.5196152   0.0000000), wk =   0.0300000
        k(   15) = (  -0.1000000   0.1732051   0.0000000), wk =   0.0300000
        k(   16) = (  -0.1000000   0.2886751   0.0000000), wk =   0.0600000
        k(   17) = (  -0.1000000   0.4041452   0.0000000), wk =   0.0600000
        k(   18) = (  -0.1000000   0.5196152   0.0000000), wk =   0.0600000
        k(   19) = (  -0.2000000   0.3464102   0.0000000), wk =   0.0300000
        k(   20) = (  -0.2000000   0.4618802   0.0000000), wk =   0.0600000
        k(   21) = (  -0.2000000   0.5773503   0.0000000), wk =   0.0300000
        k(   22) = (  -0.3000000   0.5196152   0.0000000), wk =   0.0300000

     Dense  grid:   103119 G-vectors     FFT dimensions: (  36,  36, 200)

     Estimated max dynamical RAM per process >     111.84 MB

     Estimated total dynamical RAM >       1.75 GB
     Generating pointlists ...
     new r_m :   0.3160 (alat units)  1.8919 (a.u.) for type    1
     new r_m :   0.3160 (alat units)  1.8919 (a.u.) for type    2
     new r_m :   0.3529 (alat units)  2.1128 (a.u.) for type    3

     Initial potential from superposition of free atoms

     starting charge      34.9988, renormalised to      35.0000

     negative rho (up, down):  4.400E-04 5.105E-02

 ==============================================================================
     atom number    1 relative position :    0.0000   0.0000   2.8704
     charge :    10.943229  (integrated on a sphere of radius 0.316)
     magnetization :          0.000000    0.000000    0.002213
     magnetization/charge:    0.000000    0.000000    0.000202
     polar coord.: r, theta, phi [deg] :     0.002213    0.000000  360.000000

 ==============================================================================

 ==============================================================================
     atom number    2 relative position :    0.5000   0.2887   3.3738
     charge :     4.175505  (integrated on a sphere of radius 0.316)
     magnetization :          0.000000    0.000000    0.058605
     magnetization/charge:    0.000000    0.000000    0.014035
     polar coord.: r, theta, phi [deg] :     0.058605    0.000000  360.000000

 ==============================================================================

 ==============================================================================
     atom number    3 relative position :    0.5000   0.2887   2.3671
     charge :     4.102280  (integrated on a sphere of radius 0.316)
     magnetization :          0.000000    0.000000    0.000025
     magnetization/charge:    0.000000    0.000000    0.000006
     polar coord.: r, theta, phi [deg] :     0.000025    0.000000  360.000000

 ==============================================================================

 ==============================================================================
     atom number    4 relative position :    0.0000   0.0000   4.0050
     charge :     7.505579  (integrated on a sphere of radius 0.353)
     magnetization :          0.000000    0.000000    5.930565
     magnetization/charge:    0.000000    0.000000    0.790154
     polar coord.: r, theta, phi [deg] :     5.930565    0.000000  360.000000

 ==============================================================================
     Starting wfcs are   54 randomized atomic wfcs
     Checking if some PAW data can be deallocated... 

     total cpu time spent up to now is        2.8 secs

     Self-consistent Calculation

     iteration #  1     ecut=    80.00 Ry     beta= 0.70
     Davidson diagonalization with overlap
     ethr =  1.00E-02,  avg # of iterations =  6.1

     negative rho (up, down):  1.679E+01 6.135E-01

     total cpu time spent up to now is        9.9 secs

     total energy              =    -810.91215940 Ry
     estimated scf accuracy    <   95367.67024115 Ry

     total magnetization       =     0.00     0.00     4.07 Bohr mag/cell
     absolute magnetization    =   717.99 Bohr mag/cell

     iteration #  2     ecut=    80.00 Ry     beta= 0.70
     Davidson diagonalization with overlap
     ethr =  1.00E-02,  avg # of iterations =  8.8

     negative rho (up, down):  1.168E+01 6.600E-01

     total cpu time spent up to now is       17.1 secs

     total energy              =    -636.60659676 Ry
     estimated scf accuracy    <    5398.91963988 Ry

     total magnetization       =    -0.00     0.00     1.11 Bohr mag/cell
     absolute magnetization    =   575.21 Bohr mag/cell

     iteration #  3     ecut=    80.00 Ry     beta= 0.70
     Davidson diagonalization with overlap
     ethr =  1.00E-02,  avg # of iterations = 17.0

     negative rho (up, down):  1.593E+01 5.267E-01

     total cpu time spent up to now is       30.5 secs

     total energy              =    -656.55581710 Ry
     estimated scf accuracy    <   54119.86095468 Ry

     total magnetization       =     0.00    -0.00    -0.05 Bohr mag/cell
     absolute magnetization    =   241.12 Bohr mag/cell

     iteration #  4     ecut=    80.00 Ry     beta= 0.70
     Davidson diagonalization with overlap
     ethr =  1.00E-02,  avg # of iterations = 17.1

     negative rho (up, down):  1.630E+01 5.280E-01

     total cpu time spent up to now is       44.2 secs

     total energy              =    -883.18810345 Ry
     estimated scf accuracy    <   28944.82476191 Ry

     total magnetization       =     0.00    -0.00     0.80 Bohr mag/cell
     absolute magnetization    =   280.75 Bohr mag/cell

     iteration #  5     ecut=    80.00 Ry     beta= 0.70
     Davidson diagonalization with overlap
     ethr =  1.00E-02,  avg # of iterations =  2.0

     negative rho (up, down):  5.395E+01 5.028E-01

     total cpu time spent up to now is       49.4 secs

     total energy              =   -1825.98380833 Ry
     estimated scf accuracy    <   29394.00590900 Ry

     total magnetization       =     0.00     0.00     0.81 Bohr mag/cell
     absolute magnetization    =   275.71 Bohr mag/cell

     iteration #  6     ecut=    80.00 Ry     beta= 0.70
     Davidson diagonalization with overlap
     ethr =  1.00E-02,  avg # of iterations = 29.2

     negative rho (up, down):  1.003E+02 1.382E-01

     total cpu time spent up to now is       70.5 secs

     total energy              =   -3465.58029018 Ry
     estimated scf accuracy    <   35728.54590750 Ry

     total magnetization       =     0.00    -0.00     0.12 Bohr mag/cell
     absolute magnetization    =    26.65 Bohr mag/cell

     iteration #  7     ecut=    80.00 Ry     beta= 0.70
     Davidson diagonalization with overlap
     c_bands:  4 eigenvalues not converged
     c_bands:  3 eigenvalues not converged
     c_bands:  3 eigenvalues not converged
     c_bands:  3 eigenvalues not converged
     c_bands:  1 eigenvalues not converged
     c_bands:  4 eigenvalues not converged
     c_bands:  2 eigenvalues not converged
     c_bands:  2 eigenvalues not converged
     c_bands:  5 eigenvalues not converged
     c_bands:  1 eigenvalues not converged
     c_bands:  2 eigenvalues not converged
     c_bands:  1 eigenvalues not converged
     c_bands:  1 eigenvalues not converged
     c_bands:  1 eigenvalues not converged
     c_bands:  3 eigenvalues not converged
     c_bands:  4 eigenvalues not converged
     c_bands:  3 eigenvalues not converged
     c_bands:  1 eigenvalues not converged
     c_bands:  4 eigenvalues not converged
     c_bands:  1 eigenvalues not converged
     c_bands:  1 eigenvalues not converged
     c_bands:  1 eigenvalues not converged
     ethr =  1.00E-02,  avg # of iterations = 20.0

     negative rho (up, down):  2.102E+02 1.211E-01

     total cpu time spent up to now is       85.9 secs

     total energy              =   -6534.29759466 Ry
     estimated scf accuracy    <   11012.10915312 Ry

     total magnetization       =     0.00    -0.00     0.48 Bohr mag/cell
     absolute magnetization    =   107.77 Bohr mag/cell

     iteration #  8     ecut=    80.00 Ry     beta= 0.70
     Davidson diagonalization with overlap
     c_bands:  2 eigenvalues not converged
     c_bands:  3 eigenvalues not converged
     c_bands:  3 eigenvalues not converged
     c_bands:  1 eigenvalues not converged
     c_bands:  5 eigenvalues not converged
     c_bands:  1 eigenvalues not converged
     c_bands:  3 eigenvalues not converged
     ethr =  1.00E-02,  avg # of iterations = 19.5

     negative rho (up, down):  2.133E+02 1.013E-01

     total cpu time spent up to now is       98.4 secs

     total energy              =   -6652.86718021 Ry
     estimated scf accuracy    <    7863.07671485 Ry

     total magnetization       =     0.00     0.00    -0.03 Bohr mag/cell
     absolute magnetization    =    27.40 Bohr mag/cell

     iteration #  9     ecut=    80.00 Ry     beta= 0.70
     Davidson diagonalization with overlap
     ethr =  1.00E-02,  avg # of iterations =  6.1

     negative rho (up, down):  2.498E+02 7.944E-02

     total cpu time spent up to now is      105.4 secs

     total energy              =   -7029.63369180 Ry
     estimated scf accuracy    <   11999.23414024 Ry

     total magnetization       =    -0.00     0.00    -0.12 Bohr mag/cell
     absolute magnetization    =    63.39 Bohr mag/cell

     iteration # 10     ecut=    80.00 Ry     beta= 0.70
     Davidson diagonalization with overlap
     c_bands:  1 eigenvalues not converged
     c_bands:  2 eigenvalues not converged
     ethr =  1.00E-02,  avg # of iterations = 17.2

     negative rho (up, down):  1.552E+02 1.170E-01

     total cpu time spent up to now is      115.9 secs

     total energy              =   -4436.33395664 Ry
     estimated scf accuracy    <    7406.81527783 Ry

     total magnetization       =    -0.00     0.00    -0.17 Bohr mag/cell
     absolute magnetization    =    21.41 Bohr mag/cell

     iteration # 11     ecut=    80.00 Ry     beta= 0.70
     Davidson diagonalization with overlap
     ethr =  1.00E-02,  avg # of iterations = 13.6

     negative rho (up, down):  1.717E+02 9.209E-02

     total cpu time spent up to now is      126.7 secs

     total energy              =   -4947.64116545 Ry
     estimated scf accuracy    <    2845.03085447 Ry

     total magnetization       =     0.00     0.00    -0.12 Bohr mag/cell
     absolute magnetization    =    95.24 Bohr mag/cell

     iteration # 12     ecut=    80.00 Ry     beta= 0.70
     Davidson diagonalization with overlap
     ethr =  1.00E-02,  avg # of iterations =  6.8

     negative rho (up, down):  1.566E+02 8.215E-02

     total cpu time spent up to now is      133.8 secs

     total energy              =   -4301.36886537 Ry
     estimated scf accuracy    <    8623.20940841 Ry

     total magnetization       =    -0.00    -0.00    -0.07 Bohr mag/cell
     absolute magnetization    =    90.84 Bohr mag/cell

     iteration # 13     ecut=    80.00 Ry     beta= 0.70
     Davidson diagonalization with overlap
     c_bands:  2 eigenvalues not converged
     c_bands:  5 eigenvalues not converged
     c_bands:  5 eigenvalues not converged
     c_bands:  5 eigenvalues not converged
     c_bands:  4 eigenvalues not converged
     c_bands:  4 eigenvalues not converged
     c_bands:  5 eigenvalues not converged
     ethr =  1.00E-02,  avg # of iterations = 23.5

     negative rho (up, down):  1.607E+02 6.708E-02

     total cpu time spent up to now is      147.0 secs

     total energy              =   -4466.15382921 Ry
     estimated scf accuracy    <    8904.38298506 Ry

     total magnetization       =    -0.00    -0.00     0.37 Bohr mag/cell
     absolute magnetization    =   106.28 Bohr mag/cell

     iteration # 14     ecut=    80.00 Ry     beta= 0.70
     Davidson diagonalization with overlap
     c_bands:  1 eigenvalues not converged
     c_bands:  1 eigenvalues not converged
     c_bands:  2 eigenvalues not converged
     c_bands:  1 eigenvalues not converged
     ethr =  1.00E-02,  avg # of iterations = 16.2

     negative rho (up, down):  1.740E+02 5.773E-02

     total cpu time spent up to now is      155.9 secs

     total energy              =   -4279.75822702 Ry
     estimated scf accuracy    <    8558.36934521 Ry

     total magnetization       =     0.00    -0.00     0.42 Bohr mag/cell
     absolute magnetization    =    98.02 Bohr mag/cell

     iteration # 15     ecut=    80.00 Ry     beta= 0.70
     Davidson diagonalization with overlap
     ethr =  1.00E-02,  avg # of iterations = 34.9

     negative rho (up, down):  1.763E+02 3.147E-02

     total cpu time spent up to now is      178.6 secs

     total energy              =   -4638.68945505 Ry
     estimated scf accuracy    <    7832.42648326 Ry

     total magnetization       =     0.00    -0.00    -0.02 Bohr mag/cell
     absolute magnetization    =    59.62 Bohr mag/cell

     iteration # 16     ecut=    80.00 Ry     beta= 0.70
     Davidson diagonalization with overlap
     c_bands:  1 eigenvalues not converged
     c_bands:  3 eigenvalues not converged
     c_bands:  2 eigenvalues not converged
     c_bands:  1 eigenvalues not converged
     c_bands:  1 eigenvalues not converged
     ethr =  1.00E-02,  avg # of iterations = 12.0

     negative rho (up, down):  1.770E+02 1.993E-02

     total cpu time spent up to now is      187.1 secs

     total energy              =   -4584.97268484 Ry
     estimated scf accuracy    <    1670.20768176 Ry

     total magnetization       =     0.00    -0.00    -0.09 Bohr mag/cell
     absolute magnetization    =    10.97 Bohr mag/cell

     iteration # 17     ecut=    80.00 Ry     beta= 0.70
     Davidson diagonalization with overlap
     c_bands:  1 eigenvalues not converged
     c_bands:  4 eigenvalues not converged
     c_bands:  1 eigenvalues not converged
     c_bands:  4 eigenvalues not converged
     c_bands:  1 eigenvalues not converged
     c_bands:  3 eigenvalues not converged
     c_bands:  2 eigenvalues not converged
     c_bands:  3 eigenvalues not converged
     c_bands:  1 eigenvalues not converged
     c_bands:  2 eigenvalues not converged
     c_bands:  1 eigenvalues not converged
     c_bands:  1 eigenvalues not converged
     ethr =  1.00E-02,  avg # of iterations = 19.7

     negative rho (up, down):  1.735E+02 1.637E-02

     total cpu time spent up to now is      198.6 secs

     total energy              =   -4564.70777029 Ry
     estimated scf accuracy    <     204.59631279 Ry

     total magnetization       =    -0.00     0.00     0.05 Bohr mag/cell
     absolute magnetization    =    28.03 Bohr mag/cell

     iteration # 18     ecut=    80.00 Ry     beta= 0.70
     Davidson diagonalization with overlap
     ethr =  1.00E-02,  avg # of iterations =  7.8

     negative rho (up, down):  1.728E+02 1.623E-02

     total cpu time spent up to now is      205.2 secs

     total energy              =   -4544.06996865 Ry
     estimated scf accuracy    <     142.60019260 Ry

     total magnetization       =     0.00    -0.00     0.16 Bohr mag/cell
     absolute magnetization    =    37.99 Bohr mag/cell

     iteration # 19     ecut=    80.00 Ry     beta= 0.70
     Davidson diagonalization with overlap
     c_bands:  4 eigenvalues not converged
     c_bands:  2 eigenvalues not converged
     c_bands:  5 eigenvalues not converged
     c_bands:  2 eigenvalues not converged
     c_bands:  1 eigenvalues not converged
     c_bands:  1 eigenvalues not converged
     c_bands:  2 eigenvalues not converged
     c_bands:  2 eigenvalues not converged
     ethr =  1.00E-02,  avg # of iterations = 18.9

     negative rho (up, down):  1.731E+02 1.684E-02

     total cpu time spent up to now is      214.6 secs

     total energy              =   -4568.00766217 Ry
     estimated scf accuracy    <     135.07716137 Ry

     total magnetization       =    -0.00    -0.00     0.04 Bohr mag/cell
     absolute magnetization    =    37.70 Bohr mag/cell

     iteration # 20     ecut=    80.00 Ry     beta= 0.70
     Davidson diagonalization with overlap
     ethr =  1.00E-02,  avg # of iterations =  2.3

     negative rho (up, down):  1.729E+02 2.731E-02

     total cpu time spent up to now is      220.0 secs

     total energy              =   -4569.83794442 Ry
     estimated scf accuracy    <     113.15656410 Ry

     total magnetization       =    -0.00     0.00     0.18 Bohr mag/cell
     absolute magnetization    =    37.70 Bohr mag/cell

     iteration # 21     ecut=    80.00 Ry     beta= 0.70
     Davidson diagonalization with overlap
     ethr =  1.00E-02,  avg # of iterations = 11.6

     negative rho (up, down):  1.727E+02 2.769E-02

     total cpu time spent up to now is      227.9 secs

     total energy              =   -4566.23968643 Ry
     estimated scf accuracy    <      23.74599882 Ry

     total magnetization       =     0.00     0.00     0.03 Bohr mag/cell
     absolute magnetization    =    30.14 Bohr mag/cell

     iteration # 22     ecut=    80.00 Ry     beta= 0.70
     Davidson diagonalization with overlap
     ethr =  1.00E-02,  avg # of iterations =  2.2

     negative rho (up, down):  1.727E+02 2.809E-02

     total cpu time spent up to now is      233.2 secs

     total energy              =   -4567.90844125 Ry
     estimated scf accuracy    <       2.25443868 Ry

     total magnetization       =    -0.00    -0.00     0.12 Bohr mag/cell
     absolute magnetization    =    29.74 Bohr mag/cell

     iteration # 23     ecut=    80.00 Ry     beta= 0.70
     Davidson diagonalization with overlap
     ethr =  6.44E-03,  avg # of iterations =  1.6

     negative rho (up, down):  1.726E+02 3.201E-02

     total cpu time spent up to now is      238.3 secs

     total energy              =   -4570.21781034 Ry
     estimated scf accuracy    <       2.92120302 Ry

     total magnetization       =     0.00    -0.00     0.03 Bohr mag/cell
     absolute magnetization    =    30.14 Bohr mag/cell

     iteration # 24     ecut=    80.00 Ry     beta= 0.70
     Davidson diagonalization with overlap
     ethr =  6.44E-03,  avg # of iterations =  6.2

     negative rho (up, down):  1.726E+02 2.992E-02

     total cpu time spent up to now is      244.3 secs

     total energy              =   -4569.57218606 Ry
     estimated scf accuracy    <       1.92504473 Ry

     total magnetization       =     0.00     0.00    -0.01 Bohr mag/cell
     absolute magnetization    =    30.33 Bohr mag/cell

     iteration # 25     ecut=    80.00 Ry     beta= 0.70
     Davidson diagonalization with overlap
     ethr =  5.50E-03,  avg # of iterations =  1.8

     negative rho (up, down):  1.725E+02 2.987E-02

     total cpu time spent up to now is      249.4 secs

     total energy              =   -4568.66466221 Ry
     estimated scf accuracy    <       0.09606979 Ry

     total magnetization       =    -0.00     0.00     0.04 Bohr mag/cell
     absolute magnetization    =    30.07 Bohr mag/cell

     iteration # 26     ecut=    80.00 Ry     beta= 0.70
     Davidson diagonalization with overlap
     c_bands:  1 eigenvalues not converged
     c_bands:  3 eigenvalues not converged
     c_bands:  2 eigenvalues not converged
     c_bands:  1 eigenvalues not converged
     ethr =  2.74E-04,  avg # of iterations = 14.4

     negative rho (up, down):  1.725E+02 2.940E-02

     total cpu time spent up to now is      258.0 secs

     total energy              =   -4568.29178362 Ry
     estimated scf accuracy    <       0.10588470 Ry

     total magnetization       =    -0.00    -0.00     0.06 Bohr mag/cell
     absolute magnetization    =    30.00 Bohr mag/cell

     iteration # 27     ecut=    80.00 Ry     beta= 0.70
     Davidson diagonalization with overlap
     ethr =  2.74E-04,  avg # of iterations =  6.7

     negative rho (up, down):  1.725E+02 2.915E-02

     total cpu time spent up to now is      263.9 secs

     total energy              =   -4568.29822539 Ry
     estimated scf accuracy    <       0.08269099 Ry

     total magnetization       =    -0.00    -0.00     0.09 Bohr mag/cell
     absolute magnetization    =    29.79 Bohr mag/cell

     iteration # 28     ecut=    80.00 Ry     beta= 0.70
     Davidson diagonalization with overlap
     ethr =  2.36E-04,  avg # of iterations =  1.6

     negative rho (up, down):  1.725E+02 2.919E-02

     total cpu time spent up to now is      269.0 secs

     total energy              =   -4568.41760712 Ry
     estimated scf accuracy    <       0.00924158 Ry

     total magnetization       =    -0.00    -0.00     0.10 Bohr mag/cell
     absolute magnetization    =    29.75 Bohr mag/cell

     iteration # 29     ecut=    80.00 Ry     beta= 0.70
     Davidson diagonalization with overlap
     c_bands:  1 eigenvalues not converged
     c_bands:  1 eigenvalues not converged
     c_bands:  3 eigenvalues not converged
     c_bands:  5 eigenvalues not converged
     c_bands:  1 eigenvalues not converged
     c_bands:  4 eigenvalues not converged
     ethr =  2.64E-05,  avg # of iterations = 16.7

     negative rho (up, down):  1.725E+02 2.925E-02

     total cpu time spent up to now is      277.8 secs

     total energy              =   -4568.46715076 Ry
     estimated scf accuracy    <       0.00133816 Ry

     total magnetization       =     0.00    -0.00     0.01 Bohr mag/cell
     absolute magnetization    =    29.79 Bohr mag/cell

     iteration # 30     ecut=    80.00 Ry     beta= 0.70
     Davidson diagonalization with overlap
     c_bands:  2 eigenvalues not converged
     c_bands:  1 eigenvalues not converged
     c_bands:  2 eigenvalues not converged
     c_bands:  1 eigenvalues not converged
     c_bands:  3 eigenvalues not converged
     c_bands:  2 eigenvalues not converged
     c_bands:  3 eigenvalues not converged
     ethr =  3.82E-06,  avg # of iterations = 16.9

     negative rho (up, down):  1.725E+02 2.933E-02

     total cpu time spent up to now is      286.9 secs

     total energy              =   -4568.46854427 Ry
     estimated scf accuracy    <       0.00039063 Ry

     total magnetization       =     0.00     0.00     0.07 Bohr mag/cell
     absolute magnetization    =    29.82 Bohr mag/cell

     iteration # 31     ecut=    80.00 Ry     beta= 0.70
     Davidson diagonalization with overlap
     c_bands:  1 eigenvalues not converged
     c_bands:  3 eigenvalues not converged
     c_bands:  1 eigenvalues not converged
     c_bands:  2 eigenvalues not converged
     ethr =  1.12E-06,  avg # of iterations = 15.3

     negative rho (up, down):  1.725E+02 2.940E-02

     total cpu time spent up to now is      295.9 secs

     total energy              =   -4568.46436425 Ry
     estimated scf accuracy    <       0.00014084 Ry

     total magnetization       =     0.00    -0.00     0.08 Bohr mag/cell
     absolute magnetization    =    29.87 Bohr mag/cell

     iteration # 32     ecut=    80.00 Ry     beta= 0.70
     Davidson diagonalization with overlap
     c_bands:  4 eigenvalues not converged
     c_bands:  1 eigenvalues not converged
     ethr =  4.02E-07,  avg # of iterations = 15.3

     negative rho (up, down):  1.725E+02 2.939E-02

     total cpu time spent up to now is      305.3 secs

     total energy              =   -4568.46578540 Ry
     estimated scf accuracy    <       0.00021342 Ry

     total magnetization       =     0.00    -0.00    -0.03 Bohr mag/cell
     absolute magnetization    =    29.86 Bohr mag/cell

     iteration # 33     ecut=    80.00 Ry     beta= 0.70
     Davidson diagonalization with overlap
     c_bands:  1 eigenvalues not converged
     ethr =  4.02E-07,  avg # of iterations = 14.7

     negative rho (up, down):  1.725E+02 2.939E-02

     total cpu time spent up to now is      314.7 secs

     total energy              =   -4568.47027827 Ry
     estimated scf accuracy    <       0.00017977 Ry

     total magnetization       =     0.00     0.00     0.12 Bohr mag/cell
     absolute magnetization    =    29.88 Bohr mag/cell

     iteration # 34     ecut=    80.00 Ry     beta= 0.70
     Davidson diagonalization with overlap
     ethr =  4.02E-07,  avg # of iterations = 15.2

     negative rho (up, down):  1.725E+02 2.939E-02

     total cpu time spent up to now is      324.4 secs

     total energy              =   -4568.47184177 Ry
     estimated scf accuracy    <       0.00014045 Ry

     total magnetization       =    -0.00    -0.00    -0.03 Bohr mag/cell
     absolute magnetization    =    29.88 Bohr mag/cell

     iteration # 35     ecut=    80.00 Ry     beta= 0.70
     Davidson diagonalization with overlap
     c_bands:  1 eigenvalues not converged
     c_bands:  1 eigenvalues not converged
     c_bands:  1 eigenvalues not converged
     ethr =  4.01E-07,  avg # of iterations = 17.7

     negative rho (up, down):  1.725E+02 2.939E-02

     total cpu time spent up to now is      334.8 secs

     total energy              =   -4568.46974936 Ry
     estimated scf accuracy    <       0.00017019 Ry

     total magnetization       =     0.00     0.00     0.06 Bohr mag/cell
     absolute magnetization    =    29.92 Bohr mag/cell

     iteration # 36     ecut=    80.00 Ry     beta= 0.70
     Davidson diagonalization with overlap
     c_bands:  1 eigenvalues not converged
     ethr =  4.01E-07,  avg # of iterations = 17.9

     negative rho (up, down):  1.725E+02 2.939E-02

     total cpu time spent up to now is      345.3 secs

     total energy              =   -4568.47541269 Ry
     estimated scf accuracy    <       0.00010270 Ry

     total magnetization       =     0.00     0.00     0.01 Bohr mag/cell
     absolute magnetization    =    29.86 Bohr mag/cell

     iteration # 37     ecut=    80.00 Ry     beta= 0.70
     Davidson diagonalization with overlap
     ethr =  2.93E-07,  avg # of iterations = 14.1

     negative rho (up, down):  1.725E+02 2.939E-02

     total cpu time spent up to now is      354.3 secs

     total energy              =   -4568.47466509 Ry
     estimated scf accuracy    <       0.00007967 Ry

     total magnetization       =     0.00     0.00     0.07 Bohr mag/cell
     absolute magnetization    =    29.84 Bohr mag/cell

     iteration # 38     ecut=    80.00 Ry     beta= 0.70
     Davidson diagonalization with overlap
     c_bands:  1 eigenvalues not converged
     c_bands:  2 eigenvalues not converged
     c_bands:  1 eigenvalues not converged
     ethr =  2.28E-07,  avg # of iterations = 17.1

     negative rho (up, down):  1.725E+02 2.937E-02

     total cpu time spent up to now is      364.2 secs

     total energy              =   -4568.47521532 Ry
     estimated scf accuracy    <       0.00008948 Ry

     total magnetization       =    -0.00     0.00     0.07 Bohr mag/cell
     absolute magnetization    =    29.87 Bohr mag/cell

     iteration # 39     ecut=    80.00 Ry     beta= 0.70
     Davidson diagonalization with overlap
     c_bands:  2 eigenvalues not converged
     c_bands:  2 eigenvalues not converged
     c_bands:  2 eigenvalues not converged
     c_bands:  2 eigenvalues not converged
     c_bands:  4 eigenvalues not converged
     c_bands:  1 eigenvalues not converged
     c_bands:  1 eigenvalues not converged
     c_bands:  2 eigenvalues not converged
     c_bands:  2 eigenvalues not converged
     c_bands:  2 eigenvalues not converged
     c_bands:  2 eigenvalues not converged
     c_bands:  2 eigenvalues not converged
     c_bands:  4 eigenvalues not converged
     c_bands:  3 eigenvalues not converged
     ethr =  2.28E-07,  avg # of iterations = 20.0

     negative rho (up, down):  1.725E+02 2.939E-02

     total cpu time spent up to now is      375.5 secs

     total energy              =   -4568.47492970 Ry
     estimated scf accuracy    <       0.00032634 Ry

     total magnetization       =     0.00    -0.00     0.00 Bohr mag/cell
     absolute magnetization    =    29.98 Bohr mag/cell

     iteration # 40     ecut=    80.00 Ry     beta= 0.70
     Davidson diagonalization with overlap
     c_bands:  1 eigenvalues not converged
     c_bands:  1 eigenvalues not converged
     c_bands:  4 eigenvalues not converged
     c_bands:  2 eigenvalues not converged
     c_bands:  2 eigenvalues not converged
     c_bands:  1 eigenvalues not converged
     c_bands:  1 eigenvalues not converged
     c_bands:  5 eigenvalues not converged
     c_bands:  2 eigenvalues not converged
     c_bands:  1 eigenvalues not converged
     c_bands:  5 eigenvalues not converged
     c_bands:  4 eigenvalues not converged
     c_bands:  4 eigenvalues not converged
     c_bands:  5 eigenvalues not converged
     ethr =  2.28E-07,  avg # of iterations = 20.0

     negative rho (up, down):  1.725E+02 2.939E-02

     total cpu time spent up to now is      386.5 secs

     total energy              =   -4568.47688389 Ry
     estimated scf accuracy    <       0.00020243 Ry

     total magnetization       =     0.00    -0.00     0.22 Bohr mag/cell
     absolute magnetization    =    29.95 Bohr mag/cell

     iteration # 41     ecut=    80.00 Ry     beta= 0.70
     Davidson diagonalization with overlap
     c_bands:  2 eigenvalues not converged
     c_bands:  1 eigenvalues not converged
     c_bands:  4 eigenvalues not converged
     c_bands:  2 eigenvalues not converged
     c_bands:  1 eigenvalues not converged
     c_bands:  2 eigenvalues not converged
     c_bands:  3 eigenvalues not converged
     c_bands:  2 eigenvalues not converged
     c_bands:  1 eigenvalues not converged
     c_bands:  1 eigenvalues not converged
     c_bands:  2 eigenvalues not converged
     c_bands:  1 eigenvalues not converged
     ethr =  2.28E-07,  avg # of iterations = 19.1

     negative rho (up, down):  1.725E+02 2.939E-02

     total cpu time spent up to now is      396.9 secs

     total energy              =   -4568.47568719 Ry
     estimated scf accuracy    <       0.00015808 Ry

     total magnetization       =     0.00    -0.00     0.07 Bohr mag/cell
     absolute magnetization    =    29.92 Bohr mag/cell

     iteration # 42     ecut=    80.00 Ry     beta= 0.70
     Davidson diagonalization with overlap
     c_bands:  1 eigenvalues not converged
     ethr =  2.28E-07,  avg # of iterations = 17.5

     negative rho (up, down):  1.725E+02 2.941E-02

     total cpu time spent up to now is      407.4 secs

     total energy              =   -4568.47802184 Ry
     estimated scf accuracy    <       0.00021733 Ry

     total magnetization       =    -0.00     0.00    -0.01 Bohr mag/cell
     absolute magnetization    =    29.89 Bohr mag/cell

     iteration # 43     ecut=    80.00 Ry     beta= 0.70
     Davidson diagonalization with overlap
     ethr =  2.28E-07,  avg # of iterations = 13.9

     negative rho (up, down):  1.725E+02 2.941E-02

     total cpu time spent up to now is      416.6 secs

     total energy              =   -4568.47714604 Ry
     estimated scf accuracy    <       0.00010368 Ry

     total magnetization       =    -0.00     0.00     0.11 Bohr mag/cell
     absolute magnetization    =    29.86 Bohr mag/cell

     iteration # 44     ecut=    80.00 Ry     beta= 0.70
     Davidson diagonalization with overlap
     c_bands:  1 eigenvalues not converged
     c_bands:  1 eigenvalues not converged
     c_bands:  1 eigenvalues not converged
     ethr =  2.28E-07,  avg # of iterations = 17.0

     negative rho (up, down):  1.725E+02 2.941E-02

     total cpu time spent up to now is      426.6 secs

     total energy              =   -4568.47685273 Ry
     estimated scf accuracy    <       0.00023249 Ry

     total magnetization       =     0.00    -0.00    -0.10 Bohr mag/cell
     absolute magnetization    =    29.91 Bohr mag/cell

     iteration # 45     ecut=    80.00 Ry     beta= 0.70
     Davidson diagonalization with overlap
     c_bands:  2 eigenvalues not converged
     ethr =  2.28E-07,  avg # of iterations = 18.5

     negative rho (up, down):  1.725E+02 2.941E-02

     total cpu time spent up to now is      437.3 secs

     total energy              =   -4568.47780598 Ry
     estimated scf accuracy    <       0.00021140 Ry

     total magnetization       =    -0.00     0.00    -0.03 Bohr mag/cell
     absolute magnetization    =    29.92 Bohr mag/cell

     iteration # 46     ecut=    80.00 Ry     beta= 0.70
     Davidson diagonalization with overlap
     ethr =  2.28E-07,  avg # of iterations = 17.8

     negative rho (up, down):  1.725E+02 2.939E-02

     total cpu time spent up to now is      447.9 secs

     total energy              =   -4568.47690440 Ry
     estimated scf accuracy    <       0.00022167 Ry

     total magnetization       =     0.00    -0.00     0.03 Bohr mag/cell
     absolute magnetization    =    29.91 Bohr mag/cell

     iteration # 47     ecut=    80.00 Ry     beta= 0.70
     Davidson diagonalization with overlap
     c_bands:  2 eigenvalues not converged
     ethr =  2.28E-07,  avg # of iterations = 16.5

     negative rho (up, down):  1.725E+02 2.940E-02

     total cpu time spent up to now is      457.9 secs

     total energy              =   -4568.47826669 Ry
     estimated scf accuracy    <       0.00014228 Ry

     total magnetization       =    -0.00     0.00     0.03 Bohr mag/cell
     absolute magnetization    =    29.87 Bohr mag/cell

     iteration # 48     ecut=    80.00 Ry     beta= 0.70
     Davidson diagonalization with overlap
     c_bands:  1 eigenvalues not converged
     c_bands:  1 eigenvalues not converged
     c_bands:  1 eigenvalues not converged
     ethr =  2.28E-07,  avg # of iterations = 18.2

     negative rho (up, down):  1.725E+02 2.943E-02

     total cpu time spent up to now is      467.9 secs

     total energy              =   -4568.48005843 Ry
     estimated scf accuracy    <       0.00023632 Ry

     total magnetization       =     0.00     0.00     0.06 Bohr mag/cell
     absolute magnetization    =    29.89 Bohr mag/cell

     iteration # 49     ecut=    80.00 Ry     beta= 0.70
     Davidson diagonalization with overlap
     c_bands:  1 eigenvalues not converged
     c_bands:  1 eigenvalues not converged
     ethr =  2.28E-07,  avg # of iterations = 17.1

     negative rho (up, down):  1.725E+02 2.943E-02

     total cpu time spent up to now is      477.6 secs

     total energy              =   -4568.47697378 Ry
     estimated scf accuracy    <       0.00027382 Ry

     total magnetization       =    -0.00     0.00    -0.14 Bohr mag/cell
     absolute magnetization    =    29.94 Bohr mag/cell

     iteration # 50     ecut=    80.00 Ry     beta= 0.70
     Davidson diagonalization with overlap
     c_bands:  2 eigenvalues not converged
     c_bands:  1 eigenvalues not converged
     c_bands:  2 eigenvalues not converged
     c_bands:  1 eigenvalues not converged
     c_bands:  1 eigenvalues not converged
     c_bands:  1 eigenvalues not converged
     ethr =  2.28E-07,  avg # of iterations = 18.1

     negative rho (up, down):  1.725E+02 2.940E-02

     total cpu time spent up to now is      487.7 secs

     total energy              =   -4568.47853035 Ry
     estimated scf accuracy    <       0.00024284 Ry

     total magnetization       =    -0.00    -0.00     0.16 Bohr mag/cell
     absolute magnetization    =    29.93 Bohr mag/cell

     iteration # 51     ecut=    80.00 Ry     beta= 0.70
     Davidson diagonalization with overlap
     c_bands:  2 eigenvalues not converged
     c_bands:  1 eigenvalues not converged
     c_bands:  2 eigenvalues not converged
     c_bands:  3 eigenvalues not converged
     c_bands:  1 eigenvalues not converged
     c_bands:  1 eigenvalues not converged
     ethr =  2.28E-07,  avg # of iterations = 19.0

     negative rho (up, down):  1.725E+02 2.940E-02

     total cpu time spent up to now is      498.2 secs

     total energy              =   -4568.47703636 Ry
     estimated scf accuracy    <       0.00023338 Ry

     total magnetization       =     0.00    -0.00     0.03 Bohr mag/cell
     absolute magnetization    =    29.92 Bohr mag/cell

     iteration # 52     ecut=    80.00 Ry     beta= 0.70
     Davidson diagonalization with overlap
     c_bands:  2 eigenvalues not converged
     c_bands:  3 eigenvalues not converged
     c_bands:  1 eigenvalues not converged
     c_bands:  1 eigenvalues not converged
     c_bands:  2 eigenvalues not converged
     c_bands:  2 eigenvalues not converged
     c_bands:  2 eigenvalues not converged
     c_bands:  1 eigenvalues not converged
     c_bands:  1 eigenvalues not converged
     c_bands:  5 eigenvalues not converged
     c_bands:  3 eigenvalues not converged
     c_bands:  1 eigenvalues not converged
     c_bands:  2 eigenvalues not converged
     c_bands:  5 eigenvalues not converged
     c_bands:  1 eigenvalues not converged
     ethr =  2.28E-07,  avg # of iterations = 19.2

     negative rho (up, down):  1.725E+02 2.943E-02

     total cpu time spent up to now is      508.9 secs

     total energy              =   -4568.47803536 Ry
     estimated scf accuracy    <       0.00010620 Ry

     total magnetization       =    -0.00     0.00     0.03 Bohr mag/cell
     absolute magnetization    =    29.87 Bohr mag/cell

     iteration # 53     ecut=    80.00 Ry     beta= 0.70
     Davidson diagonalization with overlap
     c_bands:  2 eigenvalues not converged
     c_bands:  2 eigenvalues not converged
     c_bands:  1 eigenvalues not converged
     c_bands:  1 eigenvalues not converged
     c_bands:  1 eigenvalues not converged
     c_bands:  1 eigenvalues not converged
     c_bands:  1 eigenvalues not converged
     ethr =  2.28E-07,  avg # of iterations = 18.8

     negative rho (up, down):  1.725E+02 2.943E-02

     total cpu time spent up to now is      519.3 secs

     total energy              =   -4568.47825611 Ry
     estimated scf accuracy    <       0.00019212 Ry

     total magnetization       =    -0.00    -0.00     0.09 Bohr mag/cell
     absolute magnetization    =    29.88 Bohr mag/cell

     iteration # 54     ecut=    80.00 Ry     beta= 0.70
     Davidson diagonalization with overlap
     c_bands:  5 eigenvalues not converged
     c_bands:  1 eigenvalues not converged
     c_bands:  2 eigenvalues not converged
     c_bands:  1 eigenvalues not converged
     c_bands:  1 eigenvalues not converged
     ethr =  2.28E-07,  avg # of iterations = 18.1

     negative rho (up, down):  1.725E+02 2.943E-02

     total cpu time spent up to now is      529.6 secs

     total energy              =   -4568.47941671 Ry
     estimated scf accuracy    <       0.00014646 Ry

     total magnetization       =    -0.00    -0.00     0.11 Bohr mag/cell
     absolute magnetization    =    29.89 Bohr mag/cell

     iteration # 55     ecut=    80.00 Ry     beta= 0.70
     Davidson diagonalization with overlap
     c_bands:  2 eigenvalues not converged
     c_bands:  2 eigenvalues not converged
     c_bands:  1 eigenvalues not converged
     ethr =  2.28E-07,  avg # of iterations = 17.0

     negative rho (up, down):  1.725E+02 2.943E-02

     total cpu time spent up to now is      539.4 secs

     total energy              =   -4568.47699712 Ry
     estimated scf accuracy    <       0.00018662 Ry

     total magnetization       =    -0.00     0.00    -0.02 Bohr mag/cell
     absolute magnetization    =    29.90 Bohr mag/cell

     iteration # 56     ecut=    80.00 Ry     beta= 0.70
     Davidson diagonalization with overlap
     c_bands:  1 eigenvalues not converged
     c_bands:  2 eigenvalues not converged
     c_bands:  2 eigenvalues not converged
     ethr =  2.28E-07,  avg # of iterations = 17.9

     negative rho (up, down):  1.725E+02 2.940E-02

     total cpu time spent up to now is      550.0 secs

     total energy              =   -4568.47758938 Ry
     estimated scf accuracy    <       0.00031032 Ry

     total magnetization       =     0.00     0.00     0.13 Bohr mag/cell
     absolute magnetization    =    29.94 Bohr mag/cell

     iteration # 57     ecut=    80.00 Ry     beta= 0.70
     Davidson diagonalization with overlap
     c_bands:  3 eigenvalues not converged
     ethr =  2.28E-07,  avg # of iterations = 18.2

     negative rho (up, down):  1.725E+02 2.940E-02

     total cpu time spent up to now is      560.6 secs

     total energy              =   -4568.47837163 Ry
     estimated scf accuracy    <       0.00016206 Ry

     total magnetization       =    -0.00    -0.00     0.11 Bohr mag/cell
     absolute magnetization    =    29.89 Bohr mag/cell

     iteration # 58     ecut=    80.00 Ry     beta= 0.70
     Davidson diagonalization with overlap
     c_bands:  1 eigenvalues not converged
     c_bands:  2 eigenvalues not converged
     c_bands:  1 eigenvalues not converged
     c_bands:  1 eigenvalues not converged
     c_bands:  3 eigenvalues not converged
     c_bands:  4 eigenvalues not converged
     c_bands:  2 eigenvalues not converged
     ethr =  2.28E-07,  avg # of iterations = 18.5

     negative rho (up, down):  1.725E+02 2.940E-02

     total cpu time spent up to now is      571.3 secs

     total energy              =   -4568.47498170 Ry
     estimated scf accuracy    <       0.00021868 Ry

     total magnetization       =    -0.00     0.00     0.06 Bohr mag/cell
     absolute magnetization    =    29.92 Bohr mag/cell

     iteration # 59     ecut=    80.00 Ry     beta= 0.70
     Davidson diagonalization with overlap
     c_bands:  4 eigenvalues not converged
     ethr =  2.28E-07,  avg # of iterations = 18.2

     negative rho (up, down):  1.725E+02 2.943E-02

     total cpu time spent up to now is      582.1 secs

     total energy              =   -4568.47885293 Ry
     estimated scf accuracy    <       0.00012309 Ry

     total magnetization       =    -0.00     0.00     0.01 Bohr mag/cell
     absolute magnetization    =    29.87 Bohr mag/cell

     iteration # 60     ecut=    80.00 Ry     beta= 0.70
     Davidson diagonalization with overlap
     c_bands:  1 eigenvalues not converged
     c_bands:  4 eigenvalues not converged
     c_bands:  1 eigenvalues not converged
     c_bands:  5 eigenvalues not converged
     ethr =  2.28E-07,  avg # of iterations = 18.5

     negative rho (up, down):  1.725E+02 2.943E-02

     total cpu time spent up to now is      592.6 secs

     total energy              =   -4568.47685835 Ry
     estimated scf accuracy    <       0.00013331 Ry

     total magnetization       =    -0.00     0.00     0.10 Bohr mag/cell
     absolute magnetization    =    29.89 Bohr mag/cell

     iteration # 61     ecut=    80.00 Ry     beta= 0.70
     Davidson diagonalization with overlap
     c_bands:  1 eigenvalues not converged
     c_bands:  1 eigenvalues not converged
     c_bands:  1 eigenvalues not converged
     c_bands:  1 eigenvalues not converged
     c_bands:  1 eigenvalues not converged
     c_bands:  2 eigenvalues not converged
     c_bands:  1 eigenvalues not converged
     c_bands:  1 eigenvalues not converged
     c_bands:  4 eigenvalues not converged
     c_bands:  2 eigenvalues not converged
     ethr =  2.28E-07,  avg # of iterations = 20.9

     negative rho (up, down):  1.725E+02 2.940E-02

     total cpu time spent up to now is      604.7 secs

     total energy              =   -4568.47517220 Ry
     estimated scf accuracy    <       0.00046691 Ry

     total magnetization       =    -0.00    -0.00     0.08 Bohr mag/cell
     absolute magnetization    =    30.05 Bohr mag/cell

     iteration # 62     ecut=    80.00 Ry     beta= 0.70
     Davidson diagonalization with overlap
     c_bands:  1 eigenvalues not converged
     c_bands:  4 eigenvalues not converged
     c_bands:  3 eigenvalues not converged
     c_bands:  2 eigenvalues not converged
     c_bands:  4 eigenvalues not converged
     c_bands:  5 eigenvalues not converged
     c_bands:  2 eigenvalues not converged
     c_bands:  2 eigenvalues not converged
     c_bands:  2 eigenvalues not converged
     c_bands:  2 eigenvalues not converged
     c_bands:  3 eigenvalues not converged
     c_bands:  4 eigenvalues not converged
     c_bands:  1 eigenvalues not converged
     c_bands:  2 eigenvalues not converged
     c_bands:  2 eigenvalues not converged
     ethr =  2.28E-07,  avg # of iterations = 19.7

     negative rho (up, down):  1.725E+02 2.940E-02

     total cpu time spent up to now is      615.9 secs

     total energy              =   -4568.47502910 Ry
     estimated scf accuracy    <       0.00018469 Ry

     total magnetization       =    -0.00    -0.00     0.04 Bohr mag/cell
     absolute magnetization    =    29.89 Bohr mag/cell

     iteration # 63     ecut=    80.00 Ry     beta= 0.70
     Davidson diagonalization with overlap
     c_bands:  4 eigenvalues not converged
     c_bands:  2 eigenvalues not converged
     c_bands:  1 eigenvalues not converged
     c_bands:  1 eigenvalues not converged
     c_bands:  2 eigenvalues not converged
     ethr =  2.28E-07,  avg # of iterations = 18.6

     negative rho (up, down):  1.725E+02 2.940E-02

     total cpu time spent up to now is      627.0 secs

     total energy              =   -4568.47941454 Ry
     estimated scf accuracy    <       0.00030745 Ry

     total magnetization       =    -0.00     0.00     0.17 Bohr mag/cell
     absolute magnetization    =    29.98 Bohr mag/cell

     iteration # 64     ecut=    80.00 Ry     beta= 0.70
     Davidson diagonalization with overlap
     c_bands:  1 eigenvalues not converged
     c_bands:  1 eigenvalues not converged
     ethr =  2.28E-07,  avg # of iterations = 16.4

     negative rho (up, down):  1.725E+02 2.943E-02

     total cpu time spent up to now is      636.8 secs

     total energy              =   -4568.47810435 Ry
     estimated scf accuracy    <       0.00023383 Ry

     total magnetization       =     0.00     0.00     0.11 Bohr mag/cell
     absolute magnetization    =    29.94 Bohr mag/cell

     iteration # 65     ecut=    80.00 Ry     beta= 0.70
     Davidson diagonalization with overlap
     c_bands:  2 eigenvalues not converged
     c_bands:  2 eigenvalues not converged
     c_bands:  4 eigenvalues not converged
     c_bands:  2 eigenvalues not converged
     c_bands:  4 eigenvalues not converged
     c_bands:  2 eigenvalues not converged
     c_bands:  4 eigenvalues not converged
     c_bands:  2 eigenvalues not converged
     c_bands:  1 eigenvalues not converged
     c_bands:  4 eigenvalues not converged
     c_bands:  1 eigenvalues not converged
     c_bands:  4 eigenvalues not converged
     ethr =  2.28E-07,  avg # of iterations = 19.6

     negative rho (up, down):  1.725E+02 2.940E-02

     total cpu time spent up to now is      647.7 secs

     total energy              =   -4568.47828976 Ry
     estimated scf accuracy    <       0.00015891 Ry

     total magnetization       =    -0.00    -0.00     0.01 Bohr mag/cell
     absolute magnetization    =    29.91 Bohr mag/cell

     iteration # 66     ecut=    80.00 Ry     beta= 0.70
     Davidson diagonalization with overlap
     c_bands:  2 eigenvalues not converged
     c_bands:  1 eigenvalues not converged
     c_bands:  1 eigenvalues not converged
     c_bands:  3 eigenvalues not converged
     c_bands:  1 eigenvalues not converged
     c_bands:  5 eigenvalues not converged
     c_bands:  1 eigenvalues not converged
     c_bands:  4 eigenvalues not converged
     c_bands:  1 eigenvalues not converged
     c_bands:  2 eigenvalues not converged
     ethr =  2.28E-07,  avg # of iterations = 19.5

     negative rho (up, down):  1.725E+02 2.943E-02

     total cpu time spent up to now is      658.7 secs

     total energy              =   -4568.47967954 Ry
     estimated scf accuracy    <       0.00019454 Ry

     total magnetization       =    -0.00     0.00    -0.03 Bohr mag/cell
     absolute magnetization    =    29.91 Bohr mag/cell

     iteration # 67     ecut=    80.00 Ry     beta= 0.70
     Davidson diagonalization with overlap
     ethr =  2.28E-07,  avg # of iterations = 17.4

     negative rho (up, down):  1.725E+02 2.940E-02

     total cpu time spent up to now is      668.6 secs

     total energy              =   -4568.47640635 Ry
     estimated scf accuracy    <       0.00017057 Ry

     total magnetization       =     0.00     0.00     0.12 Bohr mag/cell
     absolute magnetization    =    29.92 Bohr mag/cell

     iteration # 68     ecut=    80.00 Ry     beta= 0.70
     Davidson diagonalization with overlap
     c_bands:  2 eigenvalues not converged
     c_bands:  2 eigenvalues not converged
     c_bands:  3 eigenvalues not converged
     c_bands:  1 eigenvalues not converged
     c_bands:  1 eigenvalues not converged
     c_bands:  1 eigenvalues not converged
     ethr =  2.28E-07,  avg # of iterations = 18.2

     negative rho (up, down):  1.725E+02 2.940E-02

     total cpu time spent up to now is      679.0 secs

     total energy              =   -4568.47773613 Ry
     estimated scf accuracy    <       0.00021973 Ry

     total magnetization       =     0.00     0.00     0.05 Bohr mag/cell
     absolute magnetization    =    29.93 Bohr mag/cell

     iteration # 69     ecut=    80.00 Ry     beta= 0.70
     Davidson diagonalization with overlap
     c_bands:  2 eigenvalues not converged
     c_bands:  2 eigenvalues not converged
     c_bands:  3 eigenvalues not converged
     c_bands:  4 eigenvalues not converged
     ethr =  2.28E-07,  avg # of iterations = 18.5

     negative rho (up, down):  1.725E+02 2.940E-02

     total cpu time spent up to now is      689.8 secs

     total energy              =   -4568.47753018 Ry
     estimated scf accuracy    <       0.00017382 Ry

     total magnetization       =    -0.00    -0.00     0.01 Bohr mag/cell
     absolute magnetization    =    29.92 Bohr mag/cell

     iteration # 70     ecut=    80.00 Ry     beta= 0.70
     Davidson diagonalization with overlap
     c_bands:  2 eigenvalues not converged
     c_bands:  4 eigenvalues not converged
     c_bands:  4 eigenvalues not converged
     c_bands:  1 eigenvalues not converged
     c_bands:  1 eigenvalues not converged
     c_bands:  1 eigenvalues not converged
     ethr =  2.28E-07,  avg # of iterations = 19.6

     negative rho (up, down):  1.725E+02 2.943E-02

     total cpu time spent up to now is      700.9 secs

     total energy              =   -4568.47902980 Ry
     estimated scf accuracy    <       0.00021638 Ry

     total magnetization       =    -0.00     0.00     0.12 Bohr mag/cell
     absolute magnetization    =    29.89 Bohr mag/cell

     iteration # 71     ecut=    80.00 Ry     beta= 0.70
     Davidson diagonalization with overlap
     c_bands:  1 eigenvalues not converged
     c_bands:  1 eigenvalues not converged
     c_bands:  4 eigenvalues not converged
     c_bands:  5 eigenvalues not converged
     c_bands:  1 eigenvalues not converged
     c_bands:  2 eigenvalues not converged
     c_bands:  5 eigenvalues not converged
     c_bands:  2 eigenvalues not converged
     c_bands:  5 eigenvalues not converged
     c_bands:  4 eigenvalues not converged
     c_bands:  2 eigenvalues not converged
     c_bands:  1 eigenvalues not converged
     c_bands:  5 eigenvalues not converged
     c_bands:  2 eigenvalues not converged
     c_bands:  3 eigenvalues not converged
     c_bands:  2 eigenvalues not converged
     ethr =  2.28E-07,  avg # of iterations = 19.9

     negative rho (up, down):  1.725E+02 2.940E-02

     total cpu time spent up to now is      712.1 secs

     total energy              =   -4568.47581298 Ry
     estimated scf accuracy    <       0.00025564 Ry

     total magnetization       =    -0.00    -0.00     0.10 Bohr mag/cell
     absolute magnetization    =    29.95 Bohr mag/cell

     iteration # 72     ecut=    80.00 Ry     beta= 0.70
     Davidson diagonalization with overlap
     c_bands:  2 eigenvalues not converged
     c_bands:  3 eigenvalues not converged
     c_bands:  4 eigenvalues not converged
     c_bands:  5 eigenvalues not converged
     c_bands:  4 eigenvalues not converged
     c_bands:  2 eigenvalues not converged
     c_bands:  2 eigenvalues not converged
     c_bands:  4 eigenvalues not converged
     c_bands:  1 eigenvalues not converged
     c_bands:  3 eigenvalues not converged
     c_bands:  4 eigenvalues not converged
     c_bands:  2 eigenvalues not converged
     c_bands:  2 eigenvalues not converged
     c_bands:  4 eigenvalues not converged
     c_bands:  2 eigenvalues not converged
     c_bands:  4 eigenvalues not converged
     c_bands:  2 eigenvalues not converged
     c_bands:  2 eigenvalues not converged
     ethr =  2.28E-07,  avg # of iterations = 20.2

     negative rho (up, down):  1.725E+02 2.940E-02

     total cpu time spent up to now is      723.4 secs

     total energy              =   -4568.47815179 Ry
     estimated scf accuracy    <       0.00019318 Ry

     total magnetization       =     0.00    -0.00    -0.01 Bohr mag/cell
     absolute magnetization    =    29.89 Bohr mag/cell

     iteration # 73     ecut=    80.00 Ry     beta= 0.70
     Davidson diagonalization with overlap
     c_bands:  2 eigenvalues not converged
     c_bands:  1 eigenvalues not converged
     c_bands:  1 eigenvalues not converged
     c_bands:  1 eigenvalues not converged
     c_bands:  2 eigenvalues not converged
     c_bands:  1 eigenvalues not converged
     c_bands:  1 eigenvalues not converged
     ethr =  2.28E-07,  avg # of iterations = 18.7

     negative rho (up, down):  1.725E+02 2.940E-02

     total cpu time spent up to now is      734.2 secs

     total energy              =   -4568.48080105 Ry
     estimated scf accuracy    <       0.00015049 Ry

     total magnetization       =    -0.00     0.00     0.06 Bohr mag/cell
     absolute magnetization    =    29.89 Bohr mag/cell

     iteration # 74     ecut=    80.00 Ry     beta= 0.70
     Davidson diagonalization with overlap
     c_bands:  2 eigenvalues not converged
     ethr =  2.28E-07,  avg # of iterations = 17.5

     negative rho (up, down):  1.725E+02 2.943E-02

     total cpu time spent up to now is      743.9 secs

     total energy              =   -4568.47851894 Ry
     estimated scf accuracy    <       0.00009845 Ry

     total magnetization       =    -0.00     0.00     0.12 Bohr mag/cell
     absolute magnetization    =    29.87 Bohr mag/cell

     iteration # 75     ecut=    80.00 Ry     beta= 0.70
     Davidson diagonalization with overlap
     c_bands:  3 eigenvalues not converged
     c_bands:  3 eigenvalues not converged
     c_bands:  2 eigenvalues not converged
     c_bands:  1 eigenvalues not converged
     c_bands:  1 eigenvalues not converged
     c_bands:  1 eigenvalues not converged
     c_bands:  1 eigenvalues not converged
     c_bands:  2 eigenvalues not converged
     c_bands:  2 eigenvalues not converged
     c_bands:  2 eigenvalues not converged
     ethr =  2.28E-07,  avg # of iterations = 19.2

     negative rho (up, down):  1.725E+02 2.943E-02

     total cpu time spent up to now is      755.1 secs

     total energy              =   -4568.47517798 Ry
     estimated scf accuracy    <       0.00038600 Ry

     total magnetization       =    -0.00     0.00    -0.07 Bohr mag/cell
     absolute magnetization    =    29.99 Bohr mag/cell

     iteration # 76     ecut=    80.00 Ry     beta= 0.70
     Davidson diagonalization with overlap
     c_bands:  1 eigenvalues not converged
     c_bands:  1 eigenvalues not converged
     c_bands:  2 eigenvalues not converged
     c_bands:  2 eigenvalues not converged
     c_bands:  3 eigenvalues not converged
     c_bands:  1 eigenvalues not converged
     c_bands:  2 eigenvalues not converged
     c_bands:  2 eigenvalues not converged
     c_bands:  2 eigenvalues not converged
     c_bands:  2 eigenvalues not converged
     c_bands:  2 eigenvalues not converged
     c_bands:  2 eigenvalues not converged
     c_bands:  2 eigenvalues not converged
     c_bands:  2 eigenvalues not converged
     c_bands:  5 eigenvalues not converged
     ethr =  2.28E-07,  avg # of iterations = 20.0

     negative rho (up, down):  1.725E+02 2.943E-02

     total cpu time spent up to now is      766.4 secs

     total energy              =   -4568.47976765 Ry
     estimated scf accuracy    <       0.00012234 Ry

     total magnetization       =     0.00    -0.00     0.05 Bohr mag/cell
     absolute magnetization    =    29.88 Bohr mag/cell

     iteration # 77     ecut=    80.00 Ry     beta= 0.70
     Davidson diagonalization with overlap
     c_bands:  1 eigenvalues not converged
     c_bands:  2 eigenvalues not converged
     c_bands:  1 eigenvalues not converged
     c_bands:  1 eigenvalues not converged
     c_bands:  1 eigenvalues not converged
     c_bands:  2 eigenvalues not converged
     c_bands:  3 eigenvalues not converged
     c_bands:  2 eigenvalues not converged
     c_bands:  1 eigenvalues not converged
     c_bands:  1 eigenvalues not converged
     c_bands:  1 eigenvalues not converged
     ethr =  2.28E-07,  avg # of iterations = 19.0

     negative rho (up, down):  1.725E+02 2.943E-02

     total cpu time spent up to now is      776.8 secs

     total energy              =   -4568.47402806 Ry
     estimated scf accuracy    <       0.00028708 Ry

     total magnetization       =     0.00     0.00     0.19 Bohr mag/cell
     absolute magnetization    =    29.98 Bohr mag/cell

     iteration # 78     ecut=    80.00 Ry     beta= 0.70
     Davidson diagonalization with overlap
     c_bands:  2 eigenvalues not converged
     c_bands:  1 eigenvalues not converged
     c_bands:  2 eigenvalues not converged
     c_bands:  1 eigenvalues not converged
     c_bands:  3 eigenvalues not converged
     c_bands:  5 eigenvalues not converged
     c_bands:  2 eigenvalues not converged
     c_bands:  1 eigenvalues not converged
     c_bands:  2 eigenvalues not converged
     c_bands:  1 eigenvalues not converged
     c_bands:  1 eigenvalues not converged
     c_bands:  4 eigenvalues not converged
     c_bands:  2 eigenvalues not converged
     c_bands:  2 eigenvalues not converged
     c_bands:  2 eigenvalues not converged
     ethr =  2.28E-07,  avg # of iterations = 19.5

     negative rho (up, down):  1.725E+02 2.940E-02

     total cpu time spent up to now is      787.7 secs

     total energy              =   -4568.47522053 Ry
     estimated scf accuracy    <       0.00043847 Ry

     total magnetization       =    -0.00    -0.00     0.06 Bohr mag/cell
     absolute magnetization    =    29.96 Bohr mag/cell

     iteration # 79     ecut=    80.00 Ry     beta= 0.70
     Davidson diagonalization with overlap
     c_bands:  1 eigenvalues not converged
     c_bands:  1 eigenvalues not converged
     c_bands:  1 eigenvalues not converged
     c_bands:  1 eigenvalues not converged
     c_bands:  1 eigenvalues not converged
     c_bands:  3 eigenvalues not converged
     c_bands:  1 eigenvalues not converged
     ethr =  2.28E-07,  avg # of iterations = 18.1

     negative rho (up, down):  1.725E+02 2.943E-02

     total cpu time spent up to now is      797.9 secs

     total energy              =   -4568.48007641 Ry
     estimated scf accuracy    <       0.00005168 Ry

     total magnetization       =    -0.00    -0.00     0.04 Bohr mag/cell
     absolute magnetization    =    29.83 Bohr mag/cell

     iteration # 80     ecut=    80.00 Ry     beta= 0.70
     Davidson diagonalization with overlap
     c_bands:  2 eigenvalues not converged
     c_bands:  1 eigenvalues not converged
     c_bands:  3 eigenvalues not converged
     c_bands:  1 eigenvalues not converged
     c_bands:  1 eigenvalues not converged
     c_bands:  2 eigenvalues not converged
     c_bands:  2 eigenvalues not converged
     c_bands:  2 eigenvalues not converged
     c_bands:  1 eigenvalues not converged
     ethr =  1.48E-07,  avg # of iterations = 19.2

     negative rho (up, down):  1.725E+02 2.943E-02

     total cpu time spent up to now is      808.4 secs

     total energy              =   -4568.47957348 Ry
     estimated scf accuracy    <       0.00013317 Ry

     total magnetization       =    -0.00    -0.00     0.07 Bohr mag/cell
     absolute magnetization    =    29.88 Bohr mag/cell

     iteration # 81     ecut=    80.00 Ry     beta= 0.70
     Davidson diagonalization with overlap
     c_bands:  1 eigenvalues not converged
     c_bands:  1 eigenvalues not converged
     c_bands:  3 eigenvalues not converged
     c_bands:  3 eigenvalues not converged
     c_bands:  1 eigenvalues not converged
     c_bands:  2 eigenvalues not converged
     c_bands:  3 eigenvalues not converged
     c_bands:  5 eigenvalues not converged
     ethr =  1.48E-07,  avg # of iterations = 19.0

     negative rho (up, down):  1.725E+02 2.943E-02

     total cpu time spent up to now is      818.8 secs

     total energy              =   -4568.47863395 Ry
     estimated scf accuracy    <       0.00009883 Ry

     total magnetization       =     0.00    -0.00     0.02 Bohr mag/cell
     absolute magnetization    =    29.86 Bohr mag/cell

     iteration # 82     ecut=    80.00 Ry     beta= 0.70
     Davidson diagonalization with overlap
     c_bands:  5 eigenvalues not converged
     c_bands:  1 eigenvalues not converged
     c_bands:  1 eigenvalues not converged
     c_bands:  4 eigenvalues not converged
     c_bands:  2 eigenvalues not converged
     ethr =  1.48E-07,  avg # of iterations = 19.3

     negative rho (up, down):  1.725E+02 2.943E-02

     total cpu time spent up to now is      829.9 secs

     total energy              =   -4568.47665486 Ry
     estimated scf accuracy    <       0.00028738 Ry

     total magnetization       =     0.00    -0.00    -0.09 Bohr mag/cell
     absolute magnetization    =    29.93 Bohr mag/cell

     iteration # 83     ecut=    80.00 Ry     beta= 0.70
     Davidson diagonalization with overlap
     c_bands:  2 eigenvalues not converged
     c_bands:  1 eigenvalues not converged
     c_bands:  3 eigenvalues not converged
     c_bands:  1 eigenvalues not converged
     c_bands:  4 eigenvalues not converged
     c_bands:  3 eigenvalues not converged
     c_bands:  4 eigenvalues not converged
     c_bands:  2 eigenvalues not converged
     c_bands:  1 eigenvalues not converged
     c_bands:  1 eigenvalues not converged
     c_bands:  2 eigenvalues not converged
     c_bands:  1 eigenvalues not converged
     c_bands:  2 eigenvalues not converged
     c_bands:  1 eigenvalues not converged
     c_bands:  1 eigenvalues not converged
     ethr =  1.48E-07,  avg # of iterations = 19.7

     negative rho (up, down):  1.725E+02 2.943E-02

     total cpu time spent up to now is      841.1 secs

     total energy              =   -4568.47633636 Ry
     estimated scf accuracy    <       0.00022998 Ry

     total magnetization       =     0.00     0.00     0.00 Bohr mag/cell
     absolute magnetization    =    29.92 Bohr mag/cell

     iteration # 84     ecut=    80.00 Ry     beta= 0.70
     Davidson diagonalization with overlap
     c_bands:  4 eigenvalues not converged
     c_bands:  4 eigenvalues not converged
     c_bands:  2 eigenvalues not converged
     c_bands:  1 eigenvalues not converged
     c_bands:  2 eigenvalues not converged
     c_bands:  1 eigenvalues not converged
     c_bands:  3 eigenvalues not converged
     c_bands:  1 eigenvalues not converged
     c_bands:  3 eigenvalues not converged
     ethr =  1.48E-07,  avg # of iterations = 19.1

     negative rho (up, down):  1.725E+02 2.943E-02

     total cpu time spent up to now is      852.0 secs

     total energy              =   -4568.47717759 Ry
     estimated scf accuracy    <       0.00014081 Ry

     total magnetization       =    -0.00     0.00     0.07 Bohr mag/cell
     absolute magnetization    =    29.89 Bohr mag/cell

     iteration # 85     ecut=    80.00 Ry     beta= 0.70
     Davidson diagonalization with overlap
     c_bands:  1 eigenvalues not converged
     c_bands:  1 eigenvalues not converged
     c_bands:  1 eigenvalues not converged
     c_bands:  1 eigenvalues not converged
     c_bands:  1 eigenvalues not converged
     ethr =  1.48E-07,  avg # of iterations = 18.5

     negative rho (up, down):  1.725E+02 2.943E-02

     total cpu time spent up to now is      862.4 secs

     total energy              =   -4568.47918914 Ry
     estimated scf accuracy    <       0.00009242 Ry

     total magnetization       =    -0.00     0.00    -0.01 Bohr mag/cell
     absolute magnetization    =    29.84 Bohr mag/cell

     iteration # 86     ecut=    80.00 Ry     beta= 0.70
     Davidson diagonalization with overlap
     ethr =  1.48E-07,  avg # of iterations = 16.6

     negative rho (up, down):  1.725E+02 2.944E-02

     total cpu time spent up to now is      872.3 secs

     total energy              =   -4568.47868551 Ry
     estimated scf accuracy    <       0.00008057 Ry

     total magnetization       =    -0.00    -0.00     0.03 Bohr mag/cell
     absolute magnetization    =    29.84 Bohr mag/cell

     iteration # 87     ecut=    80.00 Ry     beta= 0.70
     Davidson diagonalization with overlap
     c_bands:  1 eigenvalues not converged
     c_bands:  1 eigenvalues not converged
     c_bands:  1 eigenvalues not converged
     c_bands:  4 eigenvalues not converged
     c_bands:  4 eigenvalues not converged
     c_bands:  4 eigenvalues not converged
     c_bands:  2 eigenvalues not converged
     c_bands:  1 eigenvalues not converged
     c_bands:  1 eigenvalues not converged
     c_bands:  1 eigenvalues not converged
     c_bands:  4 eigenvalues not converged
     ethr =  1.48E-07,  avg # of iterations = 18.5

     negative rho (up, down):  1.725E+02 2.944E-02

     total cpu time spent up to now is      882.5 secs

     total energy              =   -4568.47909507 Ry
     estimated scf accuracy    <       0.00020663 Ry

     total magnetization       =     0.00     0.00     0.23 Bohr mag/cell
     absolute magnetization    =    29.95 Bohr mag/cell

     iteration # 88     ecut=    80.00 Ry     beta= 0.70
     Davidson diagonalization with overlap
     c_bands:  1 eigenvalues not converged
     c_bands:  1 eigenvalues not converged
     c_bands:  3 eigenvalues not converged
     c_bands:  3 eigenvalues not converged
     c_bands:  4 eigenvalues not converged
     c_bands:  5 eigenvalues not converged
     c_bands:  5 eigenvalues not converged
     c_bands:  1 eigenvalues not converged
     c_bands:  5 eigenvalues not converged
     c_bands:  4 eigenvalues not converged
     c_bands:  4 eigenvalues not converged
     ethr =  1.48E-07,  avg # of iterations = 20.3

     negative rho (up, down):  1.725E+02 2.941E-02

     total cpu time spent up to now is      893.8 secs

     total energy              =   -4568.47831766 Ry
     estimated scf accuracy    <       0.00013260 Ry

     total magnetization       =    -0.00    -0.00     0.06 Bohr mag/cell
     absolute magnetization    =    29.90 Bohr mag/cell

     iteration # 89     ecut=    80.00 Ry     beta= 0.70
     Davidson diagonalization with overlap
     c_bands:  1 eigenvalues not converged
     c_bands:  1 eigenvalues not converged
     c_bands:  1 eigenvalues not converged
     c_bands:  1 eigenvalues not converged
     c_bands:  4 eigenvalues not converged
     c_bands:  1 eigenvalues not converged
     c_bands:  1 eigenvalues not converged
     c_bands:  1 eigenvalues not converged
     c_bands:  1 eigenvalues not converged
     c_bands:  2 eigenvalues not converged
     c_bands:  3 eigenvalues not converged
     c_bands:  3 eigenvalues not converged
     c_bands:  4 eigenvalues not converged
     ethr =  1.48E-07,  avg # of iterations = 19.1

     negative rho (up, down):  1.725E+02 2.944E-02

     total cpu time spent up to now is      904.5 secs

     total energy              =   -4568.47694763 Ry
     estimated scf accuracy    <       0.00015333 Ry

     total magnetization       =    -0.00    -0.00     0.10 Bohr mag/cell
     absolute magnetization    =    29.89 Bohr mag/cell

     iteration # 90     ecut=    80.00 Ry     beta= 0.70
     Davidson diagonalization with overlap
     c_bands:  5 eigenvalues not converged
     c_bands:  4 eigenvalues not converged
     c_bands:  4 eigenvalues not converged
     c_bands:  3 eigenvalues not converged
     c_bands:  5 eigenvalues not converged
     c_bands:  4 eigenvalues not converged
     c_bands:  2 eigenvalues not converged
     c_bands:  4 eigenvalues not converged
     c_bands:  2 eigenvalues not converged
     c_bands:  1 eigenvalues not converged
     c_bands:  3 eigenvalues not converged
     c_bands:  5 eigenvalues not converged
     c_bands:  2 eigenvalues not converged
     c_bands:  2 eigenvalues not converged
     c_bands:  3 eigenvalues not converged
     c_bands:  3 eigenvalues not converged
     c_bands:  1 eigenvalues not converged
     c_bands:  1 eigenvalues not converged
     ethr =  1.48E-07,  avg # of iterations = 20.1

     negative rho (up, down):  1.725E+02 2.944E-02

     total cpu time spent up to now is      915.8 secs

     total energy              =   -4568.47884155 Ry
     estimated scf accuracy    <       0.00015873 Ry

     total magnetization       =     0.00    -0.00     0.09 Bohr mag/cell
     absolute magnetization    =    29.89 Bohr mag/cell

     iteration # 91     ecut=    80.00 Ry     beta= 0.70
     Davidson diagonalization with overlap
     c_bands:  2 eigenvalues not converged
     c_bands:  2 eigenvalues not converged
     c_bands:  1 eigenvalues not converged
     c_bands:  2 eigenvalues not converged
     c_bands:  2 eigenvalues not converged
     c_bands:  1 eigenvalues not converged
     c_bands:  2 eigenvalues not converged
     c_bands:  3 eigenvalues not converged
     c_bands:  4 eigenvalues not converged
     c_bands:  3 eigenvalues not converged
     c_bands:  2 eigenvalues not converged
     c_bands:  2 eigenvalues not converged
     c_bands:  2 eigenvalues not converged
     c_bands:  1 eigenvalues not converged
     c_bands:  1 eigenvalues not converged
     c_bands:  3 eigenvalues not converged
     c_bands:  2 eigenvalues not converged
     c_bands:  5 eigenvalues not converged
     ethr =  1.48E-07,  avg # of iterations = 19.5

     negative rho (up, down):  1.725E+02 2.943E-02

     total cpu time spent up to now is      926.5 secs

     total energy              =   -4568.47898128 Ry
     estimated scf accuracy    <       0.00021012 Ry

     total magnetization       =     0.00     0.00     0.15 Bohr mag/cell
     absolute magnetization    =    29.95 Bohr mag/cell

     iteration # 92     ecut=    80.00 Ry     beta= 0.70
     Davidson diagonalization with overlap
     c_bands:  2 eigenvalues not converged
     c_bands:  2 eigenvalues not converged
     c_bands:  4 eigenvalues not converged
     c_bands:  1 eigenvalues not converged
     c_bands:  1 eigenvalues not converged
     c_bands:  1 eigenvalues not converged
     c_bands:  2 eigenvalues not converged
     c_bands:  1 eigenvalues not converged
     c_bands:  3 eigenvalues not converged
     c_bands:  2 eigenvalues not converged
     c_bands:  2 eigenvalues not converged
     c_bands:  2 eigenvalues not converged
     c_bands:  2 eigenvalues not converged
     c_bands:  2 eigenvalues not converged
     c_bands:  3 eigenvalues not converged
     c_bands:  4 eigenvalues not converged
     ethr =  1.48E-07,  avg # of iterations = 19.7

     negative rho (up, down):  1.725E+02 2.944E-02

     total cpu time spent up to now is      937.7 secs

     total energy              =   -4568.47586645 Ry
     estimated scf accuracy    <       0.00047580 Ry

     total magnetization       =     0.00    -0.00    -0.11 Bohr mag/cell
     absolute magnetization    =    30.01 Bohr mag/cell

     iteration # 93     ecut=    80.00 Ry     beta= 0.70
     Davidson diagonalization with overlap
     c_bands:  4 eigenvalues not converged
     c_bands:  3 eigenvalues not converged
     c_bands:  2 eigenvalues not converged
     c_bands:  1 eigenvalues not converged
     c_bands:  3 eigenvalues not converged
     c_bands:  1 eigenvalues not converged
     c_bands:  2 eigenvalues not converged
     c_bands:  1 eigenvalues not converged
     c_bands:  1 eigenvalues not converged
     c_bands:  2 eigenvalues not converged
     c_bands:  2 eigenvalues not converged
     c_bands:  1 eigenvalues not converged
     c_bands:  2 eigenvalues not converged
     ethr =  1.48E-07,  avg # of iterations = 20.5

     negative rho (up, down):  1.725E+02 2.946E-02

     total cpu time spent up to now is      949.5 secs

     total energy              =   -4568.47915353 Ry
     estimated scf accuracy    <       0.00022668 Ry

     total magnetization       =    -0.00     0.00     0.14 Bohr mag/cell
     absolute magnetization    =    29.96 Bohr mag/cell

     iteration # 94     ecut=    80.00 Ry     beta= 0.70
     Davidson diagonalization with overlap
     c_bands:  3 eigenvalues not converged
     c_bands:  3 eigenvalues not converged
     c_bands:  1 eigenvalues not converged
     c_bands:  2 eigenvalues not converged
     c_bands:  1 eigenvalues not converged
     c_bands:  1 eigenvalues not converged
     c_bands:  5 eigenvalues not converged
     c_bands:  1 eigenvalues not converged
     c_bands:  1 eigenvalues not converged
     c_bands:  2 eigenvalues not converged
     c_bands:  1 eigenvalues not converged
     c_bands:  4 eigenvalues not converged
     c_bands:  1 eigenvalues not converged
     ethr =  1.48E-07,  avg # of iterations = 19.7

     negative rho (up, down):  1.725E+02 2.946E-02

     total cpu time spent up to now is      960.5 secs

     total energy              =   -4568.47691940 Ry
     estimated scf accuracy    <       0.00030063 Ry

     total magnetization       =    -0.00     0.00     0.05 Bohr mag/cell
     absolute magnetization    =    29.94 Bohr mag/cell

     iteration # 95     ecut=    80.00 Ry     beta= 0.70
     Davidson diagonalization with overlap
     c_bands:  1 eigenvalues not converged
     ethr =  1.48E-07,  avg # of iterations = 17.7

     negative rho (up, down):  1.725E+02 2.943E-02

     total cpu time spent up to now is      970.7 secs

     total energy              =   -4568.48071788 Ry
     estimated scf accuracy    <       0.00005315 Ry

     total magnetization       =     0.00    -0.00    -0.01 Bohr mag/cell
     absolute magnetization    =    29.81 Bohr mag/cell

     iteration # 96     ecut=    80.00 Ry     beta= 0.70
     Davidson diagonalization with overlap
     c_bands:  1 eigenvalues not converged
     ethr =  1.48E-07,  avg # of iterations = 16.2

     negative rho (up, down):  1.725E+02 2.944E-02

     total cpu time spent up to now is      980.2 secs

     total energy              =   -4568.47950027 Ry
     estimated scf accuracy    <       0.00010851 Ry

     total magnetization       =     0.00    -0.00     0.06 Bohr mag/cell
     absolute magnetization    =    29.86 Bohr mag/cell

     iteration # 97     ecut=    80.00 Ry     beta= 0.70
     Davidson diagonalization with overlap
     ethr =  1.48E-07,  avg # of iterations = 17.0

     negative rho (up, down):  1.725E+02 2.943E-02

     total cpu time spent up to now is      989.9 secs

     total energy              =   -4568.48059931 Ry
     estimated scf accuracy    <       0.00007004 Ry

     total magnetization       =    -0.00    -0.00     0.10 Bohr mag/cell
     absolute magnetization    =    29.86 Bohr mag/cell

     iteration # 98     ecut=    80.00 Ry     beta= 0.70
     Davidson diagonalization with overlap
     ethr =  1.48E-07,  avg # of iterations = 17.2

     negative rho (up, down):  1.725E+02 2.943E-02

     total cpu time spent up to now is      999.6 secs

     total energy              =   -4568.48001131 Ry
     estimated scf accuracy    <       0.00011873 Ry

     total magnetization       =    -0.00     0.00    -0.05 Bohr mag/cell
     absolute magnetization    =    29.85 Bohr mag/cell

     iteration # 99     ecut=    80.00 Ry     beta= 0.70
     Davidson diagonalization with overlap
     c_bands:  1 eigenvalues not converged
     c_bands:  2 eigenvalues not converged
     c_bands:  1 eigenvalues not converged
     c_bands:  3 eigenvalues not converged
     c_bands:  3 eigenvalues not converged
     c_bands:  2 eigenvalues not converged
     c_bands:  1 eigenvalues not converged
     ethr =  1.48E-07,  avg # of iterations = 19.4

     negative rho (up, down):  1.725E+02 2.943E-02

     total cpu time spent up to now is     1010.6 secs

     total energy              =   -4568.47569100 Ry
     estimated scf accuracy    <       0.00031819 Ry

     total magnetization       =     0.00    -0.00     0.10 Bohr mag/cell
     absolute magnetization    =    29.96 Bohr mag/cell

     iteration #100     ecut=    80.00 Ry     beta= 0.70
     Davidson diagonalization with overlap
     c_bands:  5 eigenvalues not converged
     c_bands:  3 eigenvalues not converged
     c_bands:  1 eigenvalues not converged
     c_bands:  2 eigenvalues not converged
     c_bands:  1 eigenvalues not converged
     c_bands:  2 eigenvalues not converged
     c_bands:  3 eigenvalues not converged
     ethr =  1.48E-07,  avg # of iterations = 19.9

     negative rho (up, down):  1.725E+02 2.944E-02

     total cpu time spent up to now is     1021.9 secs

     total energy              =   -4568.47982823 Ry
     estimated scf accuracy    <       0.00010621 Ry

     total magnetization       =     0.00    -0.00     0.08 Bohr mag/cell
     absolute magnetization    =    29.89 Bohr mag/cell

     iteration #101     ecut=    80.00 Ry     beta= 0.70
     Davidson diagonalization with overlap
     c_bands:  1 eigenvalues not converged
     ethr =  1.48E-07,  avg # of iterations = 17.4

     negative rho (up, down):  1.725E+02 2.944E-02

     total cpu time spent up to now is     1032.0 secs

     total energy              =   -4568.47880109 Ry
     estimated scf accuracy    <       0.00013695 Ry

     total magnetization       =     0.00    -0.00     0.14 Bohr mag/cell
     absolute magnetization    =    29.91 Bohr mag/cell

     iteration #102     ecut=    80.00 Ry     beta= 0.70
     Davidson diagonalization with overlap
     c_bands:  4 eigenvalues not converged
     c_bands:  1 eigenvalues not converged
     c_bands:  1 eigenvalues not converged
     c_bands:  1 eigenvalues not converged
     ethr =  1.48E-07,  avg # of iterations = 17.3

     negative rho (up, down):  1.725E+02 2.944E-02

     total cpu time spent up to now is     1042.1 secs

     total energy              =   -4568.47957607 Ry
     estimated scf accuracy    <       0.00014811 Ry

     total magnetization       =    -0.00    -0.00    -0.03 Bohr mag/cell
     absolute magnetization    =    29.88 Bohr mag/cell

     iteration #103     ecut=    80.00 Ry     beta= 0.70
     Davidson diagonalization with overlap
     c_bands:  2 eigenvalues not converged
     c_bands:  1 eigenvalues not converged
     c_bands:  2 eigenvalues not converged
     c_bands:  4 eigenvalues not converged
     c_bands:  1 eigenvalues not converged
     c_bands:  1 eigenvalues not converged
     c_bands:  2 eigenvalues not converged
     c_bands:  3 eigenvalues not converged
     c_bands:  1 eigenvalues not converged
     c_bands:  2 eigenvalues not converged
     c_bands:  2 eigenvalues not converged
     c_bands:  2 eigenvalues not converged
     ethr =  1.48E-07,  avg # of iterations = 19.0

     negative rho (up, down):  1.725E+02 2.944E-02

     total cpu time spent up to now is     1052.5 secs

     total energy              =   -4568.48210726 Ry
     estimated scf accuracy    <       0.00017277 Ry

     total magnetization       =     0.00    -0.00     0.05 Bohr mag/cell
     absolute magnetization    =    29.90 Bohr mag/cell

     iteration #104     ecut=    80.00 Ry     beta= 0.70
     Davidson diagonalization with overlap
     c_bands:  2 eigenvalues not converged
     c_bands:  1 eigenvalues not converged
     ethr =  1.48E-07,  avg # of iterations = 17.5

     negative rho (up, down):  1.725E+02 2.941E-02

     total cpu time spent up to now is     1062.4 secs

     total energy              =   -4568.47566157 Ry
     estimated scf accuracy    <       0.00020458 Ry

     total magnetization       =     0.00     0.00     0.06 Bohr mag/cell
     absolute magnetization    =    29.92 Bohr mag/cell

     iteration #105     ecut=    80.00 Ry     beta= 0.70
     Davidson diagonalization with overlap
     c_bands:  2 eigenvalues not converged
     c_bands:  4 eigenvalues not converged
     c_bands:  2 eigenvalues not converged
     c_bands:  2 eigenvalues not converged
     c_bands:  2 eigenvalues not converged
     c_bands:  4 eigenvalues not converged
     c_bands:  3 eigenvalues not converged
     c_bands:  2 eigenvalues not converged
     c_bands:  1 eigenvalues not converged
     c_bands:  4 eigenvalues not converged
     c_bands:  1 eigenvalues not converged
     c_bands:  2 eigenvalues not converged
     c_bands:  3 eigenvalues not converged
     c_bands:  4 eigenvalues not converged
     c_bands:  3 eigenvalues not converged
     c_bands:  1 eigenvalues not converged
     c_bands:  3 eigenvalues not converged
     c_bands:  5 eigenvalues not converged
     c_bands:  1 eigenvalues not converged
     c_bands:  2 eigenvalues not converged
     ethr =  1.48E-07,  avg # of iterations = 20.0

     negative rho (up, down):  1.725E+02 2.941E-02

     total cpu time spent up to now is     1073.4 secs

     total energy              =   -4568.47826971 Ry
     estimated scf accuracy    <       0.00016579 Ry

     total magnetization       =     0.00    -0.00    -0.05 Bohr mag/cell
     absolute magnetization    =    29.89 Bohr mag/cell

     iteration #106     ecut=    80.00 Ry     beta= 0.70
     Davidson diagonalization with overlap
     c_bands:  2 eigenvalues not converged
     c_bands:  2 eigenvalues not converged
     c_bands:  2 eigenvalues not converged
     c_bands:  2 eigenvalues not converged
     c_bands:  2 eigenvalues not converged
     c_bands:  1 eigenvalues not converged
     ethr =  1.48E-07,  avg # of iterations = 18.1

     negative rho (up, down):  1.725E+02 2.944E-02

     total cpu time spent up to now is     1083.8 secs

     total energy              =   -4568.47874323 Ry
     estimated scf accuracy    <       0.00023032 Ry

     total magnetization       =     0.00    -0.00     0.08 Bohr mag/cell
     absolute magnetization    =    29.94 Bohr mag/cell

     iteration #107     ecut=    80.00 Ry     beta= 0.70
     Davidson diagonalization with overlap
     c_bands:  1 eigenvalues not converged
     ethr =  1.48E-07,  avg # of iterations = 18.3

     negative rho (up, down):  1.725E+02 2.941E-02

     total cpu time spent up to now is     1094.1 secs

     total energy              =   -4568.48035534 Ry
     estimated scf accuracy    <       0.00018452 Ry

     total magnetization       =     0.00     0.00     0.07 Bohr mag/cell
     absolute magnetization    =    29.93 Bohr mag/cell

     iteration #108     ecut=    80.00 Ry     beta= 0.70
     Davidson diagonalization with overlap
     c_bands:  2 eigenvalues not converged
     ethr =  1.48E-07,  avg # of iterations = 16.9

     negative rho (up, down):  1.725E+02 2.944E-02

     total cpu time spent up to now is     1104.0 secs

     total energy              =   -4568.47749893 Ry
     estimated scf accuracy    <       0.00015390 Ry

     total magnetization       =     0.00    -0.00     0.07 Bohr mag/cell
     absolute magnetization    =    29.91 Bohr mag/cell

     iteration #109     ecut=    80.00 Ry     beta= 0.70
     Davidson diagonalization with overlap
     c_bands:  2 eigenvalues not converged
     c_bands:  1 eigenvalues not converged
     c_bands:  4 eigenvalues not converged
     c_bands:  5 eigenvalues not converged
     c_bands:  1 eigenvalues not converged
     ethr =  1.48E-07,  avg # of iterations = 19.5

     negative rho (up, down):  1.725E+02 2.946E-02

     total cpu time spent up to now is     1115.4 secs

     total energy              =   -4568.47740966 Ry
     estimated scf accuracy    <       0.00020061 Ry

     total magnetization       =    -0.00     0.00     0.13 Bohr mag/cell
     absolute magnetization    =    29.92 Bohr mag/cell

     iteration #110     ecut=    80.00 Ry     beta= 0.70
     Davidson diagonalization with overlap
     c_bands:  2 eigenvalues not converged
     c_bands:  1 eigenvalues not converged
     c_bands:  1 eigenvalues not converged
     c_bands:  1 eigenvalues not converged
     c_bands:  1 eigenvalues not converged
     c_bands:  1 eigenvalues not converged
     c_bands:  3 eigenvalues not converged
     ethr =  1.48E-07,  avg # of iterations = 18.8

     negative rho (up, down):  1.725E+02 2.944E-02

     total cpu time spent up to now is     1126.2 secs

     total energy              =   -4568.47850894 Ry
     estimated scf accuracy    <       0.00013454 Ry

     total magnetization       =    -0.00    -0.00     0.04 Bohr mag/cell
     absolute magnetization    =    29.88 Bohr mag/cell

     iteration #111     ecut=    80.00 Ry     beta= 0.70
     Davidson diagonalization with overlap
     c_bands:  2 eigenvalues not converged
     c_bands:  1 eigenvalues not converged
     c_bands:  1 eigenvalues not converged
     c_bands:  1 eigenvalues not converged
     c_bands:  1 eigenvalues not converged
     c_bands:  1 eigenvalues not converged
     c_bands:  2 eigenvalues not converged
     c_bands:  1 eigenvalues not converged
     c_bands:  1 eigenvalues not converged
     c_bands:  3 eigenvalues not converged
     ethr =  1.48E-07,  avg # of iterations = 19.1

     negative rho (up, down):  1.725E+02 2.944E-02

     total cpu time spent up to now is     1136.8 secs

     total energy              =   -4568.47901541 Ry
     estimated scf accuracy    <       0.00012889 Ry

     total magnetization       =    -0.00    -0.00     0.12 Bohr mag/cell
     absolute magnetization    =    29.89 Bohr mag/cell

     iteration #112     ecut=    80.00 Ry     beta= 0.70
     Davidson diagonalization with overlap
     c_bands:  2 eigenvalues not converged
     c_bands:  3 eigenvalues not converged
     c_bands:  1 eigenvalues not converged
     c_bands:  1 eigenvalues not converged
     c_bands:  1 eigenvalues not converged
     c_bands:  2 eigenvalues not converged
     c_bands:  1 eigenvalues not converged
     c_bands:  3 eigenvalues not converged
     c_bands:  4 eigenvalues not converged
     c_bands:  3 eigenvalues not converged
     c_bands:  2 eigenvalues not converged
     c_bands:  2 eigenvalues not converged
     c_bands:  1 eigenvalues not converged
     c_bands:  1 eigenvalues not converged
     ethr =  1.48E-07,  avg # of iterations = 19.6

     negative rho (up, down):  1.725E+02 2.941E-02

     total cpu time spent up to now is     1147.5 secs

     total energy              =   -4568.48000954 Ry
     estimated scf accuracy    <       0.00021753 Ry

     total magnetization       =    -0.00     0.00    -0.07 Bohr mag/cell
     absolute magnetization    =    29.92 Bohr mag/cell

     iteration #113     ecut=    80.00 Ry     beta= 0.70
     Davidson diagonalization with overlap
     c_bands:  1 eigenvalues not converged
     c_bands:  1 eigenvalues not converged
     c_bands:  1 eigenvalues not converged
     c_bands:  1 eigenvalues not converged
     c_bands:  1 eigenvalues not converged
     c_bands:  3 eigenvalues not converged
     c_bands:  1 eigenvalues not converged
     c_bands:  1 eigenvalues not converged
     c_bands:  3 eigenvalues not converged
     c_bands:  2 eigenvalues not converged
     c_bands:  2 eigenvalues not converged
     c_bands:  2 eigenvalues not converged
     c_bands:  1 eigenvalues not converged
     c_bands:  1 eigenvalues not converged
     c_bands:  2 eigenvalues not converged
     ethr =  1.48E-07,  avg # of iterations = 19.8

     negative rho (up, down):  1.725E+02 2.943E-02

     total cpu time spent up to now is     1158.1 secs

     total energy              =   -4568.47839875 Ry
     estimated scf accuracy    <       0.00019831 Ry

     total magnetization       =    -0.00     0.00     0.01 Bohr mag/cell
     absolute magnetization    =    29.88 Bohr mag/cell

     iteration #114     ecut=    80.00 Ry     beta= 0.70
     Davidson diagonalization with overlap
     c_bands:  2 eigenvalues not converged
     c_bands:  1 eigenvalues not converged
     c_bands:  2 eigenvalues not converged
     c_bands:  5 eigenvalues not converged
     c_bands:  1 eigenvalues not converged
     c_bands:  2 eigenvalues not converged
     c_bands:  4 eigenvalues not converged
     c_bands:  3 eigenvalues not converged
     c_bands:  5 eigenvalues not converged
     c_bands:  3 eigenvalues not converged
     c_bands:  2 eigenvalues not converged
     c_bands:  3 eigenvalues not converged
     c_bands:  3 eigenvalues not converged
     ethr =  1.48E-07,  avg # of iterations = 19.5

     negative rho (up, down):  1.725E+02 2.944E-02

     total cpu time spent up to now is     1168.9 secs

     total energy              =   -4568.47853513 Ry
     estimated scf accuracy    <       0.00012824 Ry

     total magnetization       =     0.00    -0.00     0.08 Bohr mag/cell
     absolute magnetization    =    29.90 Bohr mag/cell

     iteration #115     ecut=    80.00 Ry     beta= 0.70
     Davidson diagonalization with overlap
     c_bands:  5 eigenvalues not converged
     c_bands:  2 eigenvalues not converged
     c_bands:  1 eigenvalues not converged
     c_bands:  1 eigenvalues not converged
     c_bands:  1 eigenvalues not converged
     ethr =  1.48E-07,  avg # of iterations = 20.2

     negative rho (up, down):  1.725E+02 2.944E-02

     total cpu time spent up to now is     1180.5 secs

     total energy              =   -4568.47744967 Ry
     estimated scf accuracy    <       0.00017860 Ry

     total magnetization       =    -0.00     0.00    -0.02 Bohr mag/cell
     absolute magnetization    =    29.90 Bohr mag/cell

     iteration #116     ecut=    80.00 Ry     beta= 0.70
     Davidson diagonalization with overlap
     c_bands:  1 eigenvalues not converged
     c_bands:  3 eigenvalues not converged
     c_bands:  2 eigenvalues not converged
     c_bands:  1 eigenvalues not converged
     c_bands:  1 eigenvalues not converged
     c_bands:  1 eigenvalues not converged
     c_bands:  1 eigenvalues not converged
     ethr =  1.48E-07,  avg # of iterations = 19.0

     negative rho (up, down):  1.725E+02 2.944E-02

     total cpu time spent up to now is     1191.7 secs

     total energy              =   -4568.47907398 Ry
     estimated scf accuracy    <       0.00014165 Ry

     total magnetization       =     0.00     0.00    -0.00 Bohr mag/cell
     absolute magnetization    =    29.88 Bohr mag/cell

     iteration #117     ecut=    80.00 Ry     beta= 0.70
     Davidson diagonalization with overlap
     c_bands:  5 eigenvalues not converged
     c_bands:  4 eigenvalues not converged
     c_bands:  5 eigenvalues not converged
     c_bands:  1 eigenvalues not converged
     c_bands:  5 eigenvalues not converged
     c_bands:  2 eigenvalues not converged
     c_bands:  3 eigenvalues not converged
     c_bands:  4 eigenvalues not converged
     c_bands:  4 eigenvalues not converged
     c_bands:  3 eigenvalues not converged
     c_bands:  3 eigenvalues not converged
     c_bands:  4 eigenvalues not converged
     c_bands:  4 eigenvalues not converged
     c_bands:  4 eigenvalues not converged
     ethr =  1.48E-07,  avg # of iterations = 21.5

     negative rho (up, down):  1.725E+02 2.944E-02

     total cpu time spent up to now is     1203.3 secs

     total energy              =   -4568.47810701 Ry
     estimated scf accuracy    <       0.00020343 Ry

     total magnetization       =    -0.00    -0.00     0.05 Bohr mag/cell
     absolute magnetization    =    29.93 Bohr mag/cell

     iteration #118     ecut=    80.00 Ry     beta= 0.70
     Davidson diagonalization with overlap
     c_bands:  2 eigenvalues not converged
     c_bands:  4 eigenvalues not converged
     c_bands:  1 eigenvalues not converged
     c_bands:  1 eigenvalues not converged
     c_bands:  3 eigenvalues not converged
     c_bands:  1 eigenvalues not converged
     c_bands:  2 eigenvalues not converged
     c_bands:  1 eigenvalues not converged
     c_bands:  5 eigenvalues not converged
     c_bands:  2 eigenvalues not converged
     c_bands:  2 eigenvalues not converged
     ethr =  1.48E-07,  avg # of iterations = 19.5

     negative rho (up, down):  1.725E+02 2.944E-02

     total cpu time spent up to now is     1214.3 secs

     total energy              =   -4568.47709087 Ry
     estimated scf accuracy    <       0.00019448 Ry

     total magnetization       =    -0.00    -0.00     0.07 Bohr mag/cell
     absolute magnetization    =    29.93 Bohr mag/cell

     iteration #119     ecut=    80.00 Ry     beta= 0.70
     Davidson diagonalization with overlap
     c_bands:  2 eigenvalues not converged
     c_bands:  4 eigenvalues not converged
     c_bands:  1 eigenvalues not converged
     c_bands:  4 eigenvalues not converged
     c_bands:  2 eigenvalues not converged
     ethr =  1.48E-07,  avg # of iterations = 19.1

     negative rho (up, down):  1.725E+02 2.944E-02

     total cpu time spent up to now is     1225.4 secs

     total energy              =   -4568.47975919 Ry
     estimated scf accuracy    <       0.00014756 Ry

     total magnetization       =    -0.00     0.00     0.15 Bohr mag/cell
     absolute magnetization    =    29.90 Bohr mag/cell

     iteration #120     ecut=    80.00 Ry     beta= 0.70
     Davidson diagonalization with overlap
     c_bands:  2 eigenvalues not converged
     c_bands:  1 eigenvalues not converged
     c_bands:  3 eigenvalues not converged
     c_bands:  1 eigenvalues not converged
     c_bands:  3 eigenvalues not converged
     ethr =  1.48E-07,  avg # of iterations = 17.4

     negative rho (up, down):  1.725E+02 2.944E-02

     total cpu time spent up to now is     1235.3 secs

     total energy              =   -4568.47999658 Ry
     estimated scf accuracy    <       0.00013558 Ry

     total magnetization       =     0.00    -0.00     0.07 Bohr mag/cell
     absolute magnetization    =    29.90 Bohr mag/cell

     iteration #121     ecut=    80.00 Ry     beta= 0.70
     Davidson diagonalization with overlap
     c_bands:  1 eigenvalues not converged
     c_bands:  1 eigenvalues not converged
     c_bands:  2 eigenvalues not converged
     c_bands:  2 eigenvalues not converged
     c_bands:  2 eigenvalues not converged
     c_bands:  1 eigenvalues not converged
     c_bands:  1 eigenvalues not converged
     c_bands:  3 eigenvalues not converged
     ethr =  1.48E-07,  avg # of iterations = 18.9

     negative rho (up, down):  1.725E+02 2.944E-02

     total cpu time spent up to now is     1245.5 secs

     total energy              =   -4568.47974065 Ry
     estimated scf accuracy    <       0.00016421 Ry

     total magnetization       =    -0.00     0.00     0.20 Bohr mag/cell
     absolute magnetization    =    29.92 Bohr mag/cell

     iteration #122     ecut=    80.00 Ry     beta= 0.70
     Davidson diagonalization with overlap
     c_bands:  1 eigenvalues not converged
     ethr =  1.48E-07,  avg # of iterations = 14.6

     negative rho (up, down):  1.725E+02 2.944E-02

     total cpu time spent up to now is     1254.8 secs

     total energy              =   -4568.48028802 Ry
     estimated scf accuracy    <       0.00008354 Ry

     total magnetization       =     0.00     0.00    -0.02 Bohr mag/cell
     absolute magnetization    =    29.84 Bohr mag/cell

     iteration #123     ecut=    80.00 Ry     beta= 0.70
     Davidson diagonalization with overlap
     c_bands:  2 eigenvalues not converged
     c_bands:  3 eigenvalues not converged
     c_bands:  2 eigenvalues not converged
     c_bands:  1 eigenvalues not converged
     c_bands:  4 eigenvalues not converged
     c_bands:  2 eigenvalues not converged
     c_bands:  4 eigenvalues not converged
     c_bands:  2 eigenvalues not converged
     c_bands:  4 eigenvalues not converged
     c_bands:  3 eigenvalues not converged
     ethr =  1.48E-07,  avg # of iterations = 18.9

     negative rho (up, down):  1.725E+02 2.944E-02

     total cpu time spent up to now is     1265.1 secs

     total energy              =   -4568.47826914 Ry
     estimated scf accuracy    <       0.00013778 Ry

     total magnetization       =    -0.00     0.00     0.10 Bohr mag/cell
     absolute magnetization    =    29.89 Bohr mag/cell

     iteration #124     ecut=    80.00 Ry     beta= 0.70
     Davidson diagonalization with overlap
     c_bands:  1 eigenvalues not converged
     c_bands:  5 eigenvalues not converged
     c_bands:  4 eigenvalues not converged
     c_bands:  1 eigenvalues not converged
     c_bands:  4 eigenvalues not converged
     c_bands:  2 eigenvalues not converged
     c_bands:  2 eigenvalues not converged
     c_bands:  2 eigenvalues not converged
     ethr =  1.48E-07,  avg # of iterations = 20.2

     negative rho (up, down):  1.725E+02 2.944E-02

     total cpu time spent up to now is     1276.6 secs

     total energy              =   -4568.47660657 Ry
     estimated scf accuracy    <       0.00019202 Ry

     total magnetization       =     0.00     0.00     0.01 Bohr mag/cell
     absolute magnetization    =    29.92 Bohr mag/cell

     iteration #125     ecut=    80.00 Ry     beta= 0.70
     Davidson diagonalization with overlap
     c_bands:  5 eigenvalues not converged
     c_bands:  2 eigenvalues not converged
     c_bands:  4 eigenvalues not converged
     c_bands:  2 eigenvalues not converged
     c_bands:  1 eigenvalues not converged
     c_bands:  4 eigenvalues not converged
     c_bands:  1 eigenvalues not converged
     ethr =  1.48E-07,  avg # of iterations = 21.1

     negative rho (up, down):  1.725E+02 2.944E-02

     total cpu time spent up to now is     1289.3 secs

     total energy              =   -4568.47913286 Ry
     estimated scf accuracy    <       0.00020394 Ry

     total magnetization       =    -0.00    -0.00     0.04 Bohr mag/cell
     absolute magnetization    =    29.91 Bohr mag/cell

     iteration #126     ecut=    80.00 Ry     beta= 0.70
     Davidson diagonalization with overlap
     c_bands:  3 eigenvalues not converged
     c_bands:  1 eigenvalues not converged
     c_bands:  1 eigenvalues not converged
     ethr =  1.48E-07,  avg # of iterations = 18.2

     negative rho (up, down):  1.725E+02 2.944E-02

     total cpu time spent up to now is     1300.2 secs

     total energy              =   -4568.47863598 Ry
     estimated scf accuracy    <       0.00020243 Ry

     total magnetization       =     0.00    -0.00    -0.03 Bohr mag/cell
     absolute magnetization    =    29.90 Bohr mag/cell

     iteration #127     ecut=    80.00 Ry     beta= 0.70
     Davidson diagonalization with overlap
     c_bands:  1 eigenvalues not converged
     c_bands:  1 eigenvalues not converged
     c_bands:  1 eigenvalues not converged
     c_bands:  1 eigenvalues not converged
     c_bands:  3 eigenvalues not converged
     ethr =  1.48E-07,  avg # of iterations = 19.0

     negative rho (up, down):  1.725E+02 2.941E-02

     total cpu time spent up to now is     1311.2 secs

     total energy              =   -4568.47786107 Ry
     estimated scf accuracy    <       0.00014760 Ry

     total magnetization       =    -0.00    -0.00     0.07 Bohr mag/cell
     absolute magnetization    =    29.90 Bohr mag/cell

     iteration #128     ecut=    80.00 Ry     beta= 0.70
     Davidson diagonalization with overlap
     c_bands:  2 eigenvalues not converged
     c_bands:  1 eigenvalues not converged
     c_bands:  2 eigenvalues not converged
     c_bands:  2 eigenvalues not converged
     c_bands:  1 eigenvalues not converged
     c_bands:  1 eigenvalues not converged
     c_bands:  1 eigenvalues not converged
     c_bands:  1 eigenvalues not converged
     c_bands:  2 eigenvalues not converged
     c_bands:  2 eigenvalues not converged
     c_bands:  2 eigenvalues not converged
     c_bands:  1 eigenvalues not converged
     c_bands:  1 eigenvalues not converged
     c_bands:  1 eigenvalues not converged
     c_bands:  1 eigenvalues not converged
     ethr =  1.48E-07,  avg # of iterations = 20.1

     negative rho (up, down):  1.725E+02 2.941E-02

     total cpu time spent up to now is     1322.5 secs

     total energy              =   -4568.47631522 Ry
     estimated scf accuracy    <       0.00030046 Ry

     total magnetization       =     0.00    -0.00    -0.00 Bohr mag/cell
     absolute magnetization    =    29.93 Bohr mag/cell

     iteration #129     ecut=    80.00 Ry     beta= 0.70
     Davidson diagonalization with overlap
     c_bands:  3 eigenvalues not converged
     c_bands:  4 eigenvalues not converged
     c_bands:  2 eigenvalues not converged
     c_bands:  4 eigenvalues not converged
     c_bands:  1 eigenvalues not converged
     c_bands:  1 eigenvalues not converged
     c_bands:  1 eigenvalues not converged
     c_bands:  1 eigenvalues not converged
     c_bands:  1 eigenvalues not converged
     c_bands:  1 eigenvalues not converged
     c_bands:  5 eigenvalues not converged
     c_bands:  1 eigenvalues not converged
     c_bands:  3 eigenvalues not converged
     c_bands:  1 eigenvalues not converged
     c_bands:  3 eigenvalues not converged
     c_bands:  1 eigenvalues not converged
     c_bands:  2 eigenvalues not converged
     c_bands:  1 eigenvalues not converged
     ethr =  1.48E-07,  avg # of iterations = 20.8

     negative rho (up, down):  1.725E+02 2.940E-02

     total cpu time spent up to now is     1334.3 secs

     total energy              =   -4568.47549671 Ry
     estimated scf accuracy    <       0.00026658 Ry

     total magnetization       =    -0.00     0.00     0.13 Bohr mag/cell
     absolute magnetization    =    29.95 Bohr mag/cell

     iteration #130     ecut=    80.00 Ry     beta= 0.70
     Davidson diagonalization with overlap
     c_bands:  1 eigenvalues not converged
     c_bands:  4 eigenvalues not converged
     c_bands:  2 eigenvalues not converged
     c_bands:  2 eigenvalues not converged
     c_bands:  3 eigenvalues not converged
     c_bands:  2 eigenvalues not converged
     c_bands:  2 eigenvalues not converged
     c_bands:  3 eigenvalues not converged
     c_bands:  5 eigenvalues not converged
     ethr =  1.48E-07,  avg # of iterations = 21.7

     negative rho (up, down):  1.725E+02 2.941E-02

     total cpu time spent up to now is     1346.7 secs

     total energy              =   -4568.47644656 Ry
     estimated scf accuracy    <       0.00016486 Ry

     total magnetization       =     0.00    -0.00     0.06 Bohr mag/cell
     absolute magnetization    =    29.91 Bohr mag/cell

     iteration #131     ecut=    80.00 Ry     beta= 0.70
     Davidson diagonalization with overlap
     c_bands:  1 eigenvalues not converged
     c_bands:  2 eigenvalues not converged
     c_bands:  3 eigenvalues not converged
     c_bands:  1 eigenvalues not converged
     c_bands:  2 eigenvalues not converged
     c_bands:  5 eigenvalues not converged
     ethr =  1.48E-07,  avg # of iterations = 19.2

     negative rho (up, down):  1.725E+02 2.940E-02

     total cpu time spent up to now is     1358.0 secs

     total energy              =   -4568.47832228 Ry
     estimated scf accuracy    <       0.00016406 Ry

     total magnetization       =    -0.00     0.00     0.20 Bohr mag/cell
     absolute magnetization    =    29.92 Bohr mag/cell

     iteration #132     ecut=    80.00 Ry     beta= 0.70
     Davidson diagonalization with overlap
     c_bands:  3 eigenvalues not converged
     c_bands:  2 eigenvalues not converged
     c_bands:  1 eigenvalues not converged
     c_bands:  4 eigenvalues not converged
     c_bands:  1 eigenvalues not converged
     c_bands:  4 eigenvalues not converged
     c_bands:  2 eigenvalues not converged
     c_bands:  1 eigenvalues not converged
     c_bands:  3 eigenvalues not converged
     c_bands:  4 eigenvalues not converged
     c_bands:  2 eigenvalues not converged
     ethr =  1.48E-07,  avg # of iterations = 18.9

     negative rho (up, down):  1.725E+02 2.940E-02

     total cpu time spent up to now is     1368.9 secs

     total energy              =   -4568.47737495 Ry
     estimated scf accuracy    <       0.00014380 Ry

     total magnetization       =    -0.00     0.00    -0.00 Bohr mag/cell
     absolute magnetization    =    29.89 Bohr mag/cell

     iteration #133     ecut=    80.00 Ry     beta= 0.70
     Davidson diagonalization with overlap
     c_bands:  2 eigenvalues not converged
     c_bands:  1 eigenvalues not converged
     c_bands:  4 eigenvalues not converged
     c_bands:  1 eigenvalues not converged
     c_bands:  4 eigenvalues not converged
     c_bands:  4 eigenvalues not converged
     c_bands:  3 eigenvalues not converged
     c_bands:  1 eigenvalues not converged
     c_bands:  2 eigenvalues not converged
     c_bands:  3 eigenvalues not converged
     c_bands:  3 eigenvalues not converged
     c_bands:  4 eigenvalues not converged
     c_bands:  3 eigenvalues not converged
     ethr =  1.48E-07,  avg # of iterations = 20.3

     negative rho (up, down):  1.725E+02 2.940E-02

     total cpu time spent up to now is     1380.6 secs

     total energy              =   -4568.47483851 Ry
     estimated scf accuracy    <       0.00020000 Ry

     total magnetization       =     0.00    -0.00     0.07 Bohr mag/cell
     absolute magnetization    =    29.93 Bohr mag/cell

     iteration #134     ecut=    80.00 Ry     beta= 0.70
     Davidson diagonalization with overlap
     c_bands:  2 eigenvalues not converged
     c_bands:  2 eigenvalues not converged
     c_bands:  2 eigenvalues not converged
     c_bands:  2 eigenvalues not converged
     c_bands:  1 eigenvalues not converged
     c_bands:  1 eigenvalues not converged
     c_bands:  3 eigenvalues not converged
     c_bands:  1 eigenvalues not converged
     c_bands:  3 eigenvalues not converged
     c_bands:  1 eigenvalues not converged
     c_bands:  3 eigenvalues not converged
     c_bands:  1 eigenvalues not converged
     c_bands:  1 eigenvalues not converged
     c_bands:  4 eigenvalues not converged
     c_bands:  1 eigenvalues not converged
     ethr =  1.48E-07,  avg # of iterations = 20.6

     negative rho (up, down):  1.725E+02 2.940E-02

     total cpu time spent up to now is     1392.6 secs

     total energy              =   -4568.47718620 Ry
     estimated scf accuracy    <       0.00026999 Ry

     total magnetization       =    -0.00     0.00     0.00 Bohr mag/cell
     absolute magnetization    =    29.92 Bohr mag/cell

     iteration #135     ecut=    80.00 Ry     beta= 0.70
     Davidson diagonalization with overlap
     c_bands:  3 eigenvalues not converged
     c_bands:  1 eigenvalues not converged
     c_bands:  2 eigenvalues not converged
     c_bands:  2 eigenvalues not converged
     c_bands:  2 eigenvalues not converged
     c_bands:  2 eigenvalues not converged
     ethr =  1.48E-07,  avg # of iterations = 18.6

     negative rho (up, down):  1.725E+02 2.943E-02

     total cpu time spent up to now is     1403.9 secs

     total energy              =   -4568.47752004 Ry
     estimated scf accuracy    <       0.00023340 Ry

     total magnetization       =    -0.00     0.00     0.00 Bohr mag/cell
     absolute magnetization    =    29.93 Bohr mag/cell

     iteration #136     ecut=    80.00 Ry     beta= 0.70
     Davidson diagonalization with overlap
     c_bands:  3 eigenvalues not converged
     c_bands:  1 eigenvalues not converged
     c_bands:  4 eigenvalues not converged
     c_bands:  2 eigenvalues not converged
     c_bands:  2 eigenvalues not converged
     c_bands:  2 eigenvalues not converged
     c_bands:  2 eigenvalues not converged
     c_bands:  1 eigenvalues not converged
     c_bands:  2 eigenvalues not converged
     c_bands:  1 eigenvalues not converged
     c_bands:  1 eigenvalues not converged
     c_bands:  4 eigenvalues not converged
     ethr =  1.48E-07,  avg # of iterations = 19.7

     negative rho (up, down):  1.725E+02 2.943E-02

     total cpu time spent up to now is     1414.9 secs

     total energy              =   -4568.47807166 Ry
     estimated scf accuracy    <       0.00022368 Ry

     total magnetization       =     0.00     0.00    -0.04 Bohr mag/cell
     absolute magnetization    =    29.92 Bohr mag/cell

     iteration #137     ecut=    80.00 Ry     beta= 0.70
     Davidson diagonalization with overlap
     c_bands:  3 eigenvalues not converged
     c_bands:  2 eigenvalues not converged
     c_bands:  2 eigenvalues not converged
     c_bands:  1 eigenvalues not converged
     c_bands:  3 eigenvalues not converged
     c_bands:  5 eigenvalues not converged
     c_bands:  4 eigenvalues not converged
     c_bands:  5 eigenvalues not converged
     c_bands:  2 eigenvalues not converged
     c_bands:  1 eigenvalues not converged
     c_bands:  1 eigenvalues not converged
     c_bands:  3 eigenvalues not converged
     c_bands:  3 eigenvalues not converged
     c_bands:  2 eigenvalues not converged
     ethr =  1.48E-07,  avg # of iterations = 19.8

     negative rho (up, down):  1.725E+02 2.943E-02

     total cpu time spent up to now is     1426.1 secs

     total energy              =   -4568.47843059 Ry
     estimated scf accuracy    <       0.00018660 Ry

     total magnetization       =     0.00     0.00     0.05 Bohr mag/cell
     absolute magnetization    =    29.90 Bohr mag/cell

     iteration #138     ecut=    80.00 Ry     beta= 0.70
     Davidson diagonalization with overlap
     c_bands:  5 eigenvalues not converged
     c_bands:  5 eigenvalues not converged
     c_bands:  4 eigenvalues not converged
     c_bands:  2 eigenvalues not converged
     c_bands:  3 eigenvalues not converged
     c_bands:  3 eigenvalues not converged
     c_bands:  4 eigenvalues not converged
     c_bands:  2 eigenvalues not converged
     c_bands:  1 eigenvalues not converged
     c_bands:  4 eigenvalues not converged
     c_bands:  2 eigenvalues not converged
     c_bands:  4 eigenvalues not converged
     c_bands:  2 eigenvalues not converged
     c_bands:  2 eigenvalues not converged
     c_bands:  3 eigenvalues not converged
     c_bands:  3 eigenvalues not converged
     c_bands:  2 eigenvalues not converged
     ethr =  1.48E-07,  avg # of iterations = 19.8

     negative rho (up, down):  1.725E+02 2.943E-02

     total cpu time spent up to now is     1437.3 secs

     total energy              =   -4568.47509859 Ry
     estimated scf accuracy    <       0.00040043 Ry

     total magnetization       =     0.00    -0.00     0.04 Bohr mag/cell
     absolute magnetization    =    29.95 Bohr mag/cell

     iteration #139     ecut=    80.00 Ry     beta= 0.70
     Davidson diagonalization with overlap
     c_bands:  2 eigenvalues not converged
     c_bands:  2 eigenvalues not converged
     c_bands:  3 eigenvalues not converged
     c_bands:  4 eigenvalues not converged
     c_bands:  1 eigenvalues not converged
     c_bands:  1 eigenvalues not converged
     c_bands:  2 eigenvalues not converged
     c_bands:  3 eigenvalues not converged
     c_bands:  3 eigenvalues not converged
     c_bands:  1 eigenvalues not converged
     c_bands:  3 eigenvalues not converged
     c_bands:  5 eigenvalues not converged
     c_bands:  2 eigenvalues not converged
     c_bands:  2 eigenvalues not converged
     c_bands:  2 eigenvalues not converged
     c_bands:  2 eigenvalues not converged
     c_bands:  1 eigenvalues not converged
     ethr =  1.48E-07,  avg # of iterations = 20.2

     negative rho (up, down):  1.725E+02 2.943E-02

     total cpu time spent up to now is     1448.8 secs

     total energy              =   -4568.47698752 Ry
     estimated scf accuracy    <       0.00022958 Ry

     total magnetization       =    -0.00     0.00     0.08 Bohr mag/cell
     absolute magnetization    =    29.95 Bohr mag/cell

     iteration #140     ecut=    80.00 Ry     beta= 0.70
     Davidson diagonalization with overlap
     c_bands:  1 eigenvalues not converged
     c_bands:  1 eigenvalues not converged
     c_bands:  1 eigenvalues not converged
     c_bands:  1 eigenvalues not converged
     c_bands:  1 eigenvalues not converged
     c_bands:  1 eigenvalues not converged
     c_bands:  1 eigenvalues not converged
     c_bands:  1 eigenvalues not converged
     c_bands:  2 eigenvalues not converged
     ethr =  1.48E-07,  avg # of iterations = 19.6

     negative rho (up, down):  1.725E+02 2.943E-02

     total cpu time spent up to now is     1460.1 secs

     total energy              =   -4568.47792943 Ry
     estimated scf accuracy    <       0.00016093 Ry

     total magnetization       =     0.00    -0.00     0.05 Bohr mag/cell
     absolute magnetization    =    29.88 Bohr mag/cell

     iteration #141     ecut=    80.00 Ry     beta= 0.70
     Davidson diagonalization with overlap
     c_bands:  5 eigenvalues not converged
     c_bands:  1 eigenvalues not converged
     ethr =  1.48E-07,  avg # of iterations = 18.5

     negative rho (up, down):  1.725E+02 2.943E-02

     total cpu time spent up to now is     1471.0 secs

     total energy              =   -4568.47877774 Ry
     estimated scf accuracy    <       0.00022603 Ry

     total magnetization       =     0.00     0.00     0.18 Bohr mag/cell
     absolute magnetization    =    29.92 Bohr mag/cell

     iteration #142     ecut=    80.00 Ry     beta= 0.70
     Davidson diagonalization with overlap
     c_bands:  1 eigenvalues not converged
     c_bands:  1 eigenvalues not converged
     c_bands:  1 eigenvalues not converged
     ethr =  1.48E-07,  avg # of iterations = 17.5

     negative rho (up, down):  1.725E+02 2.943E-02

     total cpu time spent up to now is     1481.1 secs

     total energy              =   -4568.47884472 Ry
     estimated scf accuracy    <       0.00010798 Ry

     total magnetization       =     0.00    -0.00     0.12 Bohr mag/cell
     absolute magnetization    =    29.87 Bohr mag/cell

     iteration #143     ecut=    80.00 Ry     beta= 0.70
     Davidson diagonalization with overlap
     c_bands:  1 eigenvalues not converged
     c_bands:  1 eigenvalues not converged
     c_bands:  2 eigenvalues not converged
     c_bands:  1 eigenvalues not converged
     c_bands:  1 eigenvalues not converged
     c_bands:  1 eigenvalues not converged
     c_bands:  1 eigenvalues not converged
     c_bands:  1 eigenvalues not converged
     ethr =  1.48E-07,  avg # of iterations = 19.0

     negative rho (up, down):  1.725E+02 2.943E-02

     total cpu time spent up to now is     1492.0 secs

     total energy              =   -4568.47852729 Ry
     estimated scf accuracy    <       0.00022139 Ry

     total magnetization       =    -0.00    -0.00    -0.04 Bohr mag/cell
     absolute magnetization    =    29.92 Bohr mag/cell

     iteration #144     ecut=    80.00 Ry     beta= 0.70
     Davidson diagonalization with overlap
     c_bands:  1 eigenvalues not converged
     c_bands:  2 eigenvalues not converged
     c_bands:  2 eigenvalues not converged
     c_bands:  2 eigenvalues not converged
     c_bands:  1 eigenvalues not converged
     c_bands:  1 eigenvalues not converged
     c_bands:  2 eigenvalues not converged
     c_bands:  2 eigenvalues not converged
     c_bands:  1 eigenvalues not converged
     c_bands:  1 eigenvalues not converged
     c_bands:  2 eigenvalues not converged
     ethr =  1.48E-07,  avg # of iterations = 19.9

     negative rho (up, down):  1.725E+02 2.943E-02

     total cpu time spent up to now is     1502.9 secs

     total energy              =   -4568.48104498 Ry
     estimated scf accuracy    <       0.00028869 Ry

     total magnetization       =    -0.00     0.00     0.09 Bohr mag/cell
     absolute magnetization    =    29.94 Bohr mag/cell

     iteration #145     ecut=    80.00 Ry     beta= 0.70
     Davidson diagonalization with overlap
     c_bands:  1 eigenvalues not converged
     c_bands:  1 eigenvalues not converged
     c_bands:  3 eigenvalues not converged
     c_bands:  1 eigenvalues not converged
     c_bands:  1 eigenvalues not converged
     c_bands:  2 eigenvalues not converged
     c_bands:  3 eigenvalues not converged
     ethr =  1.48E-07,  avg # of iterations = 18.4

     negative rho (up, down):  1.725E+02 2.943E-02

     total cpu time spent up to now is     1513.2 secs

     total energy              =   -4568.47716993 Ry
     estimated scf accuracy    <       0.00016694 Ry

     total magnetization       =    -0.00    -0.00     0.06 Bohr mag/cell
     absolute magnetization    =    29.91 Bohr mag/cell

     iteration #146     ecut=    80.00 Ry     beta= 0.70
     Davidson diagonalization with overlap
     c_bands:  1 eigenvalues not converged
     c_bands:  1 eigenvalues not converged
     c_bands:  4 eigenvalues not converged
     c_bands:  1 eigenvalues not converged
     c_bands:  1 eigenvalues not converged
     c_bands:  3 eigenvalues not converged
     c_bands:  2 eigenvalues not converged
     c_bands:  1 eigenvalues not converged
     c_bands:  2 eigenvalues not converged
     c_bands:  2 eigenvalues not converged
     c_bands:  3 eigenvalues not converged
     c_bands:  1 eigenvalues not converged
     c_bands:  2 eigenvalues not converged
     c_bands:  2 eigenvalues not converged
     ethr =  1.48E-07,  avg # of iterations = 19.6

     negative rho (up, down):  1.725E+02 2.940E-02

     total cpu time spent up to now is     1524.4 secs

     total energy              =   -4568.47827348 Ry
     estimated scf accuracy    <       0.00026259 Ry

     total magnetization       =     0.00     0.00    -0.02 Bohr mag/cell
     absolute magnetization    =    29.96 Bohr mag/cell

     iteration #147     ecut=    80.00 Ry     beta= 0.70
     Davidson diagonalization with overlap
     c_bands:  3 eigenvalues not converged
     c_bands:  1 eigenvalues not converged
     c_bands:  1 eigenvalues not converged
     c_bands:  1 eigenvalues not converged
     c_bands:  2 eigenvalues not converged
     c_bands:  3 eigenvalues not converged
     c_bands:  1 eigenvalues not converged
     c_bands:  2 eigenvalues not converged
     c_bands:  1 eigenvalues not converged
     c_bands:  1 eigenvalues not converged
     c_bands:  1 eigenvalues not converged
     c_bands:  1 eigenvalues not converged
     c_bands:  3 eigenvalues not converged
     c_bands:  1 eigenvalues not converged
     ethr =  1.48E-07,  avg # of iterations = 19.4

     negative rho (up, down):  1.725E+02 2.944E-02

     total cpu time spent up to now is     1535.5 secs

     total energy              =   -4568.47729536 Ry
     estimated scf accuracy    <       0.00030325 Ry

     total magnetization       =     0.00     0.00    -0.04 Bohr mag/cell
     absolute magnetization    =    29.94 Bohr mag/cell

     iteration #148     ecut=    80.00 Ry     beta= 0.70
     Davidson diagonalization with overlap
     c_bands:  2 eigenvalues not converged
     c_bands:  1 eigenvalues not converged
     c_bands:  1 eigenvalues not converged
     c_bands:  4 eigenvalues not converged
     c_bands:  1 eigenvalues not converged
     c_bands:  2 eigenvalues not converged
     ethr =  1.48E-07,  avg # of iterations = 19.4

     negative rho (up, down):  1.725E+02 2.943E-02

     total cpu time spent up to now is     1547.1 secs

     total energy              =   -4568.47435292 Ry
     estimated scf accuracy    <       0.00031814 Ry

     total magnetization       =    -0.00     0.00     0.14 Bohr mag/cell
     absolute magnetization    =    29.95 Bohr mag/cell

     iteration #149     ecut=    80.00 Ry     beta= 0.70
     Davidson diagonalization with overlap
     c_bands:  5 eigenvalues not converged
     c_bands:  2 eigenvalues not converged
     c_bands:  5 eigenvalues not converged
     c_bands:  4 eigenvalues not converged
     c_bands:  3 eigenvalues not converged
     c_bands:  5 eigenvalues not converged
     c_bands:  1 eigenvalues not converged
     c_bands:  4 eigenvalues not converged
     c_bands:  2 eigenvalues not converged
     c_bands:  5 eigenvalues not converged
     c_bands:  2 eigenvalues not converged
     c_bands:  2 eigenvalues not converged
     c_bands:  3 eigenvalues not converged
     c_bands:  3 eigenvalues not converged
     c_bands:  2 eigenvalues not converged
     c_bands:  3 eigenvalues not converged
     c_bands:  2 eigenvalues not converged
     c_bands:  4 eigenvalues not converged
     ethr =  1.48E-07,  avg # of iterations = 20.2

     negative rho (up, down):  1.725E+02 2.944E-02

     total cpu time spent up to now is     1559.0 secs

     total energy              =   -4568.47592298 Ry
     estimated scf accuracy    <       0.00026017 Ry

     total magnetization       =     0.00     0.00     0.04 Bohr mag/cell
     absolute magnetization    =    29.93 Bohr mag/cell

     iteration #150     ecut=    80.00 Ry     beta= 0.70
     Davidson diagonalization with overlap
     c_bands:  5 eigenvalues not converged
     c_bands:  1 eigenvalues not converged
     c_bands:  1 eigenvalues not converged
     c_bands:  1 eigenvalues not converged
     c_bands:  4 eigenvalues not converged
     c_bands:  4 eigenvalues not converged
     c_bands:  1 eigenvalues not converged
     c_bands:  1 eigenvalues not converged
     ethr =  1.48E-07,  avg # of iterations = 19.7

     negative rho (up, down):  1.725E+02 2.941E-02

     total cpu time spent up to now is     1570.3 secs

     total energy              =   -4568.47782625 Ry
     estimated scf accuracy    <       0.00024068 Ry

     total magnetization       =    -0.00    -0.00     0.14 Bohr mag/cell
     absolute magnetization    =    29.95 Bohr mag/cell

     iteration #151     ecut=    80.00 Ry     beta= 0.70
     Davidson diagonalization with overlap
     c_bands:  3 eigenvalues not converged
     c_bands:  3 eigenvalues not converged
     c_bands:  3 eigenvalues not converged
     c_bands:  5 eigenvalues not converged
     c_bands:  3 eigenvalues not converged
     c_bands:  2 eigenvalues not converged
     c_bands:  2 eigenvalues not converged
     c_bands:  1 eigenvalues not converged
     c_bands:  3 eigenvalues not converged
     c_bands:  4 eigenvalues not converged
     c_bands:  3 eigenvalues not converged
     c_bands:  1 eigenvalues not converged
     c_bands:  4 eigenvalues not converged
     c_bands:  4 eigenvalues not converged
     ethr =  1.48E-07,  avg # of iterations = 20.1

     negative rho (up, down):  1.725E+02 2.940E-02

     total cpu time spent up to now is     1581.6 secs

     total energy              =   -4568.47544702 Ry
     estimated scf accuracy    <       0.00025247 Ry

     total magnetization       =     0.00     0.00    -0.00 Bohr mag/cell
     absolute magnetization    =    29.91 Bohr mag/cell

     iteration #152     ecut=    80.00 Ry     beta= 0.70
     Davidson diagonalization with overlap
     c_bands:  3 eigenvalues not converged
     c_bands:  1 eigenvalues not converged
     c_bands:  3 eigenvalues not converged
     c_bands:  3 eigenvalues not converged
     c_bands:  4 eigenvalues not converged
     c_bands:  1 eigenvalues not converged
     c_bands:  3 eigenvalues not converged
     c_bands:  4 eigenvalues not converged
     c_bands:  2 eigenvalues not converged
     c_bands:  2 eigenvalues not converged
     c_bands:  4 eigenvalues not converged
     c_bands:  4 eigenvalues not converged
     c_bands:  3 eigenvalues not converged
     c_bands:  1 eigenvalues not converged
     c_bands:  3 eigenvalues not converged
     c_bands:  3 eigenvalues not converged
     ethr =  1.48E-07,  avg # of iterations = 20.3

     negative rho (up, down):  1.725E+02 2.943E-02

     total cpu time spent up to now is     1593.3 secs

     total energy              =   -4568.47362011 Ry
     estimated scf accuracy    <       0.00037749 Ry

     total magnetization       =    -0.00    -0.00     0.17 Bohr mag/cell
     absolute magnetization    =    29.97 Bohr mag/cell

     iteration #153     ecut=    80.00 Ry     beta= 0.70
     Davidson diagonalization with overlap
     c_bands:  5 eigenvalues not converged
     c_bands:  4 eigenvalues not converged
     c_bands:  1 eigenvalues not converged
     c_bands:  2 eigenvalues not converged
     c_bands:  1 eigenvalues not converged
     c_bands:  2 eigenvalues not converged
     c_bands:  5 eigenvalues not converged
     c_bands:  1 eigenvalues not converged
     c_bands:  2 eigenvalues not converged
     c_bands:  2 eigenvalues not converged
     ethr =  1.48E-07,  avg # of iterations = 20.9

     negative rho (up, down):  1.725E+02 2.944E-02

     total cpu time spent up to now is     1605.4 secs

     total energy              =   -4568.47765347 Ry
     estimated scf accuracy    <       0.00018385 Ry

     total magnetization       =     0.00     0.00    -0.02 Bohr mag/cell
     absolute magnetization    =    29.91 Bohr mag/cell

     iteration #154     ecut=    80.00 Ry     beta= 0.70
     Davidson diagonalization with overlap
     c_bands:  5 eigenvalues not converged
     c_bands:  4 eigenvalues not converged
     c_bands:  4 eigenvalues not converged
     c_bands:  1 eigenvalues not converged
     c_bands:  4 eigenvalues not converged
     c_bands:  5 eigenvalues not converged
     c_bands:  1 eigenvalues not converged
     ethr =  1.48E-07,  avg # of iterations = 19.3

     negative rho (up, down):  1.725E+02 2.944E-02

     total cpu time spent up to now is     1616.4 secs

     total energy              =   -4568.47905938 Ry
     estimated scf accuracy    <       0.00011320 Ry

     total magnetization       =     0.00    -0.00     0.06 Bohr mag/cell
     absolute magnetization    =    29.85 Bohr mag/cell

     iteration #155     ecut=    80.00 Ry     beta= 0.70
     Davidson diagonalization with overlap
     c_bands:  4 eigenvalues not converged
     c_bands:  1 eigenvalues not converged
     c_bands:  2 eigenvalues not converged
     c_bands:  1 eigenvalues not converged
     c_bands:  1 eigenvalues not converged
     c_bands:  1 eigenvalues not converged
     c_bands:  3 eigenvalues not converged
     c_bands:  1 eigenvalues not converged
     c_bands:  4 eigenvalues not converged
     ethr =  1.48E-07,  avg # of iterations = 19.4

     negative rho (up, down):  1.725E+02 2.944E-02

     total cpu time spent up to now is     1627.6 secs

     total energy              =   -4568.47591859 Ry
     estimated scf accuracy    <       0.00021814 Ry

     total magnetization       =     0.00    -0.00     0.04 Bohr mag/cell
     absolute magnetization    =    29.95 Bohr mag/cell

     iteration #156     ecut=    80.00 Ry     beta= 0.70
     Davidson diagonalization with overlap
     c_bands:  1 eigenvalues not converged
     c_bands:  5 eigenvalues not converged
     c_bands:  2 eigenvalues not converged
     c_bands:  1 eigenvalues not converged
     c_bands:  2 eigenvalues not converged
     c_bands:  3 eigenvalues not converged
     c_bands:  1 eigenvalues not converged
     c_bands:  1 eigenvalues not converged
     c_bands:  1 eigenvalues not converged
     c_bands:  2 eigenvalues not converged
     c_bands:  3 eigenvalues not converged
     c_bands:  1 eigenvalues not converged
     c_bands:  1 eigenvalues not converged
     c_bands:  1 eigenvalues not converged
     ethr =  1.48E-07,  avg # of iterations = 20.1

     negative rho (up, down):  1.725E+02 2.943E-02

     total cpu time spent up to now is     1639.4 secs

     total energy              =   -4568.47702807 Ry
     estimated scf accuracy    <       0.00032571 Ry

     total magnetization       =     0.00    -0.00     0.01 Bohr mag/cell
     absolute magnetization    =    29.97 Bohr mag/cell

     iteration #157     ecut=    80.00 Ry     beta= 0.70
     Davidson diagonalization with overlap
     c_bands:  4 eigenvalues not converged
     c_bands:  3 eigenvalues not converged
     c_bands:  1 eigenvalues not converged
     c_bands:  1 eigenvalues not converged
     c_bands:  2 eigenvalues not converged
     c_bands:  2 eigenvalues not converged
     c_bands:  2 eigenvalues not converged
     c_bands:  3 eigenvalues not converged
     c_bands:  4 eigenvalues not converged
     c_bands:  3 eigenvalues not converged
     c_bands:  1 eigenvalues not converged
     ethr =  1.48E-07,  avg # of iterations = 20.4

     negative rho (up, down):  1.725E+02 2.944E-02

     total cpu time spent up to now is     1651.4 secs

     total energy              =   -4568.47454693 Ry
     estimated scf accuracy    <       0.00053925 Ry

     total magnetization       =    -0.00     0.00    -0.16 Bohr mag/cell
     absolute magnetization    =    30.04 Bohr mag/cell

     iteration #158     ecut=    80.00 Ry     beta= 0.70
     Davidson diagonalization with overlap
     c_bands:  3 eigenvalues not converged
     c_bands:  3 eigenvalues not converged
     c_bands:  3 eigenvalues not converged
     c_bands:  3 eigenvalues not converged
     c_bands:  4 eigenvalues not converged
     c_bands:  5 eigenvalues not converged
     c_bands:  2 eigenvalues not converged
     c_bands:  1 eigenvalues not converged
     c_bands:  1 eigenvalues not converged
     c_bands:  2 eigenvalues not converged
     c_bands:  2 eigenvalues not converged
     c_bands:  4 eigenvalues not converged
     c_bands:  2 eigenvalues not converged
     c_bands:  1 eigenvalues not converged
     c_bands:  3 eigenvalues not converged
     c_bands:  2 eigenvalues not converged
     c_bands:  2 eigenvalues not converged
     c_bands:  2 eigenvalues not converged
     c_bands:  1 eigenvalues not converged
     ethr =  1.48E-07,  avg # of iterations = 20.1

     negative rho (up, down):  1.725E+02 2.943E-02

     total cpu time spent up to now is     1663.2 secs

     total energy              =   -4568.47514187 Ry
     estimated scf accuracy    <       0.00035880 Ry

     total magnetization       =    -0.00     0.00     0.06 Bohr mag/cell
     absolute magnetization    =    29.95 Bohr mag/cell

     iteration #159     ecut=    80.00 Ry     beta= 0.70
     Davidson diagonalization with overlap
     c_bands:  4 eigenvalues not converged
     c_bands:  1 eigenvalues not converged
     c_bands:  5 eigenvalues not converged
     c_bands:  2 eigenvalues not converged
     c_bands:  2 eigenvalues not converged
     c_bands:  2 eigenvalues not converged
     c_bands:  2 eigenvalues not converged
     c_bands:  1 eigenvalues not converged
     c_bands:  1 eigenvalues not converged
     c_bands:  1 eigenvalues not converged
     c_bands:  1 eigenvalues not converged
     c_bands:  1 eigenvalues not converged
     ethr =  1.48E-07,  avg # of iterations = 19.6

     negative rho (up, down):  1.725E+02 2.944E-02

     total cpu time spent up to now is     1674.3 secs

     total energy              =   -4568.47932090 Ry
     estimated scf accuracy    <       0.00015848 Ry

     total magnetization       =    -0.00    -0.00     0.09 Bohr mag/cell
     absolute magnetization    =    29.90 Bohr mag/cell

     iteration #160     ecut=    80.00 Ry     beta= 0.70
     Davidson diagonalization with overlap
     c_bands:  2 eigenvalues not converged
     c_bands:  2 eigenvalues not converged
     ethr =  1.48E-07,  avg # of iterations = 17.4

     negative rho (up, down):  1.725E+02 2.944E-02

     total cpu time spent up to now is     1684.5 secs

     total energy              =   -4568.47665538 Ry
     estimated scf accuracy    <       0.00014793 Ry

     total magnetization       =     0.00     0.00     0.08 Bohr mag/cell
     absolute magnetization    =    29.90 Bohr mag/cell

     iteration #161     ecut=    80.00 Ry     beta= 0.70
     Davidson diagonalization with overlap
     c_bands:  2 eigenvalues not converged
     c_bands:  1 eigenvalues not converged
     c_bands:  1 eigenvalues not converged
     c_bands:  2 eigenvalues not converged
     c_bands:  1 eigenvalues not converged
     ethr =  1.48E-07,  avg # of iterations = 19.3

     negative rho (up, down):  1.725E+02 2.941E-02

     total cpu time spent up to now is     1695.8 secs

     total energy              =   -4568.47889983 Ry
     estimated scf accuracy    <       0.00021817 Ry

     total magnetization       =     0.00     0.00     0.07 Bohr mag/cell
     absolute magnetization    =    29.90 Bohr mag/cell

     iteration #162     ecut=    80.00 Ry     beta= 0.70
     Davidson diagonalization with overlap
     c_bands:  4 eigenvalues not converged
     c_bands:  2 eigenvalues not converged
     c_bands:  2 eigenvalues not converged
     c_bands:  1 eigenvalues not converged
     c_bands:  3 eigenvalues not converged
     c_bands:  2 eigenvalues not converged
     c_bands:  3 eigenvalues not converged
     ethr =  1.48E-07,  avg # of iterations = 19.5

     negative rho (up, down):  1.725E+02 2.944E-02

     total cpu time spent up to now is     1706.6 secs

     total energy              =   -4568.47792298 Ry
     estimated scf accuracy    <       0.00019619 Ry

     total magnetization       =    -0.00    -0.00     0.10 Bohr mag/cell
     absolute magnetization    =    29.92 Bohr mag/cell

     iteration #163     ecut=    80.00 Ry     beta= 0.70
     Davidson diagonalization with overlap
     c_bands:  5 eigenvalues not converged
     c_bands:  3 eigenvalues not converged
     c_bands:  5 eigenvalues not converged
     c_bands:  3 eigenvalues not converged
     c_bands:  1 eigenvalues not converged
     c_bands:  2 eigenvalues not converged
     c_bands:  4 eigenvalues not converged
     c_bands:  2 eigenvalues not converged
     c_bands:  3 eigenvalues not converged
     c_bands:  2 eigenvalues not converged
     c_bands:  2 eigenvalues not converged
     ethr =  1.48E-07,  avg # of iterations = 20.6

     negative rho (up, down):  1.725E+02 2.944E-02

     total cpu time spent up to now is     1718.7 secs

     total energy              =   -4568.47807411 Ry
     estimated scf accuracy    <       0.00018052 Ry

     total magnetization       =    -0.00    -0.00     0.05 Bohr mag/cell
     absolute magnetization    =    29.92 Bohr mag/cell

     iteration #164     ecut=    80.00 Ry     beta= 0.70
     Davidson diagonalization with overlap
     c_bands:  3 eigenvalues not converged
     c_bands:  5 eigenvalues not converged
     c_bands:  1 eigenvalues not converged
     c_bands:  1 eigenvalues not converged
     c_bands:  3 eigenvalues not converged
     c_bands:  4 eigenvalues not converged
     c_bands:  1 eigenvalues not converged
     c_bands:  2 eigenvalues not converged
     ethr =  1.48E-07,  avg # of iterations = 20.9

     negative rho (up, down):  1.725E+02 2.946E-02

     total cpu time spent up to now is     1730.9 secs

     total energy              =   -4568.47700249 Ry
     estimated scf accuracy    <       0.00019916 Ry

     total magnetization       =     0.00    -0.00     0.09 Bohr mag/cell
     absolute magnetization    =    29.93 Bohr mag/cell

     iteration #165     ecut=    80.00 Ry     beta= 0.70
     Davidson diagonalization with overlap
     c_bands:  3 eigenvalues not converged
     c_bands:  3 eigenvalues not converged
     c_bands:  1 eigenvalues not converged
     c_bands:  3 eigenvalues not converged
     c_bands:  4 eigenvalues not converged
     c_bands:  4 eigenvalues not converged
     c_bands:  5 eigenvalues not converged
     c_bands:  2 eigenvalues not converged
     c_bands:  1 eigenvalues not converged
     c_bands:  3 eigenvalues not converged
     c_bands:  2 eigenvalues not converged
     ethr =  1.48E-07,  avg # of iterations = 20.6

     negative rho (up, down):  1.725E+02 2.944E-02

     total cpu time spent up to now is     1742.8 secs

     total energy              =   -4568.47824070 Ry
     estimated scf accuracy    <       0.00018627 Ry

     total magnetization       =    -0.00     0.00     0.03 Bohr mag/cell
     absolute magnetization    =    29.93 Bohr mag/cell

     iteration #166     ecut=    80.00 Ry     beta= 0.70
     Davidson diagonalization with overlap
     c_bands:  1 eigenvalues not converged
     c_bands:  1 eigenvalues not converged
     c_bands:  2 eigenvalues not converged
     ethr =  1.48E-07,  avg # of iterations = 18.9

     negative rho (up, down):  1.725E+02 2.944E-02

     total cpu time spent up to now is     1753.7 secs

     total energy              =   -4568.47872056 Ry
     estimated scf accuracy    <       0.00020051 Ry

     total magnetization       =    -0.00     0.00     0.07 Bohr mag/cell
     absolute magnetization    =    29.93 Bohr mag/cell

     iteration #167     ecut=    80.00 Ry     beta= 0.70
     Davidson diagonalization with overlap
     c_bands:  1 eigenvalues not converged
     c_bands:  3 eigenvalues not converged
     c_bands:  1 eigenvalues not converged
     c_bands:  1 eigenvalues not converged
     c_bands:  2 eigenvalues not converged
     c_bands:  1 eigenvalues not converged
     c_bands:  2 eigenvalues not converged
     c_bands:  3 eigenvalues not converged
     ethr =  1.48E-07,  avg # of iterations = 20.2

     negative rho (up, down):  1.725E+02 2.944E-02

     total cpu time spent up to now is     1765.0 secs

     total energy              =   -4568.47799134 Ry
     estimated scf accuracy    <       0.00021287 Ry

     total magnetization       =    -0.00     0.00    -0.11 Bohr mag/cell
     absolute magnetization    =    29.94 Bohr mag/cell

     iteration #168     ecut=    80.00 Ry     beta= 0.70
     Davidson diagonalization with overlap
     c_bands:  2 eigenvalues not converged
     c_bands:  1 eigenvalues not converged
     c_bands:  1 eigenvalues not converged
     c_bands:  3 eigenvalues not converged
     c_bands:  1 eigenvalues not converged
     c_bands:  1 eigenvalues not converged
     c_bands:  1 eigenvalues not converged
     c_bands:  1 eigenvalues not converged
     c_bands:  1 eigenvalues not converged
     ethr =  1.48E-07,  avg # of iterations = 19.1

     negative rho (up, down):  1.725E+02 2.943E-02

     total cpu time spent up to now is     1775.8 secs

     total energy              =   -4568.47710328 Ry
     estimated scf accuracy    <       0.00020148 Ry

     total magnetization       =     0.00     0.00     0.11 Bohr mag/cell
     absolute magnetization    =    29.92 Bohr mag/cell

     iteration #169     ecut=    80.00 Ry     beta= 0.70
     Davidson diagonalization with overlap
     c_bands:  3 eigenvalues not converged
     c_bands:  5 eigenvalues not converged
     c_bands:  2 eigenvalues not converged
     c_bands:  2 eigenvalues not converged
     c_bands:  4 eigenvalues not converged
     c_bands:  3 eigenvalues not converged
     c_bands:  2 eigenvalues not converged
     ethr =  1.48E-07,  avg # of iterations = 18.8

     negative rho (up, down):  1.725E+02 2.943E-02

     total cpu time spent up to now is     1786.4 secs

     total energy              =   -4568.47816268 Ry
     estimated scf accuracy    <       0.00013925 Ry

     total magnetization       =     0.00    -0.00     0.09 Bohr mag/cell
     absolute magnetization    =    29.89 Bohr mag/cell

     iteration #170     ecut=    80.00 Ry     beta= 0.70
     Davidson diagonalization with overlap
     c_bands:  1 eigenvalues not converged
     c_bands:  2 eigenvalues not converged
     c_bands:  5 eigenvalues not converged
     c_bands:  2 eigenvalues not converged
     c_bands:  2 eigenvalues not converged
     c_bands:  3 eigenvalues not converged
     c_bands:  2 eigenvalues not converged
     c_bands:  5 eigenvalues not converged
     c_bands:  1 eigenvalues not converged
     c_bands:  2 eigenvalues not converged
     c_bands:  2 eigenvalues not converged
     c_bands:  1 eigenvalues not converged
     c_bands:  1 eigenvalues not converged
     c_bands:  3 eigenvalues not converged
     ethr =  1.48E-07,  avg # of iterations = 19.8

     negative rho (up, down):  1.725E+02 2.943E-02

     total cpu time spent up to now is     1797.2 secs

     total energy              =   -4568.47913350 Ry
     estimated scf accuracy    <       0.00014533 Ry

     total magnetization       =    -0.00     0.00     0.05 Bohr mag/cell
     absolute magnetization    =    29.89 Bohr mag/cell

     iteration #171     ecut=    80.00 Ry     beta= 0.70
     Davidson diagonalization with overlap
     c_bands:  3 eigenvalues not converged
     c_bands:  2 eigenvalues not converged
     c_bands:  2 eigenvalues not converged
     c_bands:  1 eigenvalues not converged
     c_bands:  2 eigenvalues not converged
     c_bands:  1 eigenvalues not converged
     ethr =  1.48E-07,  avg # of iterations = 18.2

     negative rho (up, down):  1.725E+02 2.943E-02

     total cpu time spent up to now is     1807.3 secs

     total energy              =   -4568.48031341 Ry
     estimated scf accuracy    <       0.00010827 Ry

     total magnetization       =    -0.00    -0.00     0.05 Bohr mag/cell
     absolute magnetization    =    29.86 Bohr mag/cell

     iteration #172     ecut=    80.00 Ry     beta= 0.70
     Davidson diagonalization with overlap
     c_bands:  2 eigenvalues not converged
     c_bands:  2 eigenvalues not converged
     c_bands:  2 eigenvalues not converged
     c_bands:  3 eigenvalues not converged
     c_bands:  1 eigenvalues not converged
     c_bands:  2 eigenvalues not converged
     c_bands:  2 eigenvalues not converged
     c_bands:  3 eigenvalues not converged
     c_bands:  1 eigenvalues not converged
     c_bands:  4 eigenvalues not converged
     c_bands:  2 eigenvalues not converged
     c_bands:  3 eigenvalues not converged
     c_bands:  2 eigenvalues not converged
     c_bands:  5 eigenvalues not converged
     c_bands:  2 eigenvalues not converged
     c_bands:  1 eigenvalues not converged
     c_bands:  4 eigenvalues not converged
     c_bands:  3 eigenvalues not converged
     c_bands:  2 eigenvalues not converged
     ethr =  1.48E-07,  avg # of iterations = 19.8

     negative rho (up, down):  1.725E+02 2.943E-02

     total cpu time spent up to now is     1817.9 secs

     total energy              =   -4568.47540084 Ry
     estimated scf accuracy    <       0.00030887 Ry

     total magnetization       =    -0.00     0.00     0.16 Bohr mag/cell
     absolute magnetization    =    29.95 Bohr mag/cell

     iteration #173     ecut=    80.00 Ry     beta= 0.70
     Davidson diagonalization with overlap
     c_bands:  3 eigenvalues not converged
     c_bands:  5 eigenvalues not converged
     c_bands:  4 eigenvalues not converged
     c_bands:  2 eigenvalues not converged
     c_bands:  2 eigenvalues not converged
     c_bands:  4 eigenvalues not converged
     c_bands:  1 eigenvalues not converged
     c_bands:  1 eigenvalues not converged
     c_bands:  3 eigenvalues not converged
     c_bands:  3 eigenvalues not converged
     c_bands:  4 eigenvalues not converged
     c_bands:  3 eigenvalues not converged
     c_bands:  4 eigenvalues not converged
     c_bands:  3 eigenvalues not converged
     c_bands:  3 eigenvalues not converged
     c_bands:  2 eigenvalues not converged
     c_bands:  3 eigenvalues not converged
     c_bands:  3 eigenvalues not converged
     c_bands:  3 eigenvalues not converged
     c_bands:  5 eigenvalues not converged
     ethr =  1.48E-07,  avg # of iterations = 20.2

     negative rho (up, down):  1.725E+02 2.943E-02

     total cpu time spent up to now is     1829.2 secs

     total energy              =   -4568.48024237 Ry
     estimated scf accuracy    <       0.00016069 Ry

     total magnetization       =    -0.00    -0.00     0.00 Bohr mag/cell
     absolute magnetization    =    29.91 Bohr mag/cell

     iteration #174     ecut=    80.00 Ry     beta= 0.70
     Davidson diagonalization with overlap
     c_bands:  1 eigenvalues not converged
     c_bands:  3 eigenvalues not converged
     c_bands:  1 eigenvalues not converged
     c_bands:  2 eigenvalues not converged
     ethr =  1.48E-07,  avg # of iterations = 16.7

     negative rho (up, down):  1.725E+02 2.945E-02

     total cpu time spent up to now is     1838.8 secs

     total energy              =   -4568.47919871 Ry
     estimated scf accuracy    <       0.00012945 Ry

     total magnetization       =    -0.00     0.00     0.04 Bohr mag/cell
     absolute magnetization    =    29.88 Bohr mag/cell

     iteration #175     ecut=    80.00 Ry     beta= 0.70
     Davidson diagonalization with overlap
     c_bands:  1 eigenvalues not converged
     c_bands:  2 eigenvalues not converged
     c_bands:  1 eigenvalues not converged
     c_bands:  4 eigenvalues not converged
     c_bands:  1 eigenvalues not converged
     c_bands:  1 eigenvalues not converged
     c_bands:  2 eigenvalues not converged
     c_bands:  1 eigenvalues not converged
     c_bands:  1 eigenvalues not converged
     c_bands:  1 eigenvalues not converged
     c_bands:  4 eigenvalues not converged
     c_bands:  1 eigenvalues not converged
     c_bands:  2 eigenvalues not converged
     ethr =  1.48E-07,  avg # of iterations = 19.0

     negative rho (up, down):  1.725E+02 2.943E-02

     total cpu time spent up to now is     1849.1 secs

     total energy              =   -4568.47748046 Ry
     estimated scf accuracy    <       0.00020820 Ry

     total magnetization       =    -0.00     0.00     0.11 Bohr mag/cell
     absolute magnetization    =    29.92 Bohr mag/cell

     iteration #176     ecut=    80.00 Ry     beta= 0.70
     Davidson diagonalization with overlap
     c_bands:  1 eigenvalues not converged
     c_bands:  2 eigenvalues not converged
     c_bands:  1 eigenvalues not converged
     c_bands:  1 eigenvalues not converged
     c_bands:  2 eigenvalues not converged
     c_bands:  3 eigenvalues not converged
     c_bands:  2 eigenvalues not converged
     c_bands:  4 eigenvalues not converged
     c_bands:  2 eigenvalues not converged
     ethr =  1.48E-07,  avg # of iterations = 18.9

     negative rho (up, down):  1.725E+02 2.943E-02

     total cpu time spent up to now is     1859.8 secs

     total energy              =   -4568.47854482 Ry
     estimated scf accuracy    <       0.00016987 Ry

     total magnetization       =     0.00     0.00     0.03 Bohr mag/cell
     absolute magnetization    =    29.88 Bohr mag/cell

     iteration #177     ecut=    80.00 Ry     beta= 0.70
     Davidson diagonalization with overlap
     c_bands:  1 eigenvalues not converged
     c_bands:  1 eigenvalues not converged
     c_bands:  1 eigenvalues not converged
     c_bands:  3 eigenvalues not converged
     c_bands:  2 eigenvalues not converged
     c_bands:  4 eigenvalues not converged
     c_bands:  1 eigenvalues not converged
     ethr =  1.48E-07,  avg # of iterations = 19.5

     negative rho (up, down):  1.725E+02 2.943E-02

     total cpu time spent up to now is     1870.9 secs

     total energy              =   -4568.47876256 Ry
     estimated scf accuracy    <       0.00018317 Ry

     total magnetization       =    -0.00     0.00    -0.06 Bohr mag/cell
     absolute magnetization    =    29.91 Bohr mag/cell

     iteration #178     ecut=    80.00 Ry     beta= 0.70
     Davidson diagonalization with overlap
     c_bands:  5 eigenvalues not converged
     c_bands:  4 eigenvalues not converged
     c_bands:  1 eigenvalues not converged
     c_bands:  2 eigenvalues not converged
     c_bands:  2 eigenvalues not converged
     c_bands:  1 eigenvalues not converged
     ethr =  1.48E-07,  avg # of iterations = 19.0

     negative rho (up, down):  1.725E+02 2.943E-02

     total cpu time spent up to now is     1881.8 secs

     total energy              =   -4568.47877537 Ry
     estimated scf accuracy    <       0.00012875 Ry

     total magnetization       =    -0.00    -0.00     0.04 Bohr mag/cell
     absolute magnetization    =    29.89 Bohr mag/cell

     iteration #179     ecut=    80.00 Ry     beta= 0.70
     Davidson diagonalization with overlap
     c_bands:  3 eigenvalues not converged
     c_bands:  2 eigenvalues not converged
     c_bands:  3 eigenvalues not converged
     c_bands:  4 eigenvalues not converged
     c_bands:  1 eigenvalues not converged
     c_bands:  2 eigenvalues not converged
     c_bands:  1 eigenvalues not converged
     c_bands:  1 eigenvalues not converged
     c_bands:  4 eigenvalues not converged
     c_bands:  4 eigenvalues not converged
     c_bands:  4 eigenvalues not converged
     ethr =  1.48E-07,  avg # of iterations = 19.3

     negative rho (up, down):  1.725E+02 2.943E-02

     total cpu time spent up to now is     1892.7 secs

     total energy              =   -4568.47738444 Ry
     estimated scf accuracy    <       0.00019688 Ry

     total magnetization       =     0.00     0.00     0.13 Bohr mag/cell
     absolute magnetization    =    29.90 Bohr mag/cell

     iteration #180     ecut=    80.00 Ry     beta= 0.70
     Davidson diagonalization with overlap
     c_bands:  3 eigenvalues not converged
     c_bands:  1 eigenvalues not converged
     c_bands:  4 eigenvalues not converged
     c_bands:  5 eigenvalues not converged
     c_bands:  3 eigenvalues not converged
     c_bands:  2 eigenvalues not converged
     c_bands:  2 eigenvalues not converged
     c_bands:  3 eigenvalues not converged
     c_bands:  2 eigenvalues not converged
     c_bands:  1 eigenvalues not converged
     c_bands:  2 eigenvalues not converged
     c_bands:  2 eigenvalues not converged
     c_bands:  4 eigenvalues not converged
     c_bands:  1 eigenvalues not converged
     ethr =  1.48E-07,  avg # of iterations = 19.8

     negative rho (up, down):  1.725E+02 2.943E-02

     total cpu time spent up to now is     1903.7 secs

     total energy              =   -4568.47901721 Ry
     estimated scf accuracy    <       0.00011397 Ry

     total magnetization       =     0.00     0.00     0.05 Bohr mag/cell
     absolute magnetization    =    29.86 Bohr mag/cell

     iteration #181     ecut=    80.00 Ry     beta= 0.70
     Davidson diagonalization with overlap
     c_bands:  3 eigenvalues not converged
     c_bands:  1 eigenvalues not converged
     c_bands:  2 eigenvalues not converged
     c_bands:  2 eigenvalues not converged
     c_bands:  2 eigenvalues not converged
     c_bands:  2 eigenvalues not converged
     c_bands:  1 eigenvalues not converged
     c_bands:  4 eigenvalues not converged
     c_bands:  3 eigenvalues not converged
     c_bands:  3 eigenvalues not converged
     c_bands:  3 eigenvalues not converged
     c_bands:  2 eigenvalues not converged
     c_bands:  5 eigenvalues not converged
     c_bands:  1 eigenvalues not converged
     c_bands:  4 eigenvalues not converged
     c_bands:  4 eigenvalues not converged
     c_bands:  3 eigenvalues not converged
     ethr =  1.48E-07,  avg # of iterations = 19.8

     negative rho (up, down):  1.725E+02 2.943E-02

     total cpu time spent up to now is     1914.3 secs

     total energy              =   -4568.48023866 Ry
     estimated scf accuracy    <       0.00016909 Ry

     total magnetization       =    -0.00     0.00    -0.01 Bohr mag/cell
     absolute magnetization    =    29.90 Bohr mag/cell

     iteration #182     ecut=    80.00 Ry     beta= 0.70
     Davidson diagonalization with overlap
     c_bands:  2 eigenvalues not converged
     c_bands:  2 eigenvalues not converged
     c_bands:  3 eigenvalues not converged
     c_bands:  3 eigenvalues not converged
     c_bands:  3 eigenvalues not converged
     c_bands:  3 eigenvalues not converged
     c_bands:  5 eigenvalues not converged
     c_bands:  4 eigenvalues not converged
     c_bands:  2 eigenvalues not converged
     c_bands:  2 eigenvalues not converged
     c_bands:  4 eigenvalues not converged
     c_bands:  2 eigenvalues not converged
     c_bands:  3 eigenvalues not converged
     c_bands:  2 eigenvalues not converged
     ethr =  1.48E-07,  avg # of iterations = 19.5

     negative rho (up, down):  1.725E+02 2.943E-02

     total cpu time spent up to now is     1924.8 secs

     total energy              =   -4568.48199087 Ry
     estimated scf accuracy    <       0.00009521 Ry

     total magnetization       =     0.00    -0.00     0.04 Bohr mag/cell
     absolute magnetization    =    29.86 Bohr mag/cell

     iteration #183     ecut=    80.00 Ry     beta= 0.70
     Davidson diagonalization with overlap
     c_bands:  1 eigenvalues not converged
     c_bands:  1 eigenvalues not converged
     c_bands:  2 eigenvalues not converged
     ethr =  1.48E-07,  avg # of iterations = 16.7

     negative rho (up, down):  1.725E+02 2.943E-02

     total cpu time spent up to now is     1934.4 secs

     total energy              =   -4568.47891058 Ry
     estimated scf accuracy    <       0.00010442 Ry

     total magnetization       =    -0.00     0.00     0.08 Bohr mag/cell
     absolute magnetization    =    29.84 Bohr mag/cell

     iteration #184     ecut=    80.00 Ry     beta= 0.70
     Davidson diagonalization with overlap
     c_bands:  2 eigenvalues not converged
     c_bands:  1 eigenvalues not converged
     c_bands:  1 eigenvalues not converged
     c_bands:  4 eigenvalues not converged
     c_bands:  5 eigenvalues not converged
     c_bands:  4 eigenvalues not converged
     c_bands:  2 eigenvalues not converged
     c_bands:  4 eigenvalues not converged
     c_bands:  4 eigenvalues not converged
     c_bands:  4 eigenvalues not converged
     ethr =  1.48E-07,  avg # of iterations = 20.4

     negative rho (up, down):  1.725E+02 2.944E-02

     total cpu time spent up to now is     1945.6 secs

     total energy              =   -4568.47769851 Ry
     estimated scf accuracy    <       0.00025141 Ry

     total magnetization       =     0.00     0.00     0.10 Bohr mag/cell
     absolute magnetization    =    29.94 Bohr mag/cell

     iteration #185     ecut=    80.00 Ry     beta= 0.70
     Davidson diagonalization with overlap
     c_bands:  3 eigenvalues not converged
     c_bands:  1 eigenvalues not converged
     c_bands:  4 eigenvalues not converged
     c_bands:  4 eigenvalues not converged
     c_bands:  2 eigenvalues not converged
     c_bands:  1 eigenvalues not converged
     c_bands:  1 eigenvalues not converged
     ethr =  1.48E-07,  avg # of iterations = 19.1

     negative rho (up, down):  1.725E+02 2.946E-02

     total cpu time spent up to now is     1956.3 secs

     total energy              =   -4568.48001524 Ry
     estimated scf accuracy    <       0.00014565 Ry

     total magnetization       =    -0.00    -0.00    -0.00 Bohr mag/cell
     absolute magnetization    =    29.89 Bohr mag/cell

     iteration #186     ecut=    80.00 Ry     beta= 0.70
     Davidson diagonalization with overlap
     c_bands:  2 eigenvalues not converged
     c_bands:  2 eigenvalues not converged
     c_bands:  4 eigenvalues not converged
     c_bands:  4 eigenvalues not converged
     c_bands:  4 eigenvalues not converged
     c_bands:  1 eigenvalues not converged
     c_bands:  1 eigenvalues not converged
     c_bands:  2 eigenvalues not converged
     c_bands:  1 eigenvalues not converged
     c_bands:  1 eigenvalues not converged
     c_bands:  1 eigenvalues not converged
     c_bands:  2 eigenvalues not converged
     c_bands:  4 eigenvalues not converged
     c_bands:  2 eigenvalues not converged
     c_bands:  4 eigenvalues not converged
     c_bands:  4 eigenvalues not converged
     c_bands:  2 eigenvalues not converged
     ethr =  1.48E-07,  avg # of iterations = 19.7

     negative rho (up, down):  1.725E+02 2.941E-02

     total cpu time spent up to now is     1967.0 secs

     total energy              =   -4568.47763655 Ry
     estimated scf accuracy    <       0.00016990 Ry

     total magnetization       =     0.00     0.00     0.15 Bohr mag/cell
     absolute magnetization    =    29.94 Bohr mag/cell

     iteration #187     ecut=    80.00 Ry     beta= 0.70
     Davidson diagonalization with overlap
     c_bands:  5 eigenvalues not converged
     c_bands:  2 eigenvalues not converged
     c_bands:  2 eigenvalues not converged
     c_bands:  3 eigenvalues not converged
     c_bands:  4 eigenvalues not converged
     c_bands:  1 eigenvalues not converged
     c_bands:  1 eigenvalues not converged
     c_bands:  3 eigenvalues not converged
     ethr =  1.48E-07,  avg # of iterations = 20.0

     negative rho (up, down):  1.725E+02 2.944E-02

     total cpu time spent up to now is     1977.8 secs

     total energy              =   -4568.47918233 Ry
     estimated scf accuracy    <       0.00012319 Ry

     total magnetization       =     0.00    -0.00    -0.05 Bohr mag/cell
     absolute magnetization    =    29.87 Bohr mag/cell

     iteration #188     ecut=    80.00 Ry     beta= 0.70
     Davidson diagonalization with overlap
     c_bands:  5 eigenvalues not converged
     c_bands:  2 eigenvalues not converged
     c_bands:  3 eigenvalues not converged
     c_bands:  1 eigenvalues not converged
     c_bands:  1 eigenvalues not converged
     c_bands:  1 eigenvalues not converged
     c_bands:  5 eigenvalues not converged
     c_bands:  2 eigenvalues not converged
     c_bands:  1 eigenvalues not converged
     c_bands:  1 eigenvalues not converged
     ethr =  1.48E-07,  avg # of iterations = 19.2

     negative rho (up, down):  1.725E+02 2.944E-02

     total cpu time spent up to now is     1988.5 secs

     total energy              =   -4568.47960620 Ry
     estimated scf accuracy    <       0.00014256 Ry

     total magnetization       =    -0.00    -0.00    -0.02 Bohr mag/cell
     absolute magnetization    =    29.88 Bohr mag/cell

     iteration #189     ecut=    80.00 Ry     beta= 0.70
     Davidson diagonalization with overlap
     c_bands:  3 eigenvalues not converged
     c_bands:  2 eigenvalues not converged
     c_bands:  2 eigenvalues not converged
     c_bands:  2 eigenvalues not converged
     c_bands:  2 eigenvalues not converged
     c_bands:  2 eigenvalues not converged
     c_bands:  2 eigenvalues not converged
     c_bands:  3 eigenvalues not converged
     c_bands:  1 eigenvalues not converged
     c_bands:  2 eigenvalues not converged
     c_bands:  3 eigenvalues not converged
     c_bands:  4 eigenvalues not converged
     c_bands:  2 eigenvalues not converged
     c_bands:  2 eigenvalues not converged
     c_bands:  1 eigenvalues not converged
     c_bands:  2 eigenvalues not converged
     ethr =  1.48E-07,  avg # of iterations = 19.5

     negative rho (up, down):  1.725E+02 2.944E-02

     total cpu time spent up to now is     1999.0 secs

     total energy              =   -4568.47949092 Ry
     estimated scf accuracy    <       0.00021628 Ry

     total magnetization       =    -0.00    -0.00     0.16 Bohr mag/cell
     absolute magnetization    =    29.93 Bohr mag/cell

     iteration #190     ecut=    80.00 Ry     beta= 0.70
     Davidson diagonalization with overlap
     c_bands:  1 eigenvalues not converged
     c_bands:  4 eigenvalues not converged
     c_bands:  1 eigenvalues not converged
     c_bands:  1 eigenvalues not converged
     c_bands:  2 eigenvalues not converged
     c_bands:  2 eigenvalues not converged
     c_bands:  3 eigenvalues not converged
     c_bands:  2 eigenvalues not converged
     c_bands:  1 eigenvalues not converged
     c_bands:  2 eigenvalues not converged
     c_bands:  1 eigenvalues not converged
     c_bands:  1 eigenvalues not converged
     c_bands:  4 eigenvalues not converged
     ethr =  1.48E-07,  avg # of iterations = 19.0

     negative rho (up, down):  1.725E+02 2.944E-02

     total cpu time spent up to now is     2009.4 secs

     total energy              =   -4568.47782279 Ry
     estimated scf accuracy    <       0.00017881 Ry

     total magnetization       =    -0.00    -0.00     0.05 Bohr mag/cell
     absolute magnetization    =    29.88 Bohr mag/cell

     iteration #191     ecut=    80.00 Ry     beta= 0.70
     Davidson diagonalization with overlap
     c_bands:  2 eigenvalues not converged
     c_bands:  2 eigenvalues not converged
     c_bands:  2 eigenvalues not converged
     c_bands:  3 eigenvalues not converged
     c_bands:  2 eigenvalues not converged
     c_bands:  1 eigenvalues not converged
     c_bands:  1 eigenvalues not converged
     c_bands:  1 eigenvalues not converged
     c_bands:  4 eigenvalues not converged
     c_bands:  1 eigenvalues not converged
     c_bands:  4 eigenvalues not converged
     c_bands:  2 eigenvalues not converged
     c_bands:  3 eigenvalues not converged
     c_bands:  5 eigenvalues not converged
     c_bands:  4 eigenvalues not converged
     c_bands:  2 eigenvalues not converged
     c_bands:  3 eigenvalues not converged
     c_bands:  2 eigenvalues not converged
     ethr =  1.48E-07,  avg # of iterations = 20.0

     negative rho (up, down):  1.725E+02 2.944E-02

     total cpu time spent up to now is     2020.5 secs

     total energy              =   -4568.47719001 Ry
     estimated scf accuracy    <       0.00013212 Ry

     total magnetization       =     0.00    -0.00     0.03 Bohr mag/cell
     absolute magnetization    =    29.88 Bohr mag/cell

     iteration #192     ecut=    80.00 Ry     beta= 0.70
     Davidson diagonalization with overlap
     c_bands:  2 eigenvalues not converged
     c_bands:  2 eigenvalues not converged
     c_bands:  5 eigenvalues not converged
     c_bands:  3 eigenvalues not converged
     c_bands:  3 eigenvalues not converged
     c_bands:  1 eigenvalues not converged
     c_bands:  1 eigenvalues not converged
     c_bands:  1 eigenvalues not converged
     c_bands:  1 eigenvalues not converged
     c_bands:  2 eigenvalues not converged
     ethr =  1.48E-07,  avg # of iterations = 19.6

     negative rho (up, down):  1.725E+02 2.944E-02

     total cpu time spent up to now is     2031.5 secs

     total energy              =   -4568.47923455 Ry
     estimated scf accuracy    <       0.00021398 Ry

     total magnetization       =     0.00     0.00     0.09 Bohr mag/cell
     absolute magnetization    =    29.89 Bohr mag/cell

     iteration #193     ecut=    80.00 Ry     beta= 0.70
     Davidson diagonalization with overlap
     c_bands:  1 eigenvalues not converged
     c_bands:  1 eigenvalues not converged
     c_bands:  1 eigenvalues not converged
     c_bands:  1 eigenvalues not converged
     ethr =  1.48E-07,  avg # of iterations = 17.2

     negative rho (up, down):  1.725E+02 2.944E-02

     total cpu time spent up to now is     2041.4 secs

     total energy              =   -4568.47680264 Ry
     estimated scf accuracy    <       0.00028115 Ry

     total magnetization       =    -0.00    -0.00     0.23 Bohr mag/cell
     absolute magnetization    =    29.97 Bohr mag/cell

     iteration #194     ecut=    80.00 Ry     beta= 0.70
     Davidson diagonalization with overlap
     c_bands:  4 eigenvalues not converged
     c_bands:  2 eigenvalues not converged
     c_bands:  3 eigenvalues not converged
     c_bands:  1 eigenvalues not converged
     c_bands:  1 eigenvalues not converged
     c_bands:  2 eigenvalues not converged
     c_bands:  4 eigenvalues not converged
     c_bands:  2 eigenvalues not converged
     c_bands:  1 eigenvalues not converged
     c_bands:  1 eigenvalues not converged
     c_bands:  2 eigenvalues not converged
     c_bands:  1 eigenvalues not converged
     c_bands:  1 eigenvalues not converged
     c_bands:  2 eigenvalues not converged
     ethr =  1.48E-07,  avg # of iterations = 20.0

     negative rho (up, down):  1.725E+02 2.944E-02

     total cpu time spent up to now is     2052.8 secs

     total energy              =   -4568.47560889 Ry
     estimated scf accuracy    <       0.00017937 Ry

     total magnetization       =    -0.00     0.00     0.04 Bohr mag/cell
     absolute magnetization    =    29.90 Bohr mag/cell

     iteration #195     ecut=    80.00 Ry     beta= 0.70
     Davidson diagonalization with overlap
     c_bands:  1 eigenvalues not converged
     c_bands:  5 eigenvalues not converged
     c_bands:  4 eigenvalues not converged
     c_bands:  1 eigenvalues not converged
     c_bands:  4 eigenvalues not converged
     c_bands:  5 eigenvalues not converged
     c_bands:  1 eigenvalues not converged
     c_bands:  4 eigenvalues not converged
     c_bands:  2 eigenvalues not converged
     c_bands:  1 eigenvalues not converged
     c_bands:  2 eigenvalues not converged
     ethr =  1.48E-07,  avg # of iterations = 19.4

     negative rho (up, down):  1.725E+02 2.944E-02

     total cpu time spent up to now is     2064.3 secs

     total energy              =   -4568.47680880 Ry
     estimated scf accuracy    <       0.00027559 Ry

     total magnetization       =     0.00     0.00    -0.02 Bohr mag/cell
     absolute magnetization    =    29.95 Bohr mag/cell

     iteration #196     ecut=    80.00 Ry     beta= 0.70
     Davidson diagonalization with overlap
     c_bands:  2 eigenvalues not converged
     c_bands:  1 eigenvalues not converged
     c_bands:  1 eigenvalues not converged
     c_bands:  2 eigenvalues not converged
     c_bands:  1 eigenvalues not converged
     c_bands:  1 eigenvalues not converged
     c_bands:  1 eigenvalues not converged
     c_bands:  2 eigenvalues not converged
     c_bands:  4 eigenvalues not converged
     c_bands:  1 eigenvalues not converged
     c_bands:  1 eigenvalues not converged
     c_bands:  1 eigenvalues not converged
     c_bands:  2 eigenvalues not converged
     c_bands:  1 eigenvalues not converged
     c_bands:  2 eigenvalues not converged
     c_bands:  2 eigenvalues not converged
     c_bands:  1 eigenvalues not converged
     c_bands:  2 eigenvalues not converged
     c_bands:  2 eigenvalues not converged
     c_bands:  1 eigenvalues not converged
     ethr =  1.48E-07,  avg # of iterations = 20.0

     negative rho (up, down):  1.725E+02 2.940E-02

     total cpu time spent up to now is     2075.7 secs

     total energy              =   -4568.47797391 Ry
     estimated scf accuracy    <       0.00028213 Ry

     total magnetization       =     0.00     0.00     0.19 Bohr mag/cell
     absolute magnetization    =    29.98 Bohr mag/cell

     iteration #197     ecut=    80.00 Ry     beta= 0.70
     Davidson diagonalization with overlap
     c_bands:  5 eigenvalues not converged
     c_bands:  2 eigenvalues not converged
     c_bands:  5 eigenvalues not converged
     c_bands:  3 eigenvalues not converged
     c_bands:  1 eigenvalues not converged
     c_bands:  4 eigenvalues not converged
     c_bands:  3 eigenvalues not converged
     c_bands:  5 eigenvalues not converged
     c_bands:  3 eigenvalues not converged
     c_bands:  4 eigenvalues not converged
     c_bands:  5 eigenvalues not converged
     c_bands:  3 eigenvalues not converged
     c_bands:  3 eigenvalues not converged
     c_bands:  3 eigenvalues not converged
     c_bands:  3 eigenvalues not converged
     c_bands:  1 eigenvalues not converged
     c_bands:  4 eigenvalues not converged
     c_bands:  4 eigenvalues not converged
     ethr =  1.48E-07,  avg # of iterations = 20.0

     negative rho (up, down):  1.725E+02 2.941E-02

     total cpu time spent up to now is     2086.7 secs

     total energy              =   -4568.47897848 Ry
     estimated scf accuracy    <       0.00015858 Ry

     total magnetization       =     0.00     0.00    -0.00 Bohr mag/cell
     absolute magnetization    =    29.89 Bohr mag/cell

     iteration #198     ecut=    80.00 Ry     beta= 0.70
     Davidson diagonalization with overlap
     c_bands:  1 eigenvalues not converged
     c_bands:  2 eigenvalues not converged
     c_bands:  1 eigenvalues not converged
     c_bands:  3 eigenvalues not converged
     c_bands:  4 eigenvalues not converged
     c_bands:  1 eigenvalues not converged
     c_bands:  1 eigenvalues not converged
     ethr =  1.48E-07,  avg # of iterations = 19.5

     negative rho (up, down):  1.725E+02 2.941E-02

     total cpu time spent up to now is     2097.6 secs

     total energy              =   -4568.47837249 Ry
     estimated scf accuracy    <       0.00014681 Ry

     total magnetization       =     0.00     0.00    -0.08 Bohr mag/cell
     absolute magnetization    =    29.90 Bohr mag/cell

     iteration #199     ecut=    80.00 Ry     beta= 0.70
     Davidson diagonalization with overlap
     c_bands:  1 eigenvalues not converged
     c_bands:  2 eigenvalues not converged
     c_bands:  4 eigenvalues not converged
     c_bands:  4 eigenvalues not converged
     c_bands:  4 eigenvalues not converged
     c_bands:  3 eigenvalues not converged
     c_bands:  4 eigenvalues not converged
     c_bands:  3 eigenvalues not converged
     c_bands:  3 eigenvalues not converged
     c_bands:  3 eigenvalues not converged
     c_bands:  2 eigenvalues not converged
     c_bands:  2 eigenvalues not converged
     c_bands:  3 eigenvalues not converged
     c_bands:  4 eigenvalues not converged
     c_bands:  4 eigenvalues not converged
     c_bands:  4 eigenvalues not converged
     c_bands:  4 eigenvalues not converged
     c_bands:  3 eigenvalues not converged
     ethr =  1.48E-07,  avg # of iterations = 19.6

     negative rho (up, down):  1.725E+02 2.944E-02

     total cpu time spent up to now is     2108.5 secs

     total energy              =   -4568.47953968 Ry
     estimated scf accuracy    <       0.00021388 Ry

     total magnetization       =     0.00    -0.00     0.00 Bohr mag/cell
     absolute magnetization    =    29.92 Bohr mag/cell

     iteration #200     ecut=    80.00 Ry     beta= 0.70
     Davidson diagonalization with overlap
     c_bands:  1 eigenvalues not converged
     c_bands:  2 eigenvalues not converged
     c_bands:  4 eigenvalues not converged
     c_bands:  4 eigenvalues not converged
     c_bands:  3 eigenvalues not converged
     c_bands:  3 eigenvalues not converged
     c_bands:  5 eigenvalues not converged
     c_bands:  1 eigenvalues not converged
     c_bands:  5 eigenvalues not converged
     c_bands:  3 eigenvalues not converged
     c_bands:  4 eigenvalues not converged
     c_bands:  4 eigenvalues not converged
     c_bands:  2 eigenvalues not converged
     c_bands:  5 eigenvalues not converged
     c_bands:  2 eigenvalues not converged
     c_bands:  3 eigenvalues not converged
     c_bands:  4 eigenvalues not converged
     ethr =  1.48E-07,  avg # of iterations = 19.9

     negative rho (up, down):  1.725E+02 2.946E-02

     total cpu time spent up to now is     2119.2 secs

     total energy              =   -4568.47731770 Ry
     estimated scf accuracy    <       0.00012248 Ry

     total magnetization       =     0.00    -0.00     0.06 Bohr mag/cell
     absolute magnetization    =    29.85 Bohr mag/cell

     iteration #201     ecut=    80.00 Ry     beta= 0.70
     Davidson diagonalization with overlap
     c_bands:  4 eigenvalues not converged
     c_bands:  4 eigenvalues not converged
     c_bands:  4 eigenvalues not converged
     c_bands:  2 eigenvalues not converged
     c_bands:  2 eigenvalues not converged
     c_bands:  4 eigenvalues not converged
     c_bands:  4 eigenvalues not converged
     c_bands:  3 eigenvalues not converged
     c_bands:  5 eigenvalues not converged
     c_bands:  3 eigenvalues not converged
     c_bands:  2 eigenvalues not converged
     c_bands:  4 eigenvalues not converged
     c_bands:  4 eigenvalues not converged
     c_bands:  2 eigenvalues not converged
     c_bands:  1 eigenvalues not converged
     c_bands:  2 eigenvalues not converged
     c_bands:  5 eigenvalues not converged
     c_bands:  1 eigenvalues not converged
     ethr =  1.48E-07,  avg # of iterations = 19.9

     negative rho (up, down):  1.725E+02 2.946E-02

     total cpu time spent up to now is     2130.3 secs

     total energy              =   -4568.47973845 Ry
     estimated scf accuracy    <       0.00028778 Ry

     total magnetization       =    -0.00     0.00     0.03 Bohr mag/cell
     absolute magnetization    =    29.97 Bohr mag/cell

     iteration #202     ecut=    80.00 Ry     beta= 0.70
     Davidson diagonalization with overlap
     c_bands:  2 eigenvalues not converged
     c_bands:  2 eigenvalues not converged
     c_bands:  2 eigenvalues not converged
     c_bands:  4 eigenvalues not converged
     c_bands:  2 eigenvalues not converged
     c_bands:  1 eigenvalues not converged
     c_bands:  2 eigenvalues not converged
     c_bands:  2 eigenvalues not converged
     c_bands:  2 eigenvalues not converged
     c_bands:  5 eigenvalues not converged
     c_bands:  2 eigenvalues not converged
     c_bands:  4 eigenvalues not converged
     ethr =  1.48E-07,  avg # of iterations = 19.8

     negative rho (up, down):  1.725E+02 2.941E-02

     total cpu time spent up to now is     2141.3 secs

     total energy              =   -4568.47631865 Ry
     estimated scf accuracy    <       0.00022897 Ry

     total magnetization       =     0.00     0.00    -0.03 Bohr mag/cell
     absolute magnetization    =    29.90 Bohr mag/cell

     iteration #203     ecut=    80.00 Ry     beta= 0.70
     Davidson diagonalization with overlap
     c_bands:  3 eigenvalues not converged
     c_bands:  1 eigenvalues not converged
     c_bands:  4 eigenvalues not converged
     c_bands:  3 eigenvalues not converged
     c_bands:  2 eigenvalues not converged
     c_bands:  1 eigenvalues not converged
     c_bands:  2 eigenvalues not converged
     c_bands:  2 eigenvalues not converged
     c_bands:  2 eigenvalues not converged
     c_bands:  2 eigenvalues not converged
     c_bands:  2 eigenvalues not converged
     c_bands:  4 eigenvalues not converged
     c_bands:  2 eigenvalues not converged
     ethr =  1.48E-07,  avg # of iterations = 19.1

     negative rho (up, down):  1.725E+02 2.943E-02

     total cpu time spent up to now is     2151.8 secs

     total energy              =   -4568.47930763 Ry
     estimated scf accuracy    <       0.00029684 Ry

     total magnetization       =     0.00     0.00     0.27 Bohr mag/cell
     absolute magnetization    =    29.97 Bohr mag/cell

     iteration #204     ecut=    80.00 Ry     beta= 0.70
     Davidson diagonalization with overlap
     c_bands:  1 eigenvalues not converged
     c_bands:  4 eigenvalues not converged
     c_bands:  1 eigenvalues not converged
     c_bands:  2 eigenvalues not converged
     ethr =  1.48E-07,  avg # of iterations = 16.2

     negative rho (up, down):  1.725E+02 2.944E-02

     total cpu time spent up to now is     2161.3 secs

     total energy              =   -4568.48073283 Ry
     estimated scf accuracy    <       0.00005633 Ry

     total magnetization       =    -0.00     0.00     0.08 Bohr mag/cell
     absolute magnetization    =    29.84 Bohr mag/cell

     iteration #205     ecut=    80.00 Ry     beta= 0.70
     Davidson diagonalization with overlap
     ethr =  1.48E-07,  avg # of iterations = 16.6

     negative rho (up, down):  1.725E+02 2.944E-02

     total cpu time spent up to now is     2170.9 secs

     total energy              =   -4568.47978508 Ry
     estimated scf accuracy    <       0.00008246 Ry

     total magnetization       =     0.00    -0.00     0.02 Bohr mag/cell
     absolute magnetization    =    29.85 Bohr mag/cell

     iteration #206     ecut=    80.00 Ry     beta= 0.70
     Davidson diagonalization with overlap
     c_bands:  2 eigenvalues not converged
     c_bands:  1 eigenvalues not converged
     c_bands:  2 eigenvalues not converged
     c_bands:  1 eigenvalues not converged
     c_bands:  2 eigenvalues not converged
     c_bands:  1 eigenvalues not converged
     c_bands:  4 eigenvalues not converged
     c_bands:  1 eigenvalues not converged
     c_bands:  1 eigenvalues not converged
     ethr =  1.48E-07,  avg # of iterations = 18.5

     negative rho (up, down):  1.725E+02 2.943E-02

     total cpu time spent up to now is     2181.4 secs

     total energy              =   -4568.47944170 Ry
     estimated scf accuracy    <       0.00017033 Ry

     total magnetization       =    -0.00    -0.00    -0.03 Bohr mag/cell
     absolute magnetization    =    29.88 Bohr mag/cell

     iteration #207     ecut=    80.00 Ry     beta= 0.70
     Davidson diagonalization with overlap
     c_bands:  4 eigenvalues not converged
     c_bands:  3 eigenvalues not converged
     c_bands:  1 eigenvalues not converged
     c_bands:  1 eigenvalues not converged
     c_bands:  4 eigenvalues not converged
     c_bands:  2 eigenvalues not converged
     c_bands:  1 eigenvalues not converged
     c_bands:  5 eigenvalues not converged
     ethr =  1.48E-07,  avg # of iterations = 19.5

     negative rho (up, down):  1.725E+02 2.943E-02

     total cpu time spent up to now is     2192.5 secs

     total energy              =   -4568.47914643 Ry
     estimated scf accuracy    <       0.00018591 Ry

     total magnetization       =    -0.00    -0.00     0.01 Bohr mag/cell
     absolute magnetization    =    29.93 Bohr mag/cell

     iteration #208     ecut=    80.00 Ry     beta= 0.70
     Davidson diagonalization with overlap
     c_bands:  1 eigenvalues not converged
     c_bands:  1 eigenvalues not converged
     c_bands:  2 eigenvalues not converged
     c_bands:  2 eigenvalues not converged
     c_bands:  1 eigenvalues not converged
     c_bands:  1 eigenvalues not converged
     c_bands:  1 eigenvalues not converged
     c_bands:  1 eigenvalues not converged
     ethr =  1.48E-07,  avg # of iterations = 19.3

     negative rho (up, down):  1.725E+02 2.944E-02

     total cpu time spent up to now is     2203.2 secs

     total energy              =   -4568.47846937 Ry
     estimated scf accuracy    <       0.00015771 Ry

     total magnetization       =     0.00    -0.00    -0.05 Bohr mag/cell
     absolute magnetization    =    29.90 Bohr mag/cell

     iteration #209     ecut=    80.00 Ry     beta= 0.70
     Davidson diagonalization with overlap
     c_bands:  1 eigenvalues not converged
     c_bands:  2 eigenvalues not converged
     c_bands:  1 eigenvalues not converged
     c_bands:  1 eigenvalues not converged
     c_bands:  1 eigenvalues not converged
     c_bands:  3 eigenvalues not converged
     ethr =  1.48E-07,  avg # of iterations = 19.0

     negative rho (up, down):  1.725E+02 2.944E-02

     total cpu time spent up to now is     2213.9 secs

     total energy              =   -4568.48055672 Ry
     estimated scf accuracy    <       0.00024140 Ry

     total magnetization       =    -0.00     0.00    -0.11 Bohr mag/cell
     absolute magnetization    =    29.93 Bohr mag/cell

     iteration #210     ecut=    80.00 Ry     beta= 0.70
     Davidson diagonalization with overlap
     c_bands:  1 eigenvalues not converged
     c_bands:  2 eigenvalues not converged
     c_bands:  4 eigenvalues not converged
     c_bands:  3 eigenvalues not converged
     c_bands:  2 eigenvalues not converged
     c_bands:  3 eigenvalues not converged
     c_bands:  1 eigenvalues not converged
     c_bands:  2 eigenvalues not converged
     c_bands:  1 eigenvalues not converged
     ethr =  1.48E-07,  avg # of iterations = 18.5

     negative rho (up, down):  1.725E+02 2.943E-02

     total cpu time spent up to now is     2224.1 secs

     total energy              =   -4568.47661399 Ry
     estimated scf accuracy    <       0.00020512 Ry

     total magnetization       =     0.00    -0.00    -0.01 Bohr mag/cell
     absolute magnetization    =    29.90 Bohr mag/cell

     iteration #211     ecut=    80.00 Ry     beta= 0.70
     Davidson diagonalization with overlap
     c_bands:  2 eigenvalues not converged
     c_bands:  1 eigenvalues not converged
     c_bands:  2 eigenvalues not converged
     c_bands:  4 eigenvalues not converged
     c_bands:  2 eigenvalues not converged
     c_bands:  2 eigenvalues not converged
     c_bands:  2 eigenvalues not converged
     c_bands:  3 eigenvalues not converged
     c_bands:  1 eigenvalues not converged
     c_bands:  1 eigenvalues not converged
     c_bands:  1 eigenvalues not converged
     c_bands:  3 eigenvalues not converged
     c_bands:  1 eigenvalues not converged
     c_bands:  1 eigenvalues not converged
     ethr =  1.48E-07,  avg # of iterations = 19.4

     negative rho (up, down):  1.725E+02 2.943E-02

     total cpu time spent up to now is     2235.2 secs

     total energy              =   -4568.47881221 Ry
     estimated scf accuracy    <       0.00027868 Ry

     total magnetization       =     0.00     0.00    -0.03 Bohr mag/cell
     absolute magnetization    =    29.90 Bohr mag/cell

     iteration #212     ecut=    80.00 Ry     beta= 0.70
     Davidson diagonalization with overlap
     c_bands:  5 eigenvalues not converged
     c_bands:  2 eigenvalues not converged
     c_bands:  4 eigenvalues not converged
     c_bands:  2 eigenvalues not converged
     c_bands:  1 eigenvalues not converged
     ethr =  1.48E-07,  avg # of iterations = 19.5

     negative rho (up, down):  1.725E+02 2.941E-02

     total cpu time spent up to now is     2246.6 secs

     total energy              =   -4568.47784678 Ry
     estimated scf accuracy    <       0.00032921 Ry

     total magnetization       =     0.00     0.00    -0.10 Bohr mag/cell
     absolute magnetization    =    29.96 Bohr mag/cell

     iteration #213     ecut=    80.00 Ry     beta= 0.70
     Davidson diagonalization with overlap
     c_bands:  5 eigenvalues not converged
     c_bands:  2 eigenvalues not converged
     c_bands:  1 eigenvalues not converged
     c_bands:  4 eigenvalues not converged
     c_bands:  2 eigenvalues not converged
     c_bands:  2 eigenvalues not converged
     c_bands:  5 eigenvalues not converged
     c_bands:  1 eigenvalues not converged
     c_bands:  3 eigenvalues not converged
     c_bands:  2 eigenvalues not converged
     ethr =  1.48E-07,  avg # of iterations = 19.3

     negative rho (up, down):  1.725E+02 2.946E-02

     total cpu time spent up to now is     2257.2 secs

     total energy              =   -4568.47923762 Ry
     estimated scf accuracy    <       0.00028251 Ry

     total magnetization       =    -0.00     0.00     0.15 Bohr mag/cell
     absolute magnetization    =    29.89 Bohr mag/cell

     iteration #214     ecut=    80.00 Ry     beta= 0.70
     Davidson diagonalization with overlap
     c_bands:  5 eigenvalues not converged
     c_bands:  3 eigenvalues not converged
     c_bands:  1 eigenvalues not converged
     c_bands:  2 eigenvalues not converged
     c_bands:  2 eigenvalues not converged
     c_bands:  1 eigenvalues not converged
     c_bands:  2 eigenvalues not converged
     c_bands:  1 eigenvalues not converged
     ethr =  1.48E-07,  avg # of iterations = 19.5

     negative rho (up, down):  1.725E+02 2.946E-02

     total cpu time spent up to now is     2268.2 secs

     total energy              =   -4568.47550156 Ry
     estimated scf accuracy    <       0.00039122 Ry

     total magnetization       =     0.00     0.00     0.11 Bohr mag/cell
     absolute magnetization    =    29.92 Bohr mag/cell

     iteration #215     ecut=    80.00 Ry     beta= 0.70
     Davidson diagonalization with overlap
     c_bands:  1 eigenvalues not converged
     c_bands:  2 eigenvalues not converged
     c_bands:  1 eigenvalues not converged
     c_bands:  1 eigenvalues not converged
     c_bands:  1 eigenvalues not converged
     c_bands:  1 eigenvalues not converged
     c_bands:  1 eigenvalues not converged
     c_bands:  4 eigenvalues not converged
     c_bands:  1 eigenvalues not converged
     c_bands:  1 eigenvalues not converged
     ethr =  1.48E-07,  avg # of iterations = 19.4

     negative rho (up, down):  1.725E+02 2.946E-02

     total cpu time spent up to now is     2279.1 secs

     total energy              =   -4568.48149394 Ry
     estimated scf accuracy    <       0.00006575 Ry

     total magnetization       =     0.00     0.00     0.09 Bohr mag/cell
     absolute magnetization    =    29.84 Bohr mag/cell

     iteration #216     ecut=    80.00 Ry     beta= 0.70
     Davidson diagonalization with overlap
     ethr =  1.48E-07,  avg # of iterations = 14.3

     negative rho (up, down):  1.725E+02 2.946E-02

     total cpu time spent up to now is     2288.3 secs

     total energy              =   -4568.48003792 Ry
     estimated scf accuracy    <       0.00007011 Ry

     total magnetization       =    -0.00    -0.00     0.09 Bohr mag/cell
     absolute magnetization    =    29.84 Bohr mag/cell

     iteration #217     ecut=    80.00 Ry     beta= 0.70
     Davidson diagonalization with overlap
     c_bands:  2 eigenvalues not converged
     c_bands:  1 eigenvalues not converged
     c_bands:  1 eigenvalues not converged
     c_bands:  1 eigenvalues not converged
     c_bands:  2 eigenvalues not converged
     c_bands:  5 eigenvalues not converged
     c_bands:  2 eigenvalues not converged
     c_bands:  1 eigenvalues not converged
     c_bands:  2 eigenvalues not converged
     c_bands:  1 eigenvalues not converged
     ethr =  1.48E-07,  avg # of iterations = 19.0

     negative rho (up, down):  1.725E+02 2.944E-02

     total cpu time spent up to now is     2298.6 secs

     total energy              =   -4568.47952245 Ry
     estimated scf accuracy    <       0.00006472 Ry

     total magnetization       =     0.00     0.00     0.05 Bohr mag/cell
     absolute magnetization    =    29.83 Bohr mag/cell

     iteration #218     ecut=    80.00 Ry     beta= 0.70
     Davidson diagonalization with overlap
     c_bands:  3 eigenvalues not converged
     c_bands:  2 eigenvalues not converged
     c_bands:  4 eigenvalues not converged
     c_bands:  1 eigenvalues not converged
     ethr =  1.48E-07,  avg # of iterations = 16.9

     negative rho (up, down):  1.725E+02 2.946E-02

     total cpu time spent up to now is     2308.5 secs

     total energy              =   -4568.47955662 Ry
     estimated scf accuracy    <       0.00011688 Ry

     total magnetization       =     0.00     0.00     0.03 Bohr mag/cell
     absolute magnetization    =    29.86 Bohr mag/cell

     iteration #219     ecut=    80.00 Ry     beta= 0.70
     Davidson diagonalization with overlap
     c_bands:  2 eigenvalues not converged
     c_bands:  1 eigenvalues not converged
     ethr =  1.48E-07,  avg # of iterations = 16.9

     negative rho (up, down):  1.725E+02 2.944E-02

     total cpu time spent up to now is     2318.5 secs

     total energy              =   -4568.48001982 Ry
     estimated scf accuracy    <       0.00012087 Ry

     total magnetization       =    -0.00    -0.00     0.05 Bohr mag/cell
     absolute magnetization    =    29.87 Bohr mag/cell

     iteration #220     ecut=    80.00 Ry     beta= 0.70
     Davidson diagonalization with overlap
     c_bands:  2 eigenvalues not converged
     c_bands:  2 eigenvalues not converged
     c_bands:  1 eigenvalues not converged
     c_bands:  1 eigenvalues not converged
     c_bands:  1 eigenvalues not converged
     c_bands:  2 eigenvalues not converged
     c_bands:  5 eigenvalues not converged
     c_bands:  1 eigenvalues not converged
     ethr =  1.48E-07,  avg # of iterations = 19.2

     negative rho (up, down):  1.725E+02 2.941E-02

     total cpu time spent up to now is     2329.3 secs

     total energy              =   -4568.47778777 Ry
     estimated scf accuracy    <       0.00021815 Ry

     total magnetization       =    -0.00     0.00     0.03 Bohr mag/cell
     absolute magnetization    =    29.91 Bohr mag/cell

     iteration #221     ecut=    80.00 Ry     beta= 0.70
     Davidson diagonalization with overlap
     c_bands:  1 eigenvalues not converged
     c_bands:  2 eigenvalues not converged
     c_bands:  2 eigenvalues not converged
     c_bands:  4 eigenvalues not converged
     c_bands:  3 eigenvalues not converged
     c_bands:  2 eigenvalues not converged
     c_bands:  2 eigenvalues not converged
     c_bands:  4 eigenvalues not converged
     c_bands:  4 eigenvalues not converged
     c_bands:  4 eigenvalues not converged
     c_bands:  2 eigenvalues not converged
     c_bands:  3 eigenvalues not converged
     c_bands:  3 eigenvalues not converged
     c_bands:  2 eigenvalues not converged
     c_bands:  2 eigenvalues not converged
     c_bands:  5 eigenvalues not converged
     c_bands:  3 eigenvalues not converged
     ethr =  1.48E-07,  avg # of iterations = 20.4

     negative rho (up, down):  1.725E+02 2.944E-02

     total cpu time spent up to now is     2340.5 secs

     total energy              =   -4568.47917258 Ry
     estimated scf accuracy    <       0.00007838 Ry

     total magnetization       =    -0.00     0.00     0.02 Bohr mag/cell
     absolute magnetization    =    29.85 Bohr mag/cell

     iteration #222     ecut=    80.00 Ry     beta= 0.70
     Davidson diagonalization with overlap
     c_bands:  2 eigenvalues not converged
     c_bands:  2 eigenvalues not converged
     c_bands:  2 eigenvalues not converged
     c_bands:  2 eigenvalues not converged
     c_bands:  2 eigenvalues not converged
     c_bands:  2 eigenvalues not converged
     c_bands:  1 eigenvalues not converged
     c_bands:  2 eigenvalues not converged
     c_bands:  1 eigenvalues not converged
     c_bands:  2 eigenvalues not converged
     c_bands:  2 eigenvalues not converged
     c_bands:  4 eigenvalues not converged
     c_bands:  2 eigenvalues not converged
     c_bands:  4 eigenvalues not converged
     c_bands:  2 eigenvalues not converged
     ethr =  1.48E-07,  avg # of iterations = 19.5

     negative rho (up, down):  1.725E+02 2.941E-02

     total cpu time spent up to now is     2351.3 secs

     total energy              =   -4568.47810518 Ry
     estimated scf accuracy    <       0.00022887 Ry

     total magnetization       =    -0.00    -0.00    -0.00 Bohr mag/cell
     absolute magnetization    =    29.94 Bohr mag/cell

     iteration #223     ecut=    80.00 Ry     beta= 0.70
     Davidson diagonalization with overlap
     c_bands:  2 eigenvalues not converged
     c_bands:  5 eigenvalues not converged
     c_bands:  2 eigenvalues not converged
     c_bands:  5 eigenvalues not converged
     c_bands:  3 eigenvalues not converged
     c_bands:  5 eigenvalues not converged
     c_bands:  2 eigenvalues not converged
     c_bands:  2 eigenvalues not converged
     c_bands:  4 eigenvalues not converged
     c_bands:  2 eigenvalues not converged
     c_bands:  1 eigenvalues not converged
     c_bands:  3 eigenvalues not converged
     c_bands:  2 eigenvalues not converged
     c_bands:  2 eigenvalues not converged
     c_bands:  3 eigenvalues not converged
     c_bands:  4 eigenvalues not converged
     c_bands:  5 eigenvalues not converged
     ethr =  1.48E-07,  avg # of iterations = 21.4

     negative rho (up, down):  1.725E+02 2.944E-02

     total cpu time spent up to now is     2362.5 secs

     total energy              =   -4568.48040173 Ry
     estimated scf accuracy    <       0.00028871 Ry

     total magnetization       =    -0.00    -0.00     0.20 Bohr mag/cell
     absolute magnetization    =    29.95 Bohr mag/cell

     iteration #224     ecut=    80.00 Ry     beta= 0.70
     Davidson diagonalization with overlap
     c_bands:  4 eigenvalues not converged
     c_bands:  5 eigenvalues not converged
     c_bands:  4 eigenvalues not converged
     c_bands:  1 eigenvalues not converged
     c_bands:  1 eigenvalues not converged
     c_bands:  5 eigenvalues not converged
     c_bands:  4 eigenvalues not converged
     c_bands:  1 eigenvalues not converged
     ethr =  1.48E-07,  avg # of iterations = 18.5

     negative rho (up, down):  1.725E+02 2.944E-02

     total cpu time spent up to now is     2372.9 secs

     total energy              =   -4568.48136306 Ry
     estimated scf accuracy    <       0.00032757 Ry

     total magnetization       =    -0.00    -0.00     0.19 Bohr mag/cell
     absolute magnetization    =    29.99 Bohr mag/cell

     iteration #225     ecut=    80.00 Ry     beta= 0.70
     Davidson diagonalization with overlap
     c_bands:  1 eigenvalues not converged
     c_bands:  1 eigenvalues not converged
     c_bands:  1 eigenvalues not converged
     ethr =  1.48E-07,  avg # of iterations = 17.4

     negative rho (up, down):  1.725E+02 2.944E-02

     total cpu time spent up to now is     2382.8 secs

     total energy              =   -4568.47784660 Ry
     estimated scf accuracy    <       0.00016209 Ry

     total magnetization       =     0.00    -0.00     0.06 Bohr mag/cell
     absolute magnetization    =    29.88 Bohr mag/cell

     iteration #226     ecut=    80.00 Ry     beta= 0.70
     Davidson diagonalization with overlap
     c_bands:  2 eigenvalues not converged
     c_bands:  3 eigenvalues not converged
     c_bands:  2 eigenvalues not converged
     c_bands:  5 eigenvalues not converged
     c_bands:  2 eigenvalues not converged
     c_bands:  2 eigenvalues not converged
     c_bands:  1 eigenvalues not converged
     c_bands:  1 eigenvalues not converged
     c_bands:  1 eigenvalues not converged
     c_bands:  1 eigenvalues not converged
     c_bands:  1 eigenvalues not converged
     ethr =  1.48E-07,  avg # of iterations = 19.2

     negative rho (up, down):  1.725E+02 2.944E-02

     total cpu time spent up to now is     2393.5 secs

     total energy              =   -4568.47903598 Ry
     estimated scf accuracy    <       0.00013142 Ry

     total magnetization       =    -0.00    -0.00     0.13 Bohr mag/cell
     absolute magnetization    =    29.89 Bohr mag/cell

     iteration #227     ecut=    80.00 Ry     beta= 0.70
     Davidson diagonalization with overlap
     c_bands:  2 eigenvalues not converged
     c_bands:  4 eigenvalues not converged
     c_bands:  1 eigenvalues not converged
     c_bands:  5 eigenvalues not converged
     c_bands:  1 eigenvalues not converged
     c_bands:  1 eigenvalues not converged
     c_bands:  4 eigenvalues not converged
     c_bands:  4 eigenvalues not converged
     ethr =  1.48E-07,  avg # of iterations = 20.0

     negative rho (up, down):  1.725E+02 2.944E-02

     total cpu time spent up to now is     2404.4 secs

     total energy              =   -4568.47716329 Ry
     estimated scf accuracy    <       0.00014974 Ry

     total magnetization       =    -0.00    -0.00     0.02 Bohr mag/cell
     absolute magnetization    =    29.88 Bohr mag/cell

     iteration #228     ecut=    80.00 Ry     beta= 0.70
     Davidson diagonalization with overlap
     c_bands:  1 eigenvalues not converged
     c_bands:  1 eigenvalues not converged
     c_bands:  2 eigenvalues not converged
     c_bands:  1 eigenvalues not converged
     c_bands:  1 eigenvalues not converged
     c_bands:  1 eigenvalues not converged
     c_bands:  2 eigenvalues not converged
     c_bands:  2 eigenvalues not converged
     c_bands:  1 eigenvalues not converged
     c_bands:  1 eigenvalues not converged
     ethr =  1.48E-07,  avg # of iterations = 19.9

     negative rho (up, down):  1.725E+02 2.944E-02

     total cpu time spent up to now is     2415.6 secs

     total energy              =   -4568.47887834 Ry
     estimated scf accuracy    <       0.00018701 Ry

     total magnetization       =     0.00     0.00     0.08 Bohr mag/cell
     absolute magnetization    =    29.91 Bohr mag/cell

     iteration #229     ecut=    80.00 Ry     beta= 0.70
     Davidson diagonalization with overlap
     c_bands:  1 eigenvalues not converged
     c_bands:  3 eigenvalues not converged
     c_bands:  1 eigenvalues not converged
     c_bands:  2 eigenvalues not converged
     c_bands:  1 eigenvalues not converged
     c_bands:  1 eigenvalues not converged
     c_bands:  1 eigenvalues not converged
     c_bands:  2 eigenvalues not converged
     c_bands:  2 eigenvalues not converged
     c_bands:  1 eigenvalues not converged
     c_bands:  3 eigenvalues not converged
     c_bands:  1 eigenvalues not converged
     ethr =  1.48E-07,  avg # of iterations = 19.4

     negative rho (up, down):  1.725E+02 2.944E-02

     total cpu time spent up to now is     2426.3 secs

     total energy              =   -4568.47628165 Ry
     estimated scf accuracy    <       0.00014213 Ry

     total magnetization       =     0.00     0.00     0.04 Bohr mag/cell
     absolute magnetization    =    29.90 Bohr mag/cell

     iteration #230     ecut=    80.00 Ry     beta= 0.70
     Davidson diagonalization with overlap
     c_bands:  4 eigenvalues not converged
     c_bands:  2 eigenvalues not converged
     c_bands:  2 eigenvalues not converged
     c_bands:  4 eigenvalues not converged
     c_bands:  2 eigenvalues not converged
     c_bands:  2 eigenvalues not converged
     c_bands:  4 eigenvalues not converged
     c_bands:  2 eigenvalues not converged
     c_bands:  4 eigenvalues not converged
     c_bands:  3 eigenvalues not converged
     c_bands:  1 eigenvalues not converged
     c_bands:  1 eigenvalues not converged
     c_bands:  2 eigenvalues not converged
     c_bands:  3 eigenvalues not converged
     c_bands:  2 eigenvalues not converged
     c_bands:  3 eigenvalues not converged
     ethr =  1.48E-07,  avg # of iterations = 20.5

     negative rho (up, down):  1.725E+02 2.944E-02

     total cpu time spent up to now is     2438.0 secs

     total energy              =   -4568.47612812 Ry
     estimated scf accuracy    <       0.00037101 Ry

     total magnetization       =     0.00     0.00     0.08 Bohr mag/cell
     absolute magnetization    =    29.98 Bohr mag/cell

     iteration #231     ecut=    80.00 Ry     beta= 0.70
     Davidson diagonalization with overlap
     c_bands:  2 eigenvalues not converged
     c_bands:  3 eigenvalues not converged
     c_bands:  2 eigenvalues not converged
     c_bands:  1 eigenvalues not converged
     c_bands:  2 eigenvalues not converged
     c_bands:  2 eigenvalues not converged
     c_bands:  1 eigenvalues not converged
     c_bands:  2 eigenvalues not converged
     ethr =  1.48E-07,  avg # of iterations = 19.8

     negative rho (up, down):  1.725E+02 2.944E-02

     total cpu time spent up to now is     2449.3 secs

     total energy              =   -4568.47672204 Ry
     estimated scf accuracy    <       0.00023875 Ry

     total magnetization       =    -0.00     0.00    -0.02 Bohr mag/cell
     absolute magnetization    =    29.89 Bohr mag/cell

     iteration #232     ecut=    80.00 Ry     beta= 0.70
     Davidson diagonalization with overlap
     c_bands:  4 eigenvalues not converged
     c_bands:  4 eigenvalues not converged
     c_bands:  3 eigenvalues not converged
     c_bands:  3 eigenvalues not converged
     c_bands:  3 eigenvalues not converged
     c_bands:  3 eigenvalues not converged
     c_bands:  4 eigenvalues not converged
     c_bands:  3 eigenvalues not converged
     c_bands:  1 eigenvalues not converged
     c_bands:  4 eigenvalues not converged
     c_bands:  3 eigenvalues not converged
     c_bands:  1 eigenvalues not converged
     c_bands:  1 eigenvalues not converged
     c_bands:  2 eigenvalues not converged
     c_bands:  1 eigenvalues not converged
     ethr =  1.48E-07,  avg # of iterations = 21.0

     negative rho (up, down):  1.725E+02 2.944E-02

     total cpu time spent up to now is     2461.3 secs

     total energy              =   -4568.47609319 Ry
     estimated scf accuracy    <       0.00049799 Ry

     total magnetization       =    -0.00     0.00    -0.03 Bohr mag/cell
     absolute magnetization    =    30.01 Bohr mag/cell

     iteration #233     ecut=    80.00 Ry     beta= 0.70
     Davidson diagonalization with overlap
     c_bands:  2 eigenvalues not converged
     c_bands:  3 eigenvalues not converged
     c_bands:  4 eigenvalues not converged
     c_bands:  4 eigenvalues not converged
     c_bands:  4 eigenvalues not converged
     c_bands:  3 eigenvalues not converged
     c_bands:  3 eigenvalues not converged
     c_bands:  3 eigenvalues not converged
     c_bands:  5 eigenvalues not converged
     c_bands:  2 eigenvalues not converged
     c_bands:  5 eigenvalues not converged
     c_bands:  2 eigenvalues not converged
     c_bands:  1 eigenvalues not converged
     c_bands:  1 eigenvalues not converged
     c_bands:  5 eigenvalues not converged
     c_bands:  5 eigenvalues not converged
     c_bands:  5 eigenvalues not converged
     c_bands:  2 eigenvalues not converged
     c_bands:  5 eigenvalues not converged
     c_bands:  4 eigenvalues not converged
     c_bands:  5 eigenvalues not converged
     ethr =  1.48E-07,  avg # of iterations = 19.9

     negative rho (up, down):  1.725E+02 2.944E-02

     total cpu time spent up to now is     2472.9 secs

     total energy              =   -4568.47803912 Ry
     estimated scf accuracy    <       0.00021439 Ry

     total magnetization       =     0.00    -0.00     0.14 Bohr mag/cell
     absolute magnetization    =    29.93 Bohr mag/cell

     iteration #234     ecut=    80.00 Ry     beta= 0.70
     Davidson diagonalization with overlap
     c_bands:  2 eigenvalues not converged
     c_bands:  5 eigenvalues not converged
     c_bands:  3 eigenvalues not converged
     c_bands:  1 eigenvalues not converged
     c_bands:  1 eigenvalues not converged
     ethr =  1.48E-07,  avg # of iterations = 20.0

     negative rho (up, down):  1.725E+02 2.944E-02

     total cpu time spent up to now is     2484.3 secs

     total energy              =   -4568.47841507 Ry
     estimated scf accuracy    <       0.00011725 Ry

     total magnetization       =     0.00    -0.00     0.02 Bohr mag/cell
     absolute magnetization    =    29.88 Bohr mag/cell

     iteration #235     ecut=    80.00 Ry     beta= 0.70
     Davidson diagonalization with overlap
     c_bands:  1 eigenvalues not converged
     c_bands:  1 eigenvalues not converged
     c_bands:  1 eigenvalues not converged
     c_bands:  2 eigenvalues not converged
     c_bands:  1 eigenvalues not converged
     c_bands:  1 eigenvalues not converged
     c_bands:  2 eigenvalues not converged
     ethr =  1.48E-07,  avg # of iterations = 19.3

     negative rho (up, down):  1.725E+02 2.944E-02

     total cpu time spent up to now is     2495.5 secs

     total energy              =   -4568.47747839 Ry
     estimated scf accuracy    <       0.00021577 Ry

     total magnetization       =    -0.00    -0.00     0.15 Bohr mag/cell
     absolute magnetization    =    29.94 Bohr mag/cell

     iteration #236     ecut=    80.00 Ry     beta= 0.70
     Davidson diagonalization with overlap
     c_bands:  1 eigenvalues not converged
     c_bands:  1 eigenvalues not converged
     c_bands:  1 eigenvalues not converged
     c_bands:  2 eigenvalues not converged
     c_bands:  1 eigenvalues not converged
     c_bands:  4 eigenvalues not converged
     c_bands:  1 eigenvalues not converged
     c_bands:  1 eigenvalues not converged
     ethr =  1.48E-07,  avg # of iterations = 20.7

     negative rho (up, down):  1.725E+02 2.944E-02

     total cpu time spent up to now is     2507.9 secs

     total energy              =   -4568.47902882 Ry
     estimated scf accuracy    <       0.00024740 Ry

     total magnetization       =     0.00    -0.00     0.11 Bohr mag/cell
     absolute magnetization    =    29.97 Bohr mag/cell

     iteration #237     ecut=    80.00 Ry     beta= 0.70
     Davidson diagonalization with overlap
     c_bands:  2 eigenvalues not converged
     c_bands:  4 eigenvalues not converged
     c_bands:  4 eigenvalues not converged
     c_bands:  3 eigenvalues not converged
     c_bands:  1 eigenvalues not converged
     c_bands:  3 eigenvalues not converged
     c_bands:  4 eigenvalues not converged
     c_bands:  1 eigenvalues not converged
     c_bands:  3 eigenvalues not converged
     c_bands:  2 eigenvalues not converged
     c_bands:  3 eigenvalues not converged
     c_bands:  1 eigenvalues not converged
     c_bands:  3 eigenvalues not converged
     c_bands:  4 eigenvalues not converged
     c_bands:  4 eigenvalues not converged
     c_bands:  3 eigenvalues not converged
     c_bands:  1 eigenvalues not converged
     c_bands:  2 eigenvalues not converged
     ethr =  1.48E-07,  avg # of iterations = 19.4

     negative rho (up, down):  1.725E+02 2.944E-02

     total cpu time spent up to now is     2518.5 secs

     total energy              =   -4568.48032324 Ry
     estimated scf accuracy    <       0.00008619 Ry

     total magnetization       =    -0.00     0.00     0.04 Bohr mag/cell
     absolute magnetization    =    29.86 Bohr mag/cell

     iteration #238     ecut=    80.00 Ry     beta= 0.70
     Davidson diagonalization with overlap
     c_bands:  1 eigenvalues not converged
     c_bands:  2 eigenvalues not converged
     c_bands:  1 eigenvalues not converged
     ethr =  1.48E-07,  avg # of iterations = 17.7

     negative rho (up, down):  1.725E+02 2.944E-02

     total cpu time spent up to now is     2529.0 secs

     total energy              =   -4568.48002475 Ry
     estimated scf accuracy    <       0.00015871 Ry

     total magnetization       =    -0.00    -0.00     0.16 Bohr mag/cell
     absolute magnetization    =    29.93 Bohr mag/cell

     iteration #239     ecut=    80.00 Ry     beta= 0.70
     Davidson diagonalization with overlap
     c_bands:  1 eigenvalues not converged
     c_bands:  2 eigenvalues not converged
     c_bands:  2 eigenvalues not converged
     c_bands:  3 eigenvalues not converged
     c_bands:  4 eigenvalues not converged
     c_bands:  2 eigenvalues not converged
     c_bands:  4 eigenvalues not converged
     c_bands:  3 eigenvalues not converged
     c_bands:  5 eigenvalues not converged
     c_bands:  2 eigenvalues not converged
     c_bands:  4 eigenvalues not converged
     c_bands:  3 eigenvalues not converged
     c_bands:  5 eigenvalues not converged
     c_bands:  4 eigenvalues not converged
     c_bands:  2 eigenvalues not converged
     ethr =  1.48E-07,  avg # of iterations = 20.0

     negative rho (up, down):  1.725E+02 2.944E-02

     total cpu time spent up to now is     2540.2 secs

     total energy              =   -4568.48183867 Ry
     estimated scf accuracy    <       0.00020812 Ry

     total magnetization       =    -0.00    -0.00     0.02 Bohr mag/cell
     absolute magnetization    =    29.93 Bohr mag/cell

     iteration #240     ecut=    80.00 Ry     beta= 0.70
     Davidson diagonalization with overlap
     c_bands:  2 eigenvalues not converged
     c_bands:  4 eigenvalues not converged
     c_bands:  4 eigenvalues not converged
     c_bands:  1 eigenvalues not converged
     c_bands:  1 eigenvalues not converged
     c_bands:  4 eigenvalues not converged
     c_bands:  2 eigenvalues not converged
     ethr =  1.48E-07,  avg # of iterations = 19.0

     negative rho (up, down):  1.725E+02 2.944E-02

     total cpu time spent up to now is     2550.4 secs

     total energy              =   -4568.47542025 Ry
     estimated scf accuracy    <       0.00021521 Ry

     total magnetization       =     0.00     0.00     0.04 Bohr mag/cell
     absolute magnetization    =    29.92 Bohr mag/cell

     iteration #241     ecut=    80.00 Ry     beta= 0.70
     Davidson diagonalization with overlap
     c_bands:  1 eigenvalues not converged
     c_bands:  2 eigenvalues not converged
     c_bands:  1 eigenvalues not converged
     c_bands:  3 eigenvalues not converged
     c_bands:  2 eigenvalues not converged
     c_bands:  1 eigenvalues not converged
     c_bands:  2 eigenvalues not converged
     c_bands:  4 eigenvalues not converged
     c_bands:  1 eigenvalues not converged
     c_bands:  2 eigenvalues not converged
     c_bands:  3 eigenvalues not converged
     c_bands:  1 eigenvalues not converged
     ethr =  1.48E-07,  avg # of iterations = 19.8

     negative rho (up, down):  1.725E+02 2.944E-02

     total cpu time spent up to now is     2561.9 secs

     total energy              =   -4568.47697271 Ry
     estimated scf accuracy    <       0.00016829 Ry

     total magnetization       =     0.00     0.00    -0.01 Bohr mag/cell
     absolute magnetization    =    29.90 Bohr mag/cell

     iteration #242     ecut=    80.00 Ry     beta= 0.70
     Davidson diagonalization with overlap
     c_bands:  5 eigenvalues not converged
     c_bands:  2 eigenvalues not converged
     c_bands:  3 eigenvalues not converged
     c_bands:  1 eigenvalues not converged
     c_bands:  5 eigenvalues not converged
     c_bands:  5 eigenvalues not converged
     c_bands:  5 eigenvalues not converged
     c_bands:  3 eigenvalues not converged
     c_bands:  3 eigenvalues not converged
     c_bands:  2 eigenvalues not converged
     c_bands:  2 eigenvalues not converged
     c_bands:  4 eigenvalues not converged
     c_bands:  4 eigenvalues not converged
     c_bands:  2 eigenvalues not converged
     c_bands:  5 eigenvalues not converged
     ethr =  1.48E-07,  avg # of iterations = 20.4

     negative rho (up, down):  1.725E+02 2.944E-02

     total cpu time spent up to now is     2573.6 secs

     total energy              =   -4568.47693667 Ry
     estimated scf accuracy    <       0.00015662 Ry

     total magnetization       =     0.00     0.00     0.10 Bohr mag/cell
     absolute magnetization    =    29.90 Bohr mag/cell

     iteration #243     ecut=    80.00 Ry     beta= 0.70
     Davidson diagonalization with overlap
     c_bands:  4 eigenvalues not converged
     c_bands:  4 eigenvalues not converged
     c_bands:  3 eigenvalues not converged
     c_bands:  5 eigenvalues not converged
     c_bands:  3 eigenvalues not converged
     c_bands:  1 eigenvalues not converged
     c_bands:  4 eigenvalues not converged
     c_bands:  5 eigenvalues not converged
     c_bands:  3 eigenvalues not converged
     c_bands:  2 eigenvalues not converged
     c_bands:  3 eigenvalues not converged
     c_bands:  4 eigenvalues not converged
     c_bands:  5 eigenvalues not converged
     c_bands:  2 eigenvalues not converged
     ethr =  1.48E-07,  avg # of iterations = 20.7

     negative rho (up, down):  1.725E+02 2.944E-02

     total cpu time spent up to now is     2585.9 secs

     total energy              =   -4568.47672831 Ry
     estimated scf accuracy    <       0.00029800 Ry

     total magnetization       =     0.00     0.00     0.06 Bohr mag/cell
     absolute magnetization    =    29.97 Bohr mag/cell

     iteration #244     ecut=    80.00 Ry     beta= 0.70
     Davidson diagonalization with overlap
     c_bands:  1 eigenvalues not converged
     c_bands:  4 eigenvalues not converged
     c_bands:  1 eigenvalues not converged
     c_bands:  1 eigenvalues not converged
     c_bands:  1 eigenvalues not converged
     c_bands:  2 eigenvalues not converged
     c_bands:  1 eigenvalues not converged
     c_bands:  4 eigenvalues not converged
     c_bands:  1 eigenvalues not converged
     c_bands:  2 eigenvalues not converged
     c_bands:  2 eigenvalues not converged
     c_bands:  1 eigenvalues not converged
     ethr =  1.48E-07,  avg # of iterations = 19.2

     negative rho (up, down):  1.725E+02 2.944E-02

     total cpu time spent up to now is     2596.9 secs

     total energy              =   -4568.47491012 Ry
     estimated scf accuracy    <       0.00028490 Ry

     total magnetization       =    -0.00    -0.00     0.04 Bohr mag/cell
     absolute magnetization    =    29.92 Bohr mag/cell

     iteration #245     ecut=    80.00 Ry     beta= 0.70
     Davidson diagonalization with overlap
     c_bands:  4 eigenvalues not converged
     c_bands:  3 eigenvalues not converged
     c_bands:  2 eigenvalues not converged
     c_bands:  2 eigenvalues not converged
     c_bands:  2 eigenvalues not converged
     c_bands:  4 eigenvalues not converged
     c_bands:  3 eigenvalues not converged
     c_bands:  3 eigenvalues not converged
     c_bands:  3 eigenvalues not converged
     c_bands:  2 eigenvalues not converged
     c_bands:  2 eigenvalues not converged
     c_bands:  3 eigenvalues not converged
     c_bands:  4 eigenvalues not converged
     c_bands:  3 eigenvalues not converged
     c_bands:  2 eigenvalues not converged
     c_bands:  2 eigenvalues not converged
     c_bands:  1 eigenvalues not converged
     c_bands:  4 eigenvalues not converged
     ethr =  1.48E-07,  avg # of iterations = 19.8

     negative rho (up, down):  1.725E+02 2.944E-02

     total cpu time spent up to now is     2608.1 secs

     total energy              =   -4568.47848330 Ry
     estimated scf accuracy    <       0.00017979 Ry

     total magnetization       =    -0.00    -0.00     0.12 Bohr mag/cell
     absolute magnetization    =    29.91 Bohr mag/cell

     iteration #246     ecut=    80.00 Ry     beta= 0.70
     Davidson diagonalization with overlap
     c_bands:  2 eigenvalues not converged
     c_bands:  1 eigenvalues not converged
     ethr =  1.48E-07,  avg # of iterations = 17.9

     negative rho (up, down):  1.725E+02 2.944E-02

     total cpu time spent up to now is     2618.1 secs

     total energy              =   -4568.47904368 Ry
     estimated scf accuracy    <       0.00010375 Ry

     total magnetization       =    -0.00    -0.00     0.00 Bohr mag/cell
     absolute magnetization    =    29.85 Bohr mag/cell

     iteration #247     ecut=    80.00 Ry     beta= 0.70
     Davidson diagonalization with overlap
     c_bands:  1 eigenvalues not converged
     c_bands:  1 eigenvalues not converged
     c_bands:  2 eigenvalues not converged
     c_bands:  2 eigenvalues not converged
     c_bands:  2 eigenvalues not converged
     c_bands:  2 eigenvalues not converged
     c_bands:  1 eigenvalues not converged
     c_bands:  4 eigenvalues not converged
     ethr =  1.48E-07,  avg # of iterations = 18.9

     negative rho (up, down):  1.725E+02 2.944E-02

     total cpu time spent up to now is     2628.7 secs

     total energy              =   -4568.47735175 Ry
     estimated scf accuracy    <       0.00020649 Ry

     total magnetization       =    -0.00     0.00    -0.05 Bohr mag/cell
     absolute magnetization    =    29.90 Bohr mag/cell

     iteration #248     ecut=    80.00 Ry     beta= 0.70
     Davidson diagonalization with overlap
     c_bands:  3 eigenvalues not converged
     c_bands:  1 eigenvalues not converged
     c_bands:  1 eigenvalues not converged
     c_bands:  2 eigenvalues not converged
     c_bands:  1 eigenvalues not converged
     c_bands:  2 eigenvalues not converged
     c_bands:  3 eigenvalues not converged
     c_bands:  4 eigenvalues not converged
     c_bands:  4 eigenvalues not converged
     c_bands:  2 eigenvalues not converged
     ethr =  1.48E-07,  avg # of iterations = 19.8

     negative rho (up, down):  1.725E+02 2.944E-02

     total cpu time spent up to now is     2639.5 secs

     total energy              =   -4568.47897878 Ry
     estimated scf accuracy    <       0.00021115 Ry

     total magnetization       =     0.00    -0.00     0.20 Bohr mag/cell
     absolute magnetization    =    29.94 Bohr mag/cell

     iteration #249     ecut=    80.00 Ry     beta= 0.70
     Davidson diagonalization with overlap
     c_bands:  2 eigenvalues not converged
     c_bands:  2 eigenvalues not converged
     c_bands:  4 eigenvalues not converged
     c_bands:  2 eigenvalues not converged
     c_bands:  1 eigenvalues not converged
     c_bands:  3 eigenvalues not converged
     c_bands:  1 eigenvalues not converged
     c_bands:  1 eigenvalues not converged
     c_bands:  2 eigenvalues not converged
     c_bands:  2 eigenvalues not converged
     c_bands:  3 eigenvalues not converged
     c_bands:  2 eigenvalues not converged
     c_bands:  1 eigenvalues not converged
     c_bands:  5 eigenvalues not converged
     c_bands:  2 eigenvalues not converged
     ethr =  1.48E-07,  avg # of iterations = 19.6

     negative rho (up, down):  1.725E+02 2.944E-02

     total cpu time spent up to now is     2650.5 secs

     total energy              =   -4568.47375032 Ry
     estimated scf accuracy    <       0.00019006 Ry

     total magnetization       =     0.00     0.00     0.04 Bohr mag/cell
     absolute magnetization    =    29.90 Bohr mag/cell

     iteration #250     ecut=    80.00 Ry     beta= 0.70
     Davidson diagonalization with overlap
     c_bands:  2 eigenvalues not converged
     c_bands:  4 eigenvalues not converged
     c_bands:  1 eigenvalues not converged
     c_bands:  2 eigenvalues not converged
     c_bands:  3 eigenvalues not converged
     c_bands:  1 eigenvalues not converged
     c_bands:  1 eigenvalues not converged
     c_bands:  3 eigenvalues not converged
     c_bands:  1 eigenvalues not converged
     c_bands:  1 eigenvalues not converged
     c_bands:  2 eigenvalues not converged
     c_bands:  4 eigenvalues not converged
     c_bands:  1 eigenvalues not converged
     c_bands:  3 eigenvalues not converged
     ethr =  1.48E-07,  avg # of iterations = 19.9

     negative rho (up, down):  1.725E+02 2.941E-02

     total cpu time spent up to now is     2662.1 secs

     total energy              =   -4568.47537484 Ry
     estimated scf accuracy    <       0.00025652 Ry

     total magnetization       =    -0.00     0.00    -0.01 Bohr mag/cell
     absolute magnetization    =    29.92 Bohr mag/cell

     iteration #251     ecut=    80.00 Ry     beta= 0.70
     Davidson diagonalization with overlap
     c_bands:  2 eigenvalues not converged
     c_bands:  2 eigenvalues not converged
     c_bands:  3 eigenvalues not converged
     c_bands:  2 eigenvalues not converged
     c_bands:  3 eigenvalues not converged
     c_bands:  2 eigenvalues not converged
     c_bands:  1 eigenvalues not converged
     c_bands:  2 eigenvalues not converged
     c_bands:  5 eigenvalues not converged
     c_bands:  2 eigenvalues not converged
     c_bands:  1 eigenvalues not converged
     c_bands:  1 eigenvalues not converged
     ethr =  1.48E-07,  avg # of iterations = 19.1

     negative rho (up, down):  1.725E+02 2.944E-02

     total cpu time spent up to now is     2673.0 secs

     total energy              =   -4568.47740565 Ry
     estimated scf accuracy    <       0.00014710 Ry

     total magnetization       =     0.00    -0.00    -0.05 Bohr mag/cell
     absolute magnetization    =    29.88 Bohr mag/cell

     iteration #252     ecut=    80.00 Ry     beta= 0.70
     Davidson diagonalization with overlap
     c_bands:  2 eigenvalues not converged
     c_bands:  4 eigenvalues not converged
     c_bands:  4 eigenvalues not converged
     c_bands:  2 eigenvalues not converged
     c_bands:  4 eigenvalues not converged
     c_bands:  2 eigenvalues not converged
     c_bands:  2 eigenvalues not converged
     c_bands:  5 eigenvalues not converged
     c_bands:  5 eigenvalues not converged
     c_bands:  3 eigenvalues not converged
     c_bands:  3 eigenvalues not converged
     c_bands:  2 eigenvalues not converged
     c_bands:  1 eigenvalues not converged
     c_bands:  1 eigenvalues not converged
     c_bands:  4 eigenvalues not converged
     c_bands:  5 eigenvalues not converged
     c_bands:  5 eigenvalues not converged
     c_bands:  3 eigenvalues not converged
     c_bands:  2 eigenvalues not converged
     ethr =  1.48E-07,  avg # of iterations = 19.9

     negative rho (up, down):  1.725E+02 2.940E-02

     total cpu time spent up to now is     2684.3 secs

     total energy              =   -4568.47621755 Ry
     estimated scf accuracy    <       0.00024379 Ry

     total magnetization       =     0.00     0.00     0.10 Bohr mag/cell
     absolute magnetization    =    29.94 Bohr mag/cell

     iteration #253     ecut=    80.00 Ry     beta= 0.70
     Davidson diagonalization with overlap
     c_bands:  2 eigenvalues not converged
     c_bands:  2 eigenvalues not converged
     c_bands:  4 eigenvalues not converged
     c_bands:  4 eigenvalues not converged
     c_bands:  2 eigenvalues not converged
     c_bands:  4 eigenvalues not converged
     c_bands:  2 eigenvalues not converged
     c_bands:  3 eigenvalues not converged
     c_bands:  2 eigenvalues not converged
     c_bands:  3 eigenvalues not converged
     c_bands:  4 eigenvalues not converged
     c_bands:  3 eigenvalues not converged
     ethr =  1.48E-07,  avg # of iterations = 21.9

     negative rho (up, down):  1.725E+02 2.944E-02

     total cpu time spent up to now is     2696.4 secs

     total energy              =   -4568.47687595 Ry
     estimated scf accuracy    <       0.00021068 Ry

     total magnetization       =     0.00     0.00     0.13 Bohr mag/cell
     absolute magnetization    =    29.93 Bohr mag/cell

     iteration #254     ecut=    80.00 Ry     beta= 0.70
     Davidson diagonalization with overlap
     c_bands:  4 eigenvalues not converged
     c_bands:  2 eigenvalues not converged
     c_bands:  1 eigenvalues not converged
     c_bands:  1 eigenvalues not converged
     c_bands:  3 eigenvalues not converged
     c_bands:  3 eigenvalues not converged
     c_bands:  3 eigenvalues not converged
     c_bands:  3 eigenvalues not converged
     c_bands:  1 eigenvalues not converged
     c_bands:  4 eigenvalues not converged
     c_bands:  1 eigenvalues not converged
     c_bands:  1 eigenvalues not converged
     c_bands:  4 eigenvalues not converged
     c_bands:  2 eigenvalues not converged
     ethr =  1.48E-07,  avg # of iterations = 19.5

     negative rho (up, down):  1.725E+02 2.943E-02

     total cpu time spent up to now is     2707.7 secs

     total energy              =   -4568.47658053 Ry
     estimated scf accuracy    <       0.00041530 Ry

     total magnetization       =    -0.00    -0.00    -0.05 Bohr mag/cell
     absolute magnetization    =    29.96 Bohr mag/cell

     iteration #255     ecut=    80.00 Ry     beta= 0.70
     Davidson diagonalization with overlap
     c_bands:  2 eigenvalues not converged
     c_bands:  1 eigenvalues not converged
     c_bands:  2 eigenvalues not converged
     c_bands:  5 eigenvalues not converged
     c_bands:  1 eigenvalues not converged
     c_bands:  2 eigenvalues not converged
     c_bands:  4 eigenvalues not converged
     c_bands:  1 eigenvalues not converged
     c_bands:  2 eigenvalues not converged
     c_bands:  1 eigenvalues not converged
     c_bands:  1 eigenvalues not converged
     c_bands:  1 eigenvalues not converged
     c_bands:  2 eigenvalues not converged
     c_bands:  4 eigenvalues not converged
     c_bands:  1 eigenvalues not converged
     c_bands:  2 eigenvalues not converged
     c_bands:  4 eigenvalues not converged
     c_bands:  2 eigenvalues not converged
     ethr =  1.48E-07,  avg # of iterations = 20.0

     negative rho (up, down):  1.725E+02 2.943E-02

     total cpu time spent up to now is     2718.8 secs

     total energy              =   -4568.47548753 Ry
     estimated scf accuracy    <       0.00023722 Ry

     total magnetization       =    -0.00     0.00     0.12 Bohr mag/cell
     absolute magnetization    =    29.95 Bohr mag/cell

     iteration #256     ecut=    80.00 Ry     beta= 0.70
     Davidson diagonalization with overlap
     c_bands:  2 eigenvalues not converged
     c_bands:  1 eigenvalues not converged
     c_bands:  5 eigenvalues not converged
     c_bands:  3 eigenvalues not converged
     c_bands:  3 eigenvalues not converged
     c_bands:  1 eigenvalues not converged
     c_bands:  4 eigenvalues not converged
     c_bands:  5 eigenvalues not converged
     c_bands:  2 eigenvalues not converged
     c_bands:  1 eigenvalues not converged
     c_bands:  1 eigenvalues not converged
     c_bands:  4 eigenvalues not converged
     c_bands:  5 eigenvalues not converged
     c_bands:  3 eigenvalues not converged
     c_bands:  1 eigenvalues not converged
     c_bands:  1 eigenvalues not converged
     ethr =  1.48E-07,  avg # of iterations = 20.1

     negative rho (up, down):  1.725E+02 2.943E-02

     total cpu time spent up to now is     2730.4 secs

     total energy              =   -4568.47775763 Ry
     estimated scf accuracy    <       0.00027639 Ry

     total magnetization       =    -0.00     0.00     0.01 Bohr mag/cell
     absolute magnetization    =    29.92 Bohr mag/cell

     iteration #257     ecut=    80.00 Ry     beta= 0.70
     Davidson diagonalization with overlap
     c_bands:  1 eigenvalues not converged
     c_bands:  2 eigenvalues not converged
     c_bands:  1 eigenvalues not converged
     c_bands:  1 eigenvalues not converged
     c_bands:  2 eigenvalues not converged
     c_bands:  1 eigenvalues not converged
     c_bands:  1 eigenvalues not converged
     c_bands:  1 eigenvalues not converged
     c_bands:  2 eigenvalues not converged
     ethr =  1.48E-07,  avg # of iterations = 19.4

     negative rho (up, down):  1.725E+02 2.944E-02

     total cpu time spent up to now is     2741.4 secs

     total energy              =   -4568.47958922 Ry
     estimated scf accuracy    <       0.00017452 Ry

     total magnetization       =    -0.00     0.00     0.04 Bohr mag/cell
     absolute magnetization    =    29.90 Bohr mag/cell

     iteration #258     ecut=    80.00 Ry     beta= 0.70
     Davidson diagonalization with overlap
     c_bands:  2 eigenvalues not converged
     c_bands:  1 eigenvalues not converged
     c_bands:  3 eigenvalues not converged
     c_bands:  1 eigenvalues not converged
     c_bands:  4 eigenvalues not converged
     c_bands:  2 eigenvalues not converged
     c_bands:  2 eigenvalues not converged
     c_bands:  1 eigenvalues not converged
     c_bands:  3 eigenvalues not converged
     c_bands:  3 eigenvalues not converged
     c_bands:  2 eigenvalues not converged
     c_bands:  1 eigenvalues not converged
     ethr =  1.48E-07,  avg # of iterations = 19.3

     negative rho (up, down):  1.725E+02 2.943E-02

     total cpu time spent up to now is     2751.7 secs

     total energy              =   -4568.47873330 Ry
     estimated scf accuracy    <       0.00021118 Ry

     total magnetization       =    -0.00     0.00     0.18 Bohr mag/cell
     absolute magnetization    =    29.93 Bohr mag/cell

     iteration #259     ecut=    80.00 Ry     beta= 0.70
     Davidson diagonalization with overlap
     c_bands:  2 eigenvalues not converged
     c_bands:  1 eigenvalues not converged
     c_bands:  1 eigenvalues not converged
     c_bands:  1 eigenvalues not converged
     c_bands:  2 eigenvalues not converged
     c_bands:  3 eigenvalues not converged
     c_bands:  1 eigenvalues not converged
     c_bands:  2 eigenvalues not converged
     c_bands:  1 eigenvalues not converged
     c_bands:  1 eigenvalues not converged
     c_bands:  1 eigenvalues not converged
     c_bands:  2 eigenvalues not converged
     c_bands:  1 eigenvalues not converged
     c_bands:  2 eigenvalues not converged
     ethr =  1.48E-07,  avg # of iterations = 19.9

     negative rho (up, down):  1.725E+02 2.943E-02

     total cpu time spent up to now is     2762.7 secs

     total energy              =   -4568.47618261 Ry
     estimated scf accuracy    <       0.00013966 Ry

     total magnetization       =    -0.00    -0.00     0.07 Bohr mag/cell
     absolute magnetization    =    29.87 Bohr mag/cell

     iteration #260     ecut=    80.00 Ry     beta= 0.70
     Davidson diagonalization with overlap
     c_bands:  2 eigenvalues not converged
     c_bands:  3 eigenvalues not converged
     c_bands:  1 eigenvalues not converged
     c_bands:  2 eigenvalues not converged
     c_bands:  2 eigenvalues not converged
     c_bands:  3 eigenvalues not converged
     c_bands:  1 eigenvalues not converged
     c_bands:  3 eigenvalues not converged
     c_bands:  3 eigenvalues not converged
     c_bands:  2 eigenvalues not converged
     c_bands:  2 eigenvalues not converged
     c_bands:  1 eigenvalues not converged
     c_bands:  3 eigenvalues not converged
     c_bands:  1 eigenvalues not converged
     c_bands:  2 eigenvalues not converged
     ethr =  1.48E-07,  avg # of iterations = 20.6

     negative rho (up, down):  1.725E+02 2.943E-02

     total cpu time spent up to now is     2774.1 secs

     total energy              =   -4568.47498979 Ry
     estimated scf accuracy    <       0.00031250 Ry

     total magnetization       =    -0.00    -0.00     0.11 Bohr mag/cell
     absolute magnetization    =    29.95 Bohr mag/cell

     iteration #261     ecut=    80.00 Ry     beta= 0.70
     Davidson diagonalization with overlap
     c_bands:  1 eigenvalues not converged
     c_bands:  3 eigenvalues not converged
     c_bands:  1 eigenvalues not converged
     c_bands:  1 eigenvalues not converged
     c_bands:  2 eigenvalues not converged
     ethr =  1.48E-07,  avg # of iterations = 19.1

     negative rho (up, down):  1.725E+02 2.943E-02

     total cpu time spent up to now is     2785.2 secs

     total energy              =   -4568.47620473 Ry
     estimated scf accuracy    <       0.00019421 Ry

     total magnetization       =     0.00    -0.00    -0.02 Bohr mag/cell
     absolute magnetization    =    29.91 Bohr mag/cell

     iteration #262     ecut=    80.00 Ry     beta= 0.70
     Davidson diagonalization with overlap
     c_bands:  4 eigenvalues not converged
     c_bands:  1 eigenvalues not converged
     c_bands:  1 eigenvalues not converged
     c_bands:  1 eigenvalues not converged
     c_bands:  1 eigenvalues not converged
     c_bands:  1 eigenvalues not converged
     c_bands:  3 eigenvalues not converged
     c_bands:  1 eigenvalues not converged
     c_bands:  2 eigenvalues not converged
     c_bands:  1 eigenvalues not converged
     c_bands:  2 eigenvalues not converged
     c_bands:  2 eigenvalues not converged
     c_bands:  3 eigenvalues not converged
     c_bands:  1 eigenvalues not converged
     ethr =  1.48E-07,  avg # of iterations = 19.5

     negative rho (up, down):  1.725E+02 2.943E-02

     total cpu time spent up to now is     2796.0 secs

     total energy              =   -4568.47824536 Ry
     estimated scf accuracy    <       0.00013002 Ry

     total magnetization       =     0.00    -0.00     0.16 Bohr mag/cell
     absolute magnetization    =    29.88 Bohr mag/cell

     iteration #263     ecut=    80.00 Ry     beta= 0.70
     Davidson diagonalization with overlap
     c_bands:  1 eigenvalues not converged
     c_bands:  2 eigenvalues not converged
     c_bands:  1 eigenvalues not converged
     c_bands:  1 eigenvalues not converged
     c_bands:  1 eigenvalues not converged
     c_bands:  2 eigenvalues not converged
     c_bands:  1 eigenvalues not converged
     c_bands:  1 eigenvalues not converged
     c_bands:  1 eigenvalues not converged
     ethr =  1.48E-07,  avg # of iterations = 19.5

     negative rho (up, down):  1.725E+02 2.944E-02

     total cpu time spent up to now is     2807.0 secs

     total energy              =   -4568.47770035 Ry
     estimated scf accuracy    <       0.00026832 Ry

     total magnetization       =     0.00     0.00     0.05 Bohr mag/cell
     absolute magnetization    =    29.92 Bohr mag/cell

     iteration #264     ecut=    80.00 Ry     beta= 0.70
     Davidson diagonalization with overlap
     c_bands:  2 eigenvalues not converged
     c_bands:  1 eigenvalues not converged
     c_bands:  2 eigenvalues not converged
     c_bands:  3 eigenvalues not converged
     c_bands:  2 eigenvalues not converged
     c_bands:  2 eigenvalues not converged
     c_bands:  2 eigenvalues not converged
     c_bands:  3 eigenvalues not converged
     c_bands:  1 eigenvalues not converged
     c_bands:  1 eigenvalues not converged
     c_bands:  1 eigenvalues not converged
     c_bands:  2 eigenvalues not converged
     c_bands:  3 eigenvalues not converged
     c_bands:  1 eigenvalues not converged
     c_bands:  1 eigenvalues not converged
     ethr =  1.48E-07,  avg # of iterations = 19.8

     negative rho (up, down):  1.725E+02 2.943E-02

     total cpu time spent up to now is     2818.1 secs

     total energy              =   -4568.47587607 Ry
     estimated scf accuracy    <       0.00042546 Ry

     total magnetization       =     0.00    -0.00    -0.09 Bohr mag/cell
     absolute magnetization    =    29.97 Bohr mag/cell

     iteration #265     ecut=    80.00 Ry     beta= 0.70
     Davidson diagonalization with overlap
     c_bands:  1 eigenvalues not converged
     c_bands:  2 eigenvalues not converged
     c_bands:  2 eigenvalues not converged
     c_bands:  2 eigenvalues not converged
     c_bands:  2 eigenvalues not converged
     c_bands:  1 eigenvalues not converged
     c_bands:  3 eigenvalues not converged
     c_bands:  2 eigenvalues not converged
     c_bands:  1 eigenvalues not converged
     c_bands:  1 eigenvalues not converged
     c_bands:  2 eigenvalues not converged
     c_bands:  2 eigenvalues not converged
     c_bands:  1 eigenvalues not converged
     ethr =  1.48E-07,  avg # of iterations = 19.6

     negative rho (up, down):  1.725E+02 2.944E-02

     total cpu time spent up to now is     2828.7 secs

     total energy              =   -4568.47927276 Ry
     estimated scf accuracy    <       0.00008956 Ry

     total magnetization       =    -0.00     0.00     0.08 Bohr mag/cell
     absolute magnetization    =    29.87 Bohr mag/cell

     iteration #266     ecut=    80.00 Ry     beta= 0.70
     Davidson diagonalization with overlap
     c_bands:  5 eigenvalues not converged
     c_bands:  1 eigenvalues not converged
     c_bands:  1 eigenvalues not converged
     c_bands:  1 eigenvalues not converged
     c_bands:  1 eigenvalues not converged
     c_bands:  2 eigenvalues not converged
     c_bands:  5 eigenvalues not converged
     c_bands:  1 eigenvalues not converged
     c_bands:  1 eigenvalues not converged
     ethr =  1.48E-07,  avg # of iterations = 18.5

     negative rho (up, down):  1.725E+02 2.943E-02

     total cpu time spent up to now is     2839.3 secs

     total energy              =   -4568.47768921 Ry
     estimated scf accuracy    <       0.00013875 Ry

     total magnetization       =     0.00     0.00     0.04 Bohr mag/cell
     absolute magnetization    =    29.89 Bohr mag/cell

     iteration #267     ecut=    80.00 Ry     beta= 0.70
     Davidson diagonalization with overlap
     c_bands:  5 eigenvalues not converged
     c_bands:  1 eigenvalues not converged
     c_bands:  2 eigenvalues not converged
     c_bands:  1 eigenvalues not converged
     c_bands:  1 eigenvalues not converged
     c_bands:  1 eigenvalues not converged
     c_bands:  5 eigenvalues not converged
     c_bands:  2 eigenvalues not converged
     c_bands:  4 eigenvalues not converged
     c_bands:  5 eigenvalues not converged
     ethr =  1.48E-07,  avg # of iterations = 20.0

     negative rho (up, down):  1.725E+02 2.941E-02

     total cpu time spent up to now is     2850.8 secs

     total energy              =   -4568.47732993 Ry
     estimated scf accuracy    <       0.00014722 Ry

     total magnetization       =     0.00     0.00     0.01 Bohr mag/cell
     absolute magnetization    =    29.89 Bohr mag/cell

     iteration #268     ecut=    80.00 Ry     beta= 0.70
     Davidson diagonalization with overlap
     c_bands:  2 eigenvalues not converged
     c_bands:  1 eigenvalues not converged
     c_bands:  2 eigenvalues not converged
     c_bands:  3 eigenvalues not converged
     c_bands:  3 eigenvalues not converged
     c_bands:  5 eigenvalues not converged
     c_bands:  3 eigenvalues not converged
     c_bands:  2 eigenvalues not converged
     c_bands:  3 eigenvalues not converged
     c_bands:  2 eigenvalues not converged
     c_bands:  2 eigenvalues not converged
     c_bands:  4 eigenvalues not converged
     c_bands:  4 eigenvalues not converged
     c_bands:  3 eigenvalues not converged
     c_bands:  5 eigenvalues not converged
     ethr =  1.48E-07,  avg # of iterations = 20.1

     negative rho (up, down):  1.725E+02 2.946E-02

     total cpu time spent up to now is     2862.1 secs

     total energy              =   -4568.47836226 Ry
     estimated scf accuracy    <       0.00020152 Ry

     total magnetization       =    -0.00     0.00     0.10 Bohr mag/cell
     absolute magnetization    =    29.94 Bohr mag/cell

     iteration #269     ecut=    80.00 Ry     beta= 0.70
     Davidson diagonalization with overlap
     c_bands:  3 eigenvalues not converged
     c_bands:  1 eigenvalues not converged
     c_bands:  2 eigenvalues not converged
     c_bands:  2 eigenvalues not converged
     c_bands:  4 eigenvalues not converged
     c_bands:  1 eigenvalues not converged
     c_bands:  2 eigenvalues not converged
     c_bands:  1 eigenvalues not converged
     c_bands:  2 eigenvalues not converged
     c_bands:  2 eigenvalues not converged
     c_bands:  2 eigenvalues not converged
     c_bands:  1 eigenvalues not converged
     c_bands:  2 eigenvalues not converged
     c_bands:  1 eigenvalues not converged
     c_bands:  2 eigenvalues not converged
     ethr =  1.48E-07,  avg # of iterations = 20.0

     negative rho (up, down):  1.725E+02 2.944E-02

     total cpu time spent up to now is     2873.3 secs

     total energy              =   -4568.47796323 Ry
     estimated scf accuracy    <       0.00020968 Ry

     total magnetization       =    -0.00    -0.00     0.08 Bohr mag/cell
     absolute magnetization    =    29.92 Bohr mag/cell

     iteration #270     ecut=    80.00 Ry     beta= 0.70
     Davidson diagonalization with overlap
     c_bands:  2 eigenvalues not converged
     c_bands:  2 eigenvalues not converged
     c_bands:  4 eigenvalues not converged
     c_bands:  4 eigenvalues not converged
     ethr =  1.48E-07,  avg # of iterations = 19.8

     negative rho (up, down):  1.725E+02 2.944E-02

     total cpu time spent up to now is     2884.7 secs

     total energy              =   -4568.47649833 Ry
     estimated scf accuracy    <       0.00024734 Ry

     total magnetization       =    -0.00     0.00     0.09 Bohr mag/cell
     absolute magnetization    =    29.94 Bohr mag/cell

     iteration #271     ecut=    80.00 Ry     beta= 0.70
     Davidson diagonalization with overlap
     c_bands:  4 eigenvalues not converged
     c_bands:  3 eigenvalues not converged
     c_bands:  2 eigenvalues not converged
     c_bands:  1 eigenvalues not converged
     c_bands:  1 eigenvalues not converged
     c_bands:  2 eigenvalues not converged
     c_bands:  1 eigenvalues not converged
     c_bands:  2 eigenvalues not converged
     c_bands:  1 eigenvalues not converged
     ethr =  1.48E-07,  avg # of iterations = 18.8

     negative rho (up, down):  1.725E+02 2.944E-02

     total cpu time spent up to now is     2895.8 secs

     total energy              =   -4568.47348082 Ry
     estimated scf accuracy    <       0.00030733 Ry

     total magnetization       =    -0.00    -0.00    -0.04 Bohr mag/cell
     absolute magnetization    =    29.94 Bohr mag/cell

     iteration #272     ecut=    80.00 Ry     beta= 0.70
     Davidson diagonalization with overlap
     c_bands:  4 eigenvalues not converged
     c_bands:  2 eigenvalues not converged
     c_bands:  2 eigenvalues not converged
     c_bands:  1 eigenvalues not converged
     c_bands:  1 eigenvalues not converged
     c_bands:  2 eigenvalues not converged
     c_bands:  4 eigenvalues not converged
     ethr =  1.48E-07,  avg # of iterations = 20.1

     negative rho (up, down):  1.725E+02 2.944E-02

     total cpu time spent up to now is     2907.4 secs

     total energy              =   -4568.47921722 Ry
     estimated scf accuracy    <       0.00018496 Ry

     total magnetization       =     0.00    -0.00     0.21 Bohr mag/cell
     absolute magnetization    =    29.93 Bohr mag/cell

     iteration #273     ecut=    80.00 Ry     beta= 0.70
     Davidson diagonalization with overlap
     c_bands:  3 eigenvalues not converged
     c_bands:  1 eigenvalues not converged
     c_bands:  2 eigenvalues not converged
     c_bands:  1 eigenvalues not converged
     c_bands:  2 eigenvalues not converged
     c_bands:  4 eigenvalues not converged
     c_bands:  1 eigenvalues not converged
     c_bands:  1 eigenvalues not converged
     c_bands:  2 eigenvalues not converged
     c_bands:  1 eigenvalues not converged
     c_bands:  2 eigenvalues not converged
     c_bands:  2 eigenvalues not converged
     c_bands:  3 eigenvalues not converged
     ethr =  1.48E-07,  avg # of iterations = 18.6

     negative rho (up, down):  1.725E+02 2.944E-02

     total cpu time spent up to now is     2917.7 secs

     total energy              =   -4568.47887442 Ry
     estimated scf accuracy    <       0.00012404 Ry

     total magnetization       =     0.00    -0.00     0.02 Bohr mag/cell
     absolute magnetization    =    29.87 Bohr mag/cell

     iteration #274     ecut=    80.00 Ry     beta= 0.70
     Davidson diagonalization with overlap
     c_bands:  1 eigenvalues not converged
     c_bands:  1 eigenvalues not converged
     ethr =  1.48E-07,  avg # of iterations = 17.5

     negative rho (up, down):  1.725E+02 2.943E-02

     total cpu time spent up to now is     2928.1 secs

     total energy              =   -4568.47747444 Ry
     estimated scf accuracy    <       0.00015541 Ry

     total magnetization       =    -0.00    -0.00    -0.01 Bohr mag/cell
     absolute magnetization    =    29.88 Bohr mag/cell

     iteration #275     ecut=    80.00 Ry     beta= 0.70
     Davidson diagonalization with overlap
     c_bands:  2 eigenvalues not converged
     c_bands:  1 eigenvalues not converged
     c_bands:  2 eigenvalues not converged
     c_bands:  1 eigenvalues not converged
     c_bands:  1 eigenvalues not converged
     c_bands:  2 eigenvalues not converged
     c_bands:  1 eigenvalues not converged
     c_bands:  1 eigenvalues not converged
     c_bands:  1 eigenvalues not converged
     ethr =  1.48E-07,  avg # of iterations = 19.4

     negative rho (up, down):  1.725E+02 2.944E-02

     total cpu time spent up to now is     2939.2 secs

     total energy              =   -4568.47719474 Ry
     estimated scf accuracy    <       0.00019975 Ry

     total magnetization       =    -0.00    -0.00     0.03 Bohr mag/cell
     absolute magnetization    =    29.90 Bohr mag/cell

     iteration #276     ecut=    80.00 Ry     beta= 0.70
     Davidson diagonalization with overlap
     c_bands:  1 eigenvalues not converged
     c_bands:  1 eigenvalues not converged
     c_bands:  1 eigenvalues not converged
     c_bands:  1 eigenvalues not converged
     c_bands:  1 eigenvalues not converged
     ethr =  1.48E-07,  avg # of iterations = 17.9

     negative rho (up, down):  1.725E+02 2.944E-02

     total cpu time spent up to now is     2949.6 secs

     total energy              =   -4568.47734037 Ry
     estimated scf accuracy    <       0.00019389 Ry

     total magnetization       =     0.00     0.00    -0.02 Bohr mag/cell
     absolute magnetization    =    29.89 Bohr mag/cell

     iteration #277     ecut=    80.00 Ry     beta= 0.70
     Davidson diagonalization with overlap
     c_bands:  4 eigenvalues not converged
     c_bands:  1 eigenvalues not converged
     c_bands:  2 eigenvalues not converged
     c_bands:  1 eigenvalues not converged
     c_bands:  2 eigenvalues not converged
     c_bands:  2 eigenvalues not converged
     c_bands:  3 eigenvalues not converged
     c_bands:  2 eigenvalues not converged
     c_bands:  1 eigenvalues not converged
     c_bands:  1 eigenvalues not converged
     c_bands:  1 eigenvalues not converged
     c_bands:  1 eigenvalues not converged
     ethr =  1.48E-07,  avg # of iterations = 19.8

     negative rho (up, down):  1.725E+02 2.944E-02

     total cpu time spent up to now is     2960.6 secs

     total energy              =   -4568.47786685 Ry
     estimated scf accuracy    <       0.00019307 Ry

     total magnetization       =     0.00     0.00    -0.06 Bohr mag/cell
     absolute magnetization    =    29.91 Bohr mag/cell

     iteration #278     ecut=    80.00 Ry     beta= 0.70
     Davidson diagonalization with overlap
     c_bands:  1 eigenvalues not converged
     c_bands:  5 eigenvalues not converged
     c_bands:  1 eigenvalues not converged
     c_bands:  1 eigenvalues not converged
     c_bands:  3 eigenvalues not converged
     c_bands:  2 eigenvalues not converged
     c_bands:  2 eigenvalues not converged
     c_bands:  1 eigenvalues not converged
     c_bands:  2 eigenvalues not converged
     c_bands:  1 eigenvalues not converged
     c_bands:  2 eigenvalues not converged
     c_bands:  3 eigenvalues not converged
     c_bands:  4 eigenvalues not converged
     c_bands:  2 eigenvalues not converged
     c_bands:  2 eigenvalues not converged
     ethr =  1.48E-07,  avg # of iterations = 20.1

     negative rho (up, down):  1.725E+02 2.943E-02

     total cpu time spent up to now is     2971.7 secs

     total energy              =   -4568.47598591 Ry
     estimated scf accuracy    <       0.00019577 Ry

     total magnetization       =    -0.00     0.00     0.12 Bohr mag/cell
     absolute magnetization    =    29.94 Bohr mag/cell

     iteration #279     ecut=    80.00 Ry     beta= 0.70
     Davidson diagonalization with overlap
     c_bands:  3 eigenvalues not converged
     c_bands:  4 eigenvalues not converged
     c_bands:  2 eigenvalues not converged
     c_bands:  2 eigenvalues not converged
     c_bands:  4 eigenvalues not converged
     c_bands:  5 eigenvalues not converged
     c_bands:  3 eigenvalues not converged
     c_bands:  2 eigenvalues not converged
     c_bands:  3 eigenvalues not converged
     c_bands:  3 eigenvalues not converged
     c_bands:  4 eigenvalues not converged
     c_bands:  3 eigenvalues not converged
     c_bands:  1 eigenvalues not converged
     c_bands:  2 eigenvalues not converged
     c_bands:  3 eigenvalues not converged
     c_bands:  4 eigenvalues not converged
     c_bands:  3 eigenvalues not converged
     c_bands:  3 eigenvalues not converged
     c_bands:  4 eigenvalues not converged
     ethr =  1.48E-07,  avg # of iterations = 20.2

     negative rho (up, down):  1.725E+02 2.943E-02

     total cpu time spent up to now is     2983.8 secs

     total energy              =   -4568.47815326 Ry
     estimated scf accuracy    <       0.00026759 Ry

     total magnetization       =     0.00    -0.00     0.05 Bohr mag/cell
     absolute magnetization    =    29.93 Bohr mag/cell

     iteration #280     ecut=    80.00 Ry     beta= 0.70
     Davidson diagonalization with overlap
     c_bands:  2 eigenvalues not converged
     c_bands:  3 eigenvalues not converged
     c_bands:  1 eigenvalues not converged
     c_bands:  2 eigenvalues not converged
     c_bands:  1 eigenvalues not converged
     c_bands:  1 eigenvalues not converged
     ethr =  1.48E-07,  avg # of iterations = 18.8

     negative rho (up, down):  1.725E+02 2.943E-02

     total cpu time spent up to now is     2994.6 secs

     total energy              =   -4568.47742660 Ry
     estimated scf accuracy    <       0.00018260 Ry

     total magnetization       =    -0.00     0.00     0.02 Bohr mag/cell
     absolute magnetization    =    29.88 Bohr mag/cell

     iteration #281     ecut=    80.00 Ry     beta= 0.70
     Davidson diagonalization with overlap
     c_bands:  2 eigenvalues not converged
     c_bands:  2 eigenvalues not converged
     c_bands:  2 eigenvalues not converged
     c_bands:  2 eigenvalues not converged
     c_bands:  2 eigenvalues not converged
     c_bands:  2 eigenvalues not converged
     c_bands:  1 eigenvalues not converged
     c_bands:  3 eigenvalues not converged
     c_bands:  4 eigenvalues not converged
     ethr =  1.48E-07,  avg # of iterations = 19.5

     negative rho (up, down):  1.725E+02 2.941E-02

     total cpu time spent up to now is     3005.6 secs

     total energy              =   -4568.47630277 Ry
     estimated scf accuracy    <       0.00020675 Ry

     total magnetization       =    -0.00     0.00     0.06 Bohr mag/cell
     absolute magnetization    =    29.91 Bohr mag/cell

     iteration #282     ecut=    80.00 Ry     beta= 0.70
     Davidson diagonalization with overlap
     c_bands:  1 eigenvalues not converged
     c_bands:  2 eigenvalues not converged
     c_bands:  4 eigenvalues not converged
     c_bands:  1 eigenvalues not converged
     c_bands:  4 eigenvalues not converged
     c_bands:  2 eigenvalues not converged
     c_bands:  1 eigenvalues not converged
     c_bands:  1 eigenvalues not converged
     c_bands:  1 eigenvalues not converged
     c_bands:  2 eigenvalues not converged
     c_bands:  1 eigenvalues not converged
     c_bands:  5 eigenvalues not converged
     ethr =  1.48E-07,  avg # of iterations = 19.7

     negative rho (up, down):  1.725E+02 2.941E-02

     total cpu time spent up to now is     3016.6 secs

     total energy              =   -4568.48000467 Ry
     estimated scf accuracy    <       0.00014798 Ry

     total magnetization       =    -0.00     0.00     0.09 Bohr mag/cell
     absolute magnetization    =    29.87 Bohr mag/cell

     iteration #283     ecut=    80.00 Ry     beta= 0.70
     Davidson diagonalization with overlap
     ethr =  1.48E-07,  avg # of iterations = 17.3

     negative rho (up, down):  1.725E+02 2.941E-02

     total cpu time spent up to now is     3026.6 secs

     total energy              =   -4568.47883621 Ry
     estimated scf accuracy    <       0.00012616 Ry

     total magnetization       =    -0.00    -0.00     0.16 Bohr mag/cell
     absolute magnetization    =    29.90 Bohr mag/cell

     iteration #284     ecut=    80.00 Ry     beta= 0.70
     Davidson diagonalization with overlap
     c_bands:  2 eigenvalues not converged
     c_bands:  5 eigenvalues not converged
     c_bands:  3 eigenvalues not converged
     c_bands:  1 eigenvalues not converged
     c_bands:  3 eigenvalues not converged
     c_bands:  3 eigenvalues not converged
     c_bands:  3 eigenvalues not converged
     c_bands:  2 eigenvalues not converged
     c_bands:  1 eigenvalues not converged
     c_bands:  3 eigenvalues not converged
     c_bands:  1 eigenvalues not converged
     c_bands:  1 eigenvalues not converged
     c_bands:  2 eigenvalues not converged
     ethr =  1.48E-07,  avg # of iterations = 19.7

     negative rho (up, down):  1.725E+02 2.944E-02

     total cpu time spent up to now is     3037.6 secs

     total energy              =   -4568.47633693 Ry
     estimated scf accuracy    <       0.00019837 Ry

     total magnetization       =     0.00    -0.00    -0.01 Bohr mag/cell
     absolute magnetization    =    29.92 Bohr mag/cell

     iteration #285     ecut=    80.00 Ry     beta= 0.70
     Davidson diagonalization with overlap
     c_bands:  1 eigenvalues not converged
     c_bands:  1 eigenvalues not converged
     c_bands:  3 eigenvalues not converged
     c_bands:  2 eigenvalues not converged
     c_bands:  3 eigenvalues not converged
     c_bands:  1 eigenvalues not converged
     c_bands:  2 eigenvalues not converged
     c_bands:  3 eigenvalues not converged
     c_bands:  2 eigenvalues not converged
     c_bands:  4 eigenvalues not converged
     c_bands:  5 eigenvalues not converged
     c_bands:  2 eigenvalues not converged
     c_bands:  3 eigenvalues not converged
     c_bands:  4 eigenvalues not converged
     c_bands:  4 eigenvalues not converged
     c_bands:  1 eigenvalues not converged
     c_bands:  4 eigenvalues not converged
     c_bands:  3 eigenvalues not converged
     c_bands:  2 eigenvalues not converged
     ethr =  1.48E-07,  avg # of iterations = 20.1

     negative rho (up, down):  1.725E+02 2.944E-02

     total cpu time spent up to now is     3048.8 secs

     total energy              =   -4568.47752798 Ry
     estimated scf accuracy    <       0.00025102 Ry

     total magnetization       =     0.00    -0.00     0.09 Bohr mag/cell
     absolute magnetization    =    29.96 Bohr mag/cell

     iteration #286     ecut=    80.00 Ry     beta= 0.70
     Davidson diagonalization with overlap
     c_bands:  1 eigenvalues not converged
     ethr =  1.48E-07,  avg # of iterations = 17.8

     negative rho (up, down):  1.725E+02 2.944E-02

     total cpu time spent up to now is     3059.3 secs

     total energy              =   -4568.47998770 Ry
     estimated scf accuracy    <       0.00017574 Ry

     total magnetization       =     0.00    -0.00     0.10 Bohr mag/cell
     absolute magnetization    =    29.91 Bohr mag/cell

     iteration #287     ecut=    80.00 Ry     beta= 0.70
     Davidson diagonalization with overlap
     c_bands:  2 eigenvalues not converged
     c_bands:  2 eigenvalues not converged
     c_bands:  2 eigenvalues not converged
     c_bands:  1 eigenvalues not converged
     c_bands:  2 eigenvalues not converged
     c_bands:  3 eigenvalues not converged
     c_bands:  1 eigenvalues not converged
     c_bands:  2 eigenvalues not converged
     c_bands:  1 eigenvalues not converged
     c_bands:  2 eigenvalues not converged
     c_bands:  1 eigenvalues not converged
     c_bands:  3 eigenvalues not converged
     c_bands:  1 eigenvalues not converged
     c_bands:  2 eigenvalues not converged
     c_bands:  2 eigenvalues not converged
     c_bands:  1 eigenvalues not converged
     ethr =  1.48E-07,  avg # of iterations = 19.8

     negative rho (up, down):  1.725E+02 2.941E-02

     total cpu time spent up to now is     3070.0 secs

     total energy              =   -4568.47769130 Ry
     estimated scf accuracy    <       0.00025945 Ry

     total magnetization       =    -0.00     0.00     0.02 Bohr mag/cell
     absolute magnetization    =    29.92 Bohr mag/cell

     iteration #288     ecut=    80.00 Ry     beta= 0.70
     Davidson diagonalization with overlap
     c_bands:  3 eigenvalues not converged
     c_bands:  4 eigenvalues not converged
     c_bands:  2 eigenvalues not converged
     c_bands:  2 eigenvalues not converged
     c_bands:  3 eigenvalues not converged
     c_bands:  2 eigenvalues not converged
     c_bands:  2 eigenvalues not converged
     c_bands:  2 eigenvalues not converged
     c_bands:  4 eigenvalues not converged
     c_bands:  2 eigenvalues not converged
     c_bands:  1 eigenvalues not converged
     c_bands:  1 eigenvalues not converged
     c_bands:  3 eigenvalues not converged
     c_bands:  4 eigenvalues not converged
     c_bands:  4 eigenvalues not converged
     c_bands:  1 eigenvalues not converged
     ethr =  1.48E-07,  avg # of iterations = 19.9

     negative rho (up, down):  1.725E+02 2.941E-02

     total cpu time spent up to now is     3081.0 secs

     total energy              =   -4568.47849376 Ry
     estimated scf accuracy    <       0.00018483 Ry

     total magnetization       =     0.00     0.00     0.11 Bohr mag/cell
     absolute magnetization    =    29.92 Bohr mag/cell

     iteration #289     ecut=    80.00 Ry     beta= 0.70
     Davidson diagonalization with overlap
     c_bands:  1 eigenvalues not converged
     c_bands:  2 eigenvalues not converged
     c_bands:  1 eigenvalues not converged
     ethr =  1.48E-07,  avg # of iterations = 18.5

     negative rho (up, down):  1.725E+02 2.944E-02

     total cpu time spent up to now is     3091.5 secs

     total energy              =   -4568.47719392 Ry
     estimated scf accuracy    <       0.00019925 Ry

     total magnetization       =    -0.00    -0.00     0.09 Bohr mag/cell
     absolute magnetization    =    29.89 Bohr mag/cell

     iteration #290     ecut=    80.00 Ry     beta= 0.70
     Davidson diagonalization with overlap
     c_bands:  3 eigenvalues not converged
     c_bands:  3 eigenvalues not converged
     c_bands:  2 eigenvalues not converged
     c_bands:  3 eigenvalues not converged
     c_bands:  2 eigenvalues not converged
     c_bands:  2 eigenvalues not converged
     c_bands:  3 eigenvalues not converged
     c_bands:  1 eigenvalues not converged
     c_bands:  2 eigenvalues not converged
     c_bands:  3 eigenvalues not converged
     c_bands:  2 eigenvalues not converged
     c_bands:  2 eigenvalues not converged
     c_bands:  1 eigenvalues not converged
     c_bands:  2 eigenvalues not converged
     c_bands:  3 eigenvalues not converged
     ethr =  1.48E-07,  avg # of iterations = 19.4

     negative rho (up, down):  1.725E+02 2.946E-02

     total cpu time spent up to now is     3102.4 secs

     total energy              =   -4568.47619986 Ry
     estimated scf accuracy    <       0.00021553 Ry

     total magnetization       =     0.00    -0.00    -0.09 Bohr mag/cell
     absolute magnetization    =    29.91 Bohr mag/cell

     iteration #291     ecut=    80.00 Ry     beta= 0.70
     Davidson diagonalization with overlap
     c_bands:  4 eigenvalues not converged
     c_bands:  2 eigenvalues not converged
     c_bands:  3 eigenvalues not converged
     c_bands:  4 eigenvalues not converged
     ethr =  1.48E-07,  avg # of iterations = 18.8

     negative rho (up, down):  1.725E+02 2.944E-02

     total cpu time spent up to now is     3113.3 secs

     total energy              =   -4568.47817185 Ry
     estimated scf accuracy    <       0.00014847 Ry

     total magnetization       =     0.00    -0.00     0.08 Bohr mag/cell
     absolute magnetization    =    29.87 Bohr mag/cell

     iteration #292     ecut=    80.00 Ry     beta= 0.70
     Davidson diagonalization with overlap
     c_bands:  3 eigenvalues not converged
     c_bands:  1 eigenvalues not converged
     c_bands:  3 eigenvalues not converged
     c_bands:  3 eigenvalues not converged
     ethr =  1.48E-07,  avg # of iterations = 18.6

     negative rho (up, down):  1.725E+02 2.944E-02

     total cpu time spent up to now is     3124.1 secs

     total energy              =   -4568.47908614 Ry
     estimated scf accuracy    <       0.00034681 Ry

     total magnetization       =    -0.00    -0.00     0.12 Bohr mag/cell
     absolute magnetization    =    29.94 Bohr mag/cell

     iteration #293     ecut=    80.00 Ry     beta= 0.70
     Davidson diagonalization with overlap
     c_bands:  3 eigenvalues not converged
     c_bands:  1 eigenvalues not converged
     c_bands:  2 eigenvalues not converged
     c_bands:  2 eigenvalues not converged
     c_bands:  3 eigenvalues not converged
     c_bands:  4 eigenvalues not converged
     c_bands:  4 eigenvalues not converged
     c_bands:  2 eigenvalues not converged
     c_bands:  4 eigenvalues not converged
     c_bands:  3 eigenvalues not converged
     c_bands:  2 eigenvalues not converged
     c_bands:  2 eigenvalues not converged
     c_bands:  1 eigenvalues not converged
     c_bands:  3 eigenvalues not converged
     ethr =  1.48E-07,  avg # of iterations = 19.0

     negative rho (up, down):  1.725E+02 2.940E-02

     total cpu time spent up to now is     3134.7 secs

     total energy              =   -4568.47974052 Ry
     estimated scf accuracy    <       0.00011580 Ry

     total magnetization       =     0.00     0.00     0.05 Bohr mag/cell
     absolute magnetization    =    29.87 Bohr mag/cell

     iteration #294     ecut=    80.00 Ry     beta= 0.70
     Davidson diagonalization with overlap
     c_bands:  1 eigenvalues not converged
     c_bands:  2 eigenvalues not converged
     c_bands:  2 eigenvalues not converged
     c_bands:  1 eigenvalues not converged
     c_bands:  1 eigenvalues not converged
     c_bands:  1 eigenvalues not converged
     c_bands:  4 eigenvalues not converged
     c_bands:  3 eigenvalues not converged
     c_bands:  1 eigenvalues not converged
     c_bands:  2 eigenvalues not converged
     c_bands:  4 eigenvalues not converged
     c_bands:  1 eigenvalues not converged
     c_bands:  4 eigenvalues not converged
     c_bands:  2 eigenvalues not converged
     ethr =  1.48E-07,  avg # of iterations = 20.3

     negative rho (up, down):  1.725E+02 2.943E-02

     total cpu time spent up to now is     3146.4 secs

     total energy              =   -4568.47515596 Ry
     estimated scf accuracy    <       0.00027823 Ry

     total magnetization       =     0.00    -0.00     0.02 Bohr mag/cell
     absolute magnetization    =    29.95 Bohr mag/cell

     iteration #295     ecut=    80.00 Ry     beta= 0.70
     Davidson diagonalization with overlap
     c_bands:  2 eigenvalues not converged
     c_bands:  1 eigenvalues not converged
     c_bands:  2 eigenvalues not converged
     c_bands:  2 eigenvalues not converged
     c_bands:  4 eigenvalues not converged
     c_bands:  5 eigenvalues not converged
     c_bands:  3 eigenvalues not converged
     ethr =  1.48E-07,  avg # of iterations = 24.6

     negative rho (up, down):  1.725E+02 2.940E-02

     total cpu time spent up to now is     3159.2 secs

     total energy              =   -4568.47536826 Ry
     estimated scf accuracy    <       0.00024434 Ry

     total magnetization       =    -0.00     0.00     0.14 Bohr mag/cell
     absolute magnetization    =    29.98 Bohr mag/cell

     iteration #296     ecut=    80.00 Ry     beta= 0.70
     Davidson diagonalization with overlap
     c_bands:  2 eigenvalues not converged
     c_bands:  2 eigenvalues not converged
     c_bands:  1 eigenvalues not converged
     c_bands:  2 eigenvalues not converged
     c_bands:  2 eigenvalues not converged
     c_bands:  1 eigenvalues not converged
     c_bands:  2 eigenvalues not converged
     ethr =  1.48E-07,  avg # of iterations = 20.4

     negative rho (up, down):  1.725E+02 2.943E-02

     total cpu time spent up to now is     3171.0 secs

     total energy              =   -4568.47660879 Ry
     estimated scf accuracy    <       0.00025635 Ry

     total magnetization       =     0.00     0.00     0.12 Bohr mag/cell
     absolute magnetization    =    29.99 Bohr mag/cell

     iteration #297     ecut=    80.00 Ry     beta= 0.70
     Davidson diagonalization with overlap
     c_bands:  2 eigenvalues not converged
     c_bands:  2 eigenvalues not converged
     c_bands:  2 eigenvalues not converged
     c_bands:  1 eigenvalues not converged
     c_bands:  2 eigenvalues not converged
     c_bands:  1 eigenvalues not converged
     c_bands:  1 eigenvalues not converged
     c_bands:  2 eigenvalues not converged
     c_bands:  2 eigenvalues not converged
     c_bands:  1 eigenvalues not converged
     c_bands:  2 eigenvalues not converged
     c_bands:  2 eigenvalues not converged
     c_bands:  1 eigenvalues not converged
     c_bands:  1 eigenvalues not converged
     c_bands:  3 eigenvalues not converged
     c_bands:  2 eigenvalues not converged
     ethr =  1.48E-07,  avg # of iterations = 19.6

     negative rho (up, down):  1.725E+02 2.944E-02

     total cpu time spent up to now is     3182.3 secs

     total energy              =   -4568.47698990 Ry
     estimated scf accuracy    <       0.00018228 Ry

     total magnetization       =     0.00    -0.00     0.05 Bohr mag/cell
     absolute magnetization    =    29.91 Bohr mag/cell

     iteration #298     ecut=    80.00 Ry     beta= 0.70
     Davidson diagonalization with overlap
     c_bands:  3 eigenvalues not converged
     c_bands:  2 eigenvalues not converged
     c_bands:  3 eigenvalues not converged
     c_bands:  3 eigenvalues not converged
     c_bands:  1 eigenvalues not converged
     c_bands:  2 eigenvalues not converged
     c_bands:  1 eigenvalues not converged
     c_bands:  2 eigenvalues not converged
     c_bands:  2 eigenvalues not converged
     c_bands:  3 eigenvalues not converged
     c_bands:  3 eigenvalues not converged
     c_bands:  2 eigenvalues not converged
     c_bands:  1 eigenvalues not converged
     c_bands:  2 eigenvalues not converged
     c_bands:  4 eigenvalues not converged
     c_bands:  4 eigenvalues not converged
     c_bands:  4 eigenvalues not converged
     c_bands:  3 eigenvalues not converged
     c_bands:  2 eigenvalues not converged
     c_bands:  2 eigenvalues not converged
     ethr =  1.48E-07,  avg # of iterations = 20.0

     negative rho (up, down):  1.725E+02 2.941E-02

     total cpu time spent up to now is     3193.8 secs

     total energy              =   -4568.47603091 Ry
     estimated scf accuracy    <       0.00034813 Ry

     total magnetization       =    -0.00    -0.00     0.08 Bohr mag/cell
     absolute magnetization    =    29.97 Bohr mag/cell

     iteration #299     ecut=    80.00 Ry     beta= 0.70
     Davidson diagonalization with overlap
     c_bands:  4 eigenvalues not converged
     c_bands:  2 eigenvalues not converged
     c_bands:  2 eigenvalues not converged
     c_bands:  2 eigenvalues not converged
     c_bands:  2 eigenvalues not converged
     c_bands:  4 eigenvalues not converged
     c_bands:  1 eigenvalues not converged
     c_bands:  2 eigenvalues not converged
     c_bands:  2 eigenvalues not converged
     c_bands:  2 eigenvalues not converged
     c_bands:  1 eigenvalues not converged
     c_bands:  2 eigenvalues not converged
     c_bands:  2 eigenvalues not converged
     c_bands:  1 eigenvalues not converged
     c_bands:  2 eigenvalues not converged
     c_bands:  3 eigenvalues not converged
     ethr =  1.48E-07,  avg # of iterations = 20.0

     negative rho (up, down):  1.725E+02 2.940E-02

     total cpu time spent up to now is     3205.3 secs

     total energy              =   -4568.47640167 Ry
     estimated scf accuracy    <       0.00030485 Ry

     total magnetization       =     0.00     0.00     0.09 Bohr mag/cell
     absolute magnetization    =    29.96 Bohr mag/cell

     iteration #300     ecut=    80.00 Ry     beta= 0.70
     Davidson diagonalization with overlap
     c_bands:  4 eigenvalues not converged
     c_bands:  4 eigenvalues not converged
     c_bands:  4 eigenvalues not converged
     c_bands:  3 eigenvalues not converged
     c_bands:  2 eigenvalues not converged
     c_bands:  4 eigenvalues not converged
     c_bands:  4 eigenvalues not converged
     c_bands:  5 eigenvalues not converged
     c_bands:  4 eigenvalues not converged
     c_bands:  2 eigenvalues not converged
     c_bands:  1 eigenvalues not converged
     c_bands:  4 eigenvalues not converged
     c_bands:  3 eigenvalues not converged
     c_bands:  2 eigenvalues not converged
     ethr =  1.48E-07,  avg # of iterations = 21.1

     negative rho (up, down):  1.725E+02 2.943E-02

     total cpu time spent up to now is     3216.9 secs

     total energy              =   -4568.47979075 Ry
     estimated scf accuracy    <       0.00009206 Ry

     total magnetization       =     0.00     0.00    -0.04 Bohr mag/cell
     absolute magnetization    =    29.86 Bohr mag/cell

     iteration #301     ecut=    80.00 Ry     beta= 0.70
     Davidson diagonalization with overlap
     c_bands:  2 eigenvalues not converged
     ethr =  1.48E-07,  avg # of iterations = 17.1

     negative rho (up, down):  1.725E+02 2.944E-02

     total cpu time spent up to now is     3226.8 secs

     total energy              =   -4568.47983764 Ry
     estimated scf accuracy    <       0.00013065 Ry

     total magnetization       =     0.00    -0.00    -0.01 Bohr mag/cell
     absolute magnetization    =    29.85 Bohr mag/cell

     iteration #302     ecut=    80.00 Ry     beta= 0.70
     Davidson diagonalization with overlap
     c_bands:  1 eigenvalues not converged
     ethr =  1.48E-07,  avg # of iterations = 16.2

     negative rho (up, down):  1.725E+02 2.944E-02

     total cpu time spent up to now is     3236.5 secs

     total energy              =   -4568.47873072 Ry
     estimated scf accuracy    <       0.00012383 Ry

     total magnetization       =    -0.00     0.00     0.05 Bohr mag/cell
     absolute magnetization    =    29.85 Bohr mag/cell

     iteration #303     ecut=    80.00 Ry     beta= 0.70
     Davidson diagonalization with overlap
     c_bands:  2 eigenvalues not converged
     c_bands:  2 eigenvalues not converged
     c_bands:  1 eigenvalues not converged
     c_bands:  1 eigenvalues not converged
     c_bands:  1 eigenvalues not converged
     ethr =  1.48E-07,  avg # of iterations = 18.0

     negative rho (up, down):  1.725E+02 2.944E-02

     total cpu time spent up to now is     3246.8 secs

     total energy              =   -4568.47925114 Ry
     estimated scf accuracy    <       0.00012413 Ry

     total magnetization       =    -0.00    -0.00     0.10 Bohr mag/cell
     absolute magnetization    =    29.86 Bohr mag/cell

     iteration #304     ecut=    80.00 Ry     beta= 0.70
     Davidson diagonalization with overlap
     c_bands:  3 eigenvalues not converged
     c_bands:  2 eigenvalues not converged
     c_bands:  1 eigenvalues not converged
     c_bands:  1 eigenvalues not converged
     c_bands:  2 eigenvalues not converged
     c_bands:  2 eigenvalues not converged
     c_bands:  2 eigenvalues not converged
     ethr =  1.48E-07,  avg # of iterations = 18.8

     negative rho (up, down):  1.725E+02 2.944E-02

     total cpu time spent up to now is     3257.1 secs

     total energy              =   -4568.48012075 Ry
     estimated scf accuracy    <       0.00018570 Ry

     total magnetization       =     0.00    -0.00    -0.03 Bohr mag/cell
     absolute magnetization    =    29.88 Bohr mag/cell

     iteration #305     ecut=    80.00 Ry     beta= 0.70
     Davidson diagonalization with overlap
     c_bands:  1 eigenvalues not converged
     c_bands:  1 eigenvalues not converged
     c_bands:  3 eigenvalues not converged
     c_bands:  1 eigenvalues not converged
     c_bands:  2 eigenvalues not converged
     c_bands:  2 eigenvalues not converged
     c_bands:  2 eigenvalues not converged
     c_bands:  3 eigenvalues not converged
     c_bands:  1 eigenvalues not converged
     c_bands:  1 eigenvalues not converged
     c_bands:  1 eigenvalues not converged
     c_bands:  2 eigenvalues not converged
     ethr =  1.48E-07,  avg # of iterations = 19.7

     negative rho (up, down):  1.725E+02 2.944E-02

     total cpu time spent up to now is     3267.7 secs

     total energy              =   -4568.47884179 Ry
     estimated scf accuracy    <       0.00024543 Ry

     total magnetization       =    -0.00    -0.00     0.14 Bohr mag/cell
     absolute magnetization    =    29.96 Bohr mag/cell

     iteration #306     ecut=    80.00 Ry     beta= 0.70
     Davidson diagonalization with overlap
     c_bands:  2 eigenvalues not converged
     c_bands:  2 eigenvalues not converged
     c_bands:  2 eigenvalues not converged
     c_bands:  1 eigenvalues not converged
     c_bands:  1 eigenvalues not converged
     c_bands:  1 eigenvalues not converged
     c_bands:  2 eigenvalues not converged
     ethr =  1.48E-07,  avg # of iterations = 19.4

     negative rho (up, down):  1.725E+02 2.944E-02

     total cpu time spent up to now is     3278.7 secs

     total energy              =   -4568.47502884 Ry
     estimated scf accuracy    <       0.00033932 Ry

     total magnetization       =     0.00     0.00     0.16 Bohr mag/cell
     absolute magnetization    =    29.99 Bohr mag/cell

     iteration #307     ecut=    80.00 Ry     beta= 0.70
     Davidson diagonalization with overlap
     c_bands:  1 eigenvalues not converged
     c_bands:  3 eigenvalues not converged
     c_bands:  1 eigenvalues not converged
     c_bands:  3 eigenvalues not converged
     c_bands:  2 eigenvalues not converged
     c_bands:  4 eigenvalues not converged
     c_bands:  2 eigenvalues not converged
     c_bands:  3 eigenvalues not converged
     c_bands:  2 eigenvalues not converged
     c_bands:  2 eigenvalues not converged
     c_bands:  3 eigenvalues not converged
     c_bands:  3 eigenvalues not converged
     c_bands:  2 eigenvalues not converged
     c_bands:  3 eigenvalues not converged
     c_bands:  1 eigenvalues not converged
     c_bands:  1 eigenvalues not converged
     c_bands:  2 eigenvalues not converged
     c_bands:  3 eigenvalues not converged
     c_bands:  2 eigenvalues not converged
     c_bands:  3 eigenvalues not converged
     c_bands:  5 eigenvalues not converged
     ethr =  1.48E-07,  avg # of iterations = 19.9

     negative rho (up, down):  1.725E+02 2.944E-02

     total cpu time spent up to now is     3289.8 secs

     total energy              =   -4568.47888763 Ry
     estimated scf accuracy    <       0.00013467 Ry

     total magnetization       =     0.00     0.00     0.02 Bohr mag/cell
     absolute magnetization    =    29.88 Bohr mag/cell

     iteration #308     ecut=    80.00 Ry     beta= 0.70
     Davidson diagonalization with overlap
     c_bands:  5 eigenvalues not converged
     c_bands:  2 eigenvalues not converged
     c_bands:  1 eigenvalues not converged
     c_bands:  3 eigenvalues not converged
     c_bands:  5 eigenvalues not converged
     c_bands:  1 eigenvalues not converged
     c_bands:  1 eigenvalues not converged
     c_bands:  1 eigenvalues not converged
     c_bands:  3 eigenvalues not converged
     c_bands:  4 eigenvalues not converged
     c_bands:  1 eigenvalues not converged
     c_bands:  3 eigenvalues not converged
     c_bands:  2 eigenvalues not converged
     c_bands:  3 eigenvalues not converged
     ethr =  1.48E-07,  avg # of iterations = 19.3

     negative rho (up, down):  1.725E+02 2.944E-02

     total cpu time spent up to now is     3300.5 secs

     total energy              =   -4568.47780248 Ry
     estimated scf accuracy    <       0.00013687 Ry

     total magnetization       =    -0.00    -0.00     0.04 Bohr mag/cell
     absolute magnetization    =    29.88 Bohr mag/cell

     iteration #309     ecut=    80.00 Ry     beta= 0.70
     Davidson diagonalization with overlap
     c_bands:  2 eigenvalues not converged
     c_bands:  1 eigenvalues not converged
     c_bands:  4 eigenvalues not converged
     c_bands:  1 eigenvalues not converged
     c_bands:  1 eigenvalues not converged
     c_bands:  1 eigenvalues not converged
     c_bands:  1 eigenvalues not converged
     c_bands:  2 eigenvalues not converged
     c_bands:  2 eigenvalues not converged
     c_bands:  1 eigenvalues not converged
     c_bands:  3 eigenvalues not converged
     c_bands:  1 eigenvalues not converged
     c_bands:  1 eigenvalues not converged
     c_bands:  3 eigenvalues not converged
     ethr =  1.48E-07,  avg # of iterations = 19.5

     negative rho (up, down):  1.725E+02 2.944E-02

     total cpu time spent up to now is     3311.4 secs

     total energy              =   -4568.47733201 Ry
     estimated scf accuracy    <       0.00014593 Ry

     total magnetization       =    -0.00     0.00    -0.01 Bohr mag/cell
     absolute magnetization    =    29.87 Bohr mag/cell

     iteration #310     ecut=    80.00 Ry     beta= 0.70
     Davidson diagonalization with overlap
     c_bands:  3 eigenvalues not converged
     c_bands:  1 eigenvalues not converged
     c_bands:  5 eigenvalues not converged
     c_bands:  3 eigenvalues not converged
     c_bands:  2 eigenvalues not converged
     c_bands:  1 eigenvalues not converged
     c_bands:  3 eigenvalues not converged
     ethr =  1.48E-07,  avg # of iterations = 19.1

     negative rho (up, down):  1.725E+02 2.944E-02

     total cpu time spent up to now is     3322.5 secs

     total energy              =   -4568.47661751 Ry
     estimated scf accuracy    <       0.00015099 Ry

     total magnetization       =     0.00    -0.00    -0.00 Bohr mag/cell
     absolute magnetization    =    29.90 Bohr mag/cell

     iteration #311     ecut=    80.00 Ry     beta= 0.70
     Davidson diagonalization with overlap
     c_bands:  4 eigenvalues not converged
     c_bands:  1 eigenvalues not converged
     c_bands:  4 eigenvalues not converged
     c_bands:  1 eigenvalues not converged
     c_bands:  5 eigenvalues not converged
     c_bands:  4 eigenvalues not converged
     c_bands:  1 eigenvalues not converged
     c_bands:  1 eigenvalues not converged
     c_bands:  1 eigenvalues not converged
     c_bands:  1 eigenvalues not converged
     ethr =  1.48E-07,  avg # of iterations = 20.4

     negative rho (up, down):  1.725E+02 2.944E-02

     total cpu time spent up to now is     3334.1 secs

     total energy              =   -4568.47744449 Ry
     estimated scf accuracy    <       0.00025520 Ry

     total magnetization       =     0.00     0.00    -0.02 Bohr mag/cell
     absolute magnetization    =    29.93 Bohr mag/cell

     iteration #312     ecut=    80.00 Ry     beta= 0.70
     Davidson diagonalization with overlap
     c_bands:  1 eigenvalues not converged
     c_bands:  1 eigenvalues not converged
     c_bands:  2 eigenvalues not converged
     c_bands:  5 eigenvalues not converged
     c_bands:  1 eigenvalues not converged
     c_bands:  2 eigenvalues not converged
     c_bands:  1 eigenvalues not converged
     c_bands:  4 eigenvalues not converged
     c_bands:  4 eigenvalues not converged
     c_bands:  3 eigenvalues not converged
     c_bands:  2 eigenvalues not converged
     c_bands:  1 eigenvalues not converged
     c_bands:  1 eigenvalues not converged
     c_bands:  2 eigenvalues not converged
     c_bands:  4 eigenvalues not converged
     ethr =  1.48E-07,  avg # of iterations = 20.9

     negative rho (up, down):  1.725E+02 2.943E-02

     total cpu time spent up to now is     3345.5 secs

     total energy              =   -4568.47864535 Ry
     estimated scf accuracy    <       0.00012153 Ry

     total magnetization       =    -0.00     0.00     0.05 Bohr mag/cell
     absolute magnetization    =    29.87 Bohr mag/cell

     iteration #313     ecut=    80.00 Ry     beta= 0.70
     Davidson diagonalization with overlap
     c_bands:  1 eigenvalues not converged
     c_bands:  1 eigenvalues not converged
     c_bands:  2 eigenvalues not converged
     c_bands:  2 eigenvalues not converged
     c_bands:  2 eigenvalues not converged
     c_bands:  1 eigenvalues not converged
     c_bands:  1 eigenvalues not converged
     c_bands:  2 eigenvalues not converged
     c_bands:  2 eigenvalues not converged
     c_bands:  1 eigenvalues not converged
     c_bands:  5 eigenvalues not converged
     c_bands:  2 eigenvalues not converged
     c_bands:  2 eigenvalues not converged
     c_bands:  2 eigenvalues not converged
     c_bands:  3 eigenvalues not converged
     c_bands:  2 eigenvalues not converged
     c_bands:  3 eigenvalues not converged
     ethr =  1.48E-07,  avg # of iterations = 19.9

     negative rho (up, down):  1.725E+02 2.944E-02

     total cpu time spent up to now is     3356.4 secs

     total energy              =   -4568.47807025 Ry
     estimated scf accuracy    <       0.00016274 Ry

     total magnetization       =     0.00     0.00     0.11 Bohr mag/cell
     absolute magnetization    =    29.89 Bohr mag/cell

     iteration #314     ecut=    80.00 Ry     beta= 0.70
     Davidson diagonalization with overlap
     c_bands:  2 eigenvalues not converged
     c_bands:  1 eigenvalues not converged
     c_bands:  1 eigenvalues not converged
     c_bands:  2 eigenvalues not converged
     c_bands:  1 eigenvalues not converged
     c_bands:  1 eigenvalues not converged
     c_bands:  3 eigenvalues not converged
     c_bands:  1 eigenvalues not converged
     c_bands:  1 eigenvalues not converged
     c_bands:  2 eigenvalues not converged
     c_bands:  2 eigenvalues not converged
     c_bands:  4 eigenvalues not converged
     ethr =  1.48E-07,  avg # of iterations = 19.6

     negative rho (up, down):  1.725E+02 2.944E-02

     total cpu time spent up to now is     3367.5 secs

     total energy              =   -4568.47816551 Ry
     estimated scf accuracy    <       0.00025569 Ry

     total magnetization       =     0.00     0.00     0.11 Bohr mag/cell
     absolute magnetization    =    29.92 Bohr mag/cell

     iteration #315     ecut=    80.00 Ry     beta= 0.70
     Davidson diagonalization with overlap
     c_bands:  1 eigenvalues not converged
     c_bands:  1 eigenvalues not converged
     c_bands:  2 eigenvalues not converged
     c_bands:  2 eigenvalues not converged
     ethr =  1.48E-07,  avg # of iterations = 19.8

     negative rho (up, down):  1.725E+02 2.941E-02

     total cpu time spent up to now is     3378.9 secs

     total energy              =   -4568.47705473 Ry
     estimated scf accuracy    <       0.00030556 Ry

     total magnetization       =     0.00     0.00    -0.09 Bohr mag/cell
     absolute magnetization    =    29.96 Bohr mag/cell

     iteration #316     ecut=    80.00 Ry     beta= 0.70
     Davidson diagonalization with overlap
     c_bands:  3 eigenvalues not converged
     c_bands:  2 eigenvalues not converged
     c_bands:  4 eigenvalues not converged
     c_bands:  1 eigenvalues not converged
     c_bands:  1 eigenvalues not converged
     c_bands:  1 eigenvalues not converged
     c_bands:  2 eigenvalues not converged
     c_bands:  1 eigenvalues not converged
     c_bands:  1 eigenvalues not converged
     c_bands:  1 eigenvalues not converged
     c_bands:  1 eigenvalues not converged
     ethr =  1.48E-07,  avg # of iterations = 19.3

     negative rho (up, down):  1.725E+02 2.944E-02

     total cpu time spent up to now is     3389.8 secs

     total energy              =   -4568.47722202 Ry
     estimated scf accuracy    <       0.00023790 Ry

     total magnetization       =    -0.00     0.00     0.21 Bohr mag/cell
     absolute magnetization    =    29.97 Bohr mag/cell

     iteration #317     ecut=    80.00 Ry     beta= 0.70
     Davidson diagonalization with overlap
     c_bands:  1 eigenvalues not converged
     c_bands:  1 eigenvalues not converged
     c_bands:  1 eigenvalues not converged
     c_bands:  2 eigenvalues not converged
     c_bands:  2 eigenvalues not converged
     c_bands:  2 eigenvalues not converged
     c_bands:  4 eigenvalues not converged
     ethr =  1.48E-07,  avg # of iterations = 20.9

     negative rho (up, down):  1.725E+02 2.944E-02

     total cpu time spent up to now is     3402.2 secs

     total energy              =   -4568.47556788 Ry
     estimated scf accuracy    <       0.00033587 Ry

     total magnetization       =     0.00     0.00     0.03 Bohr mag/cell
     absolute magnetization    =    29.96 Bohr mag/cell

     iteration #318     ecut=    80.00 Ry     beta= 0.70
     Davidson diagonalization with overlap
     c_bands:  1 eigenvalues not converged
     c_bands:  5 eigenvalues not converged
     c_bands:  1 eigenvalues not converged
     c_bands:  5 eigenvalues not converged
     c_bands:  1 eigenvalues not converged
     c_bands:  5 eigenvalues not converged
     c_bands:  1 eigenvalues not converged
     c_bands:  1 eigenvalues not converged
     ethr =  1.48E-07,  avg # of iterations = 20.0

     negative rho (up, down):  1.725E+02 2.944E-02

     total cpu time spent up to now is     3414.2 secs

     total energy              =   -4568.47884753 Ry
     estimated scf accuracy    <       0.00015962 Ry

     total magnetization       =    -0.00     0.00     0.10 Bohr mag/cell
     absolute magnetization    =    29.92 Bohr mag/cell

     iteration #319     ecut=    80.00 Ry     beta= 0.70
     Davidson diagonalization with overlap
     c_bands:  3 eigenvalues not converged
     c_bands:  1 eigenvalues not converged
     ethr =  1.48E-07,  avg # of iterations = 19.0

     negative rho (up, down):  1.725E+02 2.943E-02

     total cpu time spent up to now is     3425.0 secs

     total energy              =   -4568.47897702 Ry
     estimated scf accuracy    <       0.00015661 Ry

     total magnetization       =     0.00    -0.00     0.13 Bohr mag/cell
     absolute magnetization    =    29.90 Bohr mag/cell

     iteration #320     ecut=    80.00 Ry     beta= 0.70
     Davidson diagonalization with overlap
     c_bands:  3 eigenvalues not converged
     c_bands:  1 eigenvalues not converged
     c_bands:  1 eigenvalues not converged
     ethr =  1.48E-07,  avg # of iterations = 18.9

     negative rho (up, down):  1.725E+02 2.944E-02

     total cpu time spent up to now is     3435.5 secs

     total energy              =   -4568.47786243 Ry
     estimated scf accuracy    <       0.00022316 Ry

     total magnetization       =     0.00    -0.00    -0.08 Bohr mag/cell
     absolute magnetization    =    29.90 Bohr mag/cell

     iteration #321     ecut=    80.00 Ry     beta= 0.70
     Davidson diagonalization with overlap
     c_bands:  4 eigenvalues not converged
     c_bands:  3 eigenvalues not converged
     c_bands:  2 eigenvalues not converged
     c_bands:  2 eigenvalues not converged
     c_bands:  1 eigenvalues not converged
     c_bands:  2 eigenvalues not converged
     c_bands:  3 eigenvalues not converged
     c_bands:  3 eigenvalues not converged
     c_bands:  2 eigenvalues not converged
     c_bands:  3 eigenvalues not converged
     c_bands:  1 eigenvalues not converged
     c_bands:  1 eigenvalues not converged
     c_bands:  1 eigenvalues not converged
     c_bands:  1 eigenvalues not converged
     ethr =  1.48E-07,  avg # of iterations = 19.9

     negative rho (up, down):  1.725E+02 2.944E-02

     total cpu time spent up to now is     3446.5 secs

     total energy              =   -4568.48020467 Ry
     estimated scf accuracy    <       0.00020774 Ry

     total magnetization       =     0.00    -0.00     0.10 Bohr mag/cell
     absolute magnetization    =    29.91 Bohr mag/cell

     iteration #322     ecut=    80.00 Ry     beta= 0.70
     Davidson diagonalization with overlap
     c_bands:  4 eigenvalues not converged
     c_bands:  1 eigenvalues not converged
     c_bands:  3 eigenvalues not converged
     c_bands:  2 eigenvalues not converged
     c_bands:  2 eigenvalues not converged
     c_bands:  1 eigenvalues not converged
     c_bands:  1 eigenvalues not converged
     c_bands:  1 eigenvalues not converged
     c_bands:  3 eigenvalues not converged
     c_bands:  1 eigenvalues not converged
     c_bands:  1 eigenvalues not converged
     c_bands:  1 eigenvalues not converged
     c_bands:  1 eigenvalues not converged
     c_bands:  2 eigenvalues not converged
     ethr =  1.48E-07,  avg # of iterations = 20.0

     negative rho (up, down):  1.725E+02 2.944E-02

     total cpu time spent up to now is     3457.7 secs

     total energy              =   -4568.47328359 Ry
     estimated scf accuracy    <       0.00042616 Ry

     total magnetization       =    -0.00    -0.00     0.03 Bohr mag/cell
     absolute magnetization    =    29.96 Bohr mag/cell

     iteration #323     ecut=    80.00 Ry     beta= 0.70
     Davidson diagonalization with overlap
     c_bands:  2 eigenvalues not converged
     c_bands:  2 eigenvalues not converged
     c_bands:  1 eigenvalues not converged
     c_bands:  5 eigenvalues not converged
     c_bands:  1 eigenvalues not converged
     c_bands:  5 eigenvalues not converged
     c_bands:  2 eigenvalues not converged
     c_bands:  3 eigenvalues not converged
     c_bands:  4 eigenvalues not converged
     c_bands:  2 eigenvalues not converged
     c_bands:  2 eigenvalues not converged
     c_bands:  4 eigenvalues not converged
     c_bands:  3 eigenvalues not converged
     c_bands:  4 eigenvalues not converged
     c_bands:  3 eigenvalues not converged
     c_bands:  2 eigenvalues not converged
     c_bands:  2 eigenvalues not converged
     c_bands:  2 eigenvalues not converged
     ethr =  1.48E-07,  avg # of iterations = 20.6

     negative rho (up, down):  1.725E+02 2.944E-02

     total cpu time spent up to now is     3469.2 secs

     total energy              =   -4568.47978282 Ry
     estimated scf accuracy    <       0.00015831 Ry

     total magnetization       =     0.00     0.00     0.12 Bohr mag/cell
     absolute magnetization    =    29.90 Bohr mag/cell

     iteration #324     ecut=    80.00 Ry     beta= 0.70
     Davidson diagonalization with overlap
     c_bands:  3 eigenvalues not converged
     c_bands:  1 eigenvalues not converged
     c_bands:  1 eigenvalues not converged
     c_bands:  2 eigenvalues not converged
     c_bands:  1 eigenvalues not converged
     c_bands:  1 eigenvalues not converged
     c_bands:  1 eigenvalues not converged
     c_bands:  1 eigenvalues not converged
     ethr =  1.48E-07,  avg # of iterations = 18.5

     negative rho (up, down):  1.725E+02 2.944E-02

     total cpu time spent up to now is     3479.8 secs

     total energy              =   -4568.47996245 Ry
     estimated scf accuracy    <       0.00010035 Ry

     total magnetization       =    -0.00    -0.00     0.01 Bohr mag/cell
     absolute magnetization    =    29.87 Bohr mag/cell

     iteration #325     ecut=    80.00 Ry     beta= 0.70
     Davidson diagonalization with overlap
     c_bands:  1 eigenvalues not converged
     c_bands:  1 eigenvalues not converged
     ethr =  1.48E-07,  avg # of iterations = 17.7

     negative rho (up, down):  1.725E+02 2.944E-02

     total cpu time spent up to now is     3490.1 secs

     total energy              =   -4568.47835568 Ry
     estimated scf accuracy    <       0.00021466 Ry

     total magnetization       =    -0.00     0.00     0.01 Bohr mag/cell
     absolute magnetization    =    29.88 Bohr mag/cell

     iteration #326     ecut=    80.00 Ry     beta= 0.70
     Davidson diagonalization with overlap
     c_bands:  5 eigenvalues not converged
     c_bands:  1 eigenvalues not converged
     c_bands:  1 eigenvalues not converged
     c_bands:  2 eigenvalues not converged
     c_bands:  1 eigenvalues not converged
     ethr =  1.48E-07,  avg # of iterations = 19.0

     negative rho (up, down):  1.725E+02 2.943E-02

     total cpu time spent up to now is     3500.9 secs

     total energy              =   -4568.47791663 Ry
     estimated scf accuracy    <       0.00021032 Ry

     total magnetization       =     0.00    -0.00     0.11 Bohr mag/cell
     absolute magnetization    =    29.91 Bohr mag/cell

     iteration #327     ecut=    80.00 Ry     beta= 0.70
     Davidson diagonalization with overlap
     c_bands:  4 eigenvalues not converged
     c_bands:  1 eigenvalues not converged
     c_bands:  3 eigenvalues not converged
     c_bands:  3 eigenvalues not converged
     ethr =  1.48E-07,  avg # of iterations = 18.7

     negative rho (up, down):  1.725E+02 2.943E-02

     total cpu time spent up to now is     3511.8 secs

     total energy              =   -4568.47686503 Ry
     estimated scf accuracy    <       0.00015316 Ry

     total magnetization       =     0.00    -0.00     0.01 Bohr mag/cell
     absolute magnetization    =    29.90 Bohr mag/cell

     iteration #328     ecut=    80.00 Ry     beta= 0.70
     Davidson diagonalization with overlap
     c_bands:  5 eigenvalues not converged
     c_bands:  5 eigenvalues not converged
     c_bands:  4 eigenvalues not converged
     c_bands:  2 eigenvalues not converged
     c_bands:  1 eigenvalues not converged
     c_bands:  4 eigenvalues not converged
     c_bands:  2 eigenvalues not converged
     ethr =  1.48E-07,  avg # of iterations = 19.9

     negative rho (up, down):  1.725E+02 2.941E-02

     total cpu time spent up to now is     3523.1 secs

     total energy              =   -4568.47818511 Ry
     estimated scf accuracy    <       0.00012776 Ry

     total magnetization       =    -0.00    -0.00     0.10 Bohr mag/cell
     absolute magnetization    =    29.90 Bohr mag/cell

     iteration #329     ecut=    80.00 Ry     beta= 0.70
     Davidson diagonalization with overlap
     c_bands:  3 eigenvalues not converged
     c_bands:  1 eigenvalues not converged
     c_bands:  2 eigenvalues not converged
     c_bands:  1 eigenvalues not converged
     c_bands:  3 eigenvalues not converged
     c_bands:  1 eigenvalues not converged
     c_bands:  3 eigenvalues not converged
     ethr =  1.48E-07,  avg # of iterations = 19.1

     negative rho (up, down):  1.725E+02 2.943E-02

     total cpu time spent up to now is     3534.0 secs

     total energy              =   -4568.47888280 Ry
     estimated scf accuracy    <       0.00022019 Ry

     total magnetization       =     0.00    -0.00     0.17 Bohr mag/cell
     absolute magnetization    =    29.93 Bohr mag/cell

     iteration #330     ecut=    80.00 Ry     beta= 0.70
     Davidson diagonalization with overlap
     c_bands:  2 eigenvalues not converged
     c_bands:  2 eigenvalues not converged
     c_bands:  2 eigenvalues not converged
     c_bands:  3 eigenvalues not converged
     c_bands:  2 eigenvalues not converged
     ethr =  1.48E-07,  avg # of iterations = 18.1

     negative rho (up, down):  1.725E+02 2.943E-02

     total cpu time spent up to now is     3544.5 secs

     total energy              =   -4568.47586823 Ry
     estimated scf accuracy    <       0.00033516 Ry

     total magnetization       =    -0.00    -0.00    -0.13 Bohr mag/cell
     absolute magnetization    =    29.94 Bohr mag/cell

     iteration #331     ecut=    80.00 Ry     beta= 0.70
     Davidson diagonalization with overlap
     c_bands:  2 eigenvalues not converged
     c_bands:  2 eigenvalues not converged
     c_bands:  1 eigenvalues not converged
     c_bands:  1 eigenvalues not converged
     c_bands:  1 eigenvalues not converged
     c_bands:  3 eigenvalues not converged
     c_bands:  4 eigenvalues not converged
     c_bands:  3 eigenvalues not converged
     c_bands:  1 eigenvalues not converged
     c_bands:  1 eigenvalues not converged
     c_bands:  1 eigenvalues not converged
     c_bands:  3 eigenvalues not converged
     c_bands:  1 eigenvalues not converged
     ethr =  1.48E-07,  avg # of iterations = 19.9

     negative rho (up, down):  1.725E+02 2.943E-02

     total cpu time spent up to now is     3555.9 secs

     total energy              =   -4568.47817903 Ry
     estimated scf accuracy    <       0.00024271 Ry

     total magnetization       =     0.00     0.00    -0.05 Bohr mag/cell
     absolute magnetization    =    29.94 Bohr mag/cell

     iteration #332     ecut=    80.00 Ry     beta= 0.70
     Davidson diagonalization with overlap
     c_bands:  5 eigenvalues not converged
     c_bands:  1 eigenvalues not converged
     c_bands:  1 eigenvalues not converged
     c_bands:  1 eigenvalues not converged
     c_bands:  2 eigenvalues not converged
     c_bands:  1 eigenvalues not converged
     c_bands:  1 eigenvalues not converged
     c_bands:  1 eigenvalues not converged
     c_bands:  1 eigenvalues not converged
     ethr =  1.48E-07,  avg # of iterations = 19.7

     negative rho (up, down):  1.725E+02 2.944E-02

     total cpu time spent up to now is     3567.3 secs

     total energy              =   -4568.47688507 Ry
     estimated scf accuracy    <       0.00031752 Ry

     total magnetization       =     0.00     0.00     0.12 Bohr mag/cell
     absolute magnetization    =    29.96 Bohr mag/cell

     iteration #333     ecut=    80.00 Ry     beta= 0.70
     Davidson diagonalization with overlap
     c_bands:  1 eigenvalues not converged
     c_bands:  2 eigenvalues not converged
     c_bands:  2 eigenvalues not converged
     c_bands:  2 eigenvalues not converged
     c_bands:  2 eigenvalues not converged
     c_bands:  4 eigenvalues not converged
     c_bands:  3 eigenvalues not converged
     c_bands:  3 eigenvalues not converged
     c_bands:  3 eigenvalues not converged
     c_bands:  3 eigenvalues not converged
     c_bands:  2 eigenvalues not converged
     c_bands:  3 eigenvalues not converged
     c_bands:  1 eigenvalues not converged
     c_bands:  1 eigenvalues not converged
     c_bands:  2 eigenvalues not converged
     c_bands:  3 eigenvalues not converged
     c_bands:  2 eigenvalues not converged
     c_bands:  2 eigenvalues not converged
     c_bands:  2 eigenvalues not converged
     ethr =  1.48E-07,  avg # of iterations = 19.9

     negative rho (up, down):  1.725E+02 2.941E-02

     total cpu time spent up to now is     3578.4 secs

     total energy              =   -4568.47906383 Ry
     estimated scf accuracy    <       0.00018696 Ry

     total magnetization       =     0.00     0.00     0.16 Bohr mag/cell
     absolute magnetization    =    29.93 Bohr mag/cell

     iteration #334     ecut=    80.00 Ry     beta= 0.70
     Davidson diagonalization with overlap
     c_bands:  3 eigenvalues not converged
     c_bands:  2 eigenvalues not converged
     c_bands:  5 eigenvalues not converged
     c_bands:  1 eigenvalues not converged
     c_bands:  1 eigenvalues not converged
     c_bands:  1 eigenvalues not converged
     c_bands:  4 eigenvalues not converged
     ethr =  1.48E-07,  avg # of iterations = 17.8

     negative rho (up, down):  1.725E+02 2.941E-02

     total cpu time spent up to now is     3588.9 secs

     total energy              =   -4568.47925257 Ry
     estimated scf accuracy    <       0.00011962 Ry

     total magnetization       =    -0.00     0.00     0.03 Bohr mag/cell
     absolute magnetization    =    29.86 Bohr mag/cell

     iteration #335     ecut=    80.00 Ry     beta= 0.70
     Davidson diagonalization with overlap
     c_bands:  1 eigenvalues not converged
     c_bands:  1 eigenvalues not converged
     c_bands:  3 eigenvalues not converged
     c_bands:  1 eigenvalues not converged
     c_bands:  5 eigenvalues not converged
     c_bands:  1 eigenvalues not converged
     c_bands:  2 eigenvalues not converged
     c_bands:  1 eigenvalues not converged
     ethr =  1.48E-07,  avg # of iterations = 18.3

     negative rho (up, down):  1.725E+02 2.941E-02

     total cpu time spent up to now is     3599.8 secs

     total energy              =   -4568.47993287 Ry
     estimated scf accuracy    <       0.00016077 Ry

     total magnetization       =    -0.00     0.00     0.04 Bohr mag/cell
     absolute magnetization    =    29.89 Bohr mag/cell

     iteration #336     ecut=    80.00 Ry     beta= 0.70
     Davidson diagonalization with overlap
     c_bands:  2 eigenvalues not converged
     c_bands:  1 eigenvalues not converged
     c_bands:  2 eigenvalues not converged
     c_bands:  1 eigenvalues not converged
     c_bands:  3 eigenvalues not converged
     c_bands:  2 eigenvalues not converged
     c_bands:  2 eigenvalues not converged
     c_bands:  2 eigenvalues not converged
     ethr =  1.48E-07,  avg # of iterations = 19.3

     negative rho (up, down):  1.725E+02 2.941E-02

     total cpu time spent up to now is     3610.5 secs

     total energy              =   -4568.47669108 Ry
     estimated scf accuracy    <       0.00017349 Ry

     total magnetization       =     0.00    -0.00     0.05 Bohr mag/cell
     absolute magnetization    =    29.88 Bohr mag/cell

     iteration #337     ecut=    80.00 Ry     beta= 0.70
     Davidson diagonalization with overlap
     c_bands:  3 eigenvalues not converged
     c_bands:  1 eigenvalues not converged
     c_bands:  1 eigenvalues not converged
     ethr =  1.48E-07,  avg # of iterations = 19.1

     negative rho (up, down):  1.725E+02 2.944E-02

     total cpu time spent up to now is     3621.7 secs

     total energy              =   -4568.47834871 Ry
     estimated scf accuracy    <       0.00013783 Ry

     total magnetization       =     0.00     0.00    -0.01 Bohr mag/cell
     absolute magnetization    =    29.88 Bohr mag/cell

     iteration #338     ecut=    80.00 Ry     beta= 0.70
     Davidson diagonalization with overlap
     c_bands:  5 eigenvalues not converged
     c_bands:  4 eigenvalues not converged
     c_bands:  2 eigenvalues not converged
     c_bands:  1 eigenvalues not converged
     c_bands:  1 eigenvalues not converged
     c_bands:  1 eigenvalues not converged
     c_bands:  2 eigenvalues not converged
     ethr =  1.48E-07,  avg # of iterations = 19.0

     negative rho (up, down):  1.725E+02 2.941E-02

     total cpu time spent up to now is     3632.4 secs

     total energy              =   -4568.47699658 Ry
     estimated scf accuracy    <       0.00014650 Ry

     total magnetization       =    -0.00    -0.00     0.09 Bohr mag/cell
     absolute magnetization    =    29.90 Bohr mag/cell

     iteration #339     ecut=    80.00 Ry     beta= 0.70
     Davidson diagonalization with overlap
     c_bands:  1 eigenvalues not converged
     c_bands:  2 eigenvalues not converged
     c_bands:  1 eigenvalues not converged
     c_bands:  1 eigenvalues not converged
     c_bands:  1 eigenvalues not converged
     c_bands:  1 eigenvalues not converged
     c_bands:  1 eigenvalues not converged
     ethr =  1.48E-07,  avg # of iterations = 19.7

     negative rho (up, down):  1.725E+02 2.941E-02

     total cpu time spent up to now is     3643.7 secs

     total energy              =   -4568.47550043 Ry
     estimated scf accuracy    <       0.00031611 Ry

     total magnetization       =    -0.00    -0.00     0.10 Bohr mag/cell
     absolute magnetization    =    29.95 Bohr mag/cell

     iteration #340     ecut=    80.00 Ry     beta= 0.70
     Davidson diagonalization with overlap
     c_bands:  1 eigenvalues not converged
     c_bands:  1 eigenvalues not converged
     c_bands:  2 eigenvalues not converged
     c_bands:  1 eigenvalues not converged
     c_bands:  3 eigenvalues not converged
     c_bands:  5 eigenvalues not converged
     c_bands:  4 eigenvalues not converged
     c_bands:  2 eigenvalues not converged
     c_bands:  2 eigenvalues not converged
     c_bands:  2 eigenvalues not converged
     c_bands:  4 eigenvalues not converged
     c_bands:  3 eigenvalues not converged
     c_bands:  4 eigenvalues not converged
     c_bands:  4 eigenvalues not converged
     c_bands:  2 eigenvalues not converged
     ethr =  1.48E-07,  avg # of iterations = 19.6

     negative rho (up, down):  1.725E+02 2.941E-02

     total cpu time spent up to now is     3654.9 secs

     total energy              =   -4568.47860551 Ry
     estimated scf accuracy    <       0.00021134 Ry

     total magnetization       =     0.00     0.00     0.03 Bohr mag/cell
     absolute magnetization    =    29.88 Bohr mag/cell

     iteration #341     ecut=    80.00 Ry     beta= 0.70
     Davidson diagonalization with overlap
     c_bands:  3 eigenvalues not converged
     c_bands:  1 eigenvalues not converged
     c_bands:  2 eigenvalues not converged
     c_bands:  5 eigenvalues not converged
     c_bands:  2 eigenvalues not converged
     c_bands:  2 eigenvalues not converged
     c_bands:  5 eigenvalues not converged
     c_bands:  1 eigenvalues not converged
     c_bands:  4 eigenvalues not converged
     c_bands:  2 eigenvalues not converged
     c_bands:  2 eigenvalues not converged
     c_bands:  2 eigenvalues not converged
     c_bands:  2 eigenvalues not converged
     c_bands:  1 eigenvalues not converged
     c_bands:  3 eigenvalues not converged
     ethr =  1.48E-07,  avg # of iterations = 20.1

     negative rho (up, down):  1.725E+02 2.944E-02

     total cpu time spent up to now is     3666.2 secs

     total energy              =   -4568.47828286 Ry
     estimated scf accuracy    <       0.00023831 Ry

     total magnetization       =    -0.00    -0.00     0.00 Bohr mag/cell
     absolute magnetization    =    29.93 Bohr mag/cell

     iteration #342     ecut=    80.00 Ry     beta= 0.70
     Davidson diagonalization with overlap
     c_bands:  1 eigenvalues not converged
     c_bands:  2 eigenvalues not converged
     c_bands:  1 eigenvalues not converged
     c_bands:  1 eigenvalues not converged
     c_bands:  2 eigenvalues not converged
     c_bands:  1 eigenvalues not converged
     c_bands:  1 eigenvalues not converged
     c_bands:  1 eigenvalues not converged
     c_bands:  2 eigenvalues not converged
     c_bands:  2 eigenvalues not converged
     ethr =  1.48E-07,  avg # of iterations = 20.0

     negative rho (up, down):  1.725E+02 2.944E-02

     total cpu time spent up to now is     3677.9 secs

     total energy              =   -4568.47870842 Ry
     estimated scf accuracy    <       0.00019379 Ry

     total magnetization       =    -0.00     0.00    -0.04 Bohr mag/cell
     absolute magnetization    =    29.90 Bohr mag/cell

     iteration #343     ecut=    80.00 Ry     beta= 0.70
     Davidson diagonalization with overlap
     c_bands:  1 eigenvalues not converged
     c_bands:  1 eigenvalues not converged
     c_bands:  1 eigenvalues not converged
     ethr =  1.48E-07,  avg # of iterations = 18.5

     negative rho (up, down):  1.725E+02 2.941E-02

     total cpu time spent up to now is     3688.8 secs

     total energy              =   -4568.47428821 Ry
     estimated scf accuracy    <       0.00035767 Ry

     total magnetization       =     0.00     0.00     0.26 Bohr mag/cell
     absolute magnetization    =    30.03 Bohr mag/cell

     iteration #344     ecut=    80.00 Ry     beta= 0.70
     Davidson diagonalization with overlap
     c_bands:  2 eigenvalues not converged
     c_bands:  3 eigenvalues not converged
     c_bands:  2 eigenvalues not converged
     c_bands:  3 eigenvalues not converged
     c_bands:  3 eigenvalues not converged
     c_bands:  1 eigenvalues not converged
     c_bands:  5 eigenvalues not converged
     c_bands:  2 eigenvalues not converged
     ethr =  1.48E-07,  avg # of iterations = 21.0

     negative rho (up, down):  1.725E+02 2.944E-02

     total cpu time spent up to now is     3700.9 secs

     total energy              =   -4568.47818527 Ry
     estimated scf accuracy    <       0.00015256 Ry

     total magnetization       =     0.00    -0.00     0.00 Bohr mag/cell
     absolute magnetization    =    29.88 Bohr mag/cell

     iteration #345     ecut=    80.00 Ry     beta= 0.70
     Davidson diagonalization with overlap
     c_bands:  1 eigenvalues not converged
     c_bands:  2 eigenvalues not converged
     c_bands:  1 eigenvalues not converged
     c_bands:  1 eigenvalues not converged
     c_bands:  1 eigenvalues not converged
     c_bands:  2 eigenvalues not converged
     c_bands:  1 eigenvalues not converged
     c_bands:  2 eigenvalues not converged
     c_bands:  1 eigenvalues not converged
     c_bands:  3 eigenvalues not converged
     c_bands:  1 eigenvalues not converged
     c_bands:  1 eigenvalues not converged
     ethr =  1.48E-07,  avg # of iterations = 19.5

     negative rho (up, down):  1.725E+02 2.941E-02

     total cpu time spent up to now is     3712.1 secs

     total energy              =   -4568.47515754 Ry
     estimated scf accuracy    <       0.00041791 Ry

     total magnetization       =     0.00     0.00     0.02 Bohr mag/cell
     absolute magnetization    =    29.94 Bohr mag/cell

     iteration #346     ecut=    80.00 Ry     beta= 0.70
     Davidson diagonalization with overlap
     c_bands:  2 eigenvalues not converged
     c_bands:  3 eigenvalues not converged
     c_bands:  2 eigenvalues not converged
     c_bands:  2 eigenvalues not converged
     c_bands:  2 eigenvalues not converged
     c_bands:  4 eigenvalues not converged
     c_bands:  3 eigenvalues not converged
     c_bands:  2 eigenvalues not converged
     c_bands:  3 eigenvalues not converged
     c_bands:  4 eigenvalues not converged
     c_bands:  3 eigenvalues not converged
     c_bands:  4 eigenvalues not converged
     c_bands:  3 eigenvalues not converged
     c_bands:  2 eigenvalues not converged
     c_bands:  3 eigenvalues not converged
     c_bands:  3 eigenvalues not converged
     c_bands:  2 eigenvalues not converged
     c_bands:  4 eigenvalues not converged
     ethr =  1.48E-07,  avg # of iterations = 20.4

     negative rho (up, down):  1.725E+02 2.940E-02

     total cpu time spent up to now is     3724.1 secs

     total energy              =   -4568.47537191 Ry
     estimated scf accuracy    <       0.00027862 Ry

     total magnetization       =    -0.00     0.00     0.04 Bohr mag/cell
     absolute magnetization    =    29.94 Bohr mag/cell

     iteration #347     ecut=    80.00 Ry     beta= 0.70
     Davidson diagonalization with overlap
     c_bands:  2 eigenvalues not converged
     c_bands:  1 eigenvalues not converged
     c_bands:  1 eigenvalues not converged
     c_bands:  4 eigenvalues not converged
     c_bands:  2 eigenvalues not converged
     c_bands:  1 eigenvalues not converged
     c_bands:  1 eigenvalues not converged
     c_bands:  1 eigenvalues not converged
     c_bands:  3 eigenvalues not converged
     ethr =  1.48E-07,  avg # of iterations = 21.0

     negative rho (up, down):  1.725E+02 2.946E-02

     total cpu time spent up to now is     3736.1 secs

     total energy              =   -4568.47821853 Ry
     estimated scf accuracy    <       0.00015340 Ry

     total magnetization       =     0.00     0.00     0.01 Bohr mag/cell
     absolute magnetization    =    29.89 Bohr mag/cell

     iteration #348     ecut=    80.00 Ry     beta= 0.70
     Davidson diagonalization with overlap
     c_bands:  2 eigenvalues not converged
     c_bands:  1 eigenvalues not converged
     c_bands:  1 eigenvalues not converged
     c_bands:  3 eigenvalues not converged
     c_bands:  1 eigenvalues not converged
     c_bands:  1 eigenvalues not converged
     c_bands:  4 eigenvalues not converged
     ethr =  1.48E-07,  avg # of iterations = 19.7

     negative rho (up, down):  1.725E+02 2.944E-02

     total cpu time spent up to now is     3747.1 secs

     total energy              =   -4568.47874194 Ry
     estimated scf accuracy    <       0.00014898 Ry

     total magnetization       =    -0.00    -0.00     0.14 Bohr mag/cell
     absolute magnetization    =    29.91 Bohr mag/cell

     iteration #349     ecut=    80.00 Ry     beta= 0.70
     Davidson diagonalization with overlap
     c_bands:  1 eigenvalues not converged
     c_bands:  1 eigenvalues not converged
     ethr =  1.48E-07,  avg # of iterations = 18.4

     negative rho (up, down):  1.725E+02 2.944E-02

     total cpu time spent up to now is     3757.9 secs

     total energy              =   -4568.47674366 Ry
     estimated scf accuracy    <       0.00017766 Ry

     total magnetization       =    -0.00     0.00     0.03 Bohr mag/cell
     absolute magnetization    =    29.92 Bohr mag/cell

     iteration #350     ecut=    80.00 Ry     beta= 0.70
     Davidson diagonalization with overlap
     c_bands:  1 eigenvalues not converged
     c_bands:  4 eigenvalues not converged
     c_bands:  1 eigenvalues not converged
     c_bands:  5 eigenvalues not converged
     c_bands:  2 eigenvalues not converged
     c_bands:  2 eigenvalues not converged
     c_bands:  2 eigenvalues not converged
     c_bands:  1 eigenvalues not converged
     c_bands:  3 eigenvalues not converged
     c_bands:  4 eigenvalues not converged
     ethr =  1.48E-07,  avg # of iterations = 20.6

     negative rho (up, down):  1.725E+02 2.944E-02

     total cpu time spent up to now is     3770.5 secs

     total energy              =   -4568.47648638 Ry
     estimated scf accuracy    <       0.00040068 Ry

     total magnetization       =    -0.00     0.00     0.10 Bohr mag/cell
     absolute magnetization    =    29.99 Bohr mag/cell

     iteration #351     ecut=    80.00 Ry     beta= 0.70
     Davidson diagonalization with overlap
     c_bands:  2 eigenvalues not converged
     c_bands:  2 eigenvalues not converged
     c_bands:  2 eigenvalues not converged
     c_bands:  2 eigenvalues not converged
     c_bands:  1 eigenvalues not converged
     c_bands:  1 eigenvalues not converged
     c_bands:  1 eigenvalues not converged
     c_bands:  4 eigenvalues not converged
     c_bands:  2 eigenvalues not converged
     c_bands:  2 eigenvalues not converged
     c_bands:  2 eigenvalues not converged
     c_bands:  1 eigenvalues not converged
     c_bands:  5 eigenvalues not converged
     c_bands:  2 eigenvalues not converged
     c_bands:  1 eigenvalues not converged
     ethr =  1.48E-07,  avg # of iterations = 19.8

     negative rho (up, down):  1.725E+02 2.944E-02

     total cpu time spent up to now is     3782.0 secs

     total energy              =   -4568.47651643 Ry
     estimated scf accuracy    <       0.00027689 Ry

     total magnetization       =    -0.00    -0.00     0.02 Bohr mag/cell
     absolute magnetization    =    29.96 Bohr mag/cell

     iteration #352     ecut=    80.00 Ry     beta= 0.70
     Davidson diagonalization with overlap
     c_bands:  1 eigenvalues not converged
     c_bands:  2 eigenvalues not converged
     c_bands:  2 eigenvalues not converged
     c_bands:  4 eigenvalues not converged
     c_bands:  3 eigenvalues not converged
     c_bands:  2 eigenvalues not converged
     c_bands:  2 eigenvalues not converged
     c_bands:  3 eigenvalues not converged
     c_bands:  2 eigenvalues not converged
     c_bands:  4 eigenvalues not converged
     c_bands:  2 eigenvalues not converged
     c_bands:  2 eigenvalues not converged
     c_bands:  2 eigenvalues not converged
     c_bands:  2 eigenvalues not converged
     c_bands:  2 eigenvalues not converged
     c_bands:  2 eigenvalues not converged
     c_bands:  3 eigenvalues not converged
     c_bands:  2 eigenvalues not converged
     ethr =  1.48E-07,  avg # of iterations = 19.8

     negative rho (up, down):  1.725E+02 2.944E-02

     total cpu time spent up to now is     3793.4 secs

     total energy              =   -4568.47901401 Ry
     estimated scf accuracy    <       0.00015325 Ry

     total magnetization       =     0.00    -0.00     0.05 Bohr mag/cell
     absolute magnetization    =    29.90 Bohr mag/cell

     iteration #353     ecut=    80.00 Ry     beta= 0.70
     Davidson diagonalization with overlap
     c_bands:  2 eigenvalues not converged
     c_bands:  3 eigenvalues not converged
     c_bands:  3 eigenvalues not converged
     c_bands:  3 eigenvalues not converged
     c_bands:  1 eigenvalues not converged
     c_bands:  3 eigenvalues not converged
     c_bands:  2 eigenvalues not converged
     c_bands:  5 eigenvalues not converged
     c_bands:  2 eigenvalues not converged
     c_bands:  2 eigenvalues not converged
     c_bands:  1 eigenvalues not converged
     c_bands:  2 eigenvalues not converged
     c_bands:  3 eigenvalues not converged
     c_bands:  2 eigenvalues not converged
     ethr =  1.48E-07,  avg # of iterations = 20.0

     negative rho (up, down):  1.725E+02 2.944E-02

     total cpu time spent up to now is     3805.1 secs

     total energy              =   -4568.47455031 Ry
     estimated scf accuracy    <       0.00032496 Ry

     total magnetization       =    -0.00     0.00     0.19 Bohr mag/cell
     absolute magnetization    =    29.97 Bohr mag/cell

     iteration #354     ecut=    80.00 Ry     beta= 0.70
     Davidson diagonalization with overlap
     c_bands:  5 eigenvalues not converged
     c_bands:  4 eigenvalues not converged
     c_bands:  5 eigenvalues not converged
     c_bands:  4 eigenvalues not converged
     c_bands:  2 eigenvalues not converged
     c_bands:  1 eigenvalues not converged
     ethr =  1.48E-07,  avg # of iterations = 21.5

     negative rho (up, down):  1.725E+02 2.944E-02

     total cpu time spent up to now is     3818.0 secs

     total energy              =   -4568.47778901 Ry
     estimated scf accuracy    <       0.00013721 Ry

     total magnetization       =    -0.00    -0.00    -0.05 Bohr mag/cell
     absolute magnetization    =    29.87 Bohr mag/cell

     iteration #355     ecut=    80.00 Ry     beta= 0.70
     Davidson diagonalization with overlap
     c_bands:  1 eigenvalues not converged
     c_bands:  1 eigenvalues not converged
     c_bands:  1 eigenvalues not converged
     c_bands:  2 eigenvalues not converged
     c_bands:  1 eigenvalues not converged
     c_bands:  2 eigenvalues not converged
     c_bands:  2 eigenvalues not converged
     c_bands:  1 eigenvalues not converged
     c_bands:  1 eigenvalues not converged
     c_bands:  2 eigenvalues not converged
     c_bands:  1 eigenvalues not converged
     ethr =  1.48E-07,  avg # of iterations = 19.3

     negative rho (up, down):  1.725E+02 2.941E-02

     total cpu time spent up to now is     3829.2 secs

     total energy              =   -4568.48166101 Ry
     estimated scf accuracy    <       0.00014448 Ry

     total magnetization       =    -0.00    -0.00     0.09 Bohr mag/cell
     absolute magnetization    =    29.89 Bohr mag/cell

     iteration #356     ecut=    80.00 Ry     beta= 0.70
     Davidson diagonalization with overlap
     c_bands:  5 eigenvalues not converged
     c_bands:  2 eigenvalues not converged
     c_bands:  1 eigenvalues not converged
     c_bands:  4 eigenvalues not converged
     c_bands:  2 eigenvalues not converged
     c_bands:  1 eigenvalues not converged
     c_bands:  1 eigenvalues not converged
     c_bands:  4 eigenvalues not converged
     c_bands:  3 eigenvalues not converged
     c_bands:  4 eigenvalues not converged
     c_bands:  3 eigenvalues not converged
     c_bands:  2 eigenvalues not converged
     c_bands:  1 eigenvalues not converged
     ethr =  1.48E-07,  avg # of iterations = 19.5

     negative rho (up, down):  1.725E+02 2.940E-02

     total cpu time spent up to now is     3840.3 secs

     total energy              =   -4568.47251892 Ry
     estimated scf accuracy    <       0.00035736 Ry

     total magnetization       =     0.00    -0.00     0.08 Bohr mag/cell
     absolute magnetization    =    29.96 Bohr mag/cell

     iteration #357     ecut=    80.00 Ry     beta= 0.70
     Davidson diagonalization with overlap
     c_bands:  4 eigenvalues not converged
     c_bands:  4 eigenvalues not converged
     c_bands:  2 eigenvalues not converged
     c_bands:  5 eigenvalues not converged
     c_bands:  3 eigenvalues not converged
     c_bands:  4 eigenvalues not converged
     c_bands:  1 eigenvalues not converged
     c_bands:  2 eigenvalues not converged
     c_bands:  3 eigenvalues not converged
     c_bands:  2 eigenvalues not converged
     c_bands:  3 eigenvalues not converged
     c_bands:  5 eigenvalues not converged
     c_bands:  4 eigenvalues not converged
     c_bands:  4 eigenvalues not converged
     c_bands:  2 eigenvalues not converged
     c_bands:  2 eigenvalues not converged
     c_bands:  5 eigenvalues not converged
     c_bands:  4 eigenvalues not converged
     c_bands:  5 eigenvalues not converged
     ethr =  1.48E-07,  avg # of iterations = 20.2

     negative rho (up, down):  1.725E+02 2.941E-02

     total cpu time spent up to now is     3851.9 secs

     total energy              =   -4568.47902247 Ry
     estimated scf accuracy    <       0.00021623 Ry

     total magnetization       =     0.00    -0.00    -0.01 Bohr mag/cell
     absolute magnetization    =    29.89 Bohr mag/cell

     iteration #358     ecut=    80.00 Ry     beta= 0.70
     Davidson diagonalization with overlap
     c_bands:  5 eigenvalues not converged
     c_bands:  3 eigenvalues not converged
     c_bands:  1 eigenvalues not converged
     c_bands:  2 eigenvalues not converged
     c_bands:  2 eigenvalues not converged
     c_bands:  1 eigenvalues not converged
     c_bands:  1 eigenvalues not converged
     c_bands:  4 eigenvalues not converged
     c_bands:  4 eigenvalues not converged
     c_bands:  2 eigenvalues not converged
     c_bands:  1 eigenvalues not converged
     c_bands:  1 eigenvalues not converged
     c_bands:  2 eigenvalues not converged
     c_bands:  1 eigenvalues not converged
     c_bands:  3 eigenvalues not converged
     c_bands:  2 eigenvalues not converged
     c_bands:  2 eigenvalues not converged
     ethr =  1.48E-07,  avg # of iterations = 20.0

     negative rho (up, down):  1.725E+02 2.943E-02

     total cpu time spent up to now is     3862.8 secs

     total energy              =   -4568.47634606 Ry
     estimated scf accuracy    <       0.00028736 Ry

     total magnetization       =    -0.00    -0.00     0.23 Bohr mag/cell
     absolute magnetization    =    29.98 Bohr mag/cell

     iteration #359     ecut=    80.00 Ry     beta= 0.70
     Davidson diagonalization with overlap
     c_bands:  3 eigenvalues not converged
     c_bands:  2 eigenvalues not converged
     c_bands:  1 eigenvalues not converged
     c_bands:  3 eigenvalues not converged
     c_bands:  2 eigenvalues not converged
     c_bands:  1 eigenvalues not converged
     c_bands:  2 eigenvalues not converged
     c_bands:  1 eigenvalues not converged
     c_bands:  1 eigenvalues not converged
     c_bands:  1 eigenvalues not converged
     c_bands:  1 eigenvalues not converged
     c_bands:  3 eigenvalues not converged
     c_bands:  3 eigenvalues not converged
     c_bands:  1 eigenvalues not converged
     c_bands:  1 eigenvalues not converged
     ethr =  1.48E-07,  avg # of iterations = 19.9

     negative rho (up, down):  1.725E+02 2.943E-02

     total cpu time spent up to now is     3874.3 secs

     total energy              =   -4568.47520379 Ry
     estimated scf accuracy    <       0.00026473 Ry

     total magnetization       =     0.00    -0.00     0.03 Bohr mag/cell
     absolute magnetization    =    29.94 Bohr mag/cell

     iteration #360     ecut=    80.00 Ry     beta= 0.70
     Davidson diagonalization with overlap
     c_bands:  1 eigenvalues not converged
     c_bands:  2 eigenvalues not converged
     c_bands:  1 eigenvalues not converged
     c_bands:  2 eigenvalues not converged
     c_bands:  1 eigenvalues not converged
     c_bands:  2 eigenvalues not converged
     c_bands:  1 eigenvalues not converged
     c_bands:  4 eigenvalues not converged
     c_bands:  2 eigenvalues not converged
     c_bands:  2 eigenvalues not converged
     c_bands:  3 eigenvalues not converged
     ethr =  1.48E-07,  avg # of iterations = 20.0

     negative rho (up, down):  1.725E+02 2.943E-02

     total cpu time spent up to now is     3885.6 secs

     total energy              =   -4568.47952713 Ry
     estimated scf accuracy    <       0.00029880 Ry

     total magnetization       =     0.00    -0.00     0.02 Bohr mag/cell
     absolute magnetization    =    29.93 Bohr mag/cell

     iteration #361     ecut=    80.00 Ry     beta= 0.70
     Davidson diagonalization with overlap
     c_bands:  2 eigenvalues not converged
     c_bands:  1 eigenvalues not converged
     c_bands:  1 eigenvalues not converged
     c_bands:  1 eigenvalues not converged
     c_bands:  1 eigenvalues not converged
     c_bands:  1 eigenvalues not converged
     c_bands:  3 eigenvalues not converged
     c_bands:  1 eigenvalues not converged
     ethr =  1.48E-07,  avg # of iterations = 18.5

     negative rho (up, down):  1.725E+02 2.940E-02

     total cpu time spent up to now is     3896.0 secs

     total energy              =   -4568.47684061 Ry
     estimated scf accuracy    <       0.00020650 Ry

     total magnetization       =     0.00    -0.00     0.07 Bohr mag/cell
     absolute magnetization    =    29.93 Bohr mag/cell

     iteration #362     ecut=    80.00 Ry     beta= 0.70
     Davidson diagonalization with overlap
     c_bands:  5 eigenvalues not converged
     c_bands:  4 eigenvalues not converged
     c_bands:  2 eigenvalues not converged
     c_bands:  2 eigenvalues not converged
     c_bands:  2 eigenvalues not converged
     c_bands:  2 eigenvalues not converged
     c_bands:  3 eigenvalues not converged
     c_bands:  3 eigenvalues not converged
     c_bands:  2 eigenvalues not converged
     c_bands:  3 eigenvalues not converged
     c_bands:  3 eigenvalues not converged
     c_bands:  4 eigenvalues not converged
     c_bands:  3 eigenvalues not converged
     c_bands:  4 eigenvalues not converged
     c_bands:  4 eigenvalues not converged
     ethr =  1.48E-07,  avg # of iterations = 20.3

     negative rho (up, down):  1.725E+02 2.941E-02

     total cpu time spent up to now is     3907.0 secs

     total energy              =   -4568.47838831 Ry
     estimated scf accuracy    <       0.00022207 Ry

     total magnetization       =     0.00     0.00     0.07 Bohr mag/cell
     absolute magnetization    =    29.91 Bohr mag/cell

     iteration #363     ecut=    80.00 Ry     beta= 0.70
     Davidson diagonalization with overlap
     c_bands:  4 eigenvalues not converged
     c_bands:  2 eigenvalues not converged
     c_bands:  2 eigenvalues not converged
     c_bands:  2 eigenvalues not converged
     c_bands:  5 eigenvalues not converged
     c_bands:  4 eigenvalues not converged
     c_bands:  2 eigenvalues not converged
     c_bands:  1 eigenvalues not converged
     c_bands:  5 eigenvalues not converged
     c_bands:  2 eigenvalues not converged
     c_bands:  5 eigenvalues not converged
     c_bands:  5 eigenvalues not converged
     c_bands:  1 eigenvalues not converged
     ethr =  1.48E-07,  avg # of iterations = 19.8

     negative rho (up, down):  1.725E+02 2.941E-02

     total cpu time spent up to now is     3918.0 secs

     total energy              =   -4568.47867155 Ry
     estimated scf accuracy    <       0.00019079 Ry

     total magnetization       =    -0.00    -0.00     0.11 Bohr mag/cell
     absolute magnetization    =    29.89 Bohr mag/cell

     iteration #364     ecut=    80.00 Ry     beta= 0.70
     Davidson diagonalization with overlap
     c_bands:  2 eigenvalues not converged
     c_bands:  2 eigenvalues not converged
     c_bands:  1 eigenvalues not converged
     c_bands:  3 eigenvalues not converged
     c_bands:  2 eigenvalues not converged
     c_bands:  1 eigenvalues not converged
     c_bands:  1 eigenvalues not converged
     c_bands:  1 eigenvalues not converged
     c_bands:  2 eigenvalues not converged
     c_bands:  1 eigenvalues not converged
     c_bands:  3 eigenvalues not converged
     c_bands:  1 eigenvalues not converged
     c_bands:  1 eigenvalues not converged
     c_bands:  2 eigenvalues not converged
     c_bands:  1 eigenvalues not converged
     ethr =  1.48E-07,  avg # of iterations = 19.1

     negative rho (up, down):  1.725E+02 2.941E-02

     total cpu time spent up to now is     3928.4 secs

     total energy              =   -4568.47951444 Ry
     estimated scf accuracy    <       0.00010555 Ry

     total magnetization       =     0.00     0.00    -0.03 Bohr mag/cell
     absolute magnetization    =    29.85 Bohr mag/cell

     iteration #365     ecut=    80.00 Ry     beta= 0.70
     Davidson diagonalization with overlap
     c_bands:  2 eigenvalues not converged
     c_bands:  1 eigenvalues not converged
     c_bands:  2 eigenvalues not converged
     c_bands:  2 eigenvalues not converged
     c_bands:  2 eigenvalues not converged
     c_bands:  1 eigenvalues not converged
     c_bands:  3 eigenvalues not converged
     c_bands:  2 eigenvalues not converged
     c_bands:  1 eigenvalues not converged
     c_bands:  2 eigenvalues not converged
     c_bands:  1 eigenvalues not converged
     c_bands:  2 eigenvalues not converged
     c_bands:  1 eigenvalues not converged
     c_bands:  1 eigenvalues not converged
     c_bands:  1 eigenvalues not converged
     ethr =  1.48E-07,  avg # of iterations = 19.2

     negative rho (up, down):  1.725E+02 2.944E-02

     total cpu time spent up to now is     3938.7 secs

     total energy              =   -4568.48090229 Ry
     estimated scf accuracy    <       0.00015906 Ry

     total magnetization       =     0.00    -0.00     0.02 Bohr mag/cell
     absolute magnetization    =    29.91 Bohr mag/cell

     iteration #366     ecut=    80.00 Ry     beta= 0.70
     Davidson diagonalization with overlap
     c_bands:  2 eigenvalues not converged
     c_bands:  2 eigenvalues not converged
     ethr =  1.48E-07,  avg # of iterations = 17.9

     negative rho (up, down):  1.725E+02 2.940E-02

     total cpu time spent up to now is     3949.3 secs

     total energy              =   -4568.47860475 Ry
     estimated scf accuracy    <       0.00026510 Ry

     total magnetization       =    -0.00    -0.00     0.04 Bohr mag/cell
     absolute magnetization    =    29.93 Bohr mag/cell

     iteration #367     ecut=    80.00 Ry     beta= 0.70
     Davidson diagonalization with overlap
     c_bands:  3 eigenvalues not converged
     c_bands:  1 eigenvalues not converged
     c_bands:  4 eigenvalues not converged
     c_bands:  2 eigenvalues not converged
     c_bands:  4 eigenvalues not converged
     c_bands:  2 eigenvalues not converged
     c_bands:  2 eigenvalues not converged
     c_bands:  4 eigenvalues not converged
     c_bands:  2 eigenvalues not converged
     c_bands:  3 eigenvalues not converged
     c_bands:  4 eigenvalues not converged
     c_bands:  2 eigenvalues not converged
     c_bands:  2 eigenvalues not converged
     c_bands:  2 eigenvalues not converged
     c_bands:  4 eigenvalues not converged
     c_bands:  2 eigenvalues not converged
     c_bands:  3 eigenvalues not converged
     c_bands:  4 eigenvalues not converged
     c_bands:  3 eigenvalues not converged
     ethr =  1.48E-07,  avg # of iterations = 19.9

     negative rho (up, down):  1.725E+02 2.941E-02

     total cpu time spent up to now is     3960.9 secs

     total energy              =   -4568.47507698 Ry
     estimated scf accuracy    <       0.00028577 Ry

     total magnetization       =    -0.00     0.00    -0.03 Bohr mag/cell
     absolute magnetization    =    29.96 Bohr mag/cell

     iteration #368     ecut=    80.00 Ry     beta= 0.70
     Davidson diagonalization with overlap
     c_bands:  2 eigenvalues not converged
     c_bands:  3 eigenvalues not converged
     c_bands:  2 eigenvalues not converged
     c_bands:  4 eigenvalues not converged
     c_bands:  4 eigenvalues not converged
     c_bands:  2 eigenvalues not converged
     c_bands:  4 eigenvalues not converged
     c_bands:  2 eigenvalues not converged
     c_bands:  3 eigenvalues not converged
     c_bands:  2 eigenvalues not converged
     c_bands:  4 eigenvalues not converged
     c_bands:  4 eigenvalues not converged
     c_bands:  3 eigenvalues not converged
     ethr =  1.48E-07,  avg # of iterations = 20.4

     negative rho (up, down):  1.725E+02 2.944E-02

     total cpu time spent up to now is     3972.6 secs

     total energy              =   -4568.47893496 Ry
     estimated scf accuracy    <       0.00010863 Ry

     total magnetization       =    -0.00     0.00     0.17 Bohr mag/cell
     absolute magnetization    =    29.89 Bohr mag/cell

     iteration #369     ecut=    80.00 Ry     beta= 0.70
     Davidson diagonalization with overlap
     c_bands:  2 eigenvalues not converged
     c_bands:  2 eigenvalues not converged
     c_bands:  2 eigenvalues not converged
     c_bands:  1 eigenvalues not converged
     c_bands:  1 eigenvalues not converged
     c_bands:  3 eigenvalues not converged
     ethr =  1.48E-07,  avg # of iterations = 19.3

     negative rho (up, down):  1.725E+02 2.944E-02

     total cpu time spent up to now is     3983.5 secs

     total energy              =   -4568.47796212 Ry
     estimated scf accuracy    <       0.00037963 Ry

     total magnetization       =     0.00    -0.00     0.01 Bohr mag/cell
     absolute magnetization    =    29.93 Bohr mag/cell

     iteration #370     ecut=    80.00 Ry     beta= 0.70
     Davidson diagonalization with overlap
     c_bands:  5 eigenvalues not converged
     c_bands:  2 eigenvalues not converged
     c_bands:  2 eigenvalues not converged
     c_bands:  3 eigenvalues not converged
     c_bands:  2 eigenvalues not converged
     c_bands:  1 eigenvalues not converged
     c_bands:  2 eigenvalues not converged
     c_bands:  1 eigenvalues not converged
     c_bands:  1 eigenvalues not converged
     c_bands:  1 eigenvalues not converged
     c_bands:  1 eigenvalues not converged
     c_bands:  2 eigenvalues not converged
     ethr =  1.48E-07,  avg # of iterations = 19.4

     negative rho (up, down):  1.725E+02 2.943E-02

     total cpu time spent up to now is     3994.2 secs

     total energy              =   -4568.47688109 Ry
     estimated scf accuracy    <       0.00017226 Ry

     total magnetization       =     0.00    -0.00     0.04 Bohr mag/cell
     absolute magnetization    =    29.91 Bohr mag/cell

     iteration #371     ecut=    80.00 Ry     beta= 0.70
     Davidson diagonalization with overlap
     c_bands:  1 eigenvalues not converged
     c_bands:  4 eigenvalues not converged
     c_bands:  4 eigenvalues not converged
     c_bands:  3 eigenvalues not converged
     c_bands:  4 eigenvalues not converged
     c_bands:  1 eigenvalues not converged
     c_bands:  1 eigenvalues not converged
     c_bands:  2 eigenvalues not converged
     c_bands:  1 eigenvalues not converged
     c_bands:  1 eigenvalues not converged
     c_bands:  4 eigenvalues not converged
     c_bands:  2 eigenvalues not converged
     c_bands:  1 eigenvalues not converged
     c_bands:  1 eigenvalues not converged
     ethr =  1.48E-07,  avg # of iterations = 19.3

     negative rho (up, down):  1.725E+02 2.944E-02

     total cpu time spent up to now is     4004.9 secs

     total energy              =   -4568.47861143 Ry
     estimated scf accuracy    <       0.00009520 Ry

     total magnetization       =    -0.00     0.00    -0.01 Bohr mag/cell
     absolute magnetization    =    29.85 Bohr mag/cell

     iteration #372     ecut=    80.00 Ry     beta= 0.70
     Davidson diagonalization with overlap
     c_bands:  1 eigenvalues not converged
     c_bands:  1 eigenvalues not converged
     c_bands:  2 eigenvalues not converged
     ethr =  1.48E-07,  avg # of iterations = 17.7

     negative rho (up, down):  1.725E+02 2.944E-02

     total cpu time spent up to now is     4015.1 secs

     total energy              =   -4568.47966877 Ry
     estimated scf accuracy    <       0.00009607 Ry

     total magnetization       =    -0.00    -0.00     0.09 Bohr mag/cell
     absolute magnetization    =    29.85 Bohr mag/cell

     iteration #373     ecut=    80.00 Ry     beta= 0.70
     Davidson diagonalization with overlap
     c_bands:  2 eigenvalues not converged
     c_bands:  2 eigenvalues not converged
     c_bands:  1 eigenvalues not converged
     c_bands:  1 eigenvalues not converged
     c_bands:  1 eigenvalues not converged
     c_bands:  2 eigenvalues not converged
     ethr =  1.48E-07,  avg # of iterations = 17.6

     negative rho (up, down):  1.725E+02 2.944E-02

     total cpu time spent up to now is     4025.2 secs

     total energy              =   -4568.48088359 Ry
     estimated scf accuracy    <       0.00011848 Ry

     total magnetization       =    -0.00     0.00     0.10 Bohr mag/cell
     absolute magnetization    =    29.87 Bohr mag/cell

     iteration #374     ecut=    80.00 Ry     beta= 0.70
     Davidson diagonalization with overlap
     c_bands:  1 eigenvalues not converged
     c_bands:  1 eigenvalues not converged
     c_bands:  1 eigenvalues not converged
     ethr =  1.48E-07,  avg # of iterations = 17.6

     negative rho (up, down):  1.725E+02 2.944E-02

     total cpu time spent up to now is     4035.1 secs

     total energy              =   -4568.48195928 Ry
     estimated scf accuracy    <       0.00021588 Ry

     total magnetization       =    -0.00    -0.00    -0.03 Bohr mag/cell
     absolute magnetization    =    29.91 Bohr mag/cell

     iteration #375     ecut=    80.00 Ry     beta= 0.70
     Davidson diagonalization with overlap
     c_bands:  3 eigenvalues not converged
     c_bands:  2 eigenvalues not converged
     ethr =  1.48E-07,  avg # of iterations = 15.9

     negative rho (up, down):  1.725E+02 2.944E-02

     total cpu time spent up to now is     4044.5 secs

     total energy              =   -4568.48336964 Ry
     estimated scf accuracy    <       0.00013536 Ry

     total magnetization       =     0.00    -0.00     0.02 Bohr mag/cell
     absolute magnetization    =    29.86 Bohr mag/cell

     iteration #376     ecut=    80.00 Ry     beta= 0.70
     Davidson diagonalization with overlap
     c_bands:  1 eigenvalues not converged
     ethr =  1.48E-07,  avg # of iterations = 14.0

     negative rho (up, down):  1.725E+02 2.944E-02

     total cpu time spent up to now is     4053.2 secs

     total energy              =   -4568.48200305 Ry
     estimated scf accuracy    <       0.00011119 Ry

     total magnetization       =    -0.00    -0.00     0.02 Bohr mag/cell
     absolute magnetization    =    29.85 Bohr mag/cell

     iteration #377     ecut=    80.00 Ry     beta= 0.70
     Davidson diagonalization with overlap
     c_bands:  1 eigenvalues not converged
     c_bands:  2 eigenvalues not converged
     c_bands:  5 eigenvalues not converged
     c_bands:  3 eigenvalues not converged
     c_bands:  3 eigenvalues not converged
     c_bands:  3 eigenvalues not converged
     c_bands:  2 eigenvalues not converged
     c_bands:  2 eigenvalues not converged
     c_bands:  2 eigenvalues not converged
     c_bands:  2 eigenvalues not converged
     c_bands:  1 eigenvalues not converged
     c_bands:  1 eigenvalues not converged
     c_bands:  3 eigenvalues not converged
     c_bands:  2 eigenvalues not converged
     ethr =  1.48E-07,  avg # of iterations = 19.3

     negative rho (up, down):  1.725E+02 2.944E-02

     total cpu time spent up to now is     4063.7 secs

     total energy              =   -4568.47888832 Ry
     estimated scf accuracy    <       0.00014830 Ry

     total magnetization       =    -0.00    -0.00    -0.00 Bohr mag/cell
     absolute magnetization    =    29.88 Bohr mag/cell

     iteration #378     ecut=    80.00 Ry     beta= 0.70
     Davidson diagonalization with overlap
     c_bands:  1 eigenvalues not converged
     c_bands:  1 eigenvalues not converged
     c_bands:  2 eigenvalues not converged
     c_bands:  1 eigenvalues not converged
     c_bands:  1 eigenvalues not converged
     c_bands:  1 eigenvalues not converged
     c_bands:  4 eigenvalues not converged
     ethr =  1.48E-07,  avg # of iterations = 19.1

     negative rho (up, down):  1.725E+02 2.944E-02

     total cpu time spent up to now is     4074.5 secs

     total energy              =   -4568.47493575 Ry
     estimated scf accuracy    <       0.00020280 Ry

     total magnetization       =    -0.00    -0.00     0.16 Bohr mag/cell
     absolute magnetization    =    29.91 Bohr mag/cell

     iteration #379     ecut=    80.00 Ry     beta= 0.70
     Davidson diagonalization with overlap
     c_bands:  1 eigenvalues not converged
     c_bands:  4 eigenvalues not converged
     c_bands:  2 eigenvalues not converged
     c_bands:  1 eigenvalues not converged
     c_bands:  1 eigenvalues not converged
     c_bands:  1 eigenvalues not converged
     c_bands:  1 eigenvalues not converged
     c_bands:  3 eigenvalues not converged
     c_bands:  3 eigenvalues not converged
     c_bands:  2 eigenvalues not converged
     c_bands:  2 eigenvalues not converged
     c_bands:  3 eigenvalues not converged
     ethr =  1.48E-07,  avg # of iterations = 19.5

     negative rho (up, down):  1.725E+02 2.944E-02

     total cpu time spent up to now is     4085.3 secs

     total energy              =   -4568.48132234 Ry
     estimated scf accuracy    <       0.00018203 Ry

     total magnetization       =    -0.00     0.00    -0.01 Bohr mag/cell
     absolute magnetization    =    29.87 Bohr mag/cell

     iteration #380     ecut=    80.00 Ry     beta= 0.70
     Davidson diagonalization with overlap
     c_bands:  1 eigenvalues not converged
     c_bands:  2 eigenvalues not converged
     c_bands:  2 eigenvalues not converged
     c_bands:  1 eigenvalues not converged
     c_bands:  1 eigenvalues not converged
     c_bands:  2 eigenvalues not converged
     c_bands:  1 eigenvalues not converged
     c_bands:  1 eigenvalues not converged
     c_bands:  1 eigenvalues not converged
     c_bands:  1 eigenvalues not converged
     ethr =  1.48E-07,  avg # of iterations = 18.1

     negative rho (up, down):  1.725E+02 2.943E-02

     total cpu time spent up to now is     4095.4 secs

     total energy              =   -4568.47817591 Ry
     estimated scf accuracy    <       0.00017140 Ry

     total magnetization       =     0.00     0.00     0.02 Bohr mag/cell
     absolute magnetization    =    29.90 Bohr mag/cell

     iteration #381     ecut=    80.00 Ry     beta= 0.70
     Davidson diagonalization with overlap
     c_bands:  4 eigenvalues not converged
     c_bands:  1 eigenvalues not converged
     c_bands:  1 eigenvalues not converged
     ethr =  1.48E-07,  avg # of iterations = 18.5

     negative rho (up, down):  1.725E+02 2.943E-02

     total cpu time spent up to now is     4106.1 secs

     total energy              =   -4568.47978485 Ry
     estimated scf accuracy    <       0.00011354 Ry

     total magnetization       =     0.00     0.00    -0.03 Bohr mag/cell
     absolute magnetization    =    29.86 Bohr mag/cell

     iteration #382     ecut=    80.00 Ry     beta= 0.70
     Davidson diagonalization with overlap
     c_bands:  3 eigenvalues not converged
     ethr =  1.48E-07,  avg # of iterations = 16.6

     negative rho (up, down):  1.725E+02 2.943E-02

     total cpu time spent up to now is     4116.0 secs

     total energy              =   -4568.48061248 Ry
     estimated scf accuracy    <       0.00009285 Ry

     total magnetization       =     0.00     0.00    -0.00 Bohr mag/cell
     absolute magnetization    =    29.86 Bohr mag/cell

     iteration #383     ecut=    80.00 Ry     beta= 0.70
     Davidson diagonalization with overlap
     c_bands:  2 eigenvalues not converged
     c_bands:  1 eigenvalues not converged
     c_bands:  1 eigenvalues not converged
     c_bands:  1 eigenvalues not converged
     c_bands:  1 eigenvalues not converged
     c_bands:  1 eigenvalues not converged
     c_bands:  1 eigenvalues not converged
     c_bands:  1 eigenvalues not converged
     c_bands:  2 eigenvalues not converged
     c_bands:  1 eigenvalues not converged
     c_bands:  1 eigenvalues not converged
     c_bands:  3 eigenvalues not converged
     c_bands:  1 eigenvalues not converged
     c_bands:  1 eigenvalues not converged
     c_bands:  2 eigenvalues not converged
     ethr =  1.48E-07,  avg # of iterations = 19.1

     negative rho (up, down):  1.725E+02 2.943E-02

     total cpu time spent up to now is     4126.6 secs

     total energy              =   -4568.48077657 Ry
     estimated scf accuracy    <       0.00029758 Ry

     total magnetization       =     0.00    -0.00     0.14 Bohr mag/cell
     absolute magnetization    =    29.94 Bohr mag/cell

     iteration #384     ecut=    80.00 Ry     beta= 0.70
     Davidson diagonalization with overlap
     c_bands:  1 eigenvalues not converged
     c_bands:  1 eigenvalues not converged
     c_bands:  1 eigenvalues not converged
     c_bands:  2 eigenvalues not converged
     ethr =  1.48E-07,  avg # of iterations = 18.5

     negative rho (up, down):  1.725E+02 2.943E-02

     total cpu time spent up to now is     4136.7 secs

     total energy              =   -4568.48416525 Ry
     estimated scf accuracy    <       0.00023987 Ry

     total magnetization       =     0.00     0.00    -0.01 Bohr mag/cell
     absolute magnetization    =    29.91 Bohr mag/cell

     iteration #385     ecut=    80.00 Ry     beta= 0.70
     Davidson diagonalization with overlap
     ethr =  1.48E-07,  avg # of iterations = 13.9

     negative rho (up, down):  1.725E+02 2.943E-02

     total cpu time spent up to now is     4145.0 secs

     total energy              =   -4568.48130937 Ry
     estimated scf accuracy    <       0.00015682 Ry

     total magnetization       =    -0.00     0.00     0.02 Bohr mag/cell
     absolute magnetization    =    29.88 Bohr mag/cell

     iteration #386     ecut=    80.00 Ry     beta= 0.70
     Davidson diagonalization with overlap
     c_bands:  1 eigenvalues not converged
     c_bands:  1 eigenvalues not converged
     c_bands:  2 eigenvalues not converged
     c_bands:  2 eigenvalues not converged
     c_bands:  1 eigenvalues not converged
     ethr =  1.48E-07,  avg # of iterations = 17.3

     negative rho (up, down):  1.725E+02 2.943E-02

     total cpu time spent up to now is     4155.0 secs

     total energy              =   -4568.47725252 Ry
     estimated scf accuracy    <       0.00015503 Ry

     total magnetization       =     0.00    -0.00     0.03 Bohr mag/cell
     absolute magnetization    =    29.89 Bohr mag/cell

     iteration #387     ecut=    80.00 Ry     beta= 0.70
     Davidson diagonalization with overlap
     c_bands:  1 eigenvalues not converged
     c_bands:  3 eigenvalues not converged
     c_bands:  4 eigenvalues not converged
     c_bands:  4 eigenvalues not converged
     c_bands:  1 eigenvalues not converged
     c_bands:  4 eigenvalues not converged
     c_bands:  1 eigenvalues not converged
     c_bands:  1 eigenvalues not converged
     c_bands:  1 eigenvalues not converged
     c_bands:  1 eigenvalues not converged
     c_bands:  1 eigenvalues not converged
     c_bands:  1 eigenvalues not converged
     c_bands:  1 eigenvalues not converged
     c_bands:  1 eigenvalues not converged
     c_bands:  1 eigenvalues not converged
     ethr =  1.48E-07,  avg # of iterations = 19.7

     negative rho (up, down):  1.725E+02 2.944E-02

     total cpu time spent up to now is     4166.3 secs

     total energy              =   -4568.47801063 Ry
     estimated scf accuracy    <       0.00019599 Ry

     total magnetization       =    -0.00    -0.00     0.02 Bohr mag/cell
     absolute magnetization    =    29.91 Bohr mag/cell

     iteration #388     ecut=    80.00 Ry     beta= 0.70
     Davidson diagonalization with overlap
     c_bands:  1 eigenvalues not converged
     c_bands:  1 eigenvalues not converged
     c_bands:  2 eigenvalues not converged
     c_bands:  1 eigenvalues not converged
     ethr =  1.48E-07,  avg # of iterations = 18.2

     negative rho (up, down):  1.725E+02 2.944E-02

     total cpu time spent up to now is     4176.7 secs

     total energy              =   -4568.47981817 Ry
     estimated scf accuracy    <       0.00019165 Ry

     total magnetization       =    -0.00     0.00     0.17 Bohr mag/cell
     absolute magnetization    =    29.91 Bohr mag/cell

     iteration #389     ecut=    80.00 Ry     beta= 0.70
     Davidson diagonalization with overlap
     c_bands:  4 eigenvalues not converged
     c_bands:  1 eigenvalues not converged
     ethr =  1.48E-07,  avg # of iterations = 17.0

     negative rho (up, down):  1.725E+02 2.944E-02

     total cpu time spent up to now is     4186.5 secs

     total energy              =   -4568.47912685 Ry
     estimated scf accuracy    <       0.00008229 Ry

     total magnetization       =    -0.00    -0.00     0.07 Bohr mag/cell
     absolute magnetization    =    29.86 Bohr mag/cell

     iteration #390     ecut=    80.00 Ry     beta= 0.70
     Davidson diagonalization with overlap
     c_bands:  3 eigenvalues not converged
     c_bands:  1 eigenvalues not converged
     c_bands:  2 eigenvalues not converged
     c_bands:  2 eigenvalues not converged
     c_bands:  3 eigenvalues not converged
     c_bands:  3 eigenvalues not converged
     c_bands:  1 eigenvalues not converged
     ethr =  1.48E-07,  avg # of iterations = 18.0

     negative rho (up, down):  1.725E+02 2.944E-02

     total cpu time spent up to now is     4196.8 secs

     total energy              =   -4568.47997040 Ry
     estimated scf accuracy    <       0.00016384 Ry

     total magnetization       =     0.00     0.00     0.09 Bohr mag/cell
     absolute magnetization    =    29.88 Bohr mag/cell

     iteration #391     ecut=    80.00 Ry     beta= 0.70
     Davidson diagonalization with overlap
     c_bands:  2 eigenvalues not converged
     c_bands:  1 eigenvalues not converged
     ethr =  1.48E-07,  avg # of iterations = 18.0

     negative rho (up, down):  1.725E+02 2.944E-02

     total cpu time spent up to now is     4207.2 secs

     total energy              =   -4568.47849302 Ry
     estimated scf accuracy    <       0.00012605 Ry

     total magnetization       =    -0.00     0.00     0.08 Bohr mag/cell
     absolute magnetization    =    29.85 Bohr mag/cell

     iteration #392     ecut=    80.00 Ry     beta= 0.70
     Davidson diagonalization with overlap
     c_bands:  1 eigenvalues not converged
     c_bands:  1 eigenvalues not converged
     c_bands:  1 eigenvalues not converged
     ethr =  1.48E-07,  avg # of iterations = 18.9

     negative rho (up, down):  1.725E+02 2.944E-02

     total cpu time spent up to now is     4218.0 secs

     total energy              =   -4568.47543560 Ry
     estimated scf accuracy    <       0.00016257 Ry

     total magnetization       =    -0.00    -0.00    -0.03 Bohr mag/cell
     absolute magnetization    =    29.89 Bohr mag/cell

     iteration #393     ecut=    80.00 Ry     beta= 0.70
     Davidson diagonalization with overlap
     c_bands:  3 eigenvalues not converged
     c_bands:  2 eigenvalues not converged
     c_bands:  1 eigenvalues not converged
     c_bands:  2 eigenvalues not converged
     c_bands:  2 eigenvalues not converged
     c_bands:  3 eigenvalues not converged
     c_bands:  5 eigenvalues not converged
     c_bands:  5 eigenvalues not converged
     c_bands:  3 eigenvalues not converged
     ethr =  1.48E-07,  avg # of iterations = 19.5

     negative rho (up, down):  1.725E+02 2.944E-02

     total cpu time spent up to now is     4229.5 secs

     total energy              =   -4568.47793882 Ry
     estimated scf accuracy    <       0.00033419 Ry

     total magnetization       =    -0.00    -0.00     0.04 Bohr mag/cell
     absolute magnetization    =    29.94 Bohr mag/cell

     iteration #394     ecut=    80.00 Ry     beta= 0.70
     Davidson diagonalization with overlap
     c_bands:  2 eigenvalues not converged
     c_bands:  1 eigenvalues not converged
     c_bands:  1 eigenvalues not converged
     c_bands:  1 eigenvalues not converged
     c_bands:  1 eigenvalues not converged
     c_bands:  2 eigenvalues not converged
     c_bands:  1 eigenvalues not converged
     c_bands:  2 eigenvalues not converged
     c_bands:  2 eigenvalues not converged
     c_bands:  1 eigenvalues not converged
     ethr =  1.48E-07,  avg # of iterations = 18.1

     negative rho (up, down):  1.725E+02 2.944E-02

     total cpu time spent up to now is     4239.5 secs

     total energy              =   -4568.48075940 Ry
     estimated scf accuracy    <       0.00018193 Ry

     total magnetization       =    -0.00    -0.00     0.22 Bohr mag/cell
     absolute magnetization    =    29.93 Bohr mag/cell

     iteration #395     ecut=    80.00 Ry     beta= 0.70
     Davidson diagonalization with overlap
     c_bands:  2 eigenvalues not converged
     c_bands:  1 eigenvalues not converged
     c_bands:  1 eigenvalues not converged
     c_bands:  5 eigenvalues not converged
     c_bands:  5 eigenvalues not converged
     c_bands:  1 eigenvalues not converged
     c_bands:  1 eigenvalues not converged
     c_bands:  4 eigenvalues not converged
     c_bands:  1 eigenvalues not converged
     c_bands:  3 eigenvalues not converged
     c_bands:  1 eigenvalues not converged
     c_bands:  3 eigenvalues not converged
     c_bands:  2 eigenvalues not converged
     c_bands:  4 eigenvalues not converged
     c_bands:  4 eigenvalues not converged
     ethr =  1.48E-07,  avg # of iterations = 19.7

     negative rho (up, down):  1.725E+02 2.944E-02

     total cpu time spent up to now is     4250.6 secs

     total energy              =   -4568.47546830 Ry
     estimated scf accuracy    <       0.00027090 Ry

     total magnetization       =     0.00    -0.00     0.15 Bohr mag/cell
     absolute magnetization    =    29.98 Bohr mag/cell

     iteration #396     ecut=    80.00 Ry     beta= 0.70
     Davidson diagonalization with overlap
     c_bands:  2 eigenvalues not converged
     c_bands:  2 eigenvalues not converged
     c_bands:  3 eigenvalues not converged
     c_bands:  4 eigenvalues not converged
     c_bands:  1 eigenvalues not converged
     c_bands:  5 eigenvalues not converged
     c_bands:  4 eigenvalues not converged
     c_bands:  4 eigenvalues not converged
     c_bands:  3 eigenvalues not converged
     c_bands:  3 eigenvalues not converged
     c_bands:  2 eigenvalues not converged
     c_bands:  2 eigenvalues not converged
     c_bands:  5 eigenvalues not converged
     c_bands:  3 eigenvalues not converged
     c_bands:  3 eigenvalues not converged
     ethr =  1.48E-07,  avg # of iterations = 20.3

     negative rho (up, down):  1.725E+02 2.944E-02

     total cpu time spent up to now is     4262.2 secs

     total energy              =   -4568.47800926 Ry
     estimated scf accuracy    <       0.00015757 Ry

     total magnetization       =    -0.00     0.00     0.04 Bohr mag/cell
     absolute magnetization    =    29.89 Bohr mag/cell

     iteration #397     ecut=    80.00 Ry     beta= 0.70
     Davidson diagonalization with overlap
     c_bands:  1 eigenvalues not converged
     c_bands:  1 eigenvalues not converged
     c_bands:  1 eigenvalues not converged
     c_bands:  1 eigenvalues not converged
     c_bands:  2 eigenvalues not converged
     c_bands:  3 eigenvalues not converged
     c_bands:  1 eigenvalues not converged
     ethr =  1.48E-07,  avg # of iterations = 18.6

     negative rho (up, down):  1.725E+02 2.944E-02

     total cpu time spent up to now is     4272.8 secs

     total energy              =   -4568.47799971 Ry
     estimated scf accuracy    <       0.00013488 Ry

     total magnetization       =     0.00    -0.00     0.02 Bohr mag/cell
     absolute magnetization    =    29.86 Bohr mag/cell

     iteration #398     ecut=    80.00 Ry     beta= 0.70
     Davidson diagonalization with overlap
     c_bands:  1 eigenvalues not converged
     c_bands:  1 eigenvalues not converged
     c_bands:  2 eigenvalues not converged
     c_bands:  3 eigenvalues not converged
     c_bands:  2 eigenvalues not converged
     c_bands:  3 eigenvalues not converged
     ethr =  1.48E-07,  avg # of iterations = 19.6

     negative rho (up, down):  1.725E+02 2.944E-02

     total cpu time spent up to now is     4284.1 secs

     total energy              =   -4568.47560869 Ry
     estimated scf accuracy    <       0.00018668 Ry

     total magnetization       =    -0.00     0.00     0.04 Bohr mag/cell
     absolute magnetization    =    29.91 Bohr mag/cell

     iteration #399     ecut=    80.00 Ry     beta= 0.70
     Davidson diagonalization with overlap
     c_bands:  4 eigenvalues not converged
     c_bands:  3 eigenvalues not converged
     c_bands:  4 eigenvalues not converged
     c_bands:  5 eigenvalues not converged
     ethr =  1.48E-07,  avg # of iterations = 20.8

     negative rho (up, down):  1.725E+02 2.944E-02

     total cpu time spent up to now is     4296.4 secs

     total energy              =   -4568.47735833 Ry
     estimated scf accuracy    <       0.00022974 Ry

     total magnetization       =    -0.00    -0.00     0.02 Bohr mag/cell
     absolute magnetization    =    29.93 Bohr mag/cell

     iteration #400     ecut=    80.00 Ry     beta= 0.70
     Davidson diagonalization with overlap
     c_bands:  2 eigenvalues not converged
     c_bands:  2 eigenvalues not converged
     c_bands:  4 eigenvalues not converged
     c_bands:  2 eigenvalues not converged
     c_bands:  1 eigenvalues not converged
     ethr =  1.48E-07,  avg # of iterations = 19.8

     negative rho (up, down):  1.725E+02 2.944E-02

     total cpu time spent up to now is     4308.0 secs

     total energy              =   -4568.48071687 Ry
     estimated scf accuracy    <       0.00014802 Ry

     total magnetization       =    -0.00     0.00    -0.03 Bohr mag/cell
     absolute magnetization    =    29.90 Bohr mag/cell

     iteration #401     ecut=    80.00 Ry     beta= 0.70
     Davidson diagonalization with overlap
     c_bands:  1 eigenvalues not converged
     ethr =  1.48E-07,  avg # of iterations = 16.8

     negative rho (up, down):  1.725E+02 2.944E-02

     total cpu time spent up to now is     4318.0 secs

     total energy              =   -4568.47985400 Ry
     estimated scf accuracy    <       0.00012889 Ry

     total magnetization       =    -0.00     0.00    -0.02 Bohr mag/cell
     absolute magnetization    =    29.88 Bohr mag/cell

     iteration #402     ecut=    80.00 Ry     beta= 0.70
     Davidson diagonalization with overlap
     c_bands:  2 eigenvalues not converged
     c_bands:  2 eigenvalues not converged
     c_bands:  2 eigenvalues not converged
     c_bands:  4 eigenvalues not converged
     c_bands:  1 eigenvalues not converged
     c_bands:  2 eigenvalues not converged
     c_bands:  1 eigenvalues not converged
     c_bands:  1 eigenvalues not converged
     c_bands:  3 eigenvalues not converged
     c_bands:  3 eigenvalues not converged
     ethr =  1.48E-07,  avg # of iterations = 18.8

     negative rho (up, down):  1.725E+02 2.944E-02

     total cpu time spent up to now is     4328.2 secs

     total energy              =   -4568.47874677 Ry
     estimated scf accuracy    <       0.00014895 Ry

     total magnetization       =    -0.00    -0.00    -0.01 Bohr mag/cell
     absolute magnetization    =    29.90 Bohr mag/cell

     iteration #403     ecut=    80.00 Ry     beta= 0.70
     Davidson diagonalization with overlap
     c_bands:  4 eigenvalues not converged
     c_bands:  4 eigenvalues not converged
     c_bands:  3 eigenvalues not converged
     c_bands:  5 eigenvalues not converged
     c_bands:  2 eigenvalues not converged
     c_bands:  4 eigenvalues not converged
     c_bands:  5 eigenvalues not converged
     c_bands:  2 eigenvalues not converged
     c_bands:  4 eigenvalues not converged
     ethr =  1.48E-07,  avg # of iterations = 21.2

     negative rho (up, down):  1.725E+02 2.944E-02

     total cpu time spent up to now is     4339.9 secs

     total energy              =   -4568.47634922 Ry
     estimated scf accuracy    <       0.00020889 Ry

     total magnetization       =     0.00     0.00    -0.00 Bohr mag/cell
     absolute magnetization    =    29.92 Bohr mag/cell

     iteration #404     ecut=    80.00 Ry     beta= 0.70
     Davidson diagonalization with overlap
     c_bands:  5 eigenvalues not converged
     c_bands:  1 eigenvalues not converged
     c_bands:  2 eigenvalues not converged
     c_bands:  2 eigenvalues not converged
     c_bands:  5 eigenvalues not converged
     c_bands:  4 eigenvalues not converged
     c_bands:  3 eigenvalues not converged
     c_bands:  4 eigenvalues not converged
     c_bands:  1 eigenvalues not converged
     c_bands:  1 eigenvalues not converged
     c_bands:  1 eigenvalues not converged
     ethr =  1.48E-07,  avg # of iterations = 20.5

     negative rho (up, down):  1.725E+02 2.941E-02

     total cpu time spent up to now is     4351.8 secs

     total energy              =   -4568.47978701 Ry
     estimated scf accuracy    <       0.00020570 Ry

     total magnetization       =    -0.00    -0.00     0.12 Bohr mag/cell
     absolute magnetization    =    29.93 Bohr mag/cell

     iteration #405     ecut=    80.00 Ry     beta= 0.70
     Davidson diagonalization with overlap
     c_bands:  2 eigenvalues not converged
     c_bands:  4 eigenvalues not converged
     c_bands:  2 eigenvalues not converged
     c_bands:  1 eigenvalues not converged
     ethr =  1.48E-07,  avg # of iterations = 17.5

     negative rho (up, down):  1.725E+02 2.941E-02

     total cpu time spent up to now is     4361.8 secs

     total energy              =   -4568.48015660 Ry
     estimated scf accuracy    <       0.00014432 Ry

     total magnetization       =     0.00     0.00     0.20 Bohr mag/cell
     absolute magnetization    =    29.91 Bohr mag/cell

     iteration #406     ecut=    80.00 Ry     beta= 0.70
     Davidson diagonalization with overlap
     c_bands:  2 eigenvalues not converged
     c_bands:  4 eigenvalues not converged
     c_bands:  2 eigenvalues not converged
     c_bands:  2 eigenvalues not converged
     c_bands:  2 eigenvalues not converged
     c_bands:  3 eigenvalues not converged
     c_bands:  2 eigenvalues not converged
     c_bands:  3 eigenvalues not converged
     c_bands:  4 eigenvalues not converged
     c_bands:  3 eigenvalues not converged
     c_bands:  1 eigenvalues not converged
     c_bands:  3 eigenvalues not converged
     c_bands:  2 eigenvalues not converged
     c_bands:  2 eigenvalues not converged
     c_bands:  1 eigenvalues not converged
     c_bands:  1 eigenvalues not converged
     c_bands:  2 eigenvalues not converged
     ethr =  1.48E-07,  avg # of iterations = 19.5

     negative rho (up, down):  1.725E+02 2.941E-02

     total cpu time spent up to now is     4372.5 secs

     total energy              =   -4568.48111934 Ry
     estimated scf accuracy    <       0.00020327 Ry

     total magnetization       =     0.00    -0.00     0.13 Bohr mag/cell
     absolute magnetization    =    29.92 Bohr mag/cell

     iteration #407     ecut=    80.00 Ry     beta= 0.70
     Davidson diagonalization with overlap
     c_bands:  1 eigenvalues not converged
     c_bands:  1 eigenvalues not converged
     ethr =  1.48E-07,  avg # of iterations = 15.5

     negative rho (up, down):  1.725E+02 2.944E-02

     total cpu time spent up to now is     4381.9 secs

     total energy              =   -4568.47896908 Ry
     estimated scf accuracy    <       0.00014315 Ry

     total magnetization       =     0.00    -0.00     0.06 Bohr mag/cell
     absolute magnetization    =    29.88 Bohr mag/cell

     iteration #408     ecut=    80.00 Ry     beta= 0.70
     Davidson diagonalization with overlap
     c_bands:  1 eigenvalues not converged
     c_bands:  1 eigenvalues not converged
     ethr =  1.48E-07,  avg # of iterations = 17.3

     negative rho (up, down):  1.725E+02 2.944E-02

     total cpu time spent up to now is     4391.9 secs

     total energy              =   -4568.47927909 Ry
     estimated scf accuracy    <       0.00012830 Ry

     total magnetization       =     0.00     0.00     0.02 Bohr mag/cell
     absolute magnetization    =    29.88 Bohr mag/cell

     iteration #409     ecut=    80.00 Ry     beta= 0.70
     Davidson diagonalization with overlap
     c_bands:  2 eigenvalues not converged
     c_bands:  1 eigenvalues not converged
     c_bands:  2 eigenvalues not converged
     c_bands:  2 eigenvalues not converged
     c_bands:  1 eigenvalues not converged
     c_bands:  2 eigenvalues not converged
     c_bands:  2 eigenvalues not converged
     c_bands:  1 eigenvalues not converged
     ethr =  1.48E-07,  avg # of iterations = 19.2

     negative rho (up, down):  1.725E+02 2.944E-02

     total cpu time spent up to now is     4402.2 secs

     total energy              =   -4568.47962270 Ry
     estimated scf accuracy    <       0.00009669 Ry

     total magnetization       =     0.00     0.00    -0.01 Bohr mag/cell
     absolute magnetization    =    29.87 Bohr mag/cell

     iteration #410     ecut=    80.00 Ry     beta= 0.70
     Davidson diagonalization with overlap
     c_bands:  1 eigenvalues not converged
     c_bands:  2 eigenvalues not converged
     c_bands:  2 eigenvalues not converged
     c_bands:  3 eigenvalues not converged
     c_bands:  4 eigenvalues not converged
     c_bands:  2 eigenvalues not converged
     c_bands:  5 eigenvalues not converged
     c_bands:  5 eigenvalues not converged
     c_bands:  5 eigenvalues not converged
     c_bands:  1 eigenvalues not converged
     c_bands:  2 eigenvalues not converged
     c_bands:  4 eigenvalues not converged
     c_bands:  3 eigenvalues not converged
     c_bands:  1 eigenvalues not converged
     c_bands:  4 eigenvalues not converged
     c_bands:  4 eigenvalues not converged
     ethr =  1.48E-07,  avg # of iterations = 19.9

     negative rho (up, down):  1.725E+02 2.941E-02

     total cpu time spent up to now is     4412.9 secs

     total energy              =   -4568.47940141 Ry
     estimated scf accuracy    <       0.00020961 Ry

     total magnetization       =     0.00     0.00     0.02 Bohr mag/cell
     absolute magnetization    =    29.92 Bohr mag/cell

     iteration #411     ecut=    80.00 Ry     beta= 0.70
     Davidson diagonalization with overlap
     c_bands:  5 eigenvalues not converged
     c_bands:  5 eigenvalues not converged
     c_bands:  1 eigenvalues not converged
     c_bands:  2 eigenvalues not converged
     c_bands:  1 eigenvalues not converged
     c_bands:  5 eigenvalues not converged
     c_bands:  1 eigenvalues not converged
     c_bands:  4 eigenvalues not converged
     c_bands:  1 eigenvalues not converged
     c_bands:  1 eigenvalues not converged
     ethr =  1.48E-07,  avg # of iterations = 20.1

     negative rho (up, down):  1.725E+02 2.943E-02

     total cpu time spent up to now is     4424.0 secs

     total energy              =   -4568.47827257 Ry
     estimated scf accuracy    <       0.00017688 Ry

     total magnetization       =     0.00    -0.00     0.10 Bohr mag/cell
     absolute magnetization    =    29.92 Bohr mag/cell

     iteration #412     ecut=    80.00 Ry     beta= 0.70
     Davidson diagonalization with overlap
     c_bands:  2 eigenvalues not converged
     c_bands:  4 eigenvalues not converged
     c_bands:  4 eigenvalues not converged
     c_bands:  1 eigenvalues not converged
     c_bands:  4 eigenvalues not converged
     c_bands:  4 eigenvalues not converged
     c_bands:  4 eigenvalues not converged
     c_bands:  3 eigenvalues not converged
     c_bands:  4 eigenvalues not converged
     c_bands:  2 eigenvalues not converged
     c_bands:  5 eigenvalues not converged
     c_bands:  1 eigenvalues not converged
     c_bands:  1 eigenvalues not converged
     c_bands:  4 eigenvalues not converged
     ethr =  1.48E-07,  avg # of iterations = 19.6

     negative rho (up, down):  1.725E+02 2.941E-02

     total cpu time spent up to now is     4434.9 secs

     total energy              =   -4568.47759659 Ry
     estimated scf accuracy    <       0.00016080 Ry

     total magnetization       =     0.00     0.00     0.03 Bohr mag/cell
     absolute magnetization    =    29.89 Bohr mag/cell

     iteration #413     ecut=    80.00 Ry     beta= 0.70
     Davidson diagonalization with overlap
     c_bands:  2 eigenvalues not converged
     c_bands:  3 eigenvalues not converged
     c_bands:  1 eigenvalues not converged
     c_bands:  1 eigenvalues not converged
     c_bands:  5 eigenvalues not converged
     c_bands:  1 eigenvalues not converged
     c_bands:  3 eigenvalues not converged
     c_bands:  3 eigenvalues not converged
     c_bands:  1 eigenvalues not converged
     c_bands:  5 eigenvalues not converged
     c_bands:  1 eigenvalues not converged
     c_bands:  1 eigenvalues not converged
     c_bands:  2 eigenvalues not converged
     ethr =  1.48E-07,  avg # of iterations = 19.5

     negative rho (up, down):  1.725E+02 2.944E-02

     total cpu time spent up to now is     4445.5 secs

     total energy              =   -4568.48094228 Ry
     estimated scf accuracy    <       0.00012774 Ry

     total magnetization       =     0.00     0.00     0.12 Bohr mag/cell
     absolute magnetization    =    29.88 Bohr mag/cell

     iteration #414     ecut=    80.00 Ry     beta= 0.70
     Davidson diagonalization with overlap
     c_bands:  1 eigenvalues not converged
     c_bands:  1 eigenvalues not converged
     c_bands:  1 eigenvalues not converged
     c_bands:  1 eigenvalues not converged
     ethr =  1.48E-07,  avg # of iterations = 17.4

     negative rho (up, down):  1.725E+02 2.944E-02

     total cpu time spent up to now is     4455.3 secs

     total energy              =   -4568.47826176 Ry
     estimated scf accuracy    <       0.00008442 Ry

     total magnetization       =     0.00     0.00    -0.04 Bohr mag/cell
     absolute magnetization    =    29.85 Bohr mag/cell

     iteration #415     ecut=    80.00 Ry     beta= 0.70
     Davidson diagonalization with overlap
     c_bands:  1 eigenvalues not converged
     c_bands:  1 eigenvalues not converged
     c_bands:  2 eigenvalues not converged
     c_bands:  1 eigenvalues not converged
     c_bands:  1 eigenvalues not converged
     c_bands:  1 eigenvalues not converged
     c_bands:  2 eigenvalues not converged
     c_bands:  2 eigenvalues not converged
     c_bands:  2 eigenvalues not converged
     c_bands:  2 eigenvalues not converged
     c_bands:  2 eigenvalues not converged
     c_bands:  2 eigenvalues not converged
     ethr =  1.48E-07,  avg # of iterations = 19.0

     negative rho (up, down):  1.725E+02 2.943E-02

     total cpu time spent up to now is     4465.7 secs

     total energy              =   -4568.47987861 Ry
     estimated scf accuracy    <       0.00031290 Ry

     total magnetization       =    -0.00     0.00     0.25 Bohr mag/cell
     absolute magnetization    =    29.99 Bohr mag/cell

     iteration #416     ecut=    80.00 Ry     beta= 0.70
     Davidson diagonalization with overlap
     c_bands:  3 eigenvalues not converged
     c_bands:  1 eigenvalues not converged
     c_bands:  2 eigenvalues not converged
     c_bands:  2 eigenvalues not converged
     c_bands:  3 eigenvalues not converged
     c_bands:  3 eigenvalues not converged
     ethr =  1.48E-07,  avg # of iterations = 19.3

     negative rho (up, down):  1.725E+02 2.943E-02

     total cpu time spent up to now is     4476.5 secs

     total energy              =   -4568.47784857 Ry
     estimated scf accuracy    <       0.00019993 Ry

     total magnetization       =    -0.00     0.00     0.10 Bohr mag/cell
     absolute magnetization    =    29.90 Bohr mag/cell

     iteration #417     ecut=    80.00 Ry     beta= 0.70
     Davidson diagonalization with overlap
     c_bands:  1 eigenvalues not converged
     c_bands:  1 eigenvalues not converged
     c_bands:  1 eigenvalues not converged
     ethr =  1.48E-07,  avg # of iterations = 18.6

     negative rho (up, down):  1.725E+02 2.943E-02

     total cpu time spent up to now is     4487.2 secs

     total energy              =   -4568.47961574 Ry
     estimated scf accuracy    <       0.00012249 Ry

     total magnetization       =    -0.00    -0.00     0.14 Bohr mag/cell
     absolute magnetization    =    29.88 Bohr mag/cell

     iteration #418     ecut=    80.00 Ry     beta= 0.70
     Davidson diagonalization with overlap
     c_bands:  3 eigenvalues not converged
     c_bands:  1 eigenvalues not converged
     c_bands:  3 eigenvalues not converged
     ethr =  1.48E-07,  avg # of iterations = 18.9

     negative rho (up, down):  1.725E+02 2.943E-02

     total cpu time spent up to now is     4497.8 secs

     total energy              =   -4568.47794519 Ry
     estimated scf accuracy    <       0.00013034 Ry

     total magnetization       =    -0.00     0.00     0.04 Bohr mag/cell
     absolute magnetization    =    29.88 Bohr mag/cell

     iteration #419     ecut=    80.00 Ry     beta= 0.70
     Davidson diagonalization with overlap
     c_bands:  4 eigenvalues not converged
     c_bands:  3 eigenvalues not converged
     c_bands:  3 eigenvalues not converged
     c_bands:  4 eigenvalues not converged
     c_bands:  4 eigenvalues not converged
     c_bands:  2 eigenvalues not converged
     c_bands:  4 eigenvalues not converged
     c_bands:  3 eigenvalues not converged
     c_bands:  5 eigenvalues not converged
     c_bands:  4 eigenvalues not converged
     c_bands:  2 eigenvalues not converged
     c_bands:  1 eigenvalues not converged
     c_bands:  2 eigenvalues not converged
     c_bands:  4 eigenvalues not converged
     c_bands:  3 eigenvalues not converged
     c_bands:  3 eigenvalues not converged
     c_bands:  4 eigenvalues not converged
     c_bands:  3 eigenvalues not converged
     ethr =  1.48E-07,  avg # of iterations = 21.1

     negative rho (up, down):  1.725E+02 2.943E-02

     total cpu time spent up to now is     4509.7 secs

     total energy              =   -4568.47918891 Ry
     estimated scf accuracy    <       0.00028708 Ry

     total magnetization       =    -0.00     0.00    -0.09 Bohr mag/cell
     absolute magnetization    =    29.98 Bohr mag/cell

     iteration #420     ecut=    80.00 Ry     beta= 0.70
     Davidson diagonalization with overlap
     c_bands:  2 eigenvalues not converged
     c_bands:  1 eigenvalues not converged
     c_bands:  1 eigenvalues not converged
     c_bands:  4 eigenvalues not converged
     c_bands:  2 eigenvalues not converged
     c_bands:  4 eigenvalues not converged
     c_bands:  2 eigenvalues not converged
     c_bands:  3 eigenvalues not converged
     c_bands:  3 eigenvalues not converged
     c_bands:  2 eigenvalues not converged
     c_bands:  3 eigenvalues not converged
     c_bands:  4 eigenvalues not converged
     c_bands:  3 eigenvalues not converged
     ethr =  1.48E-07,  avg # of iterations = 20.0

     negative rho (up, down):  1.725E+02 2.943E-02

     total cpu time spent up to now is     4520.6 secs

     total energy              =   -4568.47691644 Ry
     estimated scf accuracy    <       0.00017602 Ry

     total magnetization       =    -0.00     0.00     0.04 Bohr mag/cell
     absolute magnetization    =    29.89 Bohr mag/cell

     iteration #421     ecut=    80.00 Ry     beta= 0.70
     Davidson diagonalization with overlap
     c_bands:  2 eigenvalues not converged
     c_bands:  2 eigenvalues not converged
     c_bands:  2 eigenvalues not converged
     c_bands:  1 eigenvalues not converged
     c_bands:  2 eigenvalues not converged
     c_bands:  1 eigenvalues not converged
     c_bands:  1 eigenvalues not converged
     c_bands:  4 eigenvalues not converged
     c_bands:  2 eigenvalues not converged
     c_bands:  4 eigenvalues not converged
     c_bands:  2 eigenvalues not converged
     c_bands:  2 eigenvalues not converged
     c_bands:  3 eigenvalues not converged
     c_bands:  2 eigenvalues not converged
     c_bands:  3 eigenvalues not converged
     c_bands:  2 eigenvalues not converged
     ethr =  1.48E-07,  avg # of iterations = 20.2

     negative rho (up, down):  1.725E+02 2.943E-02

     total cpu time spent up to now is     4532.0 secs

     total energy              =   -4568.47811154 Ry
     estimated scf accuracy    <       0.00023186 Ry

     total magnetization       =    -0.00    -0.00     0.12 Bohr mag/cell
     absolute magnetization    =    29.96 Bohr mag/cell

     iteration #422     ecut=    80.00 Ry     beta= 0.70
     Davidson diagonalization with overlap
     c_bands:  1 eigenvalues not converged
     c_bands:  2 eigenvalues not converged
     c_bands:  4 eigenvalues not converged
     c_bands:  1 eigenvalues not converged
     c_bands:  3 eigenvalues not converged
     c_bands:  5 eigenvalues not converged
     c_bands:  1 eigenvalues not converged
     c_bands:  3 eigenvalues not converged
     c_bands:  1 eigenvalues not converged
     c_bands:  1 eigenvalues not converged
     c_bands:  1 eigenvalues not converged
     c_bands:  2 eigenvalues not converged
     c_bands:  4 eigenvalues not converged
     c_bands:  3 eigenvalues not converged
     c_bands:  3 eigenvalues not converged
     ethr =  1.48E-07,  avg # of iterations = 19.8

     negative rho (up, down):  1.725E+02 2.943E-02

     total cpu time spent up to now is     4543.3 secs

     total energy              =   -4568.47808958 Ry
     estimated scf accuracy    <       0.00022312 Ry

     total magnetization       =     0.00     0.00     0.09 Bohr mag/cell
     absolute magnetization    =    29.94 Bohr mag/cell

     iteration #423     ecut=    80.00 Ry     beta= 0.70
     Davidson diagonalization with overlap
     c_bands:  1 eigenvalues not converged
     c_bands:  2 eigenvalues not converged
     c_bands:  1 eigenvalues not converged
     c_bands:  1 eigenvalues not converged
     c_bands:  1 eigenvalues not converged
     c_bands:  2 eigenvalues not converged
     c_bands:  1 eigenvalues not converged
     c_bands:  2 eigenvalues not converged
     ethr =  1.48E-07,  avg # of iterations = 19.0

     negative rho (up, down):  1.725E+02 2.944E-02

     total cpu time spent up to now is     4553.7 secs

     total energy              =   -4568.47795321 Ry
     estimated scf accuracy    <       0.00014107 Ry

     total magnetization       =     0.00    -0.00     0.05 Bohr mag/cell
     absolute magnetization    =    29.90 Bohr mag/cell

     iteration #424     ecut=    80.00 Ry     beta= 0.70
     Davidson diagonalization with overlap
     c_bands:  1 eigenvalues not converged
     ethr =  1.48E-07,  avg # of iterations = 18.3

     negative rho (up, down):  1.725E+02 2.944E-02

     total cpu time spent up to now is     4564.0 secs

     total energy              =   -4568.48065923 Ry
     estimated scf accuracy    <       0.00008318 Ry

     total magnetization       =     0.00     0.00     0.00 Bohr mag/cell
     absolute magnetization    =    29.84 Bohr mag/cell

     iteration #425     ecut=    80.00 Ry     beta= 0.70
     Davidson diagonalization with overlap
     c_bands:  1 eigenvalues not converged
     c_bands:  1 eigenvalues not converged
     c_bands:  1 eigenvalues not converged
     ethr =  1.48E-07,  avg # of iterations = 17.0

     negative rho (up, down):  1.725E+02 2.943E-02

     total cpu time spent up to now is     4573.7 secs

     total energy              =   -4568.48076771 Ry
     estimated scf accuracy    <       0.00008529 Ry

     total magnetization       =     0.00    -0.00     0.09 Bohr mag/cell
     absolute magnetization    =    29.85 Bohr mag/cell

     iteration #426     ecut=    80.00 Ry     beta= 0.70
     Davidson diagonalization with overlap
     c_bands:  2 eigenvalues not converged
     c_bands:  2 eigenvalues not converged
     c_bands:  1 eigenvalues not converged
     c_bands:  2 eigenvalues not converged
     c_bands:  1 eigenvalues not converged
     c_bands:  1 eigenvalues not converged
     ethr =  1.48E-07,  avg # of iterations = 16.8

     negative rho (up, down):  1.725E+02 2.943E-02

     total cpu time spent up to now is     4583.5 secs

     total energy              =   -4568.48014922 Ry
     estimated scf accuracy    <       0.00012419 Ry

     total magnetization       =     0.00    -0.00    -0.00 Bohr mag/cell
     absolute magnetization    =    29.87 Bohr mag/cell

     iteration #427     ecut=    80.00 Ry     beta= 0.70
     Davidson diagonalization with overlap
     c_bands:  2 eigenvalues not converged
     c_bands:  1 eigenvalues not converged
     c_bands:  3 eigenvalues not converged
     c_bands:  1 eigenvalues not converged
     c_bands:  1 eigenvalues not converged
     c_bands:  4 eigenvalues not converged
     c_bands:  3 eigenvalues not converged
     c_bands:  1 eigenvalues not converged
     c_bands:  1 eigenvalues not converged
     c_bands:  4 eigenvalues not converged
     c_bands:  2 eigenvalues not converged
     c_bands:  4 eigenvalues not converged
     c_bands:  1 eigenvalues not converged
     c_bands:  2 eigenvalues not converged
     ethr =  1.48E-07,  avg # of iterations = 19.4

     negative rho (up, down):  1.725E+02 2.943E-02

     total cpu time spent up to now is     4594.1 secs

     total energy              =   -4568.47838371 Ry
     estimated scf accuracy    <       0.00023737 Ry

     total magnetization       =     0.00     0.00     0.15 Bohr mag/cell
     absolute magnetization    =    29.95 Bohr mag/cell

     iteration #428     ecut=    80.00 Ry     beta= 0.70
     Davidson diagonalization with overlap
     c_bands:  3 eigenvalues not converged
     c_bands:  2 eigenvalues not converged
     c_bands:  5 eigenvalues not converged
     c_bands:  2 eigenvalues not converged
     c_bands:  1 eigenvalues not converged
     c_bands:  5 eigenvalues not converged
     c_bands:  2 eigenvalues not converged
     c_bands:  1 eigenvalues not converged
     c_bands:  3 eigenvalues not converged
     c_bands:  2 eigenvalues not converged
     c_bands:  2 eigenvalues not converged
     c_bands:  5 eigenvalues not converged
     c_bands:  1 eigenvalues not converged
     c_bands:  3 eigenvalues not converged
     c_bands:  2 eigenvalues not converged
     c_bands:  1 eigenvalues not converged
     ethr =  1.48E-07,  avg # of iterations = 19.8

     negative rho (up, down):  1.725E+02 2.943E-02

     total cpu time spent up to now is     4605.0 secs

     total energy              =   -4568.48126626 Ry
     estimated scf accuracy    <       0.00018987 Ry

     total magnetization       =     0.00     0.00    -0.09 Bohr mag/cell
     absolute magnetization    =    29.91 Bohr mag/cell

     iteration #429     ecut=    80.00 Ry     beta= 0.70
     Davidson diagonalization with overlap
     ethr =  1.48E-07,  avg # of iterations = 16.4

     negative rho (up, down):  1.725E+02 2.943E-02

     total cpu time spent up to now is     4614.9 secs

     total energy              =   -4568.47992581 Ry
     estimated scf accuracy    <       0.00013465 Ry

     total magnetization       =     0.00    -0.00    -0.07 Bohr mag/cell
     absolute magnetization    =    29.87 Bohr mag/cell

     iteration #430     ecut=    80.00 Ry     beta= 0.70
     Davidson diagonalization with overlap
     c_bands:  2 eigenvalues not converged
     c_bands:  1 eigenvalues not converged
     c_bands:  1 eigenvalues not converged
     c_bands:  1 eigenvalues not converged
     ethr =  1.48E-07,  avg # of iterations = 17.3

     negative rho (up, down):  1.725E+02 2.943E-02

     total cpu time spent up to now is     4624.9 secs

     total energy              =   -4568.47938645 Ry
     estimated scf accuracy    <       0.00014782 Ry

     total magnetization       =     0.00    -0.00     0.05 Bohr mag/cell
     absolute magnetization    =    29.87 Bohr mag/cell

     iteration #431     ecut=    80.00 Ry     beta= 0.70
     Davidson diagonalization with overlap
     c_bands:  1 eigenvalues not converged
     c_bands:  1 eigenvalues not converged
     ethr =  1.48E-07,  avg # of iterations = 15.8

     negative rho (up, down):  1.725E+02 2.943E-02

     total cpu time spent up to now is     4634.5 secs

     total energy              =   -4568.47968241 Ry
     estimated scf accuracy    <       0.00017149 Ry

     total magnetization       =    -0.00    -0.00     0.13 Bohr mag/cell
     absolute magnetization    =    29.88 Bohr mag/cell

     iteration #432     ecut=    80.00 Ry     beta= 0.70
     Davidson diagonalization with overlap
     c_bands:  1 eigenvalues not converged
     c_bands:  3 eigenvalues not converged
     c_bands:  1 eigenvalues not converged
     c_bands:  1 eigenvalues not converged
     ethr =  1.48E-07,  avg # of iterations = 18.4

     negative rho (up, down):  1.725E+02 2.943E-02

     total cpu time spent up to now is     4644.6 secs

     total energy              =   -4568.47906120 Ry
     estimated scf accuracy    <       0.00012289 Ry

     total magnetization       =     0.00     0.00     0.08 Bohr mag/cell
     absolute magnetization    =    29.87 Bohr mag/cell

     iteration #433     ecut=    80.00 Ry     beta= 0.70
     Davidson diagonalization with overlap
     c_bands:  1 eigenvalues not converged
     c_bands:  1 eigenvalues not converged
     c_bands:  2 eigenvalues not converged
     c_bands:  2 eigenvalues not converged
     c_bands:  2 eigenvalues not converged
     c_bands:  1 eigenvalues not converged
     c_bands:  2 eigenvalues not converged
     c_bands:  2 eigenvalues not converged
     ethr =  1.48E-07,  avg # of iterations = 19.5

     negative rho (up, down):  1.725E+02 2.943E-02

     total cpu time spent up to now is     4655.5 secs

     total energy              =   -4568.47575429 Ry
     estimated scf accuracy    <       0.00028628 Ry

     total magnetization       =    -0.00    -0.00     0.02 Bohr mag/cell
     absolute magnetization    =    29.93 Bohr mag/cell

     iteration #434     ecut=    80.00 Ry     beta= 0.70
     Davidson diagonalization with overlap
     c_bands:  3 eigenvalues not converged
     c_bands:  3 eigenvalues not converged
     c_bands:  1 eigenvalues not converged
     c_bands:  2 eigenvalues not converged
     c_bands:  3 eigenvalues not converged
     c_bands:  3 eigenvalues not converged
     c_bands:  1 eigenvalues not converged
     c_bands:  3 eigenvalues not converged
     c_bands:  2 eigenvalues not converged
     c_bands:  3 eigenvalues not converged
     c_bands:  2 eigenvalues not converged
     c_bands:  1 eigenvalues not converged
     c_bands:  1 eigenvalues not converged
     ethr =  1.48E-07,  avg # of iterations = 21.0

     negative rho (up, down):  1.725E+02 2.944E-02

     total cpu time spent up to now is     4667.6 secs

     total energy              =   -4568.47614246 Ry
     estimated scf accuracy    <       0.00027308 Ry

     total magnetization       =    -0.00    -0.00    -0.01 Bohr mag/cell
     absolute magnetization    =    29.95 Bohr mag/cell

     iteration #435     ecut=    80.00 Ry     beta= 0.70
     Davidson diagonalization with overlap
     c_bands:  2 eigenvalues not converged
     c_bands:  4 eigenvalues not converged
     c_bands:  3 eigenvalues not converged
     c_bands:  3 eigenvalues not converged
     c_bands:  4 eigenvalues not converged
     c_bands:  4 eigenvalues not converged
     c_bands:  3 eigenvalues not converged
     c_bands:  4 eigenvalues not converged
     c_bands:  4 eigenvalues not converged
     c_bands:  4 eigenvalues not converged
     c_bands:  4 eigenvalues not converged
     c_bands:  4 eigenvalues not converged
     c_bands:  3 eigenvalues not converged
     c_bands:  4 eigenvalues not converged
     c_bands:  4 eigenvalues not converged
     c_bands:  5 eigenvalues not converged
     c_bands:  3 eigenvalues not converged
     c_bands:  5 eigenvalues not converged
     c_bands:  4 eigenvalues not converged
     ethr =  1.48E-07,  avg # of iterations = 20.7

     negative rho (up, down):  1.725E+02 2.944E-02

     total cpu time spent up to now is     4679.3 secs

     total energy              =   -4568.47943426 Ry
     estimated scf accuracy    <       0.00026170 Ry

     total magnetization       =    -0.00    -0.00     0.25 Bohr mag/cell
     absolute magnetization    =    29.98 Bohr mag/cell

     iteration #436     ecut=    80.00 Ry     beta= 0.70
     Davidson diagonalization with overlap
     c_bands:  1 eigenvalues not converged
     c_bands:  2 eigenvalues not converged
     c_bands:  1 eigenvalues not converged
     c_bands:  1 eigenvalues not converged
     c_bands:  1 eigenvalues not converged
     c_bands:  1 eigenvalues not converged
     c_bands:  2 eigenvalues not converged
     c_bands:  1 eigenvalues not converged
     c_bands:  1 eigenvalues not converged
     ethr =  1.48E-07,  avg # of iterations = 18.4

     negative rho (up, down):  1.725E+02 2.944E-02

     total cpu time spent up to now is     4689.5 secs

     total energy              =   -4568.47845931 Ry
     estimated scf accuracy    <       0.00016479 Ry

     total magnetization       =    -0.00     0.00     0.12 Bohr mag/cell
     absolute magnetization    =    29.90 Bohr mag/cell

     iteration #437     ecut=    80.00 Ry     beta= 0.70
     Davidson diagonalization with overlap
     c_bands:  2 eigenvalues not converged
     c_bands:  1 eigenvalues not converged
     c_bands:  4 eigenvalues not converged
     c_bands:  1 eigenvalues not converged
     c_bands:  1 eigenvalues not converged
     c_bands:  1 eigenvalues not converged
     c_bands:  4 eigenvalues not converged
     c_bands:  4 eigenvalues not converged
     c_bands:  3 eigenvalues not converged
     c_bands:  2 eigenvalues not converged
     c_bands:  2 eigenvalues not converged
     ethr =  1.48E-07,  avg # of iterations = 19.8

     negative rho (up, down):  1.725E+02 2.944E-02

     total cpu time spent up to now is     4700.7 secs

     total energy              =   -4568.48215583 Ry
     estimated scf accuracy    <       0.00028786 Ry

     total magnetization       =     0.00    -0.00     0.20 Bohr mag/cell
     absolute magnetization    =    29.99 Bohr mag/cell

     iteration #438     ecut=    80.00 Ry     beta= 0.70
     Davidson diagonalization with overlap
     c_bands:  3 eigenvalues not converged
     c_bands:  2 eigenvalues not converged
     c_bands:  3 eigenvalues not converged
     c_bands:  2 eigenvalues not converged
     c_bands:  1 eigenvalues not converged
     c_bands:  3 eigenvalues not converged
     c_bands:  1 eigenvalues not converged
     c_bands:  4 eigenvalues not converged
     c_bands:  3 eigenvalues not converged
     c_bands:  3 eigenvalues not converged
     c_bands:  2 eigenvalues not converged
     c_bands:  3 eigenvalues not converged
     c_bands:  2 eigenvalues not converged
     c_bands:  3 eigenvalues not converged
     c_bands:  2 eigenvalues not converged
     c_bands:  2 eigenvalues not converged
     ethr =  1.48E-07,  avg # of iterations = 19.5

     negative rho (up, down):  1.725E+02 2.944E-02

     total cpu time spent up to now is     4711.8 secs

     total energy              =   -4568.47129842 Ry
     estimated scf accuracy    <       0.00033685 Ry

     total magnetization       =    -0.00     0.00     0.03 Bohr mag/cell
     absolute magnetization    =    29.97 Bohr mag/cell

     iteration #439     ecut=    80.00 Ry     beta= 0.70
     Davidson diagonalization with overlap
     c_bands:  4 eigenvalues not converged
     c_bands:  2 eigenvalues not converged
     c_bands:  1 eigenvalues not converged
     c_bands:  2 eigenvalues not converged
     c_bands:  3 eigenvalues not converged
     c_bands:  3 eigenvalues not converged
     c_bands:  4 eigenvalues not converged
     c_bands:  2 eigenvalues not converged
     c_bands:  3 eigenvalues not converged
     c_bands:  5 eigenvalues not converged
     ethr =  1.48E-07,  avg # of iterations = 21.0

     negative rho (up, down):  1.725E+02 2.943E-02

     total cpu time spent up to now is     4724.4 secs

     total energy              =   -4568.48024882 Ry
     estimated scf accuracy    <       0.00019411 Ry

     total magnetization       =     0.00    -0.00    -0.01 Bohr mag/cell
     absolute magnetization    =    29.88 Bohr mag/cell

     iteration #440     ecut=    80.00 Ry     beta= 0.70
     Davidson diagonalization with overlap
     c_bands:  1 eigenvalues not converged
     c_bands:  2 eigenvalues not converged
     c_bands:  1 eigenvalues not converged
     c_bands:  1 eigenvalues not converged
     c_bands:  5 eigenvalues not converged
     c_bands:  1 eigenvalues not converged
     ethr =  1.48E-07,  avg # of iterations = 18.5

     negative rho (up, down):  1.725E+02 2.944E-02

     total cpu time spent up to now is     4735.0 secs

     total energy              =   -4568.47751708 Ry
     estimated scf accuracy    <       0.00031585 Ry

     total magnetization       =    -0.00     0.00     0.11 Bohr mag/cell
     absolute magnetization    =    29.95 Bohr mag/cell

     iteration #441     ecut=    80.00 Ry     beta= 0.70
     Davidson diagonalization with overlap
     c_bands:  1 eigenvalues not converged
     c_bands:  4 eigenvalues not converged
     c_bands:  1 eigenvalues not converged
     c_bands:  4 eigenvalues not converged
     c_bands:  2 eigenvalues not converged
     c_bands:  1 eigenvalues not converged
     c_bands:  1 eigenvalues not converged
     c_bands:  1 eigenvalues not converged
     c_bands:  1 eigenvalues not converged
     c_bands:  1 eigenvalues not converged
     c_bands:  1 eigenvalues not converged
     ethr =  1.48E-07,  avg # of iterations = 19.4

     negative rho (up, down):  1.725E+02 2.944E-02

     total cpu time spent up to now is     4746.2 secs

     total energy              =   -4568.47391623 Ry
     estimated scf accuracy    <       0.00030377 Ry

     total magnetization       =     0.00    -0.00    -0.02 Bohr mag/cell
     absolute magnetization    =    29.95 Bohr mag/cell

     iteration #442     ecut=    80.00 Ry     beta= 0.70
     Davidson diagonalization with overlap
     c_bands:  1 eigenvalues not converged
     c_bands:  2 eigenvalues not converged
     c_bands:  2 eigenvalues not converged
     c_bands:  4 eigenvalues not converged
     c_bands:  1 eigenvalues not converged
     c_bands:  5 eigenvalues not converged
     c_bands:  1 eigenvalues not converged
     ethr =  1.48E-07,  avg # of iterations = 19.7

     negative rho (up, down):  1.725E+02 2.944E-02

     total cpu time spent up to now is     4757.8 secs

     total energy              =   -4568.47795568 Ry
     estimated scf accuracy    <       0.00018904 Ry

     total magnetization       =    -0.00    -0.00     0.00 Bohr mag/cell
     absolute magnetization    =    29.90 Bohr mag/cell

     iteration #443     ecut=    80.00 Ry     beta= 0.70
     Davidson diagonalization with overlap
     c_bands:  1 eigenvalues not converged
     c_bands:  1 eigenvalues not converged
     c_bands:  1 eigenvalues not converged
     c_bands:  2 eigenvalues not converged
     c_bands:  1 eigenvalues not converged
     c_bands:  1 eigenvalues not converged
     c_bands:  1 eigenvalues not converged
     ethr =  1.48E-07,  avg # of iterations = 18.4

     negative rho (up, down):  1.725E+02 2.944E-02

     total cpu time spent up to now is     4768.2 secs

     total energy              =   -4568.47938276 Ry
     estimated scf accuracy    <       0.00009083 Ry

     total magnetization       =     0.00    -0.00     0.02 Bohr mag/cell
     absolute magnetization    =    29.84 Bohr mag/cell

     iteration #444     ecut=    80.00 Ry     beta= 0.70
     Davidson diagonalization with overlap
     c_bands:  2 eigenvalues not converged
     c_bands:  2 eigenvalues not converged
     c_bands:  3 eigenvalues not converged
     c_bands:  2 eigenvalues not converged
     c_bands:  2 eigenvalues not converged
     c_bands:  1 eigenvalues not converged
     c_bands:  2 eigenvalues not converged
     c_bands:  1 eigenvalues not converged
     c_bands:  2 eigenvalues not converged
     c_bands:  2 eigenvalues not converged
     c_bands:  1 eigenvalues not converged
     c_bands:  3 eigenvalues not converged
     c_bands:  1 eigenvalues not converged
     ethr =  1.48E-07,  avg # of iterations = 19.2

     negative rho (up, down):  1.725E+02 2.944E-02

     total cpu time spent up to now is     4778.8 secs

     total energy              =   -4568.47688164 Ry
     estimated scf accuracy    <       0.00033362 Ry

     total magnetization       =     0.00    -0.00    -0.08 Bohr mag/cell
     absolute magnetization    =    29.97 Bohr mag/cell

     iteration #445     ecut=    80.00 Ry     beta= 0.70
     Davidson diagonalization with overlap
     c_bands:  2 eigenvalues not converged
     c_bands:  2 eigenvalues not converged
     c_bands:  4 eigenvalues not converged
     c_bands:  3 eigenvalues not converged
     c_bands:  5 eigenvalues not converged
     c_bands:  3 eigenvalues not converged
     c_bands:  4 eigenvalues not converged
     c_bands:  1 eigenvalues not converged
     c_bands:  4 eigenvalues not converged
     c_bands:  2 eigenvalues not converged
     c_bands:  3 eigenvalues not converged
     c_bands:  1 eigenvalues not converged
     c_bands:  1 eigenvalues not converged
     c_bands:  2 eigenvalues not converged
     ethr =  1.48E-07,  avg # of iterations = 20.0

     negative rho (up, down):  1.725E+02 2.944E-02

     total cpu time spent up to now is     4789.5 secs

     total energy              =   -4568.47986162 Ry
     estimated scf accuracy    <       0.00014201 Ry

     total magnetization       =     0.00    -0.00     0.12 Bohr mag/cell
     absolute magnetization    =    29.89 Bohr mag/cell

     iteration #446     ecut=    80.00 Ry     beta= 0.70
     Davidson diagonalization with overlap
     c_bands:  2 eigenvalues not converged
     c_bands:  1 eigenvalues not converged
     c_bands:  2 eigenvalues not converged
     c_bands:  2 eigenvalues not converged
     c_bands:  1 eigenvalues not converged
     c_bands:  1 eigenvalues not converged
     c_bands:  3 eigenvalues not converged
     c_bands:  1 eigenvalues not converged
     c_bands:  3 eigenvalues not converged
     c_bands:  1 eigenvalues not converged
     c_bands:  2 eigenvalues not converged
     ethr =  1.48E-07,  avg # of iterations = 19.1

     negative rho (up, down):  1.725E+02 2.946E-02

     total cpu time spent up to now is     4800.0 secs

     total energy              =   -4568.47853262 Ry
     estimated scf accuracy    <       0.00018932 Ry

     total magnetization       =     0.00     0.00     0.03 Bohr mag/cell
     absolute magnetization    =    29.91 Bohr mag/cell

     iteration #447     ecut=    80.00 Ry     beta= 0.70
     Davidson diagonalization with overlap
     c_bands:  1 eigenvalues not converged
     c_bands:  1 eigenvalues not converged
     c_bands:  2 eigenvalues not converged
     c_bands:  4 eigenvalues not converged
     c_bands:  4 eigenvalues not converged
     c_bands:  1 eigenvalues not converged
     c_bands:  3 eigenvalues not converged
     c_bands:  5 eigenvalues not converged
     c_bands:  1 eigenvalues not converged
     c_bands:  4 eigenvalues not converged
     c_bands:  4 eigenvalues not converged
     ethr =  1.48E-07,  avg # of iterations = 18.8

     negative rho (up, down):  1.725E+02 2.946E-02

     total cpu time spent up to now is     4810.4 secs

     total energy              =   -4568.47851145 Ry
     estimated scf accuracy    <       0.00020024 Ry

     total magnetization       =     0.00     0.00     0.13 Bohr mag/cell
     absolute magnetization    =    29.90 Bohr mag/cell

     iteration #448     ecut=    80.00 Ry     beta= 0.70
     Davidson diagonalization with overlap
     c_bands:  4 eigenvalues not converged
     c_bands:  1 eigenvalues not converged
     c_bands:  1 eigenvalues not converged
     c_bands:  5 eigenvalues not converged
     c_bands:  1 eigenvalues not converged
     c_bands:  3 eigenvalues not converged
     c_bands:  1 eigenvalues not converged
     c_bands:  3 eigenvalues not converged
     ethr =  1.48E-07,  avg # of iterations = 18.1

     negative rho (up, down):  1.725E+02 2.944E-02

     total cpu time spent up to now is     4820.4 secs

     total energy              =   -4568.47830815 Ry
     estimated scf accuracy    <       0.00007700 Ry

     total magnetization       =    -0.00     0.00     0.04 Bohr mag/cell
     absolute magnetization    =    29.84 Bohr mag/cell

     iteration #449     ecut=    80.00 Ry     beta= 0.70
     Davidson diagonalization with overlap
     c_bands:  1 eigenvalues not converged
     c_bands:  1 eigenvalues not converged
     c_bands:  2 eigenvalues not converged
     ethr =  1.48E-07,  avg # of iterations = 18.6

     negative rho (up, down):  1.725E+02 2.943E-02

     total cpu time spent up to now is     4830.9 secs

     total energy              =   -4568.47912650 Ry
     estimated scf accuracy    <       0.00017941 Ry

     total magnetization       =    -0.00    -0.00     0.02 Bohr mag/cell
     absolute magnetization    =    29.89 Bohr mag/cell

     iteration #450     ecut=    80.00 Ry     beta= 0.70
     Davidson diagonalization with overlap
     c_bands:  2 eigenvalues not converged
     c_bands:  1 eigenvalues not converged
     c_bands:  4 eigenvalues not converged
     c_bands:  2 eigenvalues not converged
     c_bands:  2 eigenvalues not converged
     c_bands:  1 eigenvalues not converged
     c_bands:  2 eigenvalues not converged
     c_bands:  1 eigenvalues not converged
     c_bands:  2 eigenvalues not converged
     c_bands:  4 eigenvalues not converged
     ethr =  1.48E-07,  avg # of iterations = 18.5

     negative rho (up, down):  1.725E+02 2.940E-02

     total cpu time spent up to now is     4841.3 secs

     total energy              =   -4568.47690631 Ry
     estimated scf accuracy    <       0.00017120 Ry

     total magnetization       =    -0.00    -0.00     0.18 Bohr mag/cell
     absolute magnetization    =    29.93 Bohr mag/cell

     iteration #451     ecut=    80.00 Ry     beta= 0.70
     Davidson diagonalization with overlap
     c_bands:  4 eigenvalues not converged
     c_bands:  1 eigenvalues not converged
     c_bands:  2 eigenvalues not converged
     c_bands:  3 eigenvalues not converged
     c_bands:  1 eigenvalues not converged
     c_bands:  1 eigenvalues not converged
     c_bands:  2 eigenvalues not converged
     c_bands:  1 eigenvalues not converged
     c_bands:  4 eigenvalues not converged
     c_bands:  3 eigenvalues not converged
     c_bands:  2 eigenvalues not converged
     c_bands:  2 eigenvalues not converged
     c_bands:  1 eigenvalues not converged
     c_bands:  2 eigenvalues not converged
     c_bands:  2 eigenvalues not converged
     c_bands:  3 eigenvalues not converged
     c_bands:  4 eigenvalues not converged
     c_bands:  2 eigenvalues not converged
     c_bands:  2 eigenvalues not converged
     c_bands:  2 eigenvalues not converged
     ethr =  1.48E-07,  avg # of iterations = 19.8

     negative rho (up, down):  1.725E+02 2.940E-02

     total cpu time spent up to now is     4852.4 secs

     total energy              =   -4568.47683971 Ry
     estimated scf accuracy    <       0.00018740 Ry

     total magnetization       =     0.00    -0.00     0.03 Bohr mag/cell
     absolute magnetization    =    29.86 Bohr mag/cell

     iteration #452     ecut=    80.00 Ry     beta= 0.70
     Davidson diagonalization with overlap
     c_bands:  1 eigenvalues not converged
     c_bands:  2 eigenvalues not converged
     c_bands:  2 eigenvalues not converged
     c_bands:  3 eigenvalues not converged
     c_bands:  3 eigenvalues not converged
     c_bands:  1 eigenvalues not converged
     ethr =  1.48E-07,  avg # of iterations = 18.6

     negative rho (up, down):  1.725E+02 2.940E-02

     total cpu time spent up to now is     4863.2 secs

     total energy              =   -4568.47332838 Ry
     estimated scf accuracy    <       0.00031507 Ry

     total magnetization       =     0.00    -0.00    -0.04 Bohr mag/cell
     absolute magnetization    =    29.95 Bohr mag/cell

     iteration #453     ecut=    80.00 Ry     beta= 0.70
     Davidson diagonalization with overlap
     c_bands:  1 eigenvalues not converged
     c_bands:  2 eigenvalues not converged
     c_bands:  2 eigenvalues not converged
     c_bands:  2 eigenvalues not converged
     c_bands:  3 eigenvalues not converged
     c_bands:  2 eigenvalues not converged
     c_bands:  4 eigenvalues not converged
     c_bands:  1 eigenvalues not converged
     c_bands:  2 eigenvalues not converged
     c_bands:  2 eigenvalues not converged
     c_bands:  3 eigenvalues not converged
     c_bands:  1 eigenvalues not converged
     c_bands:  1 eigenvalues not converged
     c_bands:  4 eigenvalues not converged
     c_bands:  1 eigenvalues not converged
     ethr =  1.48E-07,  avg # of iterations = 19.4

     negative rho (up, down):  1.725E+02 2.941E-02

     total cpu time spent up to now is     4874.5 secs

     total energy              =   -4568.47806983 Ry
     estimated scf accuracy    <       0.00027130 Ry

     total magnetization       =     0.00    -0.00     0.01 Bohr mag/cell
     absolute magnetization    =    29.91 Bohr mag/cell

     iteration #454     ecut=    80.00 Ry     beta= 0.70
     Davidson diagonalization with overlap
     c_bands:  2 eigenvalues not converged
     c_bands:  2 eigenvalues not converged
     c_bands:  1 eigenvalues not converged
     c_bands:  2 eigenvalues not converged
     c_bands:  2 eigenvalues not converged
     c_bands:  2 eigenvalues not converged
     c_bands:  1 eigenvalues not converged
     c_bands:  1 eigenvalues not converged
     c_bands:  3 eigenvalues not converged
     c_bands:  3 eigenvalues not converged
     c_bands:  2 eigenvalues not converged
     c_bands:  2 eigenvalues not converged
     c_bands:  2 eigenvalues not converged
     c_bands:  5 eigenvalues not converged
     ethr =  1.48E-07,  avg # of iterations = 19.8

     negative rho (up, down):  1.725E+02 2.946E-02

     total cpu time spent up to now is     4885.4 secs

     total energy              =   -4568.47726644 Ry
     estimated scf accuracy    <       0.00024164 Ry

     total magnetization       =    -0.00     0.00    -0.07 Bohr mag/cell
     absolute magnetization    =    29.92 Bohr mag/cell

     iteration #455     ecut=    80.00 Ry     beta= 0.70
     Davidson diagonalization with overlap
     c_bands:  2 eigenvalues not converged
     c_bands:  5 eigenvalues not converged
     c_bands:  3 eigenvalues not converged
     c_bands:  1 eigenvalues not converged
     c_bands:  2 eigenvalues not converged
     c_bands:  3 eigenvalues not converged
     c_bands:  4 eigenvalues not converged
     c_bands:  1 eigenvalues not converged
     c_bands:  3 eigenvalues not converged
     c_bands:  2 eigenvalues not converged
     c_bands:  1 eigenvalues not converged
     c_bands:  1 eigenvalues not converged
     c_bands:  4 eigenvalues not converged
     c_bands:  3 eigenvalues not converged
     c_bands:  4 eigenvalues not converged
     c_bands:  4 eigenvalues not converged
     c_bands:  5 eigenvalues not converged
     ethr =  1.48E-07,  avg # of iterations = 19.9

     negative rho (up, down):  1.725E+02 2.944E-02

     total cpu time spent up to now is     4896.6 secs

     total energy              =   -4568.47896302 Ry
     estimated scf accuracy    <       0.00022507 Ry

     total magnetization       =    -0.00    -0.00     0.12 Bohr mag/cell
     absolute magnetization    =    29.93 Bohr mag/cell

     iteration #456     ecut=    80.00 Ry     beta= 0.70
     Davidson diagonalization with overlap
     c_bands:  1 eigenvalues not converged
     c_bands:  1 eigenvalues not converged
     c_bands:  1 eigenvalues not converged
     c_bands:  2 eigenvalues not converged
     c_bands:  1 eigenvalues not converged
     c_bands:  3 eigenvalues not converged
     c_bands:  3 eigenvalues not converged
     c_bands:  1 eigenvalues not converged
     c_bands:  4 eigenvalues not converged
     ethr =  1.48E-07,  avg # of iterations = 19.2

     negative rho (up, down):  1.725E+02 2.941E-02

     total cpu time spent up to now is     4907.1 secs

     total energy              =   -4568.47734538 Ry
     estimated scf accuracy    <       0.00021366 Ry

     total magnetization       =     0.00     0.00    -0.02 Bohr mag/cell
     absolute magnetization    =    29.90 Bohr mag/cell

     iteration #457     ecut=    80.00 Ry     beta= 0.70
     Davidson diagonalization with overlap
     c_bands:  2 eigenvalues not converged
     c_bands:  4 eigenvalues not converged
     c_bands:  1 eigenvalues not converged
     c_bands:  3 eigenvalues not converged
     c_bands:  3 eigenvalues not converged
     c_bands:  2 eigenvalues not converged
     c_bands:  1 eigenvalues not converged
     c_bands:  2 eigenvalues not converged
     ethr =  1.48E-07,  avg # of iterations = 19.5

     negative rho (up, down):  1.725E+02 2.941E-02

     total cpu time spent up to now is     4918.1 secs

     total energy              =   -4568.47776250 Ry
     estimated scf accuracy    <       0.00023849 Ry

     total magnetization       =     0.00    -0.00     0.08 Bohr mag/cell
     absolute magnetization    =    29.91 Bohr mag/cell

     iteration #458     ecut=    80.00 Ry     beta= 0.70
     Davidson diagonalization with overlap
     c_bands:  1 eigenvalues not converged
     c_bands:  3 eigenvalues not converged
     c_bands:  2 eigenvalues not converged
     c_bands:  1 eigenvalues not converged
     c_bands:  1 eigenvalues not converged
     c_bands:  1 eigenvalues not converged
     c_bands:  1 eigenvalues not converged
     c_bands:  2 eigenvalues not converged
     c_bands:  1 eigenvalues not converged
     c_bands:  1 eigenvalues not converged
     c_bands:  2 eigenvalues not converged
     ethr =  1.48E-07,  avg # of iterations = 19.4

     negative rho (up, down):  1.725E+02 2.941E-02

     total cpu time spent up to now is     4929.0 secs

     total energy              =   -4568.47749478 Ry
     estimated scf accuracy    <       0.00016761 Ry

     total magnetization       =    -0.00     0.00     0.04 Bohr mag/cell
     absolute magnetization    =    29.90 Bohr mag/cell

     iteration #459     ecut=    80.00 Ry     beta= 0.70
     Davidson diagonalization with overlap
     c_bands:  4 eigenvalues not converged
     c_bands:  4 eigenvalues not converged
     c_bands:  1 eigenvalues not converged
     c_bands:  3 eigenvalues not converged
     c_bands:  1 eigenvalues not converged
     c_bands:  1 eigenvalues not converged
     c_bands:  1 eigenvalues not converged
     c_bands:  1 eigenvalues not converged
     ethr =  1.48E-07,  avg # of iterations = 18.9

     negative rho (up, down):  1.725E+02 2.941E-02

     total cpu time spent up to now is     4939.6 secs

     total energy              =   -4568.47867116 Ry
     estimated scf accuracy    <       0.00014982 Ry

     total magnetization       =     0.00     0.00     0.03 Bohr mag/cell
     absolute magnetization    =    29.87 Bohr mag/cell

     iteration #460     ecut=    80.00 Ry     beta= 0.70
     Davidson diagonalization with overlap
     c_bands:  4 eigenvalues not converged
     c_bands:  2 eigenvalues not converged
     c_bands:  1 eigenvalues not converged
     c_bands:  1 eigenvalues not converged
     c_bands:  1 eigenvalues not converged
     c_bands:  2 eigenvalues not converged
     c_bands:  2 eigenvalues not converged
     c_bands:  2 eigenvalues not converged
     c_bands:  3 eigenvalues not converged
     c_bands:  1 eigenvalues not converged
     c_bands:  2 eigenvalues not converged
     c_bands:  1 eigenvalues not converged
     c_bands:  1 eigenvalues not converged
     ethr =  1.48E-07,  avg # of iterations = 19.6

     negative rho (up, down):  1.725E+02 2.941E-02

     total cpu time spent up to now is     4950.1 secs

     total energy              =   -4568.47906486 Ry
     estimated scf accuracy    <       0.00018616 Ry

     total magnetization       =    -0.00     0.00     0.21 Bohr mag/cell
     absolute magnetization    =    29.94 Bohr mag/cell

     iteration #461     ecut=    80.00 Ry     beta= 0.70
     Davidson diagonalization with overlap
     c_bands:  2 eigenvalues not converged
     c_bands:  4 eigenvalues not converged
     c_bands:  1 eigenvalues not converged
     c_bands:  5 eigenvalues not converged
     c_bands:  1 eigenvalues not converged
     c_bands:  5 eigenvalues not converged
     c_bands:  3 eigenvalues not converged
     c_bands:  4 eigenvalues not converged
     c_bands:  2 eigenvalues not converged
     c_bands:  2 eigenvalues not converged
     c_bands:  3 eigenvalues not converged
     c_bands:  3 eigenvalues not converged
     c_bands:  4 eigenvalues not converged
     c_bands:  4 eigenvalues not converged
     ethr =  1.48E-07,  avg # of iterations = 20.8

     negative rho (up, down):  1.725E+02 2.941E-02

     total cpu time spent up to now is     4961.5 secs

     total energy              =   -4568.47711105 Ry
     estimated scf accuracy    <       0.00021339 Ry

     total magnetization       =    -0.00    -0.00     0.10 Bohr mag/cell
     absolute magnetization    =    29.89 Bohr mag/cell

     iteration #462     ecut=    80.00 Ry     beta= 0.70
     Davidson diagonalization with overlap
     c_bands:  2 eigenvalues not converged
     c_bands:  2 eigenvalues not converged
     c_bands:  1 eigenvalues not converged
     c_bands:  1 eigenvalues not converged
     c_bands:  3 eigenvalues not converged
     c_bands:  3 eigenvalues not converged
     c_bands:  2 eigenvalues not converged
     c_bands:  2 eigenvalues not converged
     c_bands:  2 eigenvalues not converged
     c_bands:  1 eigenvalues not converged
     c_bands:  1 eigenvalues not converged
     ethr =  1.48E-07,  avg # of iterations = 19.6

     negative rho (up, down):  1.725E+02 2.941E-02

     total cpu time spent up to now is     4972.5 secs

     total energy              =   -4568.47899118 Ry
     estimated scf accuracy    <       0.00020982 Ry

     total magnetization       =     0.00     0.00     0.03 Bohr mag/cell
     absolute magnetization    =    29.91 Bohr mag/cell

     iteration #463     ecut=    80.00 Ry     beta= 0.70
     Davidson diagonalization with overlap
     c_bands:  2 eigenvalues not converged
     c_bands:  1 eigenvalues not converged
     c_bands:  5 eigenvalues not converged
     c_bands:  1 eigenvalues not converged
     ethr =  1.48E-07,  avg # of iterations = 19.1

     negative rho (up, down):  1.725E+02 2.940E-02

     total cpu time spent up to now is     4983.9 secs

     total energy              =   -4568.47462763 Ry
     estimated scf accuracy    <       0.00026643 Ry

     total magnetization       =    -0.00    -0.00     0.10 Bohr mag/cell
     absolute magnetization    =    29.96 Bohr mag/cell

     iteration #464     ecut=    80.00 Ry     beta= 0.70
     Davidson diagonalization with overlap
     c_bands:  4 eigenvalues not converged
     c_bands:  2 eigenvalues not converged
     c_bands:  2 eigenvalues not converged
     c_bands:  4 eigenvalues not converged
     c_bands:  1 eigenvalues not converged
     c_bands:  1 eigenvalues not converged
     c_bands:  5 eigenvalues not converged
     c_bands:  4 eigenvalues not converged
     c_bands:  1 eigenvalues not converged
     c_bands:  5 eigenvalues not converged
     c_bands:  4 eigenvalues not converged
     c_bands:  2 eigenvalues not converged
     c_bands:  4 eigenvalues not converged
     c_bands:  4 eigenvalues not converged
     c_bands:  3 eigenvalues not converged
     c_bands:  2 eigenvalues not converged
     c_bands:  4 eigenvalues not converged
     ethr =  1.48E-07,  avg # of iterations = 20.4

     negative rho (up, down):  1.725E+02 2.944E-02

     total cpu time spent up to now is     4995.9 secs

     total energy              =   -4568.47194766 Ry
     estimated scf accuracy    <       0.00034435 Ry

     total magnetization       =    -0.00    -0.00    -0.05 Bohr mag/cell
     absolute magnetization    =    29.96 Bohr mag/cell

     iteration #465     ecut=    80.00 Ry     beta= 0.70
     Davidson diagonalization with overlap
     c_bands:  4 eigenvalues not converged
     c_bands:  4 eigenvalues not converged
     c_bands:  2 eigenvalues not converged
     c_bands:  5 eigenvalues not converged
     c_bands:  2 eigenvalues not converged
     c_bands:  4 eigenvalues not converged
     c_bands:  2 eigenvalues not converged
     c_bands:  1 eigenvalues not converged
     c_bands:  3 eigenvalues not converged
     c_bands:  1 eigenvalues not converged
     c_bands:  1 eigenvalues not converged
     c_bands:  3 eigenvalues not converged
     c_bands:  2 eigenvalues not converged
     ethr =  1.48E-07,  avg # of iterations = 20.2

     negative rho (up, down):  1.725E+02 2.943E-02

     total cpu time spent up to now is     5007.6 secs

     total energy              =   -4568.48079107 Ry
     estimated scf accuracy    <       0.00019839 Ry

     total magnetization       =    -0.00    -0.00     0.14 Bohr mag/cell
     absolute magnetization    =    29.92 Bohr mag/cell

     iteration #466     ecut=    80.00 Ry     beta= 0.70
     Davidson diagonalization with overlap
     c_bands:  1 eigenvalues not converged
     c_bands:  1 eigenvalues not converged
     c_bands:  3 eigenvalues not converged
     ethr =  1.48E-07,  avg # of iterations = 18.3

     negative rho (up, down):  1.725E+02 2.943E-02

     total cpu time spent up to now is     5017.8 secs

     total energy              =   -4568.48021919 Ry
     estimated scf accuracy    <       0.00019333 Ry

     total magnetization       =    -0.00     0.00     0.05 Bohr mag/cell
     absolute magnetization    =    29.90 Bohr mag/cell

     iteration #467     ecut=    80.00 Ry     beta= 0.70
     Davidson diagonalization with overlap
     ethr =  1.48E-07,  avg # of iterations = 16.8

     negative rho (up, down):  1.725E+02 2.944E-02

     total cpu time spent up to now is     5027.5 secs

     total energy              =   -4568.47846859 Ry
     estimated scf accuracy    <       0.00012955 Ry

     total magnetization       =    -0.00     0.00    -0.02 Bohr mag/cell
     absolute magnetization    =    29.87 Bohr mag/cell

     iteration #468     ecut=    80.00 Ry     beta= 0.70
     Davidson diagonalization with overlap
     c_bands:  3 eigenvalues not converged
     c_bands:  2 eigenvalues not converged
     c_bands:  2 eigenvalues not converged
     c_bands:  1 eigenvalues not converged
     c_bands:  1 eigenvalues not converged
     ethr =  1.48E-07,  avg # of iterations = 17.7

     negative rho (up, down):  1.725E+02 2.944E-02

     total cpu time spent up to now is     5037.8 secs

     total energy              =   -4568.47896581 Ry
     estimated scf accuracy    <       0.00015442 Ry

     total magnetization       =     0.00     0.00     0.01 Bohr mag/cell
     absolute magnetization    =    29.89 Bohr mag/cell

     iteration #469     ecut=    80.00 Ry     beta= 0.70
     Davidson diagonalization with overlap
     c_bands:  1 eigenvalues not converged
     c_bands:  1 eigenvalues not converged
     c_bands:  2 eigenvalues not converged
     c_bands:  1 eigenvalues not converged
     c_bands:  2 eigenvalues not converged
     c_bands:  1 eigenvalues not converged
     ethr =  1.48E-07,  avg # of iterations = 18.8

     negative rho (up, down):  1.725E+02 2.944E-02

     total cpu time spent up to now is     5048.1 secs

     total energy              =   -4568.48105145 Ry
     estimated scf accuracy    <       0.00010320 Ry

     total magnetization       =     0.00    -0.00     0.03 Bohr mag/cell
     absolute magnetization    =    29.85 Bohr mag/cell

     iteration #470     ecut=    80.00 Ry     beta= 0.70
     Davidson diagonalization with overlap
     c_bands:  1 eigenvalues not converged
     c_bands:  2 eigenvalues not converged
     c_bands:  1 eigenvalues not converged
     c_bands:  1 eigenvalues not converged
     c_bands:  4 eigenvalues not converged
     c_bands:  3 eigenvalues not converged
     c_bands:  1 eigenvalues not converged
     c_bands:  4 eigenvalues not converged
     c_bands:  2 eigenvalues not converged
     c_bands:  5 eigenvalues not converged
     c_bands:  2 eigenvalues not converged
     ethr =  1.48E-07,  avg # of iterations = 18.6

     negative rho (up, down):  1.725E+02 2.944E-02

     total cpu time spent up to now is     5058.2 secs

     total energy              =   -4568.47992233 Ry
     estimated scf accuracy    <       0.00011497 Ry

     total magnetization       =    -0.00    -0.00     0.12 Bohr mag/cell
     absolute magnetization    =    29.88 Bohr mag/cell

     iteration #471     ecut=    80.00 Ry     beta= 0.70
     Davidson diagonalization with overlap
     c_bands:  2 eigenvalues not converged
     c_bands:  2 eigenvalues not converged
     c_bands:  1 eigenvalues not converged
     c_bands:  1 eigenvalues not converged
     c_bands:  1 eigenvalues not converged
     c_bands:  1 eigenvalues not converged
     c_bands:  2 eigenvalues not converged
     c_bands:  1 eigenvalues not converged
     ethr =  1.48E-07,  avg # of iterations = 18.5

     negative rho (up, down):  1.725E+02 2.944E-02

     total cpu time spent up to now is     5068.4 secs

     total energy              =   -4568.47733788 Ry
     estimated scf accuracy    <       0.00016545 Ry

     total magnetization       =    -0.00    -0.00     0.18 Bohr mag/cell
     absolute magnetization    =    29.92 Bohr mag/cell

     iteration #472     ecut=    80.00 Ry     beta= 0.70
     Davidson diagonalization with overlap
     c_bands:  4 eigenvalues not converged
     c_bands:  1 eigenvalues not converged
     c_bands:  1 eigenvalues not converged
     c_bands:  1 eigenvalues not converged
     ethr =  1.48E-07,  avg # of iterations = 19.8

     negative rho (up, down):  1.725E+02 2.944E-02

     total cpu time spent up to now is     5079.8 secs

     total energy              =   -4568.47716024 Ry
     estimated scf accuracy    <       0.00018670 Ry

     total magnetization       =    -0.00    -0.00     0.07 Bohr mag/cell
     absolute magnetization    =    29.89 Bohr mag/cell

     iteration #473     ecut=    80.00 Ry     beta= 0.70
     Davidson diagonalization with overlap
     c_bands:  3 eigenvalues not converged
     c_bands:  4 eigenvalues not converged
     c_bands:  1 eigenvalues not converged
     c_bands:  2 eigenvalues not converged
     c_bands:  4 eigenvalues not converged
     c_bands:  1 eigenvalues not converged
     c_bands:  4 eigenvalues not converged
     c_bands:  2 eigenvalues not converged
     c_bands:  1 eigenvalues not converged
     c_bands:  4 eigenvalues not converged
     ethr =  1.48E-07,  avg # of iterations = 19.5

     negative rho (up, down):  1.725E+02 2.941E-02

     total cpu time spent up to now is     5091.2 secs

     total energy              =   -4568.47892514 Ry
     estimated scf accuracy    <       0.00013355 Ry

     total magnetization       =     0.00    -0.00     0.10 Bohr mag/cell
     absolute magnetization    =    29.89 Bohr mag/cell

     iteration #474     ecut=    80.00 Ry     beta= 0.70
     Davidson diagonalization with overlap
     c_bands:  1 eigenvalues not converged
     c_bands:  2 eigenvalues not converged
     c_bands:  1 eigenvalues not converged
     c_bands:  2 eigenvalues not converged
     c_bands:  1 eigenvalues not converged
     c_bands:  1 eigenvalues not converged
     c_bands:  1 eigenvalues not converged
     c_bands:  2 eigenvalues not converged
     c_bands:  3 eigenvalues not converged
     c_bands:  4 eigenvalues not converged
     ethr =  1.48E-07,  avg # of iterations = 19.9

     negative rho (up, down):  1.725E+02 2.944E-02

     total cpu time spent up to now is     5102.2 secs

     total energy              =   -4568.47973650 Ry
     estimated scf accuracy    <       0.00019819 Ry

     total magnetization       =     0.00     0.00     0.05 Bohr mag/cell
     absolute magnetization    =    29.91 Bohr mag/cell

     iteration #475     ecut=    80.00 Ry     beta= 0.70
     Davidson diagonalization with overlap
     c_bands:  2 eigenvalues not converged
     c_bands:  1 eigenvalues not converged
     c_bands:  1 eigenvalues not converged
     c_bands:  2 eigenvalues not converged
     c_bands:  1 eigenvalues not converged
     c_bands:  2 eigenvalues not converged
     c_bands:  1 eigenvalues not converged
     c_bands:  1 eigenvalues not converged
     c_bands:  2 eigenvalues not converged
     c_bands:  2 eigenvalues not converged
     c_bands:  1 eigenvalues not converged
     c_bands:  1 eigenvalues not converged
     ethr =  1.48E-07,  avg # of iterations = 19.7

     negative rho (up, down):  1.725E+02 2.944E-02

     total cpu time spent up to now is     5113.5 secs

     total energy              =   -4568.47600740 Ry
     estimated scf accuracy    <       0.00039428 Ry

     total magnetization       =     0.00     0.00     0.01 Bohr mag/cell
     absolute magnetization    =    29.96 Bohr mag/cell

     iteration #476     ecut=    80.00 Ry     beta= 0.70
     Davidson diagonalization with overlap
     c_bands:  2 eigenvalues not converged
     c_bands:  3 eigenvalues not converged
     c_bands:  5 eigenvalues not converged
     c_bands:  5 eigenvalues not converged
     c_bands:  3 eigenvalues not converged
     c_bands:  2 eigenvalues not converged
     c_bands:  3 eigenvalues not converged
     c_bands:  2 eigenvalues not converged
     c_bands:  3 eigenvalues not converged
     c_bands:  2 eigenvalues not converged
     c_bands:  2 eigenvalues not converged
     c_bands:  2 eigenvalues not converged
     c_bands:  4 eigenvalues not converged
     c_bands:  1 eigenvalues not converged
     c_bands:  2 eigenvalues not converged
     c_bands:  2 eigenvalues not converged
     ethr =  1.48E-07,  avg # of iterations = 19.7

     negative rho (up, down):  1.725E+02 2.944E-02

     total cpu time spent up to now is     5124.4 secs

     total energy              =   -4568.47824642 Ry
     estimated scf accuracy    <       0.00016226 Ry

     total magnetization       =     0.00     0.00     0.05 Bohr mag/cell
     absolute magnetization    =    29.90 Bohr mag/cell

     iteration #477     ecut=    80.00 Ry     beta= 0.70
     Davidson diagonalization with overlap
     c_bands:  2 eigenvalues not converged
     c_bands:  4 eigenvalues not converged
     c_bands:  4 eigenvalues not converged
     c_bands:  3 eigenvalues not converged
     c_bands:  2 eigenvalues not converged
     c_bands:  5 eigenvalues not converged
     c_bands:  2 eigenvalues not converged
     c_bands:  2 eigenvalues not converged
     c_bands:  5 eigenvalues not converged
     c_bands:  5 eigenvalues not converged
     c_bands:  1 eigenvalues not converged
     c_bands:  2 eigenvalues not converged
     ethr =  1.48E-07,  avg # of iterations = 19.5

     negative rho (up, down):  1.725E+02 2.944E-02

     total cpu time spent up to now is     5135.1 secs

     total energy              =   -4568.47644600 Ry
     estimated scf accuracy    <       0.00011729 Ry

     total magnetization       =     0.00    -0.00     0.01 Bohr mag/cell
     absolute magnetization    =    29.86 Bohr mag/cell

     iteration #478     ecut=    80.00 Ry     beta= 0.70
     Davidson diagonalization with overlap
     c_bands:  3 eigenvalues not converged
     c_bands:  2 eigenvalues not converged
     c_bands:  1 eigenvalues not converged
     c_bands:  2 eigenvalues not converged
     c_bands:  3 eigenvalues not converged
     c_bands:  2 eigenvalues not converged
     c_bands:  1 eigenvalues not converged
     c_bands:  3 eigenvalues not converged
     c_bands:  1 eigenvalues not converged
     ethr =  1.48E-07,  avg # of iterations = 19.0

     negative rho (up, down):  1.725E+02 2.944E-02

     total cpu time spent up to now is     5146.1 secs

     total energy              =   -4568.47733278 Ry
     estimated scf accuracy    <       0.00028232 Ry

     total magnetization       =     0.00    -0.00     0.00 Bohr mag/cell
     absolute magnetization    =    29.90 Bohr mag/cell

     iteration #479     ecut=    80.00 Ry     beta= 0.70
     Davidson diagonalization with overlap
     c_bands:  1 eigenvalues not converged
     c_bands:  2 eigenvalues not converged
     c_bands:  4 eigenvalues not converged
     c_bands:  4 eigenvalues not converged
     c_bands:  3 eigenvalues not converged
     c_bands:  1 eigenvalues not converged
     c_bands:  2 eigenvalues not converged
     c_bands:  2 eigenvalues not converged
     c_bands:  3 eigenvalues not converged
     c_bands:  4 eigenvalues not converged
     c_bands:  2 eigenvalues not converged
     ethr =  1.48E-07,  avg # of iterations = 19.8

     negative rho (up, down):  1.725E+02 2.944E-02

     total cpu time spent up to now is     5156.8 secs

     total energy              =   -4568.47818282 Ry
     estimated scf accuracy    <       0.00028779 Ry

     total magnetization       =     0.00    -0.00    -0.14 Bohr mag/cell
     absolute magnetization    =    29.93 Bohr mag/cell

     iteration #480     ecut=    80.00 Ry     beta= 0.70
     Davidson diagonalization with overlap
     c_bands:  2 eigenvalues not converged
     c_bands:  1 eigenvalues not converged
     c_bands:  1 eigenvalues not converged
     c_bands:  2 eigenvalues not converged
     c_bands:  4 eigenvalues not converged
     c_bands:  1 eigenvalues not converged
     c_bands:  2 eigenvalues not converged
     c_bands:  3 eigenvalues not converged
     c_bands:  2 eigenvalues not converged
     c_bands:  2 eigenvalues not converged
     c_bands:  2 eigenvalues not converged
     c_bands:  2 eigenvalues not converged
     c_bands:  1 eigenvalues not converged
     c_bands:  3 eigenvalues not converged
     c_bands:  2 eigenvalues not converged
     ethr =  1.48E-07,  avg # of iterations = 19.5

     negative rho (up, down):  1.725E+02 2.946E-02

     total cpu time spent up to now is     5167.4 secs

     total energy              =   -4568.47891925 Ry
     estimated scf accuracy    <       0.00017605 Ry

     total magnetization       =     0.00    -0.00     0.11 Bohr mag/cell
     absolute magnetization    =    29.91 Bohr mag/cell

     iteration #481     ecut=    80.00 Ry     beta= 0.70
     Davidson diagonalization with overlap
     c_bands:  1 eigenvalues not converged
     c_bands:  1 eigenvalues not converged
     c_bands:  2 eigenvalues not converged
     c_bands:  1 eigenvalues not converged
     c_bands:  1 eigenvalues not converged
     ethr =  1.48E-07,  avg # of iterations = 18.7

     negative rho (up, down):  1.725E+02 2.944E-02

     total cpu time spent up to now is     5177.9 secs

     total energy              =   -4568.47707467 Ry
     estimated scf accuracy    <       0.00019354 Ry

     total magnetization       =    -0.00     0.00     0.18 Bohr mag/cell
     absolute magnetization    =    29.93 Bohr mag/cell

     iteration #482     ecut=    80.00 Ry     beta= 0.70
     Davidson diagonalization with overlap
     c_bands:  2 eigenvalues not converged
     c_bands:  1 eigenvalues not converged
     c_bands:  5 eigenvalues not converged
     c_bands:  4 eigenvalues not converged
     ethr =  1.48E-07,  avg # of iterations = 19.0

     negative rho (up, down):  1.725E+02 2.941E-02

     total cpu time spent up to now is     5188.8 secs

     total energy              =   -4568.47780898 Ry
     estimated scf accuracy    <       0.00018629 Ry

     total magnetization       =    -0.00    -0.00    -0.01 Bohr mag/cell
     absolute magnetization    =    29.90 Bohr mag/cell

     iteration #483     ecut=    80.00 Ry     beta= 0.70
     Davidson diagonalization with overlap
     c_bands:  1 eigenvalues not converged
     c_bands:  2 eigenvalues not converged
     c_bands:  2 eigenvalues not converged
     c_bands:  2 eigenvalues not converged
     c_bands:  1 eigenvalues not converged
     c_bands:  2 eigenvalues not converged
     c_bands:  2 eigenvalues not converged
     c_bands:  2 eigenvalues not converged
     c_bands:  1 eigenvalues not converged
     c_bands:  1 eigenvalues not converged
     c_bands:  2 eigenvalues not converged
     c_bands:  4 eigenvalues not converged
     c_bands:  2 eigenvalues not converged
     c_bands:  1 eigenvalues not converged
     c_bands:  1 eigenvalues not converged
     c_bands:  1 eigenvalues not converged
     c_bands:  2 eigenvalues not converged
     c_bands:  3 eigenvalues not converged
     c_bands:  1 eigenvalues not converged
     ethr =  1.48E-07,  avg # of iterations = 19.7

     negative rho (up, down):  1.725E+02 2.941E-02

     total cpu time spent up to now is     5199.7 secs

     total energy              =   -4568.47534943 Ry
     estimated scf accuracy    <       0.00026137 Ry

     total magnetization       =    -0.00    -0.00     0.19 Bohr mag/cell
     absolute magnetization    =    29.97 Bohr mag/cell

     iteration #484     ecut=    80.00 Ry     beta= 0.70
     Davidson diagonalization with overlap
     c_bands:  1 eigenvalues not converged
     c_bands:  1 eigenvalues not converged
     c_bands:  1 eigenvalues not converged
     c_bands:  2 eigenvalues not converged
     c_bands:  2 eigenvalues not converged
     c_bands:  2 eigenvalues not converged
     c_bands:  1 eigenvalues not converged
     c_bands:  2 eigenvalues not converged
     c_bands:  2 eigenvalues not converged
     c_bands:  2 eigenvalues not converged
     c_bands:  2 eigenvalues not converged
     c_bands:  5 eigenvalues not converged
     c_bands:  3 eigenvalues not converged
     c_bands:  2 eigenvalues not converged
     c_bands:  2 eigenvalues not converged
     c_bands:  3 eigenvalues not converged
     c_bands:  3 eigenvalues not converged
     ethr =  1.48E-07,  avg # of iterations = 21.0

     negative rho (up, down):  1.725E+02 2.941E-02

     total cpu time spent up to now is     5211.5 secs

     total energy              =   -4568.48228430 Ry
     estimated scf accuracy    <       0.00027384 Ry

     total magnetization       =    -0.00     0.00    -0.01 Bohr mag/cell
     absolute magnetization    =    29.94 Bohr mag/cell

     iteration #485     ecut=    80.00 Ry     beta= 0.70
     Davidson diagonalization with overlap
     c_bands:  1 eigenvalues not converged
     c_bands:  2 eigenvalues not converged
     c_bands:  4 eigenvalues not converged
     c_bands:  3 eigenvalues not converged
     c_bands:  2 eigenvalues not converged
     c_bands:  1 eigenvalues not converged
     c_bands:  5 eigenvalues not converged
     c_bands:  2 eigenvalues not converged
     c_bands:  2 eigenvalues not converged
     c_bands:  5 eigenvalues not converged
     c_bands:  2 eigenvalues not converged
     c_bands:  2 eigenvalues not converged
     c_bands:  3 eigenvalues not converged
     c_bands:  2 eigenvalues not converged
     c_bands:  1 eigenvalues not converged
     c_bands:  2 eigenvalues not converged
     c_bands:  4 eigenvalues not converged
     ethr =  1.48E-07,  avg # of iterations = 19.7

     negative rho (up, down):  1.725E+02 2.944E-02

     total cpu time spent up to now is     5222.4 secs

     total energy              =   -4568.47765887 Ry
     estimated scf accuracy    <       0.00036692 Ry

     total magnetization       =    -0.00    -0.00     0.03 Bohr mag/cell
     absolute magnetization    =    29.96 Bohr mag/cell

     iteration #486     ecut=    80.00 Ry     beta= 0.70
     Davidson diagonalization with overlap
     c_bands:  1 eigenvalues not converged
     c_bands:  1 eigenvalues not converged
     c_bands:  1 eigenvalues not converged
     c_bands:  1 eigenvalues not converged
     c_bands:  2 eigenvalues not converged
     ethr =  1.48E-07,  avg # of iterations = 18.3

     negative rho (up, down):  1.725E+02 2.944E-02

     total cpu time spent up to now is     5232.8 secs

     total energy              =   -4568.47890203 Ry
     estimated scf accuracy    <       0.00014377 Ry

     total magnetization       =    -0.00     0.00    -0.04 Bohr mag/cell
     absolute magnetization    =    29.88 Bohr mag/cell

     iteration #487     ecut=    80.00 Ry     beta= 0.70
     Davidson diagonalization with overlap
     c_bands:  3 eigenvalues not converged
     c_bands:  1 eigenvalues not converged
     c_bands:  1 eigenvalues not converged
     c_bands:  4 eigenvalues not converged
     c_bands:  1 eigenvalues not converged
     c_bands:  2 eigenvalues not converged
     c_bands:  1 eigenvalues not converged
     c_bands:  2 eigenvalues not converged
     c_bands:  1 eigenvalues not converged
     c_bands:  2 eigenvalues not converged
     c_bands:  1 eigenvalues not converged
     c_bands:  1 eigenvalues not converged
     ethr =  1.48E-07,  avg # of iterations = 19.8

     negative rho (up, down):  1.725E+02 2.944E-02

     total cpu time spent up to now is     5243.9 secs

     total energy              =   -4568.47865949 Ry
     estimated scf accuracy    <       0.00015859 Ry

     total magnetization       =    -0.00     0.00    -0.06 Bohr mag/cell
     absolute magnetization    =    29.90 Bohr mag/cell

     iteration #488     ecut=    80.00 Ry     beta= 0.70
     Davidson diagonalization with overlap
     c_bands:  1 eigenvalues not converged
     c_bands:  4 eigenvalues not converged
     c_bands:  3 eigenvalues not converged
     c_bands:  3 eigenvalues not converged
     c_bands:  1 eigenvalues not converged
     ethr =  1.48E-07,  avg # of iterations = 19.0

     negative rho (up, down):  1.725E+02 2.941E-02

     total cpu time spent up to now is     5254.5 secs

     total energy              =   -4568.47963591 Ry
     estimated scf accuracy    <       0.00014759 Ry

     total magnetization       =     0.00    -0.00    -0.01 Bohr mag/cell
     absolute magnetization    =    29.87 Bohr mag/cell

     iteration #489     ecut=    80.00 Ry     beta= 0.70
     Davidson diagonalization with overlap
     c_bands:  1 eigenvalues not converged
     c_bands:  1 eigenvalues not converged
     ethr =  1.48E-07,  avg # of iterations = 17.0

     negative rho (up, down):  1.725E+02 2.944E-02

     total cpu time spent up to now is     5264.5 secs

     total energy              =   -4568.48046862 Ry
     estimated scf accuracy    <       0.00014201 Ry

     total magnetization       =    -0.00    -0.00    -0.10 Bohr mag/cell
     absolute magnetization    =    29.88 Bohr mag/cell

     iteration #490     ecut=    80.00 Ry     beta= 0.70
     Davidson diagonalization with overlap
     c_bands:  2 eigenvalues not converged
     c_bands:  1 eigenvalues not converged
     c_bands:  2 eigenvalues not converged
     c_bands:  3 eigenvalues not converged
     c_bands:  1 eigenvalues not converged
     c_bands:  3 eigenvalues not converged
     c_bands:  1 eigenvalues not converged
     ethr =  1.48E-07,  avg # of iterations = 18.0

     negative rho (up, down):  1.725E+02 2.944E-02

     total cpu time spent up to now is     5274.7 secs

     total energy              =   -4568.47784357 Ry
     estimated scf accuracy    <       0.00015790 Ry

     total magnetization       =    -0.00     0.00     0.04 Bohr mag/cell
     absolute magnetization    =    29.91 Bohr mag/cell

     iteration #491     ecut=    80.00 Ry     beta= 0.70
     Davidson diagonalization with overlap
     ethr =  1.48E-07,  avg # of iterations = 17.3

     negative rho (up, down):  1.725E+02 2.944E-02

     total cpu time spent up to now is     5284.9 secs

     total energy              =   -4568.47715623 Ry
     estimated scf accuracy    <       0.00015745 Ry

     total magnetization       =    -0.00     0.00     0.17 Bohr mag/cell
     absolute magnetization    =    29.89 Bohr mag/cell

     iteration #492     ecut=    80.00 Ry     beta= 0.70
     Davidson diagonalization with overlap
     c_bands:  2 eigenvalues not converged
     c_bands:  2 eigenvalues not converged
     c_bands:  1 eigenvalues not converged
     c_bands:  2 eigenvalues not converged
     c_bands:  3 eigenvalues not converged
     c_bands:  4 eigenvalues not converged
     c_bands:  5 eigenvalues not converged
     c_bands:  5 eigenvalues not converged
     c_bands:  4 eigenvalues not converged
     c_bands:  1 eigenvalues not converged
     c_bands:  3 eigenvalues not converged
     c_bands:  2 eigenvalues not converged
     c_bands:  1 eigenvalues not converged
     c_bands:  1 eigenvalues not converged
     c_bands:  4 eigenvalues not converged
     ethr =  1.48E-07,  avg # of iterations = 19.7

     negative rho (up, down):  1.725E+02 2.944E-02

     total cpu time spent up to now is     5295.7 secs

     total energy              =   -4568.47833474 Ry
     estimated scf accuracy    <       0.00020635 Ry

     total magnetization       =     0.00    -0.00     0.03 Bohr mag/cell
     absolute magnetization    =    29.88 Bohr mag/cell

     iteration #493     ecut=    80.00 Ry     beta= 0.70
     Davidson diagonalization with overlap
     c_bands:  2 eigenvalues not converged
     c_bands:  2 eigenvalues not converged
     c_bands:  1 eigenvalues not converged
     c_bands:  2 eigenvalues not converged
     c_bands:  1 eigenvalues not converged
     ethr =  1.48E-07,  avg # of iterations = 17.8

     negative rho (up, down):  1.725E+02 2.944E-02

     total cpu time spent up to now is     5305.7 secs

     total energy              =   -4568.47932678 Ry
     estimated scf accuracy    <       0.00011359 Ry

     total magnetization       =    -0.00    -0.00     0.15 Bohr mag/cell
     absolute magnetization    =    29.86 Bohr mag/cell

     iteration #494     ecut=    80.00 Ry     beta= 0.70
     Davidson diagonalization with overlap
     c_bands:  1 eigenvalues not converged
     c_bands:  1 eigenvalues not converged
     c_bands:  1 eigenvalues not converged
     c_bands:  3 eigenvalues not converged
     c_bands:  2 eigenvalues not converged
     c_bands:  1 eigenvalues not converged
     c_bands:  1 eigenvalues not converged
     c_bands:  1 eigenvalues not converged
     ethr =  1.48E-07,  avg # of iterations = 18.7

     negative rho (up, down):  1.725E+02 2.944E-02

     total cpu time spent up to now is     5316.1 secs

     total energy              =   -4568.47964816 Ry
     estimated scf accuracy    <       0.00018936 Ry

     total magnetization       =    -0.00     0.00     0.07 Bohr mag/cell
     absolute magnetization    =    29.88 Bohr mag/cell

     iteration #495     ecut=    80.00 Ry     beta= 0.70
     Davidson diagonalization with overlap
     c_bands:  1 eigenvalues not converged
     c_bands:  1 eigenvalues not converged
     c_bands:  3 eigenvalues not converged
     ethr =  1.48E-07,  avg # of iterations = 18.6

     negative rho (up, down):  1.725E+02 2.944E-02

     total cpu time spent up to now is     5326.2 secs

     total energy              =   -4568.47911596 Ry
     estimated scf accuracy    <       0.00019467 Ry

     total magnetization       =     0.00    -0.00     0.14 Bohr mag/cell
     absolute magnetization    =    29.92 Bohr mag/cell

     iteration #496     ecut=    80.00 Ry     beta= 0.70
     Davidson diagonalization with overlap
     c_bands:  4 eigenvalues not converged
     c_bands:  4 eigenvalues not converged
     c_bands:  3 eigenvalues not converged
     c_bands:  5 eigenvalues not converged
     c_bands:  4 eigenvalues not converged
     c_bands:  2 eigenvalues not converged
     c_bands:  1 eigenvalues not converged
     c_bands:  4 eigenvalues not converged
     c_bands:  4 eigenvalues not converged
     c_bands:  4 eigenvalues not converged
     c_bands:  5 eigenvalues not converged
     c_bands:  3 eigenvalues not converged
     c_bands:  2 eigenvalues not converged
     c_bands:  4 eigenvalues not converged
     c_bands:  3 eigenvalues not converged
     c_bands:  4 eigenvalues not converged
     ethr =  1.48E-07,  avg # of iterations = 19.9

     negative rho (up, down):  1.725E+02 2.944E-02

     total cpu time spent up to now is     5337.0 secs

     total energy              =   -4568.47707659 Ry
     estimated scf accuracy    <       0.00023223 Ry

     total magnetization       =     0.00    -0.00     0.04 Bohr mag/cell
     absolute magnetization    =    29.93 Bohr mag/cell

     iteration #497     ecut=    80.00 Ry     beta= 0.70
     Davidson diagonalization with overlap
     c_bands:  1 eigenvalues not converged
     c_bands:  3 eigenvalues not converged
     c_bands:  1 eigenvalues not converged
     c_bands:  1 eigenvalues not converged
     c_bands:  4 eigenvalues not converged
     c_bands:  2 eigenvalues not converged
     c_bands:  4 eigenvalues not converged
     c_bands:  2 eigenvalues not converged
     c_bands:  1 eigenvalues not converged
     c_bands:  1 eigenvalues not converged
     c_bands:  2 eigenvalues not converged
     c_bands:  1 eigenvalues not converged
     c_bands:  2 eigenvalues not converged
     c_bands:  2 eigenvalues not converged
     c_bands:  4 eigenvalues not converged
     c_bands:  4 eigenvalues not converged
     c_bands:  5 eigenvalues not converged
     ethr =  1.48E-07,  avg # of iterations = 20.0

     negative rho (up, down):  1.725E+02 2.944E-02

     total cpu time spent up to now is     5348.2 secs

     total energy              =   -4568.47767737 Ry
     estimated scf accuracy    <       0.00030429 Ry

     total magnetization       =     0.00     0.00     0.00 Bohr mag/cell
     absolute magnetization    =    29.95 Bohr mag/cell

     iteration #498     ecut=    80.00 Ry     beta= 0.70
     Davidson diagonalization with overlap
     c_bands:  2 eigenvalues not converged
     c_bands:  2 eigenvalues not converged
     c_bands:  1 eigenvalues not converged
     c_bands:  2 eigenvalues not converged
     c_bands:  3 eigenvalues not converged
     c_bands:  1 eigenvalues not converged
     c_bands:  2 eigenvalues not converged
     c_bands:  2 eigenvalues not converged
     c_bands:  5 eigenvalues not converged
     c_bands:  3 eigenvalues not converged
     c_bands:  2 eigenvalues not converged
     c_bands:  1 eigenvalues not converged
     ethr =  1.48E-07,  avg # of iterations = 19.5

     negative rho (up, down):  1.725E+02 2.940E-02

     total cpu time spent up to now is     5358.8 secs

     total energy              =   -4568.47871430 Ry
     estimated scf accuracy    <       0.00010796 Ry

     total magnetization       =    -0.00     0.00     0.06 Bohr mag/cell
     absolute magnetization    =    29.88 Bohr mag/cell

     iteration #499     ecut=    80.00 Ry     beta= 0.70
     Davidson diagonalization with overlap
     c_bands:  1 eigenvalues not converged
     c_bands:  1 eigenvalues not converged
     ethr =  1.48E-07,  avg # of iterations = 17.5

     negative rho (up, down):  1.725E+02 2.944E-02

     total cpu time spent up to now is     5368.9 secs

     total energy              =   -4568.48030609 Ry
     estimated scf accuracy    <       0.00008957 Ry

     total magnetization       =    -0.00     0.00    -0.01 Bohr mag/cell
     absolute magnetization    =    29.84 Bohr mag/cell

     iteration #500     ecut=    80.00 Ry     beta= 0.70
     Davidson diagonalization with overlap
     c_bands:  2 eigenvalues not converged
     c_bands:  4 eigenvalues not converged
     c_bands:  4 eigenvalues not converged
     c_bands:  4 eigenvalues not converged
     c_bands:  1 eigenvalues not converged
     c_bands:  3 eigenvalues not converged
     ethr =  1.48E-07,  avg # of iterations = 17.2

     negative rho (up, down):  1.725E+02 2.944E-02

     total cpu time spent up to now is     5378.8 secs

     total energy              =   -4568.47936747 Ry
     estimated scf accuracy    <       0.00010759 Ry

     total magnetization       =    -0.00     0.00     0.08 Bohr mag/cell
     absolute magnetization    =    29.87 Bohr mag/cell

     End of self-consistent calculation

     convergence NOT achieved after 500 iterations: stopping

     Writing config to output data dir ./tmp/relax.save/
 
     init_run     :      2.16s CPU      2.36s WALL (       1 calls)
     electrons    :   5153.47s CPU   5376.02s WALL (       1 calls)

     Called by init_run:
     wfcinit      :      0.81s CPU      0.85s WALL (       1 calls)
     potinit      :      0.78s CPU      0.80s WALL (       1 calls)
     hinit0       :      0.22s CPU      0.26s WALL (       1 calls)

     Called by electrons:
     c_bands      :   4134.86s CPU   4264.50s WALL (     500 calls)
     sum_band     :    468.40s CPU    517.63s WALL (     500 calls)
     v_of_rho     :      5.95s CPU      6.33s WALL (     501 calls)
     newd         :    169.48s CPU    212.28s WALL (     501 calls)
     PAW_pot      :    366.79s CPU    367.29s WALL (     501 calls)
     mix_rho      :      7.49s CPU      7.55s WALL (     500 calls)

     Called by c_bands:
     init_us_2    :     17.20s CPU     17.32s WALL (   22022 calls)
     init_us_2:cp :     17.12s CPU     17.26s WALL (   22022 calls)
     cegterg      :   3532.61s CPU   3661.75s WALL (   11658 calls)

     Called by *egterg:
     cdiaghg      :    371.74s CPU    373.35s WALL (  217243 calls)
     h_psi        :   2015.81s CPU   2137.90s WALL (  217265 calls)
     s_psi        :    179.15s CPU    180.91s WALL (  217265 calls)
     g_psi        :     13.43s CPU     13.48s WALL (  205585 calls)

     Called by h_psi:
     h_psi:calbec :    192.80s CPU    197.35s WALL (  217265 calls)
     vloc_psi     :   1600.13s CPU   1714.23s WALL (  217265 calls)
     add_vuspsi   :    199.85s CPU    203.35s WALL (  217265 calls)

     General routines
     calbec       :    209.57s CPU    214.63s WALL (  228265 calls)
     fft          :      3.03s CPU      3.39s WALL (   14527 calls)
     ffts         :      0.31s CPU      0.31s WALL (    2000 calls)
     fftw         :   1270.05s CPU   1376.32s WALL (16787712 calls)
     davcio       :      0.01s CPU      0.02s WALL (      40 calls)
 
     Parallel routines
 
     PWSCF        :      1h25m CPU      1h29m WALL

 
   This run was terminated on:  22:37:14   9Jul2025            

=------------------------------------------------------------------------------=
   JOB DONE.
=------------------------------------------------------------------------------=
