
     Program PWSCF v.7.2 starts on  3Jul2025 at 14:53:40 

     This program is part of the open-source Quantum ESPRESSO suite
     for quantum simulation of materials; please cite
         "P. Giannozzi et al., J. Phys.:Condens. Matter 21 395502 (2009);
         "P. Giannozzi et al., J. Phys.:Condens. Matter 29 465901 (2017);
         "P. Giannozzi et al., J. Chem. Phys. 152 154105 (2020);
          URL http://www.quantum-espresso.org", 
     in publications or presentations arising from this work. More details at
     http://www.quantum-espresso.org/quote

     Parallel version (MPI), running on    16 processors

     MPI processes distributed on     1 nodes
     14538 MiB available memory on the printing compute node when the environment starts
 
     Waiting for input...
     Reading input from standard input

     Current dimensions of program PWSCF are:
     Max number of different atomic species (ntypx) = 10
     Max number of k-points (npk) =  40000
     Max angular momentum in pseudopotentials (lmaxx) =  4

     Atomic positions and unit cell read from directory:
     ./tmp/pwscf.save/
     Atomic positions from file used, from input discarded
 
     file Co.rel-pbe-n-kjpaw_psl.1.0.0.UPF: wavefunction(s)  4S 3D 3D renormalized

     Fixed quantization axis for GGA:     0.000000    0.000000    1.000000
     Message from routine setup:
     using ibrav=0 with symmetry is DISCOURAGED, use correct ibrav instead
 
     R & G space division:  proc/nbgrp/npool/nimage =      16
     Subspace diagonalization in iterative solution of the eigenvalue problem:
     a serial algorithm will be used

 
     Parallelization info
     --------------------
     sticks:   dense  smooth     PW     G-vecs:    dense   smooth      PW
     Min          21      21      6                 2055     2055     341
     Max          23      23      8                 2067     2067     350
     Sum         349     349    109                32989    32989    5553
 
     Using Slab Decomposition
 


     bravais-lattice index     =            0
     lattice parameter (alat)  =       4.3568  a.u.
     unit-cell volume          =     465.9601 (a.u.)^3
     number of atoms/cell      =            1
     number of atomic types    =            1
     number of electrons       =         9.00
     number of Kohn-Sham states=           18
     kinetic-energy cutoff     =      65.0000  Ry
     charge density cutoff     =     260.0000  Ry
     Exchange-correlation= SLA  PW   PBX  PBC
                           (   1   4   3   4   0   0   0)
     Noncollinear calculation with spin-orbit


     celldm(1)=   4.356764  celldm(2)=   0.000000  celldm(3)=   0.000000
     celldm(4)=   0.000000  celldm(5)=   0.000000  celldm(6)=   0.000000

     crystal axes: (cart. coord. in units of alat)
               a(1) = (   1.000000   0.000000   0.000000 )  
               a(2) = (   0.500000   0.866025   0.000000 )  
               a(3) = (   0.000000   0.000000   6.506181 )  

     reciprocal axes: (cart. coord. in units 2 pi/alat)
               b(1) = (  1.000000 -0.577350  0.000000 )  
               b(2) = (  0.000000  1.154701  0.000000 )  
               b(3) = (  0.000000  0.000000  0.153700 )  


     PseudoPot. # 1 for Co read from file:
     /home/antonio/PROJ_MetalTMD/antonio/PSEUDO/Co.rel-pbe-n-kjpaw_psl.1.0.0.UPF
     MD5 check sum: 24189b0fbe424dfc94bf49ee084f82bd
     Pseudo is Projector augmented-wave + core cor, Zval =  9.0
     Generated using "atomic" code by A. Dal Corso  (Quantum ESPRESSO distribution)
     Shape of augmentation charge: PSQ
     Using radial grid of 1193 points, 10 beta functions with: 
                l(1) =   0
                l(2) =   0
                l(3) =   1
                l(4) =   1
                l(5) =   1
                l(6) =   1
                l(7) =   2
                l(8) =   2
                l(9) =   2
               l(10) =   2
     Q(r) pseudized with 0 coefficients 


     atomic species   valence    mass     pseudopotential
        Co             9.00    58.93320     Co( 1.00)

     24 Sym. Ops., with inversion, found



   Cartesian axes

     site n.     atom                  positions (alat units)
         1           Co  tau(   1) = (   0.0000000   0.0000000   3.2530904  )

     number of k points=   100  Fermi-Dirac smearing, width (Ry)=  0.0070

     Number of k-points >= 100: set verbosity='high' to print them.

     Dense  grid:    32989 G-vectors     FFT dimensions: (  24,  24, 150)

     Estimated max dynamical RAM per process >      24.46 MB

     Estimated total dynamical RAM >     391.34 MB

     Check: negative core charge=   -0.000002
     Generating pointlists ...
     new r_m :   0.4125 (alat units)  1.7972 (a.u.) for type    1

     The potential is recalculated from file :
     ./tmp/pwscf.save/charge-density


     negative rho (up, down):  1.615E-04 4.238E-02
     Starting wfcs are   18 randomized atomic wfcs
     Checking if some PAW data can be deallocated... 

     Band Structure Calculation
     Davidson diagonalization with overlap
     c_bands:  1 eigenvalues not converged

     ethr =  1.11E-08,  avg # of iterations = 47.0

     total cpu time spent up to now is       20.2 secs

     End of band structure calculation

     Number of k-points >= 100: set verbosity='high' to print the bands.

     Writing all to output data dir ./tmp/pwscf.save/
 
     init_run     :      1.52s CPU      1.60s WALL (       1 calls)
     electrons    :     17.48s CPU     18.18s WALL (       1 calls)

     Called by init_run:
     wfcinit      :      0.00s CPU      0.00s WALL (       1 calls)
     potinit      :      1.27s CPU      1.32s WALL (       1 calls)
     hinit0       :      0.13s CPU      0.16s WALL (       1 calls)

     Called by electrons:
     c_bands      :     17.48s CPU     18.18s WALL (       1 calls)
     v_of_rho     :      0.01s CPU      0.01s WALL (       1 calls)
     newd         :      0.10s CPU      0.10s WALL (       1 calls)
     PAW_pot      :      1.26s CPU      1.31s WALL (       1 calls)

     Called by c_bands:
     init_us_2    :      0.01s CPU      0.01s WALL (     100 calls)
     init_us_2:cp :      0.01s CPU      0.01s WALL (     100 calls)
     cegterg      :     16.38s CPU     17.02s WALL (     276 calls)

     Called by *egterg:
     cdiaghg      :      1.97s CPU      2.03s WALL (    4802 calls)
     h_psi        :     12.07s CPU     12.59s WALL (    5078 calls)
     s_psi        :      0.61s CPU      0.64s WALL (    5078 calls)
     g_psi        :      0.07s CPU      0.07s WALL (    4702 calls)

     Called by h_psi:
     h_psi:calbec :      0.59s CPU      0.61s WALL (    5078 calls)
     vloc_psi     :     10.72s CPU     11.19s WALL (    5078 calls)
     add_vuspsi   :      0.66s CPU      0.69s WALL (    5078 calls)

     General routines
     calbec       :      0.58s CPU      0.60s WALL (    5078 calls)
     fft          :      0.04s CPU      0.06s WALL (      27 calls)
     fftw         :      7.77s CPU      8.12s WALL (  175616 calls)
     davcio       :      0.03s CPU      0.04s WALL (     200 calls)
 
     Parallel routines
 
     PWSCF        :     19.66s CPU     21.34s WALL

 
   This run was terminated on:  14:54: 1   3Jul2025            

=------------------------------------------------------------------------------=
   JOB DONE.
=------------------------------------------------------------------------------=
