
     Program PWSCF v.7.2 starts on 22Jul2025 at 11:58:56 

     This program is part of the open-source Quantum ESPRESSO suite
     for quantum simulation of materials; please cite
         "P. Giannozzi et al., J. Phys.:Condens. Matter 21 395502 (2009);
         "P. Giannozzi et al., J. Phys.:Condens. Matter 29 465901 (2017);
         "P. Giannozzi et al., J. Chem. Phys. 152 154105 (2020);
          URL http://www.quantum-espresso.org", 
     in publications or presentations arising from this work. More details at
     http://www.quantum-espresso.org/quote

     Parallel version (MPI), running on    16 processors

     MPI processes distributed on     1 nodes
     13716 MiB available memory on the printing compute node when the environment starts
 
     Waiting for input...
     Reading input from standard input

     Current dimensions of program PWSCF are:
     Max number of different atomic species (ntypx) = 10
     Max number of k-points (npk) =  40000
     Max angular momentum in pseudopotentials (lmaxx) =  4
     file Co.rel-pbe-n-kjpaw_psl.1.0.0.UPF: wavefunction(s)  4S 3D 3D renormalized

     Fixed quantization axis for GGA:     0.000000    0.000000    1.000000
     Message from routine setup:
     using ibrav=0 with symmetry is DISCOURAGED, use correct ibrav instead
 
     R & G space division:  proc/nbgrp/npool/nimage =      16
     Subspace diagonalization in iterative solution of the eigenvalue problem:
     a serial algorithm will be used

 
     Parallelization info
     --------------------
     sticks:   dense  smooth     PW     G-vecs:    dense   smooth      PW
     Min          64      26      7                10182     2582     427
     Max          65      27      8                10205     2595     456
     Sum        1027     421    121               163013    41407    7105
 
     Using Slab Decomposition
 


     bravais-lattice index     =            0
     lattice parameter (alat)  =       4.6068  a.u.
     unit-cell volume          =     520.9788 (a.u.)^3
     number of atoms/cell      =            1
     number of atomic types    =            1
     number of electrons       =         9.00
     number of Kohn-Sham states=           18
     kinetic-energy cutoff     =      70.0000  Ry
     charge density cutoff     =     700.0000  Ry
     scf convergence threshold =      1.0E-06
     mixing beta               =       0.7000
     number of iterations used =            8  plain     mixing
     Exchange-correlation= SLA  PW   PBX  PBC
                           (   1   4   3   4   0   0   0)
     Noncollinear calculation with spin-orbit


     celldm(1)=   4.606803  celldm(2)=   0.000000  celldm(3)=   0.000000
     celldm(4)=   0.000000  celldm(5)=   0.000000  celldm(6)=   0.000000

     crystal axes: (cart. coord. in units of alat)
               a(1) = (   1.000000   0.000000   0.000000 )  
               a(2) = (   0.500000   0.866025   0.000000 )  
               a(3) = (   0.000000   0.000000   6.153050 )  

     reciprocal axes: (cart. coord. in units 2 pi/alat)
               b(1) = (  1.000000 -0.577350  0.000000 )  
               b(2) = (  0.000000  1.154701  0.000000 )  
               b(3) = (  0.000000  0.000000  0.162521 )  


     PseudoPot. # 1 for Co read from file:
     /apps/softwares/qe/PP/1.0.0_2019/rel-pbe/PSEUDOPOTENTIALS//Co.rel-pbe-n-kjpaw_psl.1.0.0.UPF
     MD5 check sum: 24189b0fbe424dfc94bf49ee084f82bd
     Pseudo is Projector augmented-wave + core cor, Zval =  9.0
     Generated using "atomic" code by A. Dal Corso  (Quantum ESPRESSO distribution)
     Shape of augmentation charge: PSQ
     Using radial grid of 1193 points, 10 beta functions with: 
                l(1) =   0
                l(2) =   0
                l(3) =   1
                l(4) =   1
                l(5) =   1
                l(6) =   1
                l(7) =   2
                l(8) =   2
                l(9) =   2
               l(10) =   2
     Q(r) pseudized with 0 coefficients 


     atomic species   valence    mass     pseudopotential
        Co             9.00    58.93320     Co( 1.00)

     24 Sym. Ops., with inversion, found



   Cartesian axes

     site n.     atom                  positions (alat units)
         1           Co  tau(   1) = (   0.0000000   0.0000000   3.0765251  )

     --------------------------------------------
     DFT-D3 Dispersion Correction (3-body terms):
     --------------------------------------------
       Reference C6 values for interpolation: 

         atom   Coordination number   C6
         Co         0.000          1065.56
         Co         1.715           373.09
         Co         2.926           296.13
         Co         7.779           236.57

       Values used:

         atom   Coordination number  R0_AB[au]  C6      C8
         Co         4.930            3.243    296.13  26037.62

         Molecular C6 ( Ry / a.u.^6 ) =       296.13


     number of k points=    21  Gaussian smearing, width (Ry)=  0.0073
                       cart. coord. in units 2pi/alat
        k(    1) = (   0.0000000   0.0000000   0.0000000), wk =   0.0059172
        k(    2) = (   0.0000000   0.0888231   0.0000000), wk =   0.0355030
        k(    3) = (   0.0000000   0.1776462   0.0000000), wk =   0.0355030
        k(    4) = (   0.0000000   0.2664694   0.0000000), wk =   0.0355030
        k(    5) = (   0.0000000   0.3552925   0.0000000), wk =   0.0355030
        k(    6) = (   0.0000000   0.4441156   0.0000000), wk =   0.0355030
        k(    7) = (   0.0000000   0.5329387   0.0000000), wk =   0.0355030
        k(    8) = (   0.0769231   0.1332347   0.0000000), wk =   0.0355030
        k(    9) = (   0.0769231   0.2220578   0.0000000), wk =   0.0710059
        k(   10) = (   0.0769231   0.3108809   0.0000000), wk =   0.0710059
        k(   11) = (   0.0769231   0.3997040   0.0000000), wk =   0.0710059
        k(   12) = (   0.0769231   0.4885272   0.0000000), wk =   0.0710059
        k(   13) = (   0.0769231  -0.5773503   0.0000000), wk =   0.0355030
        k(   14) = (   0.1538462   0.2664694   0.0000000), wk =   0.0355030
        k(   15) = (   0.1538462   0.3552925   0.0000000), wk =   0.0710059
        k(   16) = (   0.1538462   0.4441156   0.0000000), wk =   0.0710059
        k(   17) = (   0.1538462  -0.6217618   0.0000000), wk =   0.0710059
        k(   18) = (   0.2307692   0.3997040   0.0000000), wk =   0.0355030
        k(   19) = (   0.2307692  -0.6661734   0.0000000), wk =   0.0710059
        k(   20) = (   0.2307692  -0.5773503   0.0000000), wk =   0.0355030
        k(   21) = (   0.3076923  -0.6217618   0.0000000), wk =   0.0355030

     Dense  grid:   163013 G-vectors     FFT dimensions: (  40,  40, 240)

     Smooth grid:    41407 G-vectors     FFT dimensions: (  25,  25, 160)

     Estimated max dynamical RAM per process >     125.33 MB

     Estimated total dynamical RAM >       1.96 GB
     Generating pointlists ...
     new r_m :   0.4125 (alat units)  1.9003 (a.u.) for type    1

     Initial potential from superposition of free atoms

     starting charge       8.9997, renormalised to       9.0000

     negative rho (up, down):  1.046E-05 1.498E-01

 ==============================================================================
     atom number    1 relative position :    0.0000   0.0000   3.0765
     charge :     7.299665  (integrated on a sphere of radius 0.413)
     magnetization :          0.000000    0.000000    5.839732
     magnetization/charge:    0.000000    0.000000    0.800000
     polar coord.: r, theta, phi [deg] :     5.839732    0.000000  360.000000

 ==============================================================================
     Starting wfcs are   18 randomized atomic wfcs
     Checking if some PAW data can be deallocated... 

     total cpu time spent up to now is        1.7 secs

     Self-consistent Calculation

     iteration #  1     ecut=    70.00 Ry     beta= 0.70
     Davidson diagonalization with overlap
     ethr =  1.00E-02,  avg # of iterations =  7.2

     negative rho (up, down):  4.985E-07 6.106E-02

     total cpu time spent up to now is        3.8 secs

     total energy              =    -161.96318528 Ry
     estimated scf accuracy    <       0.36978879 Ry

     total magnetization       =    -0.00    -0.00     2.73 Bohr mag/cell
     absolute magnetization    =     2.73 Bohr mag/cell

     iteration #  2     ecut=    70.00 Ry     beta= 0.70
     Davidson diagonalization with overlap
     ethr =  4.11E-03,  avg # of iterations =  1.6

     negative rho (up, down):  3.687E-08 8.383E-03

     total cpu time spent up to now is        5.6 secs

     total energy              =    -161.98103987 Ry
     estimated scf accuracy    <       0.12001621 Ry

     total magnetization       =    -0.00    -0.00     2.32 Bohr mag/cell
     absolute magnetization    =     2.35 Bohr mag/cell

     iteration #  3     ecut=    70.00 Ry     beta= 0.70
     Davidson diagonalization with overlap
     ethr =  1.33E-03,  avg # of iterations =  2.5

     negative rho (up, down):  1.994E-07 6.359E-03

     total cpu time spent up to now is        7.5 secs

     total energy              =    -161.99108112 Ry
     estimated scf accuracy    <       0.40388341 Ry

     total magnetization       =     0.00    -0.00     1.80 Bohr mag/cell
     absolute magnetization    =     1.85 Bohr mag/cell

     iteration #  4     ecut=    70.00 Ry     beta= 0.70
     Davidson diagonalization with overlap
     ethr =  1.33E-03,  avg # of iterations =  2.2

     negative rho (up, down):  2.226E-07 8.766E-03

     total cpu time spent up to now is        9.4 secs

     total energy              =    -162.04199823 Ry
     estimated scf accuracy    <       0.00279603 Ry

     total magnetization       =    -0.00    -0.00     2.05 Bohr mag/cell
     absolute magnetization    =     2.14 Bohr mag/cell

     iteration #  5     ecut=    70.00 Ry     beta= 0.70
     Davidson diagonalization with overlap
     c_bands:  1 eigenvalues not converged
     ethr =  3.11E-05,  avg # of iterations =  8.4

     negative rho (up, down):  3.173E-06 5.639E-02

     total cpu time spent up to now is       11.4 secs

     total energy              =    -162.04298848 Ry
     estimated scf accuracy    <       0.00015403 Ry

     total magnetization       =    -0.00    -0.00     1.93 Bohr mag/cell
     absolute magnetization    =     2.08 Bohr mag/cell

     iteration #  6     ecut=    70.00 Ry     beta= 0.70
     Davidson diagonalization with overlap
     c_bands:  1 eigenvalues not converged
     ethr =  1.71E-06,  avg # of iterations =  8.2

     negative rho (up, down):  2.239E-06 3.966E-02

     total cpu time spent up to now is       13.4 secs

     total energy              =    -162.04310090 Ry
     estimated scf accuracy    <       0.00007593 Ry

     total magnetization       =     0.00    -0.00     1.89 Bohr mag/cell
     absolute magnetization    =     2.07 Bohr mag/cell

     iteration #  7     ecut=    70.00 Ry     beta= 0.70
     Davidson diagonalization with overlap
     ethr =  8.44E-07,  avg # of iterations =  2.0

     negative rho (up, down):  3.029E-06 4.562E-02

     total cpu time spent up to now is       15.2 secs

     total energy              =    -162.04311293 Ry
     estimated scf accuracy    <       0.00001203 Ry

     total magnetization       =     0.00    -0.00     1.88 Bohr mag/cell
     absolute magnetization    =     2.07 Bohr mag/cell

     iteration #  8     ecut=    70.00 Ry     beta= 0.70
     Davidson diagonalization with overlap
     ethr =  1.34E-07,  avg # of iterations =  3.1

     negative rho (up, down):  2.749E-06 4.023E-02

     total cpu time spent up to now is       17.1 secs

     total energy              =    -162.04313664 Ry
     estimated scf accuracy    <       0.00000181 Ry

     total magnetization       =     0.00    -0.00     1.87 Bohr mag/cell
     absolute magnetization    =     2.07 Bohr mag/cell

     iteration #  9     ecut=    70.00 Ry     beta= 0.70
     Davidson diagonalization with overlap
     ethr =  2.02E-08,  avg # of iterations =  2.7

     negative rho (up, down):  2.745E-06 4.114E-02

 ==============================================================================
     atom number    1 relative position :    0.0000   0.0000   3.0765
     charge :     7.367721  (integrated on a sphere of radius 0.413)
     magnetization :          0.000000   -0.000000    1.939129
     magnetization/charge:    0.000000   -0.000000    0.263193
     polar coord.: r, theta, phi [deg] :     1.939129    0.000000  360.000000

 ==============================================================================

     total cpu time spent up to now is       18.9 secs

     End of self-consistent calculation

          k = 0.0000 0.0000 0.0000 (  5127 PWs)   bands (ev):

    -8.3976  -8.1548  -5.0680  -4.7458  -4.5927  -3.7187  -3.6147  -3.4350
    -2.9963  -2.8593  -1.9285  -1.8995  -1.4629  -1.3803   2.2195   2.2847
     3.0265   3.1812

          k = 0.0000 0.0888 0.0000 (  5133 PWs)   bands (ev):

    -8.1758  -7.9285  -5.0044  -4.7696  -4.5401  -3.9362  -3.6763  -3.3694
    -3.0400  -2.7975  -2.3169  -1.4910  -1.4464  -0.9178   2.4099   2.4772
     3.2438   3.3918

          k = 0.0000 0.1776 0.0000 (  5123 PWs)   bands (ev):

    -7.5508  -7.2752  -4.9095  -4.8213  -4.4218  -4.2768  -3.7327  -3.2720
    -3.1347  -2.8061  -2.5010  -1.5102  -0.5714  -0.0590   2.9815   3.0553
     3.8841   4.0180

          k = 0.0000 0.2665 0.0000 (  5133 PWs)   bands (ev):

    -6.7488  -6.3141  -4.9262  -4.8912  -4.5157  -3.8634  -3.8081  -3.4454
    -3.2327  -2.8353  -2.0399  -1.6011   0.6524   1.0570   3.9357   4.0195
     4.9246   5.0473

          k = 0.0000 0.3553 0.0000 (  5151 PWs)   bands (ev):

    -6.3986  -5.4724  -5.2709  -4.5328  -3.8850  -3.7550  -3.5807  -3.3834
    -3.1320  -2.4986  -1.6966  -1.5121   2.1553   2.4612   5.2690   5.3631
     6.3482   6.4664

          k = 0.0000 0.4441 0.0000 (  5160 PWs)   bands (ev):

    -6.4759  -5.5354  -5.2558  -4.2540  -3.9506  -3.8095  -2.9774  -2.2250
    -2.1207  -1.8431  -1.7744  -1.0400   3.9274   4.1564   6.7556   6.8273
     7.6353   7.8710

          k = 0.0000 0.5329 0.0000 (  5174 PWs)   bands (ev):

    -6.5739  -5.6702  -5.2881  -4.1301  -3.9881  -3.9192  -2.7307  -2.0612
    -1.8182  -0.7599  -0.3946  -0.3642   4.8943   5.6205   5.8076   5.9897
     9.1239   9.1693

          k = 0.0769 0.1332 0.0000 (  5126 PWs)   bands (ev):

    -7.7486  -7.4869  -4.8856  -4.8814  -4.3511  -4.2832  -3.7206  -3.2305
    -3.1945  -2.6762  -2.5881  -1.4968  -0.8497  -0.3097   2.7909   2.8626
     3.6724   3.8102

          k = 0.0769 0.2221 0.0000 (  5129 PWs)   bands (ev):

    -6.9872  -6.6598  -5.0589  -4.7178  -4.6506  -3.9497  -3.8008  -3.4471
    -3.0761  -2.9684  -2.1685  -1.5936   0.1914   0.6401   3.5544   3.6343
     4.5122   4.6378

          k = 0.0769 0.3109 0.0000 (  5136 PWs)   bands (ev):

    -6.3193  -5.6645  -5.1060  -4.9288  -4.3081  -3.8968  -3.5412  -3.4311
    -3.3310  -2.6388  -1.7120  -1.6031   1.5391   1.8891   4.7016   4.7918
     5.7439   5.8624

          k = 0.0769 0.3997 0.0000 (  5148 PWs)   bands (ev):

    -6.2770  -5.4009  -5.1362  -4.4273  -3.9864  -3.7435  -3.6618  -2.9045
    -2.3283  -2.3139  -1.8231  -0.9232   3.1761   3.4430   6.2127   6.3045
     7.3533   7.4947

          k = 0.0769 0.4885 0.0000 (  5173 PWs)   bands (ev):

    -6.4087  -5.5830  -5.1306  -4.1785  -4.0521  -3.8372  -3.2073  -2.1299
    -1.9043  -1.8185  -0.7130   0.0044   5.0572   5.2644   6.0162   6.5899
     8.3576   8.4315

          k = 0.0769-0.5774 0.0000 (  5154 PWs)   bands (ev):

    -6.4672  -5.6445  -5.1675  -4.1086  -4.0760  -3.8832  -3.0364  -2.0313
    -1.9327  -1.4431   0.4378   0.7762   4.5324   5.3135   6.4976   6.6917
     8.7217   8.7799

          k = 0.1538 0.2665 0.0000 (  5130 PWs)   bands (ev):

    -6.1873  -5.7232  -5.2902  -5.0233  -4.4041  -3.9291  -3.7166  -3.3569
    -3.2802  -2.6952  -1.7495  -1.5932   1.3342   1.7058   4.5127   4.6013
     5.5428   5.6608

          k = 0.1538 0.3553 0.0000 (  5147 PWs)   bands (ev):

    -5.8002  -5.2691  -5.0724  -4.8129  -4.1343  -4.0764  -3.7652  -3.5471
    -2.3824  -2.2343  -1.9343  -0.7921   2.8062   3.1043   5.8558   5.9523
     6.9616   7.0763

          k = 0.1538 0.4441 0.0000 (  5149 PWs)   bands (ev):

    -5.9828  -5.4321  -4.6939  -4.4478  -4.2077  -3.8945  -3.6660  -3.0194
    -2.1243  -2.1058  -0.6848   0.3226   4.5784   4.8180   7.3682   7.4443
     8.1554   8.4017

          k = 0.1538-0.6218 0.0000 (  5170 PWs)   bands (ev):

    -6.1109  -5.5112  -4.7913  -4.2872  -4.1320  -3.7590  -3.6845  -2.3715
    -2.2055  -2.0119   1.0789   1.6818   5.2616   5.9300   6.5063   6.7212
     9.6754   9.7306

          k = 0.2308 0.3997 0.0000 (  5158 PWs)   bands (ev):

    -5.5108  -5.3454  -5.0011  -4.3119  -4.0551  -4.0180  -3.8893  -3.5768
    -2.2219  -2.1440  -0.6542   0.4220   4.4180   4.6716   7.3876   7.4780
     8.5710   8.6654

          k = 0.2308-0.6662 0.0000 (  5182 PWs)   bands (ev):

    -5.5942  -5.3460  -4.5820  -4.5153  -4.2188  -4.0113  -3.5349  -3.2321
    -2.4809  -2.0132   1.2873   2.0476   6.3249   6.5515   6.9921   7.5020
     9.1929   9.3151

          k = 0.2308-0.5774 0.0000 (  5182 PWs)   bands (ev):

    -5.6435  -5.3296  -4.6045  -4.3255  -4.2870  -4.0918  -3.4989  -2.9623
    -2.5951  -1.9881   2.8422   3.3805   5.1041   5.7706   7.9022   8.1778
     9.2387   9.6827

          k = 0.3077-0.6218 0.0000 (  5182 PWs)   bands (ev):

    -5.2275  -5.1619  -4.8175  -4.7787  -4.0895  -3.8502  -3.4349  -3.2921
    -2.8637  -1.9799   3.5204   4.1088   6.0524   6.5429   7.1725   7.7405
     8.2776   8.5488

     the Fermi energy is    -2.2778 ev

!    total energy              =    -162.04313767 Ry
     total all-electron energy =     -2786.867648 Ry
     estimated scf accuracy    <       0.00000006 Ry
     smearing contrib. (-TS)   =      -0.00084183 Ry
     internal energy E=F+TS    =    -162.04229585 Ry

     The total energy is F=E-TS. E is the sum of the following terms:
     one-electron contribution =    -214.79317167 Ry
     hartree contribution      =     115.17078074 Ry
     xc contribution           =     -32.51509625 Ry
     ewald contribution        =      56.73658780 Ry
     DFT-D3 Dispersion         =      -0.00688204 Ry
     one-center paw contrib.   =     -86.63451443 Ry

     total magnetization       =     0.00    -0.00     1.86 Bohr mag/cell
     absolute magnetization    =     2.06 Bohr mag/cell

     convergence has been achieved in   9 iterations

     negative rho (up, down):  2.745E-06 4.114E-02

     Forces acting on atoms (cartesian axes, Ry/au):

     atom    1 type  1   force =     0.00000000    0.00000000    0.00000000
     The non-local contrib.  to forces
     atom    1 type  1   force =     0.00000000    0.00000000    0.00000000
     The ionic contribution  to forces
     atom    1 type  1   force =     0.00000000    0.00000000   -0.00000000
     The local contribution  to forces
     atom    1 type  1   force =    -0.00000000   -0.00000000    0.00000000
     The core correction contribution to forces
     atom    1 type  1   force =    -0.00000000   -0.00000000    0.00000000
     The Hubbard contrib.    to forces
     atom    1 type  1   force =     0.00000000    0.00000000    0.00000000
     The SCF correction term to forces
     atom    1 type  1   force =    -0.00000000    0.00000000    0.00000000

     DFT-D3 dispersion contribution to forces:
     atom    1 type  1   force =     0.00000000    0.00000000    0.00000000

     Total force =     0.000000     Total SCF correction =     0.000000


     Computing stress (Cartesian axis) and pressure


     negative rho (up, down):  2.745E-06 4.114E-02
          total   stress  (Ry/bohr**3)                   (kbar)     P=      -22.63
  -0.00022757   0.00000000  -0.00000000          -33.48        0.00       -0.00
   0.00000000  -0.00022757   0.00000000            0.00      -33.48        0.00
   0.00000000   0.00000000  -0.00000641            0.00        0.00       -0.94


     Writing all to output data dir ./tmp/scf.save/
 
     init_run     :      1.23s CPU      1.42s WALL (       1 calls)
     electrons    :     15.77s CPU     17.22s WALL (       1 calls)
     forces       :      0.42s CPU      0.46s WALL (       1 calls)
     force_dftd3  :      0.01s CPU      0.01s WALL (       1 calls)
     stress       :      0.68s CPU      0.79s WALL (       1 calls)
     stres_dftd3  :      0.01s CPU      0.01s WALL (       1 calls)

     Called by init_run:
     wfcinit      :      0.15s CPU      0.21s WALL (       1 calls)
     potinit      :      0.73s CPU      0.78s WALL (       1 calls)
     hinit0       :      0.12s CPU      0.15s WALL (       1 calls)

     Called by electrons:
     c_bands      :      4.14s CPU      4.59s WALL (       9 calls)
     sum_band     :      3.63s CPU      4.09s WALL (       9 calls)
     v_of_rho     :      0.16s CPU      0.21s WALL (      10 calls)
     newd         :      1.53s CPU      1.94s WALL (      10 calls)
     PAW_pot      :      7.05s CPU      7.18s WALL (      10 calls)
     mix_rho      :      0.04s CPU      0.04s WALL (       9 calls)
     energy_dftd3 :      0.01s CPU      0.01s WALL (       1 calls)

     Called by c_bands:
     init_us_2    :      0.03s CPU      0.03s WALL (     441 calls)
     init_us_2:cp :      0.03s CPU      0.03s WALL (     441 calls)
     cegterg      :      3.26s CPU      3.71s WALL (     189 calls)

     Called by *egterg:
     cdiaghg      :      0.27s CPU      0.35s WALL (     987 calls)
     h_psi        :      2.76s CPU      3.14s WALL (    1008 calls)
     s_psi        :      0.06s CPU      0.09s WALL (    1008 calls)
     g_psi        :      0.01s CPU      0.01s WALL (     798 calls)

     Called by h_psi:
     h_psi:calbec :      0.10s CPU      0.10s WALL (    1008 calls)
     vloc_psi     :      2.57s CPU      2.94s WALL (    1008 calls)
     add_vuspsi   :      0.08s CPU      0.08s WALL (    1008 calls)

     General routines
     calbec       :      0.14s CPU      0.15s WALL (    1302 calls)
     fft          :      0.16s CPU      0.22s WALL (     410 calls)
     ffts         :      0.01s CPU      0.01s WALL (      76 calls)
     fftw         :      2.28s CPU      2.62s WALL (   43896 calls)
     interpolate  :      0.02s CPU      0.02s WALL (      40 calls)
 
     Parallel routines
 
     PWSCF        :     18.35s CPU     20.30s WALL

 
   This run was terminated on:  11:59:16  22Jul2025            

=------------------------------------------------------------------------------=
   JOB DONE.
=------------------------------------------------------------------------------=
