
     Program PWSCF v.7.2 starts on  3Jul2025 at 14:48:14 

     This program is part of the open-source Quantum ESPRESSO suite
     for quantum simulation of materials; please cite
         "P. Giannozzi et al., J. Phys.:Condens. Matter 21 395502 (2009);
         "P. Giannozzi et al., J. Phys.:Condens. Matter 29 465901 (2017);
         "P. Giannozzi et al., J. Chem. Phys. 152 154105 (2020);
          URL http://www.quantum-espresso.org", 
     in publications or presentations arising from this work. More details at
     http://www.quantum-espresso.org/quote

     Parallel version (MPI), running on    16 processors

     MPI processes distributed on     1 nodes
     15649 MiB available memory on the printing compute node when the environment starts
 
     Waiting for input...
     Reading input from standard input

     Current dimensions of program PWSCF are:
     Max number of different atomic species (ntypx) = 10
     Max number of k-points (npk) =  40000
     Max angular momentum in pseudopotentials (lmaxx) =  4
     file Co.rel-pbe-n-kjpaw_psl.1.0.0.UPF: wavefunction(s)  4S 3D 3D renormalized

     Fixed quantization axis for GGA:     0.000000    0.000000    1.000000
     Message from routine setup:
     using ibrav=0 with symmetry is DISCOURAGED, use correct ibrav instead
 
     R & G space division:  proc/nbgrp/npool/nimage =      16
     Subspace diagonalization in iterative solution of the eigenvalue problem:
     a serial algorithm will be used

 
     Parallelization info
     --------------------
     sticks:   dense  smooth     PW     G-vecs:    dense   smooth      PW
     Min          21      21      6                 2055     2055     360
     Max          23      23      7                 2067     2067     379
     Sum         349     349    109                32989    32989    5901
 
     Using Slab Decomposition
 


     bravais-lattice index     =            0
     lattice parameter (alat)  =       4.3568  a.u.
     unit-cell volume          =     465.9601 (a.u.)^3
     number of atoms/cell      =            1
     number of atomic types    =            1
     number of electrons       =         9.00
     number of Kohn-Sham states=           18
     kinetic-energy cutoff     =      65.0000  Ry
     charge density cutoff     =     260.0000  Ry
     scf convergence threshold =      1.0E-06
     mixing beta               =       0.7000
     number of iterations used =            8  plain     mixing
     Exchange-correlation= SLA  PW   PBX  PBC
                           (   1   4   3   4   0   0   0)
     Noncollinear calculation with spin-orbit


     celldm(1)=   4.356764  celldm(2)=   0.000000  celldm(3)=   0.000000
     celldm(4)=   0.000000  celldm(5)=   0.000000  celldm(6)=   0.000000

     crystal axes: (cart. coord. in units of alat)
               a(1) = (   1.000000   0.000000   0.000000 )  
               a(2) = (   0.500000   0.866025   0.000000 )  
               a(3) = (   0.000000   0.000000   6.506181 )  

     reciprocal axes: (cart. coord. in units 2 pi/alat)
               b(1) = (  1.000000 -0.577350  0.000000 )  
               b(2) = (  0.000000  1.154701  0.000000 )  
               b(3) = (  0.000000  0.000000  0.153700 )  


     PseudoPot. # 1 for Co read from file:
     /home/antonio/PROJ_MetalTMD/antonio/PSEUDO/Co.rel-pbe-n-kjpaw_psl.1.0.0.UPF
     MD5 check sum: 24189b0fbe424dfc94bf49ee084f82bd
     Pseudo is Projector augmented-wave + core cor, Zval =  9.0
     Generated using "atomic" code by A. Dal Corso  (Quantum ESPRESSO distribution)
     Shape of augmentation charge: PSQ
     Using radial grid of 1193 points, 10 beta functions with: 
                l(1) =   0
                l(2) =   0
                l(3) =   1
                l(4) =   1
                l(5) =   1
                l(6) =   1
                l(7) =   2
                l(8) =   2
                l(9) =   2
               l(10) =   2
     Q(r) pseudized with 0 coefficients 


     atomic species   valence    mass     pseudopotential
        Co             9.00    58.93320     Co( 1.00)

     24 Sym. Ops., with inversion, found



   Cartesian axes

     site n.     atom                  positions (alat units)
         1           Co  tau(   1) = (   0.0000000   0.0000000   3.2530904  )

     number of k points=    21  Fermi-Dirac smearing, width (Ry)=  0.0070
                       cart. coord. in units 2pi/alat
        k(    1) = (   0.0000000   0.0000000   0.0000000), wk =   0.0059172
        k(    2) = (   0.0000000   0.0888231   0.0000000), wk =   0.0355030
        k(    3) = (   0.0000000   0.1776462   0.0000000), wk =   0.0355030
        k(    4) = (   0.0000000   0.2664694   0.0000000), wk =   0.0355030
        k(    5) = (   0.0000000   0.3552925   0.0000000), wk =   0.0355030
        k(    6) = (   0.0000000   0.4441156   0.0000000), wk =   0.0355030
        k(    7) = (   0.0000000   0.5329387   0.0000000), wk =   0.0355030
        k(    8) = (   0.0769231   0.1332347   0.0000000), wk =   0.0355030
        k(    9) = (   0.0769231   0.2220578   0.0000000), wk =   0.0710059
        k(   10) = (   0.0769231   0.3108809   0.0000000), wk =   0.0710059
        k(   11) = (   0.0769231   0.3997040   0.0000000), wk =   0.0710059
        k(   12) = (   0.0769231   0.4885272   0.0000000), wk =   0.0710059
        k(   13) = (   0.0769231  -0.5773503   0.0000000), wk =   0.0355030
        k(   14) = (   0.1538462   0.2664694   0.0000000), wk =   0.0355030
        k(   15) = (   0.1538462   0.3552925   0.0000000), wk =   0.0710059
        k(   16) = (   0.1538462   0.4441156   0.0000000), wk =   0.0710059
        k(   17) = (   0.1538462  -0.6217618   0.0000000), wk =   0.0710059
        k(   18) = (   0.2307692   0.3997040   0.0000000), wk =   0.0355030
        k(   19) = (   0.2307692  -0.6661734   0.0000000), wk =   0.0710059
        k(   20) = (   0.2307692  -0.5773503   0.0000000), wk =   0.0355030
        k(   21) = (   0.3076923  -0.6217618   0.0000000), wk =   0.0355030

     Dense  grid:    32989 G-vectors     FFT dimensions: (  24,  24, 150)

     Estimated max dynamical RAM per process >      25.25 MB

     Estimated total dynamical RAM >     403.96 MB

     Check: negative core charge=   -0.000002
     Generating pointlists ...
     new r_m :   0.4125 (alat units)  1.7972 (a.u.) for type    1

     Initial potential from superposition of free atoms

     starting charge       8.9997, renormalised to       9.0000

     negative rho (up, down):  1.231E-04 4.370E-02

 ==============================================================================
     atom number    1 relative position :    0.0000   0.0000   3.2531
     charge :     7.150591  (integrated on a sphere of radius 0.412)
     magnetization :          0.000000    0.000000    5.720473
     magnetization/charge:    0.000000    0.000000    0.800000
     polar coord.: r, theta, phi [deg] :     5.720473    0.000000  360.000000

 ==============================================================================
     Starting wfcs are   18 randomized atomic wfcs
     Checking if some PAW data can be deallocated... 

     total cpu time spent up to now is        1.2 secs

     Self-consistent Calculation

     iteration #  1     ecut=    65.00 Ry     beta= 0.70
     Davidson diagonalization with overlap
     ethr =  1.00E-02,  avg # of iterations =  7.0

     negative rho (up, down):  1.394E-04 3.130E-02

     total cpu time spent up to now is        2.6 secs

     total energy              =    -161.94661278 Ry
     estimated scf accuracy    <       0.39081490 Ry

     total magnetization       =    -0.00    -0.00     2.70 Bohr mag/cell
     absolute magnetization    =     2.70 Bohr mag/cell

     iteration #  2     ecut=    65.00 Ry     beta= 0.70
     Davidson diagonalization with overlap
     ethr =  4.34E-03,  avg # of iterations =  2.2

     negative rho (up, down):  9.186E-05 1.609E-02

     total cpu time spent up to now is        3.7 secs

     total energy              =    -161.97462746 Ry
     estimated scf accuracy    <       0.13070839 Ry

     total magnetization       =    -0.00    -0.00     2.27 Bohr mag/cell
     absolute magnetization    =     2.29 Bohr mag/cell

     iteration #  3     ecut=    65.00 Ry     beta= 0.70
     Davidson diagonalization with overlap
     ethr =  1.45E-03,  avg # of iterations =  2.9

     negative rho (up, down):  9.695E-05 2.178E-02

     total cpu time spent up to now is        5.0 secs

     total energy              =    -161.98995100 Ry
     estimated scf accuracy    <       0.37776203 Ry

     total magnetization       =     0.00    -0.00     1.74 Bohr mag/cell
     absolute magnetization    =     1.79 Bohr mag/cell

     iteration #  4     ecut=    65.00 Ry     beta= 0.70
     Davidson diagonalization with overlap
     ethr =  1.45E-03,  avg # of iterations =  2.7

     negative rho (up, down):  1.258E-04 3.104E-02

     total cpu time spent up to now is        6.2 secs

     total energy              =    -162.04023968 Ry
     estimated scf accuracy    <       0.00294050 Ry

     total magnetization       =     0.00     0.00     1.79 Bohr mag/cell
     absolute magnetization    =     1.93 Bohr mag/cell

     iteration #  5     ecut=    65.00 Ry     beta= 0.70
     Davidson diagonalization with overlap
     ethr =  3.27E-05,  avg # of iterations =  7.8

     negative rho (up, down):  1.623E-04 4.370E-02

     total cpu time spent up to now is        7.6 secs

     total energy              =    -162.04118316 Ry
     estimated scf accuracy    <       0.00030420 Ry

     total magnetization       =    -0.00     0.00     1.69 Bohr mag/cell
     absolute magnetization    =     1.88 Bohr mag/cell

     iteration #  6     ecut=    65.00 Ry     beta= 0.70
     Davidson diagonalization with overlap
     ethr =  3.38E-06,  avg # of iterations =  7.1

     negative rho (up, down):  1.544E-04 3.944E-02

     total cpu time spent up to now is        8.9 secs

     total energy              =    -162.04126847 Ry
     estimated scf accuracy    <       0.00003995 Ry

     total magnetization       =    -0.00    -0.00     1.68 Bohr mag/cell
     absolute magnetization    =     1.87 Bohr mag/cell

     iteration #  7     ecut=    65.00 Ry     beta= 0.70
     Davidson diagonalization with overlap
     ethr =  4.44E-07,  avg # of iterations =  1.4

     negative rho (up, down):  1.623E-04 4.245E-02

     total cpu time spent up to now is       10.1 secs

     total energy              =    -162.04128377 Ry
     estimated scf accuracy    <       0.00001657 Ry

     total magnetization       =    -0.00    -0.00     1.69 Bohr mag/cell
     absolute magnetization    =     1.87 Bohr mag/cell

     iteration #  8     ecut=    65.00 Ry     beta= 0.70
     Davidson diagonalization with overlap
     ethr =  1.84E-07,  avg # of iterations =  1.5

     negative rho (up, down):  1.610E-04 4.225E-02

     total cpu time spent up to now is       11.3 secs

     total energy              =    -162.04128751 Ry
     estimated scf accuracy    <       0.00000122 Ry

     total magnetization       =     0.00    -0.00     1.68 Bohr mag/cell
     absolute magnetization    =     1.87 Bohr mag/cell

     iteration #  9     ecut=    65.00 Ry     beta= 0.70
     Davidson diagonalization with overlap
     ethr =  1.35E-08,  avg # of iterations =  3.1

     negative rho (up, down):  1.615E-04 4.238E-02

 ==============================================================================
     atom number    1 relative position :    0.0000   0.0000   3.2531
     charge :     7.216112  (integrated on a sphere of radius 0.412)
     magnetization :         -0.000000    0.000000    1.745784
     magnetization/charge:   -0.000000    0.000000    0.241929
     polar coord.: r, theta, phi [deg] :     1.745784    0.000000  360.000000

 ==============================================================================

     total cpu time spent up to now is       12.6 secs

     End of self-consistent calculation

          k = 0.0000 0.0000 0.0000 (  4165 PWs)   bands (ev):

    -8.8082  -8.5520  -5.0968  -4.7038  -4.5504  -3.7041  -3.2295  -3.2166
    -3.0823  -3.0197  -2.0233  -1.9887  -1.1320  -1.0474   2.3516   2.3817
     3.1584   3.2590

          k = 0.0000 0.0888 0.0000 (  4155 PWs)   bands (ev):

    -8.5541  -8.2932  -5.0127  -4.7451  -4.4755  -3.6733  -3.5580  -3.2568
    -3.1704  -2.9323  -2.3625  -1.4237  -1.1221  -0.6457   2.5672   2.5988
     3.4032   3.4955

          k = 0.0000 0.1776 0.0000 (  4155 PWs)   bands (ev):

    -7.8470  -7.5555  -4.9369  -4.7721  -4.2881  -4.1295  -3.5223  -3.3216
    -3.2385  -2.8990  -2.5566  -1.2035  -0.3472   0.2409   3.2133   3.2506
     4.1212   4.1972

          k = 0.0000 0.2665 0.0000 (  4146 PWs)   bands (ev):

    -6.9940  -6.5262  -4.9317  -4.8811  -4.3863  -3.6873  -3.5996  -3.4014
    -3.3912  -2.8840  -1.9781  -1.3194   1.0141   1.4407   4.2905   4.3372
     5.2831   5.3480

          k = 0.0000 0.3553 0.0000 (  4120 PWs)   bands (ev):

    -6.7294  -5.8274  -5.3570  -4.3454  -3.8244  -3.5281  -3.4999  -3.1092
    -2.9856  -2.4441  -1.4410  -1.3151   2.6708   2.9758   5.7948   5.8534
     6.9331   6.9740

          k = 0.0000 0.4441 0.0000 (  4104 PWs)   bands (ev):

    -6.8875  -5.7996  -5.6871  -4.1471  -3.9277  -3.5861  -2.4520  -2.0871
    -1.7031  -1.5394  -1.4783  -0.7204   4.6274   4.8458   7.6384   7.6631
     8.6213   8.7346

          k = 0.0000 0.5329 0.0000 (  4102 PWs)   bands (ev):

    -7.0274  -5.9047  -5.8546  -4.2898  -3.7533  -3.6350  -2.1315  -1.8696
    -1.5942  -0.3659   0.1565   0.1914   6.4526   6.7205   6.8866   7.0994
    10.2868  10.3197

          k = 0.0769 0.1332 0.0000 (  4163 PWs)   bands (ev):

    -8.0678  -7.7919  -4.9067  -4.8504  -4.2252  -4.1101  -3.4481  -3.4066
    -3.2420  -2.7506  -2.6643  -1.1865  -0.6626  -0.0222   2.9979   3.0333
     3.8842   3.9645

          k = 0.0769 0.2221 0.0000 (  4154 PWs)   bands (ev):

    -7.2176  -6.8716  -5.1328  -4.6633  -4.5471  -3.7350  -3.7104  -3.3863
    -3.2152  -3.0513  -2.1322  -1.3107   0.5063   0.9922   3.8603   3.9035
     4.8262   4.8908

          k = 0.0769 0.3109 0.0000 (  4144 PWs)   bands (ev):

    -6.5634  -5.8770  -5.1496  -4.9167  -4.1196  -3.7606  -3.6349  -3.5107
    -2.9480  -2.6263  -1.4622  -1.4143   1.9951   2.3520   5.1538   5.2073
     6.1972   6.2585

          k = 0.0769 0.3997 0.0000 (  4112 PWs)   bands (ev):

    -6.6225  -5.5773  -5.5162  -4.2119  -3.9544  -3.6359  -3.4360  -2.8266
    -2.1929  -1.7936  -1.6016  -0.5444   3.8010   4.0614   6.8638   6.9262
     8.0175   8.0241

          k = 0.0769 0.4885 0.0000 (  4105 PWs)   bands (ev):

    -6.8163  -5.7498  -5.6882  -4.1787  -3.8287  -3.7226  -2.7827  -1.9638
    -1.7076  -1.5657  -0.0574   0.6066   5.8855   6.0799   7.5631   8.0251
     9.3238   9.3336

          k = 0.0769-0.5774 0.0000 (  4108 PWs)   bands (ev):

    -6.8959  -5.8268  -5.7570  -4.2439  -3.7541  -3.7246  -2.5564  -1.8306
    -1.7436  -1.1609   1.1322   1.4816   6.0964   6.7927   7.5102   7.6867
     9.8447   9.8967

          k = 0.1538 0.2665 0.0000 (  4141 PWs)   bands (ev):

    -6.3226  -5.8477  -5.4378  -5.0455  -4.2209  -4.0711  -3.5518  -3.5398
    -2.8918  -2.6980  -1.5113  -1.3939   1.7726   2.1552   4.9406   4.9921
     6.0335   6.1328

          k = 0.1538 0.3553 0.0000 (  4116 PWs)   bands (ev):

    -6.0139  -5.3514  -5.0865  -5.0308  -4.0061  -3.8965  -3.7635  -3.7504
    -2.2863  -1.7602  -1.6346  -0.3749   3.3993   3.6944   6.4541   6.5150
     7.5703   7.6148

          k = 0.1538 0.4441 0.0000 (  4114 PWs)   bands (ev):

    -6.2821  -5.5539  -5.1363  -4.2713  -3.9629  -3.9347  -3.5637  -3.0132
    -1.9685  -1.9486   0.0847   0.9905   5.3619   5.5913   8.3284   8.3562
     9.2845   9.4100

          k = 0.1538-0.6218 0.0000 (  4115 PWs)   bands (ev):

    -6.4499  -5.6520  -5.2943  -4.0510  -4.0401  -3.7743  -3.4159  -2.2776
    -2.0962  -1.8070   1.9742   2.5442   6.8431   7.4451   7.5206   7.7179
    10.9139  10.9867

          k = 0.2308 0.3997 0.0000 (  4102 PWs)   bands (ev):

    -5.7137  -5.4423  -4.9835  -4.4532  -4.0743  -3.9596  -3.8642  -3.6624
    -2.1179  -1.9759   0.1497   1.1111   5.1881   5.4324   8.1856   8.2488
     9.3329   9.3492

          k = 0.2308-0.6662 0.0000 (  4101 PWs)   bands (ev):

    -5.8068  -5.4374  -4.6135  -4.4909  -4.3317  -3.8170  -3.6284  -3.3090
    -2.4493  -1.8091   2.2965   2.9930   7.3146   7.5268   8.6469   9.1002
    10.4540  10.4612

          k = 0.2308-0.5774 0.0000 (  4110 PWs)   bands (ev):

    -5.8652  -5.4137  -4.6916  -4.4491  -4.2079  -3.7967  -3.6671  -3.0162
    -2.5948  -1.7770   3.9450   4.4571   6.6796   7.2822   9.1299   9.3850
    11.1526  11.5686

          k = 0.3077-0.6218 0.0000 (  4120 PWs)   bands (ev):

    -5.3438  -5.1932  -4.7752  -4.7439  -4.1439  -3.7380  -3.6005  -3.4642
    -2.9362  -1.7669   4.7573   5.3034   7.5381   7.9941   9.0396   9.5360
     9.5738   9.7825

     the Fermi energy is    -2.1401 ev

!    total energy              =    -162.04128844 Ry
     total all-electron energy =     -2786.865798 Ry
     estimated scf accuracy    <       0.00000002 Ry
     smearing contrib. (-TS)   =      -0.00364439 Ry
     internal energy E=F+TS    =    -162.03764405 Ry

     The total energy is F=E-TS. E is the sum of the following terms:
     one-electron contribution =    -237.11985203 Ry
     hartree contribution      =     126.37596678 Ry
     xc contribution           =     -32.58164635 Ry
     ewald contribution        =      67.93155616 Ry
     one-center paw contrib.   =     -86.64366861 Ry

     total magnetization       =    -0.00    -0.00     1.68 Bohr mag/cell
     absolute magnetization    =     1.87 Bohr mag/cell

     convergence has been achieved in   9 iterations

     negative rho (up, down):  1.615E-04 4.238E-02

     Forces acting on atoms (cartesian axes, Ry/au):

     atom    1 type  1   force =     0.00000000    0.00000000    0.00000000
     The non-local contrib.  to forces
     atom    1 type  1   force =     0.00000000    0.00000000    0.00000000
     The ionic contribution  to forces
     atom    1 type  1   force =     0.00000000   -0.00000000   -0.00000000
     The local contribution  to forces
     atom    1 type  1   force =     0.00000000    0.00000000    0.00000000
     The core correction contribution to forces
     atom    1 type  1   force =     0.00000000    0.00000000    0.00000000
     The Hubbard contrib.    to forces
     atom    1 type  1   force =     0.00000000    0.00000000    0.00000000
     The SCF correction term to forces
     atom    1 type  1   force =     0.00000000   -0.00000000    0.00000000

     Total force =     0.000000     Total SCF correction =     0.000000


     Computing stress (Cartesian axis) and pressure


     negative rho (up, down):  1.615E-04 4.238E-02
          total   stress  (Ry/bohr**3)                   (kbar)     P=       13.44
   0.00013513   0.00000000   0.00000000           19.88        0.00        0.00
   0.00000000   0.00013513  -0.00000000            0.00       19.88       -0.00
   0.00000000   0.00000000   0.00000374            0.00        0.00        0.55


     Writing all to output data dir ./tmp/pwscf.save/
 
     init_run     :      0.91s CPU      1.00s WALL (       1 calls)
     electrons    :     11.05s CPU     11.33s WALL (       1 calls)
     forces       :      0.12s CPU      0.12s WALL (       1 calls)
     stress       :      0.24s CPU      0.24s WALL (       1 calls)

     Called by init_run:
     wfcinit      :      0.07s CPU      0.08s WALL (       1 calls)
     potinit      :      0.71s CPU      0.76s WALL (       1 calls)
     hinit0       :      0.07s CPU      0.09s WALL (       1 calls)

     Called by electrons:
     c_bands      :      2.93s CPU      3.09s WALL (       9 calls)
     sum_band     :      1.15s CPU      1.21s WALL (       9 calls)
     v_of_rho     :      0.04s CPU      0.08s WALL (      10 calls)
     newd         :      0.55s CPU      0.56s WALL (      10 calls)
     PAW_pot      :      7.10s CPU      7.13s WALL (      10 calls)
     mix_rho      :      0.02s CPU      0.03s WALL (       9 calls)

     Called by c_bands:
     init_us_2    :      0.02s CPU      0.02s WALL (     441 calls)
     init_us_2:cp :      0.02s CPU      0.02s WALL (     441 calls)
     cegterg      :      1.91s CPU      2.05s WALL (     189 calls)

     Called by *egterg:
     cdiaghg      :      0.23s CPU      0.25s WALL (     942 calls)
     h_psi        :      1.49s CPU      1.61s WALL (     963 calls)
     s_psi        :      0.05s CPU      0.05s WALL (     963 calls)
     g_psi        :      0.01s CPU      0.01s WALL (     753 calls)

     Called by h_psi:
     h_psi:calbec :      0.06s CPU      0.06s WALL (     963 calls)
     vloc_psi     :      1.37s CPU      1.48s WALL (     963 calls)
     add_vuspsi   :      0.05s CPU      0.06s WALL (     963 calls)

     General routines
     calbec       :      0.10s CPU      0.10s WALL (    1257 calls)
     fft          :      0.05s CPU      0.11s WALL (     338 calls)
     ffts         :      0.00s CPU      0.00s WALL (      36 calls)
     fftw         :      1.28s CPU      1.39s WALL (   43092 calls)
     davcio       :      0.05s CPU      0.05s WALL (     737 calls)
 
     Parallel routines
 
     PWSCF        :     12.61s CPU     13.25s WALL

 
   This run was terminated on:  14:48:27   3Jul2025            

=------------------------------------------------------------------------------=
   JOB DONE.
=------------------------------------------------------------------------------=
