
     Program PWSCF v.7.2 starts on  5Jun2025 at 14:42:15 

     This program is part of the open-source Quantum ESPRESSO suite
     for quantum simulation of materials; please cite
         "P. Giannozzi et al., J. Phys.:Condens. Matter 21 395502 (2009);
         "P. Giannozzi et al., J. Phys.:Condens. Matter 29 465901 (2017);
         "P. Giannozzi et al., J. Chem. Phys. 152 154105 (2020);
          URL http://www.quantum-espresso.org", 
     in publications or presentations arising from this work. More details at
     http://www.quantum-espresso.org/quote

     Parallel version (MPI), running on    16 processors

     MPI processes distributed on     1 nodes
     38898 MiB available memory on the printing compute node when the environment starts
 
     Waiting for input...
     Reading input from standard input

     Current dimensions of program PWSCF are:
     Max number of different atomic species (ntypx) = 10
     Max number of k-points (npk) =  40000
     Max angular momentum in pseudopotentials (lmaxx) =  4
     file Co.pbe-n-kjpaw_psl.1.0.0.UPF: wavefunction(s)  4S 3D renormalized
     Message from routine setup:
     using ibrav=0 with symmetry is DISCOURAGED, use correct ibrav instead
 
     R & G space division:  proc/nbgrp/npool/nimage =      16
     Subspace diagonalization in iterative solution of the eigenvalue problem:
     a serial algorithm will be used

 
     Parallelization info
     --------------------
     sticks:   dense  smooth     PW     G-vecs:    dense   smooth      PW
     Min          21      21      6                 2115     2115     364
     Max          22      22      7                 2142     2142     387
     Sum         349     349    109                34093    34093    6009
 
     Using Slab Decomposition
 


     bravais-lattice index     =            0
     lattice parameter (alat)  =       4.4220  a.u.
     unit-cell volume          =     480.0099 (a.u.)^3
     number of atoms/cell      =            1
     number of atomic types    =            1
     number of electrons       =         9.00
     number of Kohn-Sham states=            9
     kinetic-energy cutoff     =      65.0000  Ry
     charge density cutoff     =     260.0000  Ry
     scf convergence threshold =      1.0E-06
     mixing beta               =       0.7000
     number of iterations used =            8  plain     mixing
     Exchange-correlation= SLA  PW   PBX  PBC
                           (   1   4   3   4   0   0   0)

     celldm(1)=   4.421959  celldm(2)=   0.000000  celldm(3)=   0.000000
     celldm(4)=   0.000000  celldm(5)=   0.000000  celldm(6)=   0.000000

     crystal axes: (cart. coord. in units of alat)
               a(1) = (   1.000000   0.000000   0.000000 )  
               a(2) = (   0.500000   0.866025   0.000000 )  
               a(3) = (   0.000000   0.000000   6.410256 )  

     reciprocal axes: (cart. coord. in units 2 pi/alat)
               b(1) = (  1.000000 -0.577350  0.000000 )  
               b(2) = (  0.000000  1.154701  0.000000 )  
               b(3) = (  0.000000  0.000000  0.156000 )  


     PseudoPot. # 1 for Co read from file:
     /shared/ESPRESSO/PSLIBRARY/1.0.0/pbe/PSEUDOPOTENTIALS/Co.pbe-n-kjpaw_psl.1.0.0.UPF
     MD5 check sum: 17e7ab8db721b244d1352252ea6cb8e7
     Pseudo is Projector augmented-wave + core cor, Zval =  9.0
     Generated using "atomic" code by A. Dal Corso  (Quantum ESPRESSO distribution)
     Shape of augmentation charge: PSQ
     Using radial grid of 1193 points,  6 beta functions with: 
                l(1) =   0
                l(2) =   0
                l(3) =   1
                l(4) =   1
                l(5) =   2
                l(6) =   2
     Q(r) pseudized with 0 coefficients 


     atomic species   valence    mass     pseudopotential
        Co             9.00    58.93320     Co( 1.00)

     24 Sym. Ops., with inversion, found



   Cartesian axes

     site n.     atom                  positions (alat units)
         1           Co  tau(   1) = (   0.0000000   0.0000000   3.2051282  )

     number of k points=    21  Fermi-Dirac smearing, width (Ry)=  0.0070
                       cart. coord. in units 2pi/alat
        k(    1) = (   0.0000000   0.0000000   0.0000000), wk =   0.0118343
        k(    2) = (   0.0000000   0.0888231   0.0000000), wk =   0.0710059
        k(    3) = (   0.0000000   0.1776462   0.0000000), wk =   0.0710059
        k(    4) = (   0.0000000   0.2664694   0.0000000), wk =   0.0710059
        k(    5) = (   0.0000000   0.3552925   0.0000000), wk =   0.0710059
        k(    6) = (   0.0000000   0.4441156   0.0000000), wk =   0.0710059
        k(    7) = (   0.0000000   0.5329387   0.0000000), wk =   0.0710059
        k(    8) = (   0.0769231   0.1332347   0.0000000), wk =   0.0710059
        k(    9) = (   0.0769231   0.2220578   0.0000000), wk =   0.1420118
        k(   10) = (   0.0769231   0.3108809   0.0000000), wk =   0.1420118
        k(   11) = (   0.0769231   0.3997040   0.0000000), wk =   0.1420118
        k(   12) = (   0.0769231   0.4885272   0.0000000), wk =   0.1420118
        k(   13) = (   0.0769231  -0.5773503   0.0000000), wk =   0.0710059
        k(   14) = (   0.1538462   0.2664694   0.0000000), wk =   0.0710059
        k(   15) = (   0.1538462   0.3552925   0.0000000), wk =   0.1420118
        k(   16) = (   0.1538462   0.4441156   0.0000000), wk =   0.1420118
        k(   17) = (   0.1538462  -0.6217618   0.0000000), wk =   0.1420118
        k(   18) = (   0.2307692   0.3997040   0.0000000), wk =   0.0710059
        k(   19) = (   0.2307692  -0.6661734   0.0000000), wk =   0.1420118
        k(   20) = (   0.2307692  -0.5773503   0.0000000), wk =   0.0710059
        k(   21) = (   0.3076923  -0.6217618   0.0000000), wk =   0.0710059

     Dense  grid:    34093 G-vectors     FFT dimensions: (  24,  24, 150)

     Estimated max dynamical RAM per process >      10.00 MB

     Estimated total dynamical RAM >     159.93 MB

     Check: negative core charge=   -0.000002

     Initial potential from superposition of free atoms

     starting charge       8.9997, renormalised to       9.0000

     negative rho (up, down):  1.157E-04 0.000E+00
     Starting wfcs are    9 randomized atomic wfcs
     Checking if some PAW data can be deallocated... 

     total cpu time spent up to now is        0.3 secs

     Self-consistent Calculation

     iteration #  1     ecut=    65.00 Ry     beta= 0.70
     Davidson diagonalization with overlap
     ethr =  1.00E-02,  avg # of iterations =  6.0

     negative rho (up, down):  1.483E-04 0.000E+00

     total cpu time spent up to now is        0.4 secs

     total energy              =    -161.86101807 Ry
     estimated scf accuracy    <       0.12331153 Ry

     iteration #  2     ecut=    65.00 Ry     beta= 0.70
     Davidson diagonalization with overlap
     ethr =  1.37E-03,  avg # of iterations =  3.8

     negative rho (up, down):  1.134E-04 0.000E+00

     total cpu time spent up to now is        0.6 secs

     total energy              =    -161.79299783 Ry
     estimated scf accuracy    <       0.98763191 Ry

     iteration #  3     ecut=    65.00 Ry     beta= 0.70
     Davidson diagonalization with overlap
     ethr =  1.37E-03,  avg # of iterations =  2.0

     negative rho (up, down):  1.335E-04 0.000E+00

     total cpu time spent up to now is        0.7 secs

     total energy              =    -161.92824222 Ry
     estimated scf accuracy    <       0.00310837 Ry

     iteration #  4     ecut=    65.00 Ry     beta= 0.70
     Davidson diagonalization with overlap
     ethr =  3.45E-05,  avg # of iterations =  5.5

     negative rho (up, down):  1.515E-04 0.000E+00

     total cpu time spent up to now is        0.8 secs

     total energy              =    -161.92889360 Ry
     estimated scf accuracy    <       0.00022380 Ry

     iteration #  5     ecut=    65.00 Ry     beta= 0.70
     Davidson diagonalization with overlap
     ethr =  2.49E-06,  avg # of iterations =  5.9

     negative rho (up, down):  1.626E-04 0.000E+00

     total cpu time spent up to now is        1.0 secs

     total energy              =    -161.92893528 Ry
     estimated scf accuracy    <       0.00002307 Ry

     iteration #  6     ecut=    65.00 Ry     beta= 0.70
     Davidson diagonalization with overlap
     ethr =  2.56E-07,  avg # of iterations =  1.5

     negative rho (up, down):  1.633E-04 0.000E+00

     total cpu time spent up to now is        1.1 secs

     total energy              =    -161.92893942 Ry
     estimated scf accuracy    <       0.00000250 Ry

     iteration #  7     ecut=    65.00 Ry     beta= 0.70
     Davidson diagonalization with overlap
     ethr =  2.77E-08,  avg # of iterations =  1.9

     negative rho (up, down):  1.633E-04 0.000E+00

     total cpu time spent up to now is        1.2 secs

     End of self-consistent calculation

          k = 0.0000 0.0000 0.0000 (  4261 PWs)   bands (ev):

    -8.6040  -4.2206  -4.0808  -4.0808  -2.2163  -2.2163  -1.9060   2.2772
     3.1334

          k = 0.0000 0.0888 0.0000 (  4259 PWs)   bands (ev):

    -8.3555  -4.1796  -4.1327  -3.9570  -2.8325  -2.2428  -1.1690   2.4876
     3.3655

          k = 0.0000 0.1776 0.0000 (  4258 PWs)   bands (ev):

    -7.6530  -4.3995  -3.8956  -3.6049  -3.4853  -2.3158  -0.1243   3.1189
     4.0519

          k = 0.0000 0.2665 0.0000 (  4266 PWs)   bands (ev):

    -6.7271  -4.4645  -4.0427  -3.5491  -3.0829  -2.4178   1.1634   4.1719
     5.1736

          k = 0.0000 0.3553 0.0000 (  4242 PWs)   bands (ev):

    -6.2786  -4.4838  -3.6742  -3.1274  -2.5249  -2.4906   2.7391   5.6415
     6.7155

          k = 0.0000 0.4441 0.0000 (  4250 PWs)   bands (ev):

    -6.3660  -4.7894  -2.9463  -2.6127  -1.9639  -1.7894   4.6139   7.4130
     8.3742

          k = 0.0000 0.5329 0.0000 (  4254 PWs)   bands (ev):

    -6.4874  -4.9456  -2.7503  -2.6620  -1.6496  -0.0642   6.3245   6.6320
    10.0438

          k = 0.0769 0.1332 0.0000 (  4261 PWs)   bands (ev):

    -7.8760  -4.3542  -3.9785  -3.6991  -3.3139  -2.3004  -0.4232   2.9086
     3.8250

          k = 0.0769 0.2221 0.0000 (  4269 PWs)   bands (ev):

    -7.0112  -4.6015  -3.8394  -3.6844  -3.2065  -2.4087   0.6850   3.7512
     4.7283

          k = 0.0769 0.3109 0.0000 (  4261 PWs)   bands (ev):

    -6.2024  -4.4705  -4.2901  -3.3093  -2.5405  -2.5181   2.0978   5.0149
     6.0595

          k = 0.0769 0.3997 0.0000 (  4238 PWs)   bands (ev):

    -6.1266  -4.6289  -3.4916  -2.9070  -2.6650  -1.5598   3.8238   6.6837
     7.8037

          k = 0.0769 0.4885 0.0000 (  4242 PWs)   bands (ev):

    -6.2879  -4.8379  -2.8481  -2.7533  -2.3976  -0.1000   5.8290   7.3685
     9.0016

          k = 0.0769-0.5774 0.0000 (  4256 PWs)   bands (ev):

    -6.3605  -4.9084  -2.7853  -2.7181  -2.1527   0.9528   5.9913   7.4036
     9.6249

          k = 0.1538 0.2665 0.0000 (  4269 PWs)   bands (ev):

    -6.0709  -4.9033  -4.1924  -3.3659  -2.5816  -2.4767   1.8890   4.8062
     5.8408

          k = 0.1538 0.3553 0.0000 (  4240 PWs)   bands (ev):

    -5.5535  -4.6524  -4.4689  -3.0246  -2.7879  -1.3869   3.4441   6.2831
     7.3775

          k = 0.1538 0.4441 0.0000 (  4230 PWs)   bands (ev):

    -5.7747  -4.6480  -3.7301  -2.9718  -2.7705   0.1426   5.3310   8.0812
     9.0122

          k = 0.1538-0.6218 0.0000 (  4252 PWs)   bands (ev):

    -5.9343  -4.7329  -3.1202  -3.0808  -2.6921   1.8575   6.6786   7.4183
    10.6381

          k = 0.2308 0.3997 0.0000 (  4240 PWs)   bands (ev):

    -5.2063  -4.5437  -4.5387  -3.0996  -2.7978   0.2315   5.1668   7.9660
     9.0752

          k = 0.2308-0.6662 0.0000 (  4234 PWs)   bands (ev):

    -5.3166  -4.5168  -4.0439  -3.3821  -2.6939   2.2254   7.2241   8.3740
    10.1079

          k = 0.2308-0.5774 0.0000 (  4228 PWs)   bands (ev):

    -5.3788  -4.4857  -3.8118  -3.5055  -2.6823   3.7565   6.5069   9.0048
    10.8065

          k = 0.3077-0.6218 0.0000 (  4230 PWs)   bands (ev):

    -4.8845  -4.3550  -4.2584  -3.8001  -2.6759   4.5689   7.2452   8.8216
     9.3983

     the Fermi energy is    -2.6457 ev

!    total energy              =    -161.92893986 Ry
     total all-electron energy =     -2786.772616 Ry
     estimated scf accuracy    <       0.00000003 Ry
     smearing contrib. (-TS)   =      -0.01015606 Ry
     internal energy E=F+TS    =    -161.91878380 Ry

     The total energy is F=E-TS. E is the sum of the following terms:
     one-electron contribution =    -230.91230186 Ry
     hartree contribution      =     123.22712465 Ry
     xc contribution           =     -32.49036913 Ry
     ewald contribution        =      64.80530100 Ry
     one-center paw contrib.   =     -86.54853847 Ry

     convergence has been achieved in   7 iterations

     negative rho (up, down):  1.633E-04 0.000E+00

     Forces acting on atoms (cartesian axes, Ry/au):

     atom    1 type  1   force =     0.00000000    0.00000000    0.00000000
     The non-local contrib.  to forces
     atom    1 type  1   force =     0.00000000    0.00000000    0.00000000
     The ionic contribution  to forces
     atom    1 type  1   force =     0.00000000   -0.00000000    0.00000000
     The local contribution  to forces
     atom    1 type  1   force =     0.00000000    0.00000000    0.00000000
     The core correction contribution to forces
     atom    1 type  1   force =     0.00000000    0.00000000   -0.00000000
     The Hubbard contrib.    to forces
     atom    1 type  1   force =     0.00000000    0.00000000    0.00000000
     The SCF correction term to forces
     atom    1 type  1   force =    -0.00000000    0.00000000   -0.00000000

     Total force =     0.000000     Total SCF correction =     0.000000


     Computing stress (Cartesian axis) and pressure


     negative rho (up, down):  1.633E-04 0.000E+00
          total   stress  (Ry/bohr**3)                   (kbar)     P=      -10.56
  -0.00010674   0.00000000   0.00000000          -15.70        0.00        0.00
   0.00000000  -0.00010674   0.00000000            0.00      -15.70        0.00
   0.00000000   0.00000000  -0.00000195            0.00        0.00       -0.29


     Writing all to output data dir ./tmp/scf.save/
 
     init_run     :      0.14s CPU      0.19s WALL (       1 calls)
     electrons    :      0.87s CPU      0.91s WALL (       1 calls)
     forces       :      0.02s CPU      0.02s WALL (       1 calls)
     stress       :      0.08s CPU      0.08s WALL (       1 calls)

     Called by init_run:
     wfcinit      :      0.02s CPU      0.02s WALL (       1 calls)
     potinit      :      0.05s CPU      0.05s WALL (       1 calls)
     hinit0       :      0.06s CPU      0.10s WALL (       1 calls)

     Called by electrons:
     c_bands      :      0.47s CPU      0.51s WALL (       7 calls)
     sum_band     :      0.11s CPU      0.11s WALL (       7 calls)
     v_of_rho     :      0.01s CPU      0.01s WALL (       8 calls)
     newd         :      0.04s CPU      0.04s WALL (       8 calls)
     PAW_pot      :      0.27s CPU      0.28s WALL (       8 calls)
     mix_rho      :      0.00s CPU      0.00s WALL (       7 calls)

     Called by c_bands:
     init_us_2    :      0.01s CPU      0.01s WALL (     357 calls)
     init_us_2:cp :      0.01s CPU      0.01s WALL (     357 calls)
     cegterg      :      0.35s CPU      0.38s WALL (     147 calls)

     Called by *egterg:
     cdiaghg      :      0.05s CPU      0.05s WALL (     705 calls)
     h_psi        :      0.28s CPU      0.30s WALL (     726 calls)
     s_psi        :      0.00s CPU      0.01s WALL (     726 calls)
     g_psi        :      0.00s CPU      0.00s WALL (     558 calls)

     Called by h_psi:
     h_psi:calbec :      0.01s CPU      0.01s WALL (     726 calls)
     vloc_psi     :      0.26s CPU      0.28s WALL (     726 calls)
     add_vuspsi   :      0.01s CPU      0.01s WALL (     726 calls)

     General routines
     calbec       :      0.02s CPU      0.02s WALL (     978 calls)
     fft          :      0.04s CPU      0.08s WALL (     113 calls)
     ffts         :      0.00s CPU      0.00s WALL (       7 calls)
     fftw         :      0.27s CPU      0.29s WALL (    8823 calls)
 
     Parallel routines
 
     PWSCF        :      1.21s CPU      1.33s WALL

 
   This run was terminated on:  14:42:16   5Jun2025            

=------------------------------------------------------------------------------=
   JOB DONE.
=------------------------------------------------------------------------------=
