
     Program PWSCF v.7.2 starts on  5Jun2025 at 14:41:47 

     This program is part of the open-source Quantum ESPRESSO suite
     for quantum simulation of materials; please cite
         "P. Giannozzi et al., J. Phys.:Condens. Matter 21 395502 (2009);
         "P. Giannozzi et al., J. Phys.:Condens. Matter 29 465901 (2017);
         "P. Giannozzi et al., J. Chem. Phys. 152 154105 (2020);
          URL http://www.quantum-espresso.org", 
     in publications or presentations arising from this work. More details at
     http://www.quantum-espresso.org/quote

     Parallel version (MPI), running on    16 processors

     MPI processes distributed on     1 nodes
     38961 MiB available memory on the printing compute node when the environment starts
 
     Waiting for input...
     Reading input from standard input

     Current dimensions of program PWSCF are:
     Max number of different atomic species (ntypx) = 10
     Max number of k-points (npk) =  40000
     Max angular momentum in pseudopotentials (lmaxx) =  4
     file Co.pbe-n-kjpaw_psl.1.0.0.UPF: wavefunction(s)  4S 3D renormalized
     Message from routine setup:
     using ibrav=0 with symmetry is DISCOURAGED, use correct ibrav instead
 
     R & G space division:  proc/nbgrp/npool/nimage =      16
     Subspace diagonalization in iterative solution of the eigenvalue problem:
     a serial algorithm will be used

 
     Parallelization info
     --------------------
     sticks:   dense  smooth     PW     G-vecs:    dense   smooth      PW
     Min          19      19      6                 1945     1945     351
     Max          20      20      8                 1982     1982     364
     Sum         313     313    109                31429    31429    5723
 
     Using Slab Decomposition
 


     bravais-lattice index     =            0
     lattice parameter (alat)  =       4.2708  a.u.
     unit-cell volume          =     447.7498 (a.u.)^3
     number of atoms/cell      =            1
     number of atomic types    =            1
     number of electrons       =         9.00
     number of Kohn-Sham states=            9
     kinetic-energy cutoff     =      65.0000  Ry
     charge density cutoff     =     260.0000  Ry
     scf convergence threshold =      1.0E-06
     mixing beta               =       0.7000
     number of iterations used =            8  plain     mixing
     Exchange-correlation= SLA  PW   PBX  PBC
                           (   1   4   3   4   0   0   0)

     celldm(1)=   4.270781  celldm(2)=   0.000000  celldm(3)=   0.000000
     celldm(4)=   0.000000  celldm(5)=   0.000000  celldm(6)=   0.000000

     crystal axes: (cart. coord. in units of alat)
               a(1) = (   1.000000   0.000000   0.000000 )  
               a(2) = (   0.500000   0.866025   0.000000 )  
               a(3) = (   0.000000   0.000000   6.637168 )  

     reciprocal axes: (cart. coord. in units 2 pi/alat)
               b(1) = (  1.000000 -0.577350  0.000000 )  
               b(2) = (  0.000000  1.154701  0.000000 )  
               b(3) = (  0.000000  0.000000  0.150667 )  


     PseudoPot. # 1 for Co read from file:
     /shared/ESPRESSO/PSLIBRARY/1.0.0/pbe/PSEUDOPOTENTIALS/Co.pbe-n-kjpaw_psl.1.0.0.UPF
     MD5 check sum: 17e7ab8db721b244d1352252ea6cb8e7
     Pseudo is Projector augmented-wave + core cor, Zval =  9.0
     Generated using "atomic" code by A. Dal Corso  (Quantum ESPRESSO distribution)
     Shape of augmentation charge: PSQ
     Using radial grid of 1193 points,  6 beta functions with: 
                l(1) =   0
                l(2) =   0
                l(3) =   1
                l(4) =   1
                l(5) =   2
                l(6) =   2
     Q(r) pseudized with 0 coefficients 


     atomic species   valence    mass     pseudopotential
        Co             9.00    58.93320     Co( 1.00)

     24 Sym. Ops., with inversion, found



   Cartesian axes

     site n.     atom                  positions (alat units)
         1           Co  tau(   1) = (   0.0000000   0.0000000   3.3185841  )

     number of k points=    21  Fermi-Dirac smearing, width (Ry)=  0.0070
                       cart. coord. in units 2pi/alat
        k(    1) = (   0.0000000   0.0000000   0.0000000), wk =   0.0118343
        k(    2) = (   0.0000000   0.0888231   0.0000000), wk =   0.0710059
        k(    3) = (   0.0000000   0.1776462   0.0000000), wk =   0.0710059
        k(    4) = (   0.0000000   0.2664694   0.0000000), wk =   0.0710059
        k(    5) = (   0.0000000   0.3552925   0.0000000), wk =   0.0710059
        k(    6) = (   0.0000000   0.4441156   0.0000000), wk =   0.0710059
        k(    7) = (   0.0000000   0.5329387   0.0000000), wk =   0.0710059
        k(    8) = (   0.0769231   0.1332347   0.0000000), wk =   0.0710059
        k(    9) = (   0.0769231   0.2220578   0.0000000), wk =   0.1420118
        k(   10) = (   0.0769231   0.3108809   0.0000000), wk =   0.1420118
        k(   11) = (   0.0769231   0.3997040   0.0000000), wk =   0.1420118
        k(   12) = (   0.0769231   0.4885272   0.0000000), wk =   0.1420118
        k(   13) = (   0.0769231  -0.5773503   0.0000000), wk =   0.0710059
        k(   14) = (   0.1538462   0.2664694   0.0000000), wk =   0.0710059
        k(   15) = (   0.1538462   0.3552925   0.0000000), wk =   0.1420118
        k(   16) = (   0.1538462   0.4441156   0.0000000), wk =   0.1420118
        k(   17) = (   0.1538462  -0.6217618   0.0000000), wk =   0.1420118
        k(   18) = (   0.2307692   0.3997040   0.0000000), wk =   0.0710059
        k(   19) = (   0.2307692  -0.6661734   0.0000000), wk =   0.1420118
        k(   20) = (   0.2307692  -0.5773503   0.0000000), wk =   0.0710059
        k(   21) = (   0.3076923  -0.6217618   0.0000000), wk =   0.0710059

     Dense  grid:    31429 G-vectors     FFT dimensions: (  24,  24, 150)

     Estimated max dynamical RAM per process >       9.29 MB

     Estimated total dynamical RAM >     148.56 MB

     Check: negative core charge=   -0.000002

     Initial potential from superposition of free atoms

     starting charge       8.9997, renormalised to       9.0000

     negative rho (up, down):  1.174E-04 0.000E+00
     Starting wfcs are    9 randomized atomic wfcs
     Checking if some PAW data can be deallocated... 

     total cpu time spent up to now is        0.2 secs

     Self-consistent Calculation

     iteration #  1     ecut=    65.00 Ry     beta= 0.70
     Davidson diagonalization with overlap
     ethr =  1.00E-02,  avg # of iterations =  5.7

     negative rho (up, down):  1.467E-04 0.000E+00

     total cpu time spent up to now is        0.4 secs

     total energy              =    -161.86649310 Ry
     estimated scf accuracy    <       0.11847030 Ry

     iteration #  2     ecut=    65.00 Ry     beta= 0.70
     Davidson diagonalization with overlap
     ethr =  1.32E-03,  avg # of iterations =  4.9

     negative rho (up, down):  1.226E-04 0.000E+00

     total cpu time spent up to now is        0.5 secs

     total energy              =    -161.81103148 Ry
     estimated scf accuracy    <       0.79378902 Ry

     iteration #  3     ecut=    65.00 Ry     beta= 0.70
     Davidson diagonalization with overlap
     ethr =  1.32E-03,  avg # of iterations =  2.1

     negative rho (up, down):  1.415E-04 0.000E+00

     total cpu time spent up to now is        0.6 secs

     total energy              =    -161.92750889 Ry
     estimated scf accuracy    <       0.00376449 Ry

     iteration #  4     ecut=    65.00 Ry     beta= 0.70
     Davidson diagonalization with overlap
     ethr =  4.18E-05,  avg # of iterations =  5.0

     negative rho (up, down):  1.565E-04 0.000E+00

     total cpu time spent up to now is        0.8 secs

     total energy              =    -161.92815774 Ry
     estimated scf accuracy    <       0.00015769 Ry

     iteration #  5     ecut=    65.00 Ry     beta= 0.70
     Davidson diagonalization with overlap
     ethr =  1.75E-06,  avg # of iterations =  5.4

     negative rho (up, down):  1.633E-04 0.000E+00

     total cpu time spent up to now is        0.9 secs

     total energy              =    -161.92819274 Ry
     estimated scf accuracy    <       0.00000983 Ry

     iteration #  6     ecut=    65.00 Ry     beta= 0.70
     Davidson diagonalization with overlap
     ethr =  1.09E-07,  avg # of iterations =  1.5

     negative rho (up, down):  1.631E-04 0.000E+00

     total cpu time spent up to now is        1.0 secs

     total energy              =    -161.92819418 Ry
     estimated scf accuracy    <       0.00000146 Ry

     iteration #  7     ecut=    65.00 Ry     beta= 0.70
     Davidson diagonalization with overlap
     ethr =  1.62E-08,  avg # of iterations =  1.8

     negative rho (up, down):  1.634E-04 0.000E+00

     total cpu time spent up to now is        1.1 secs

     End of self-consistent calculation

          k = 0.0000 0.0000 0.0000 (  4033 PWs)   bands (ev):

    -8.8732  -4.3728  -4.1723  -4.1723  -2.0113  -2.0113  -1.9672   2.4730
     3.3099

          k = 0.0000 0.0888 0.0000 (  4033 PWs)   bands (ev):

    -8.6028  -4.2935  -4.2642  -4.0292  -2.8054  -2.0423  -1.0596   2.6984
     3.5601

          k = 0.0000 0.1776 0.0000 (  4003 PWs)   bands (ev):

    -7.8464  -4.5394  -3.9919  -3.6218  -3.5332  -2.1279   0.0469   3.3757
     4.2985

          k = 0.0000 0.2665 0.0000 (  3983 PWs)   bands (ev):

    -6.9063  -4.5738  -4.1622  -3.5825  -3.0173  -2.2472   1.4066   4.5042
     5.5016

          k = 0.0000 0.3553 0.0000 (  3962 PWs)   bands (ev):

    -6.5771  -4.6658  -3.6141  -3.0661  -2.3724  -2.3301   3.0760   6.0794
     7.1524

          k = 0.0000 0.4441 0.0000 (  3942 PWs)   bands (ev):

    -6.7463  -5.0174  -2.8640  -2.4750  -1.7176  -1.5121   5.0692   8.0052
     9.0364

          k = 0.0000 0.5329 0.0000 (  3904 PWs)   bands (ev):

    -6.9027  -5.1980  -2.6323  -2.5324  -1.3513   0.3240   7.2249   7.3173
    10.8116

          k = 0.0769 0.1332 0.0000 (  4007 PWs)   bands (ev):

    -8.0837  -4.4913  -4.0886  -3.7301  -3.3414  -2.1100  -0.2680   3.1501
     4.0546

          k = 0.0769 0.2221 0.0000 (  3994 PWs)   bands (ev):

    -7.1648  -4.7711  -3.9317  -3.7420  -3.1565  -2.2371   0.9028   4.0538
     5.0243

          k = 0.0769 0.3109 0.0000 (  3965 PWs)   bands (ev):

    -6.4105  -4.5531  -4.4439  -3.2964  -2.3917  -2.3545   2.3982   5.4080
     6.4510

          k = 0.0769 0.3997 0.0000 (  3961 PWs)   bands (ev):

    -6.4543  -4.8325  -3.4368  -2.8088  -2.5376  -1.2537   4.2312   7.1971
     8.3168

          k = 0.0769 0.4885 0.0000 (  3933 PWs)   bands (ev):

    -6.6697  -5.0737  -2.7459  -2.6410  -2.2086   0.3369   6.3679   8.3276
     9.7371

          k = 0.0769-0.5774 0.0000 (  3928 PWs)   bands (ev):

    -6.7591  -5.1553  -2.6784  -2.5942  -1.9321   1.4404   6.9864   8.0612
    10.3660

          k = 0.1538 0.2665 0.0000 (  3973 PWs)   bands (ev):

    -6.1729  -5.1234  -4.3320  -3.3643  -2.4407  -2.3042   2.1793   5.1843
     6.2173

          k = 0.1538 0.3553 0.0000 (  3967 PWs)   bands (ev):

    -5.7826  -4.7399  -4.6482  -2.9581  -2.6834  -1.0576   3.8319   6.7672
     7.8636

          k = 0.1538 0.4441 0.0000 (  3940 PWs)   bands (ev):

    -6.0813  -4.8545  -3.7148  -2.8995  -2.6550   0.6289   5.8419   8.7222
     9.7410

          k = 0.1538-0.6218 0.0000 (  3945 PWs)   bands (ev):

    -6.2702  -4.9529  -3.0351  -3.0274  -2.5628   2.4555   7.6945   8.0772
    11.4793

          k = 0.2308 0.3997 0.0000 (  3949 PWs)   bands (ev):

    -5.4571  -4.7283  -4.6073  -3.0501  -2.6889   0.7333   5.6693   8.5735
     9.6851

          k = 0.2308-0.6662 0.0000 (  3960 PWs)   bands (ev):

    -5.5669  -4.7031  -4.0799  -3.3816  -2.5662   2.8823   7.8688   9.4396
    10.9188

          k = 0.2308-0.5774 0.0000 (  3948 PWs)   bands (ev):

    -5.6331  -4.6672  -3.8249  -3.5261  -2.5533   4.4934   7.5189   9.8034
    11.4717

          k = 0.3077-0.6218 0.0000 (  3968 PWs)   bands (ev):

    -5.0662  -4.4467  -4.4038  -3.8705  -2.5461   5.3827   8.2256  10.0297
    10.2151

     the Fermi energy is    -2.5166 ev

!    total energy              =    -161.92819448 Ry
     total all-electron energy =     -2786.771871 Ry
     estimated scf accuracy    <          8.8E-09 Ry
     smearing contrib. (-TS)   =      -0.00903113 Ry
     internal energy E=F+TS    =    -161.91916336 Ry

     The total energy is F=E-TS. E is the sum of the following terms:
     one-electron contribution =    -245.81078909 Ry
     hartree contribution      =     130.68727438 Ry
     xc contribution           =     -32.54277606 Ry
     ewald contribution        =      72.30323837 Ry
     one-center paw contrib.   =     -86.55611096 Ry

     convergence has been achieved in   7 iterations

     negative rho (up, down):  1.634E-04 0.000E+00

     Forces acting on atoms (cartesian axes, Ry/au):

     atom    1 type  1   force =     0.00000000    0.00000000    0.00000000
     The non-local contrib.  to forces
     atom    1 type  1   force =    -0.00000000    0.00000000    0.00000000
     The ionic contribution  to forces
     atom    1 type  1   force =     0.00000000    0.00000000    0.00000000
     The local contribution  to forces
     atom    1 type  1   force =     0.00000000    0.00000000    0.00000000
     The core correction contribution to forces
     atom    1 type  1   force =     0.00000000    0.00000000   -0.00000000
     The Hubbard contrib.    to forces
     atom    1 type  1   force =     0.00000000    0.00000000    0.00000000
     The SCF correction term to forces
     atom    1 type  1   force =     0.00000000   -0.00000000   -0.00000000

     Total force =     0.000000     Total SCF correction =     0.000000


     Computing stress (Cartesian axis) and pressure


     negative rho (up, down):  1.634E-04 0.000E+00
          total   stress  (Ry/bohr**3)                   (kbar)     P=       16.70
   0.00017177   0.00000000   0.00000000           25.27        0.00        0.00
   0.00000000   0.00017177   0.00000000            0.00       25.27        0.00
   0.00000000   0.00000000  -0.00000296            0.00        0.00       -0.44


     Writing all to output data dir ./tmp/scf.save/
 
     init_run     :      0.10s CPU      0.16s WALL (       1 calls)
     electrons    :      0.83s CPU      0.86s WALL (       1 calls)
     forces       :      0.02s CPU      0.02s WALL (       1 calls)
     stress       :      0.07s CPU      0.07s WALL (       1 calls)

     Called by init_run:
     wfcinit      :      0.02s CPU      0.02s WALL (       1 calls)
     potinit      :      0.04s CPU      0.04s WALL (       1 calls)
     hinit0       :      0.03s CPU      0.08s WALL (       1 calls)

     Called by electrons:
     c_bands      :      0.46s CPU      0.48s WALL (       7 calls)
     sum_band     :      0.09s CPU      0.10s WALL (       7 calls)
     v_of_rho     :      0.01s CPU      0.01s WALL (       8 calls)
     newd         :      0.03s CPU      0.04s WALL (       8 calls)
     PAW_pot      :      0.26s CPU      0.27s WALL (       8 calls)
     mix_rho      :      0.00s CPU      0.00s WALL (       7 calls)

     Called by c_bands:
     init_us_2    :      0.01s CPU      0.01s WALL (     357 calls)
     init_us_2:cp :      0.01s CPU      0.01s WALL (     357 calls)
     cegterg      :      0.35s CPU      0.36s WALL (     147 calls)

     Called by *egterg:
     cdiaghg      :      0.05s CPU      0.05s WALL (     703 calls)
     h_psi        :      0.28s CPU      0.29s WALL (     724 calls)
     s_psi        :      0.00s CPU      0.00s WALL (     724 calls)
     g_psi        :      0.00s CPU      0.00s WALL (     556 calls)

     Called by h_psi:
     h_psi:calbec :      0.01s CPU      0.01s WALL (     724 calls)
     vloc_psi     :      0.26s CPU      0.27s WALL (     724 calls)
     add_vuspsi   :      0.00s CPU      0.01s WALL (     724 calls)

     General routines
     calbec       :      0.02s CPU      0.02s WALL (     976 calls)
     fft          :      0.02s CPU      0.06s WALL (     113 calls)
     ffts         :      0.00s CPU      0.00s WALL (       7 calls)
     fftw         :      0.26s CPU      0.28s WALL (    8873 calls)
 
     Parallel routines
 
     PWSCF        :      1.12s CPU      1.24s WALL

 
   This run was terminated on:  14:41:48   5Jun2025            

=------------------------------------------------------------------------------=
   JOB DONE.
=------------------------------------------------------------------------------=
