
     Program PWSCF v.7.2 starts on  5Jun2025 at 14:42:25 

     This program is part of the open-source Quantum ESPRESSO suite
     for quantum simulation of materials; please cite
         "P. Giannozzi et al., J. Phys.:Condens. Matter 21 395502 (2009);
         "P. Giannozzi et al., J. Phys.:Condens. Matter 29 465901 (2017);
         "P. Giannozzi et al., J. Chem. Phys. 152 154105 (2020);
          URL http://www.quantum-espresso.org", 
     in publications or presentations arising from this work. More details at
     http://www.quantum-espresso.org/quote

     Parallel version (MPI), running on    16 processors

     MPI processes distributed on     1 nodes
     38857 MiB available memory on the printing compute node when the environment starts
 
     Waiting for input...
     Reading input from standard input

     Current dimensions of program PWSCF are:
     Max number of different atomic species (ntypx) = 10
     Max number of k-points (npk) =  40000
     Max angular momentum in pseudopotentials (lmaxx) =  4
     file Co.pbe-n-kjpaw_psl.1.0.0.UPF: wavefunction(s)  4S 3D renormalized
     Message from routine setup:
     using ibrav=0 with symmetry is DISCOURAGED, use correct ibrav instead
 
     R & G space division:  proc/nbgrp/npool/nimage =      16
     Subspace diagonalization in iterative solution of the eigenvalue problem:
     a serial algorithm will be used

 
     Parallelization info
     --------------------
     sticks:   dense  smooth     PW     G-vecs:    dense   smooth      PW
     Min          22      22      7                 2174     2174     386
     Max          23      23      9                 2191     2191     393
     Sum         361     361    121                34981    34981    6237
 
     Using Slab Decomposition
 


     bravais-lattice index     =            0
     lattice parameter (alat)  =       4.4787  a.u.
     unit-cell volume          =     492.3968 (a.u.)^3
     number of atoms/cell      =            1
     number of atomic types    =            1
     number of electrons       =         9.00
     number of Kohn-Sham states=            9
     kinetic-energy cutoff     =      65.0000  Ry
     charge density cutoff     =     260.0000  Ry
     scf convergence threshold =      1.0E-06
     mixing beta               =       0.7000
     number of iterations used =            8  plain     mixing
     Exchange-correlation= SLA  PW   PBX  PBC
                           (   1   4   3   4   0   0   0)

     celldm(1)=   4.478651  celldm(2)=   0.000000  celldm(3)=   0.000000
     celldm(4)=   0.000000  celldm(5)=   0.000000  celldm(6)=   0.000000

     crystal axes: (cart. coord. in units of alat)
               a(1) = (   1.000000   0.000000   0.000000 )  
               a(2) = (   0.500000   0.866025   0.000000 )  
               a(3) = (   0.000000   0.000000   6.329114 )  

     reciprocal axes: (cart. coord. in units 2 pi/alat)
               b(1) = (  1.000000 -0.577350  0.000000 )  
               b(2) = (  0.000000  1.154701  0.000000 )  
               b(3) = (  0.000000  0.000000  0.158000 )  


     PseudoPot. # 1 for Co read from file:
     /shared/ESPRESSO/PSLIBRARY/1.0.0/pbe/PSEUDOPOTENTIALS/Co.pbe-n-kjpaw_psl.1.0.0.UPF
     MD5 check sum: 17e7ab8db721b244d1352252ea6cb8e7
     Pseudo is Projector augmented-wave + core cor, Zval =  9.0
     Generated using "atomic" code by A. Dal Corso  (Quantum ESPRESSO distribution)
     Shape of augmentation charge: PSQ
     Using radial grid of 1193 points,  6 beta functions with: 
                l(1) =   0
                l(2) =   0
                l(3) =   1
                l(4) =   1
                l(5) =   2
                l(6) =   2
     Q(r) pseudized with 0 coefficients 


     atomic species   valence    mass     pseudopotential
        Co             9.00    58.93320     Co( 1.00)

     24 Sym. Ops., with inversion, found



   Cartesian axes

     site n.     atom                  positions (alat units)
         1           Co  tau(   1) = (   0.0000000   0.0000000   3.1645570  )

     number of k points=    21  Fermi-Dirac smearing, width (Ry)=  0.0070
                       cart. coord. in units 2pi/alat
        k(    1) = (   0.0000000   0.0000000   0.0000000), wk =   0.0118343
        k(    2) = (   0.0000000   0.0888231   0.0000000), wk =   0.0710059
        k(    3) = (   0.0000000   0.1776462   0.0000000), wk =   0.0710059
        k(    4) = (   0.0000000   0.2664694   0.0000000), wk =   0.0710059
        k(    5) = (   0.0000000   0.3552925   0.0000000), wk =   0.0710059
        k(    6) = (   0.0000000   0.4441156   0.0000000), wk =   0.0710059
        k(    7) = (   0.0000000   0.5329387   0.0000000), wk =   0.0710059
        k(    8) = (   0.0769231   0.1332347   0.0000000), wk =   0.0710059
        k(    9) = (   0.0769231   0.2220578   0.0000000), wk =   0.1420118
        k(   10) = (   0.0769231   0.3108809   0.0000000), wk =   0.1420118
        k(   11) = (   0.0769231   0.3997040   0.0000000), wk =   0.1420118
        k(   12) = (   0.0769231   0.4885272   0.0000000), wk =   0.1420118
        k(   13) = (   0.0769231  -0.5773503   0.0000000), wk =   0.0710059
        k(   14) = (   0.1538462   0.2664694   0.0000000), wk =   0.0710059
        k(   15) = (   0.1538462   0.3552925   0.0000000), wk =   0.1420118
        k(   16) = (   0.1538462   0.4441156   0.0000000), wk =   0.1420118
        k(   17) = (   0.1538462  -0.6217618   0.0000000), wk =   0.1420118
        k(   18) = (   0.2307692   0.3997040   0.0000000), wk =   0.0710059
        k(   19) = (   0.2307692  -0.6661734   0.0000000), wk =   0.1420118
        k(   20) = (   0.2307692  -0.5773503   0.0000000), wk =   0.0710059
        k(   21) = (   0.3076923  -0.6217618   0.0000000), wk =   0.0710059

     Dense  grid:    34981 G-vectors     FFT dimensions: (  24,  24, 150)

     Estimated max dynamical RAM per process >      10.19 MB

     Estimated total dynamical RAM >     163.09 MB

     Check: negative core charge=   -0.000002

     Initial potential from superposition of free atoms

     starting charge       8.9997, renormalised to       9.0000

     negative rho (up, down):  1.215E-04 0.000E+00
     Starting wfcs are    9 randomized atomic wfcs
     Checking if some PAW data can be deallocated... 

     total cpu time spent up to now is        0.3 secs

     Self-consistent Calculation

     iteration #  1     ecut=    65.00 Ry     beta= 0.70
     Davidson diagonalization with overlap
     ethr =  1.00E-02,  avg # of iterations =  5.7

     negative rho (up, down):  1.536E-04 0.000E+00

     total cpu time spent up to now is        0.4 secs

     total energy              =    -161.85558437 Ry
     estimated scf accuracy    <       0.12716283 Ry

     iteration #  2     ecut=    65.00 Ry     beta= 0.70
     Davidson diagonalization with overlap
     ethr =  1.41E-03,  avg # of iterations =  4.1

     negative rho (up, down):  1.154E-04 0.000E+00

     total cpu time spent up to now is        0.6 secs

     total energy              =    -161.78052227 Ry
     estimated scf accuracy    <       1.08927921 Ry

     iteration #  3     ecut=    65.00 Ry     beta= 0.70
     Davidson diagonalization with overlap
     ethr =  1.41E-03,  avg # of iterations =  2.0

     negative rho (up, down):  1.383E-04 0.000E+00

     total cpu time spent up to now is        0.7 secs

     total energy              =    -161.92648241 Ry
     estimated scf accuracy    <       0.00297881 Ry

     iteration #  4     ecut=    65.00 Ry     beta= 0.70
     Davidson diagonalization with overlap
     ethr =  3.31E-05,  avg # of iterations =  6.0

     negative rho (up, down):  1.554E-04 0.000E+00

     total cpu time spent up to now is        0.8 secs

     total energy              =    -161.92709361 Ry
     estimated scf accuracy    <       0.00023652 Ry

     iteration #  5     ecut=    65.00 Ry     beta= 0.70
     Davidson diagonalization with overlap
     ethr =  2.63E-06,  avg # of iterations =  5.6

     negative rho (up, down):  1.672E-04 0.000E+00

     total cpu time spent up to now is        1.0 secs

     total energy              =    -161.92714010 Ry
     estimated scf accuracy    <       0.00002969 Ry

     iteration #  6     ecut=    65.00 Ry     beta= 0.70
     Davidson diagonalization with overlap
     ethr =  3.30E-07,  avg # of iterations =  1.7

     negative rho (up, down):  1.686E-04 0.000E+00

     total cpu time spent up to now is        1.1 secs

     total energy              =    -161.92714535 Ry
     estimated scf accuracy    <       0.00000250 Ry

     iteration #  7     ecut=    65.00 Ry     beta= 0.70
     Davidson diagonalization with overlap
     ethr =  2.78E-08,  avg # of iterations =  2.2

     negative rho (up, down):  1.683E-04 0.000E+00

     total cpu time spent up to now is        1.2 secs

     End of self-consistent calculation

          k = 0.0000 0.0000 0.0000 (  4357 PWs)   bands (ev):

    -8.5018  -4.1694  -4.0484  -4.0484  -2.2825  -2.2825  -1.8823   2.2064
     3.0689

          k = 0.0000 0.0888 0.0000 (  4356 PWs)   bands (ev):

    -8.2608  -4.1411  -4.0871  -3.9311  -2.8434  -2.3075  -1.1989   2.4116
     3.2947

          k = 0.0000 0.1776 0.0000 (  4370 PWs)   bands (ev):

    -7.5770  -4.3506  -3.8631  -3.5972  -3.4685  -2.3764  -0.1792   3.0274
     3.9632

          k = 0.0000 0.2665 0.0000 (  4352 PWs)   bands (ev):

    -6.6603  -4.4222  -4.0015  -3.5372  -3.1026  -2.4727   1.0815   4.0536
     5.0561

          k = 0.0000 0.3553 0.0000 (  4370 PWs)   bands (ev):

    -6.1760  -4.4218  -3.6875  -3.1448  -2.5738  -2.5418   2.6235   5.4870
     6.5598

          k = 0.0000 0.4441 0.0000 (  4354 PWs)   bands (ev):

    -6.2359  -4.7122  -2.9721  -2.6568  -2.0434  -1.8750   4.4563   7.2014
     8.1233

          k = 0.0000 0.5329 0.0000 (  4374 PWs)   bands (ev):

    -6.3455  -4.8605  -2.7879  -2.7034  -1.7463  -0.1867   5.9794   6.4257
     9.7747

          k = 0.0769 0.1332 0.0000 (  4353 PWs)   bands (ev):

    -7.7948  -4.3067  -3.9413  -3.6867  -3.3043  -2.3618  -0.4719   2.8218
     3.7418

          k = 0.0769 0.2221 0.0000 (  4356 PWs)   bands (ev):

    -6.9497  -4.5424  -3.8074  -3.6645  -3.2207  -2.4639   0.6126   3.6434
     4.6221

          k = 0.0769 0.3109 0.0000 (  4353 PWs)   bands (ev):

    -6.1293  -4.4355  -4.2375  -3.3126  -2.5882  -2.5696   1.9954   4.8762
     5.9202

          k = 0.0769 0.3997 0.0000 (  4371 PWs)   bands (ev):

    -6.0140  -4.5599  -3.5047  -2.9373  -2.7057  -1.6583   3.6833   6.5032
     7.6221

          k = 0.0769 0.4885 0.0000 (  4367 PWs)   bands (ev):

    -6.1570  -4.7583  -2.8801  -2.7891  -2.4564  -0.2415   5.6419   7.0276
     8.7474

          k = 0.0769-0.5774 0.0000 (  4372 PWs)   bands (ev):

    -6.2241  -4.8252  -2.8192  -2.7577  -2.2222   0.7957   5.6460   7.1744
     9.3675

          k = 0.1538 0.2665 0.0000 (  4340 PWs)   bands (ev):

    -6.0278  -4.8277  -4.1444  -3.3655  -2.6268  -2.5309   1.7904   4.6722
     5.7077

          k = 0.1538 0.3553 0.0000 (  4369 PWs)   bands (ev):

    -5.4756  -4.6148  -4.4079  -3.0454  -2.8211  -1.4935   3.3107   6.1121
     7.2047

          k = 0.1538 0.4441 0.0000 (  4351 PWs)   bands (ev):

    -5.6689  -4.5781  -3.7296  -2.9945  -2.8072  -0.0173   5.1541   7.8526
     8.7328

          k = 0.1538-0.6218 0.0000 (  4358 PWs)   bands (ev):

    -5.8184  -4.6587  -3.1435  -3.0972  -2.7332   1.6603   6.3267   7.1890
    10.3674

          k = 0.2308 0.3997 0.0000 (  4350 PWs)   bands (ev):

    -5.1193  -4.5160  -4.4744  -3.1149  -2.8325   0.0658   4.9929   7.7528
     8.8675

          k = 0.2308-0.6662 0.0000 (  4346 PWs)   bands (ev):

    -5.2291  -4.4538  -4.0261  -3.3812  -2.7347   2.0061   7.0000   8.0040
     9.8216

          k = 0.2308-0.5774 0.0000 (  4360 PWs)   bands (ev):

    -5.2896  -4.4243  -3.8019  -3.4976  -2.7236   3.5107   6.1575   8.7264
    10.3727

          k = 0.3077-0.6218 0.0000 (  4332 PWs)   bands (ev):

    -4.8191  -4.3189  -4.2091  -3.7758  -2.7175   4.2945   6.9120   8.4000
     9.1131

     the Fermi energy is    -2.6867 ev

!    total energy              =    -161.92714586 Ry
     total all-electron energy =     -2786.770822 Ry
     estimated scf accuracy    <       0.00000007 Ry
     smearing contrib. (-TS)   =      -0.01057618 Ry
     internal energy E=F+TS    =    -161.91656968 Ry

     The total energy is F=E-TS. E is the sum of the following terms:
     one-electron contribution =    -225.75002068 Ry
     hartree contribution      =     120.64280581 Ry
     xc contribution           =     -32.47378628 Ry
     ewald contribution        =      62.21044765 Ry
     one-center paw contrib.   =     -86.54601618 Ry

     convergence has been achieved in   7 iterations

     negative rho (up, down):  1.683E-04 0.000E+00

     Forces acting on atoms (cartesian axes, Ry/au):

     atom    1 type  1   force =     0.00000000    0.00000000    0.00000000
     The non-local contrib.  to forces
     atom    1 type  1   force =    -0.00000000    0.00000000    0.00000000
     The ionic contribution  to forces
     atom    1 type  1   force =    -0.00000000    0.00000000    0.00000000
     The local contribution  to forces
     atom    1 type  1   force =     0.00000000    0.00000000    0.00000000
     The core correction contribution to forces
     atom    1 type  1   force =     0.00000000    0.00000000   -0.00000000
     The Hubbard contrib.    to forces
     atom    1 type  1   force =     0.00000000    0.00000000    0.00000000
     The SCF correction term to forces
     atom    1 type  1   force =    -0.00000000    0.00000000   -0.00000000

     Total force =     0.000000     Total SCF correction =     0.000000


     Computing stress (Cartesian axis) and pressure


     negative rho (up, down):  1.683E-04 0.000E+00
          total   stress  (Ry/bohr**3)                   (kbar)     P=      -18.34
  -0.00018502  -0.00000000   0.00000000          -27.22       -0.00        0.00
  -0.00000000  -0.00018502  -0.00000000           -0.00      -27.22       -0.00
   0.00000000   0.00000000  -0.00000403            0.00        0.00       -0.59


     Writing all to output data dir ./tmp/scf.save/
 
     init_run     :      0.11s CPU      0.19s WALL (       1 calls)
     electrons    :      0.84s CPU      0.93s WALL (       1 calls)
     forces       :      0.03s CPU      0.03s WALL (       1 calls)
     stress       :      0.08s CPU      0.08s WALL (       1 calls)

     Called by init_run:
     wfcinit      :      0.01s CPU      0.02s WALL (       1 calls)
     potinit      :      0.06s CPU      0.08s WALL (       1 calls)
     hinit0       :      0.03s CPU      0.07s WALL (       1 calls)

     Called by electrons:
     c_bands      :      0.45s CPU      0.53s WALL (       7 calls)
     sum_band     :      0.09s CPU      0.11s WALL (       7 calls)
     v_of_rho     :      0.01s CPU      0.01s WALL (       8 calls)
     newd         :      0.04s CPU      0.05s WALL (       8 calls)
     PAW_pot      :      0.28s CPU      0.30s WALL (       8 calls)
     mix_rho      :      0.00s CPU      0.00s WALL (       7 calls)

     Called by c_bands:
     init_us_2    :      0.01s CPU      0.01s WALL (     357 calls)
     init_us_2:cp :      0.01s CPU      0.01s WALL (     357 calls)
     cegterg      :      0.41s CPU      0.48s WALL (     147 calls)

     Called by *egterg:
     cdiaghg      :      0.04s CPU      0.05s WALL (     720 calls)
     h_psi        :      0.33s CPU      0.40s WALL (     741 calls)
     s_psi        :      0.00s CPU      0.01s WALL (     741 calls)
     g_psi        :      0.00s CPU      0.00s WALL (     573 calls)

     Called by h_psi:
     h_psi:calbec :      0.01s CPU      0.01s WALL (     741 calls)
     vloc_psi     :      0.31s CPU      0.38s WALL (     741 calls)
     add_vuspsi   :      0.00s CPU      0.01s WALL (     741 calls)

     General routines
     calbec       :      0.02s CPU      0.02s WALL (     993 calls)
     fft          :      0.01s CPU      0.05s WALL (     113 calls)
     ffts         :      0.00s CPU      0.00s WALL (       7 calls)
     fftw         :      0.32s CPU      0.39s WALL (    8905 calls)
 
     Parallel routines
 
     PWSCF        :      1.15s CPU      1.36s WALL

 
   This run was terminated on:  14:42:26   5Jun2025            

=------------------------------------------------------------------------------=
   JOB DONE.
=------------------------------------------------------------------------------=
