
     Program PWSCF v.7.2 starts on  5Jun2025 at 14:42:22 

     This program is part of the open-source Quantum ESPRESSO suite
     for quantum simulation of materials; please cite
         "P. Giannozzi et al., J. Phys.:Condens. Matter 21 395502 (2009);
         "P. Giannozzi et al., J. Phys.:Condens. Matter 29 465901 (2017);
         "P. Giannozzi et al., J. Chem. Phys. 152 154105 (2020);
          URL http://www.quantum-espresso.org", 
     in publications or presentations arising from this work. More details at
     http://www.quantum-espresso.org/quote

     Parallel version (MPI), running on    16 processors

     MPI processes distributed on     1 nodes
     38863 MiB available memory on the printing compute node when the environment starts
 
     Waiting for input...
     Reading input from standard input

     Current dimensions of program PWSCF are:
     Max number of different atomic species (ntypx) = 10
     Max number of k-points (npk) =  40000
     Max angular momentum in pseudopotentials (lmaxx) =  4
     file Co.pbe-n-kjpaw_psl.1.0.0.UPF: wavefunction(s)  4S 3D renormalized
     Message from routine setup:
     using ibrav=0 with symmetry is DISCOURAGED, use correct ibrav instead
 
     R & G space division:  proc/nbgrp/npool/nimage =      16
     Subspace diagonalization in iterative solution of the eigenvalue problem:
     a serial algorithm will be used

 
     Parallelization info
     --------------------
     sticks:   dense  smooth     PW     G-vecs:    dense   smooth      PW
     Min          22      22      6                 2158     2158     366
     Max          23      23      7                 2171     2171     391
     Sum         361     361    109                34669    34669    6093
 
     Using Slab Decomposition
 


     bravais-lattice index     =            0
     lattice parameter (alat)  =       4.4598  a.u.
     unit-cell volume          =     488.2503 (a.u.)^3
     number of atoms/cell      =            1
     number of atomic types    =            1
     number of electrons       =         9.00
     number of Kohn-Sham states=            9
     kinetic-energy cutoff     =      65.0000  Ry
     charge density cutoff     =     260.0000  Ry
     scf convergence threshold =      1.0E-06
     mixing beta               =       0.7000
     number of iterations used =            8  plain     mixing
     Exchange-correlation= SLA  PW   PBX  PBC
                           (   1   4   3   4   0   0   0)

     celldm(1)=   4.459754  celldm(2)=   0.000000  celldm(3)=   0.000000
     celldm(4)=   0.000000  celldm(5)=   0.000000  celldm(6)=   0.000000

     crystal axes: (cart. coord. in units of alat)
               a(1) = (   1.000000   0.000000   0.000000 )  
               a(2) = (   0.500000   0.866025   0.000000 )  
               a(3) = (   0.000000   0.000000   6.355932 )  

     reciprocal axes: (cart. coord. in units 2 pi/alat)
               b(1) = (  1.000000 -0.577350  0.000000 )  
               b(2) = (  0.000000  1.154701  0.000000 )  
               b(3) = (  0.000000  0.000000  0.157333 )  


     PseudoPot. # 1 for Co read from file:
     /shared/ESPRESSO/PSLIBRARY/1.0.0/pbe/PSEUDOPOTENTIALS/Co.pbe-n-kjpaw_psl.1.0.0.UPF
     MD5 check sum: 17e7ab8db721b244d1352252ea6cb8e7
     Pseudo is Projector augmented-wave + core cor, Zval =  9.0
     Generated using "atomic" code by A. Dal Corso  (Quantum ESPRESSO distribution)
     Shape of augmentation charge: PSQ
     Using radial grid of 1193 points,  6 beta functions with: 
                l(1) =   0
                l(2) =   0
                l(3) =   1
                l(4) =   1
                l(5) =   2
                l(6) =   2
     Q(r) pseudized with 0 coefficients 


     atomic species   valence    mass     pseudopotential
        Co             9.00    58.93320     Co( 1.00)

     24 Sym. Ops., with inversion, found



   Cartesian axes

     site n.     atom                  positions (alat units)
         1           Co  tau(   1) = (   0.0000000   0.0000000   3.1779661  )

     number of k points=    21  Fermi-Dirac smearing, width (Ry)=  0.0070
                       cart. coord. in units 2pi/alat
        k(    1) = (   0.0000000   0.0000000   0.0000000), wk =   0.0118343
        k(    2) = (   0.0000000   0.0888231   0.0000000), wk =   0.0710059
        k(    3) = (   0.0000000   0.1776462   0.0000000), wk =   0.0710059
        k(    4) = (   0.0000000   0.2664694   0.0000000), wk =   0.0710059
        k(    5) = (   0.0000000   0.3552925   0.0000000), wk =   0.0710059
        k(    6) = (   0.0000000   0.4441156   0.0000000), wk =   0.0710059
        k(    7) = (   0.0000000   0.5329387   0.0000000), wk =   0.0710059
        k(    8) = (   0.0769231   0.1332347   0.0000000), wk =   0.0710059
        k(    9) = (   0.0769231   0.2220578   0.0000000), wk =   0.1420118
        k(   10) = (   0.0769231   0.3108809   0.0000000), wk =   0.1420118
        k(   11) = (   0.0769231   0.3997040   0.0000000), wk =   0.1420118
        k(   12) = (   0.0769231   0.4885272   0.0000000), wk =   0.1420118
        k(   13) = (   0.0769231  -0.5773503   0.0000000), wk =   0.0710059
        k(   14) = (   0.1538462   0.2664694   0.0000000), wk =   0.0710059
        k(   15) = (   0.1538462   0.3552925   0.0000000), wk =   0.1420118
        k(   16) = (   0.1538462   0.4441156   0.0000000), wk =   0.1420118
        k(   17) = (   0.1538462  -0.6217618   0.0000000), wk =   0.1420118
        k(   18) = (   0.2307692   0.3997040   0.0000000), wk =   0.0710059
        k(   19) = (   0.2307692  -0.6661734   0.0000000), wk =   0.1420118
        k(   20) = (   0.2307692  -0.5773503   0.0000000), wk =   0.0710059
        k(   21) = (   0.3076923  -0.6217618   0.0000000), wk =   0.0710059

     Dense  grid:    34669 G-vectors     FFT dimensions: (  24,  24, 150)

     Estimated max dynamical RAM per process >      10.14 MB

     Estimated total dynamical RAM >     162.26 MB

     Check: negative core charge=   -0.000002

     Initial potential from superposition of free atoms

     starting charge       8.9997, renormalised to       9.0000

     negative rho (up, down):  1.230E-04 0.000E+00
     Starting wfcs are    9 randomized atomic wfcs
     Checking if some PAW data can be deallocated... 

     total cpu time spent up to now is        0.2 secs

     Self-consistent Calculation

     iteration #  1     ecut=    65.00 Ry     beta= 0.70
     Davidson diagonalization with overlap
     ethr =  1.00E-02,  avg # of iterations =  6.0

     negative rho (up, down):  1.545E-04 0.000E+00

     total cpu time spent up to now is        0.4 secs

     total energy              =    -161.85760872 Ry
     estimated scf accuracy    <       0.12571694 Ry

     iteration #  2     ecut=    65.00 Ry     beta= 0.70
     Davidson diagonalization with overlap
     ethr =  1.40E-03,  avg # of iterations =  4.2

     negative rho (up, down):  1.193E-04 0.000E+00

     total cpu time spent up to now is        0.5 secs

     total energy              =    -161.78537452 Ry
     estimated scf accuracy    <       1.05095977 Ry

     iteration #  3     ecut=    65.00 Ry     beta= 0.70
     Davidson diagonalization with overlap
     ethr =  1.40E-03,  avg # of iterations =  2.0

     negative rho (up, down):  1.443E-04 0.000E+00

     total cpu time spent up to now is        0.6 secs

     total energy              =    -161.92724610 Ry
     estimated scf accuracy    <       0.00306501 Ry

     iteration #  4     ecut=    65.00 Ry     beta= 0.70
     Davidson diagonalization with overlap
     ethr =  3.41E-05,  avg # of iterations =  5.3

     negative rho (up, down):  1.586E-04 0.000E+00

     total cpu time spent up to now is        0.8 secs

     total energy              =    -161.92779786 Ry
     estimated scf accuracy    <       0.00021325 Ry

     iteration #  5     ecut=    65.00 Ry     beta= 0.70
     Davidson diagonalization with overlap
     ethr =  2.37E-06,  avg # of iterations =  5.0

     negative rho (up, down):  1.681E-04 0.000E+00

     total cpu time spent up to now is        0.9 secs

     total energy              =    -161.92784743 Ry
     estimated scf accuracy    <       0.00002673 Ry

     iteration #  6     ecut=    65.00 Ry     beta= 0.70
     Davidson diagonalization with overlap
     ethr =  2.97E-07,  avg # of iterations =  1.3

     negative rho (up, down):  1.697E-04 0.000E+00

     total cpu time spent up to now is        1.0 secs

     total energy              =    -161.92785198 Ry
     estimated scf accuracy    <       0.00000229 Ry

     iteration #  7     ecut=    65.00 Ry     beta= 0.70
     Davidson diagonalization with overlap
     ethr =  2.55E-08,  avg # of iterations =  2.0

     negative rho (up, down):  1.692E-04 0.000E+00

     total cpu time spent up to now is        1.1 secs

     End of self-consistent calculation

          k = 0.0000 0.0000 0.0000 (  4297 PWs)   bands (ev):

    -8.5348  -4.1855  -4.0585  -4.0585  -2.2604  -2.2604  -1.8896   2.2282
     3.0908

          k = 0.0000 0.0888 0.0000 (  4332 PWs)   bands (ev):

    -8.2914  -4.1531  -4.1014  -3.9390  -2.8391  -2.2859  -1.1889   2.4352
     3.3187

          k = 0.0000 0.1776 0.0000 (  4336 PWs)   bands (ev):

    -7.6014  -4.3660  -3.8731  -3.5992  -3.4734  -2.3561  -0.1609   3.0562
     3.9932

          k = 0.0000 0.2665 0.0000 (  4324 PWs)   bands (ev):

    -6.6816  -4.4356  -4.0144  -3.5405  -3.0957  -2.4543   1.1087   4.0912
     5.0955

          k = 0.0000 0.3553 0.0000 (  4326 PWs)   bands (ev):

    -6.2088  -4.4414  -3.6827  -3.1386  -2.5573  -2.5246   2.6619   5.5368
     6.6863

          k = 0.0000 0.4441 0.0000 (  4314 PWs)   bands (ev):

    -6.2777  -4.7368  -2.9632  -2.6419  -2.0171  -1.8465   4.5085   7.2706
     8.2049

          k = 0.0000 0.5329 0.0000 (  4336 PWs)   bands (ev):

    -6.3913  -4.8876  -2.7751  -2.6894  -1.7144  -0.1461   6.0935   6.4940
     9.8637

          k = 0.0769 0.1332 0.0000 (  4323 PWs)   bands (ev):

    -7.8210  -4.3217  -3.9528  -3.6902  -3.3068  -2.3413  -0.4557   2.8489
     3.7697

          k = 0.0769 0.2221 0.0000 (  4315 PWs)   bands (ev):

    -6.9694  -4.5611  -3.8172  -3.6704  -3.2156  -2.4454   0.6367   3.6775
     4.6578

          k = 0.0769 0.3109 0.0000 (  4313 PWs)   bands (ev):

    -6.1525  -4.4466  -4.2541  -3.3109  -2.5721  -2.5523   2.0294   4.9204
     5.9663

          k = 0.0769 0.3997 0.0000 (  4329 PWs)   bands (ev):

    -6.0501  -4.5818  -3.5000  -2.9269  -2.6919  -1.6256   3.7299   6.5612
     7.6777

          k = 0.0769 0.4885 0.0000 (  4335 PWs)   bands (ev):

    -6.1991  -4.7837  -2.8692  -2.7769  -2.4367  -0.1947   5.7039   7.1406
     8.8298

          k = 0.0769-0.5774 0.0000 (  4344 PWs)   bands (ev):

    -6.2680  -4.8517  -2.8076  -2.7443  -2.1991   0.8476   5.7602   7.2503
     9.4524

          k = 0.1538 0.2665 0.0000 (  4308 PWs)   bands (ev):

    -6.0414  -4.8518  -4.1595  -3.3650  -2.6115  -2.5128   1.8231   4.7153
     5.7534

          k = 0.1538 0.3553 0.0000 (  4320 PWs)   bands (ev):

    -5.5003  -4.6268  -4.4272  -3.0381  -2.8097  -1.4582   3.3549   6.1675
     7.2936

          k = 0.1538 0.4441 0.0000 (  4309 PWs)   bands (ev):

    -5.7029  -4.6003  -3.7293  -2.9866  -2.7947   0.0355   5.2126   7.9275
     8.8241

          k = 0.1538-0.6218 0.0000 (  4322 PWs)   bands (ev):

    -5.8556  -4.6823  -3.1354  -3.0913  -2.7193   1.7254   6.4430   7.2649
    10.4634

          k = 0.2308 0.3997 0.0000 (  4312 PWs)   bands (ev):

    -5.1471  -4.5246  -4.4948  -3.1093  -2.8207   0.1206   5.0505   7.8217
     8.9304

          k = 0.2308-0.6662 0.0000 (  4302 PWs)   bands (ev):

    -5.2571  -4.4737  -4.0315  -3.3809  -2.7209   2.0785   7.0742   8.1264
     9.9154

          k = 0.2308-0.5774 0.0000 (  4314 PWs)   bands (ev):

    -5.3182  -4.4437  -3.8047  -3.4996  -2.7096   3.5918   6.2730   8.8185
    10.5161

          k = 0.3077-0.6218 0.0000 (  4290 PWs)   bands (ev):

    -4.8400  -4.3303  -4.2246  -3.7831  -2.7034   4.3851   7.0220   8.5395
     9.2074

     the Fermi energy is    -2.6728 ev

!    total energy              =    -161.92785246 Ry
     total all-electron energy =     -2786.771529 Ry
     estimated scf accuracy    <       0.00000010 Ry
     smearing contrib. (-TS)   =      -0.01043674 Ry
     internal energy E=F+TS    =    -161.91741572 Ry

     The total energy is F=E-TS. E is the sum of the following terms:
     one-electron contribution =    -227.44734648 Ry
     hartree contribution      =     121.49318610 Ry
     xc contribution           =     -32.47943336 Ry
     ewald contribution        =      63.06303462 Ry
     one-center paw contrib.   =     -86.54685661 Ry

     convergence has been achieved in   7 iterations

     negative rho (up, down):  1.692E-04 0.000E+00

     Forces acting on atoms (cartesian axes, Ry/au):

     atom    1 type  1   force =     0.00000000    0.00000000    0.00000000
     The non-local contrib.  to forces
     atom    1 type  1   force =     0.00000000    0.00000000    0.00000000
     The ionic contribution  to forces
     atom    1 type  1   force =     0.00000000    0.00000000    0.00000000
     The local contribution  to forces
     atom    1 type  1   force =    -0.00000000    0.00000000    0.00000000
     The core correction contribution to forces
     atom    1 type  1   force =     0.00000000    0.00000000   -0.00000000
     The Hubbard contrib.    to forces
     atom    1 type  1   force =     0.00000000    0.00000000    0.00000000
     The SCF correction term to forces
     atom    1 type  1   force =    -0.00000000   -0.00000000    0.00000000

     Total force =     0.000000     Total SCF correction =     0.000000


     Computing stress (Cartesian axis) and pressure


     negative rho (up, down):  1.692E-04 0.000E+00
          total   stress  (Ry/bohr**3)                   (kbar)     P=      -15.50
  -0.00015764  -0.00000000   0.00000000          -23.19       -0.00        0.00
  -0.00000000  -0.00015764  -0.00000000           -0.00      -23.19       -0.00
   0.00000000   0.00000000  -0.00000081            0.00        0.00       -0.12


     Writing all to output data dir ./tmp/scf.save/
 
     init_run     :      0.10s CPU      0.15s WALL (       1 calls)
     electrons    :      0.87s CPU      0.91s WALL (       1 calls)
     forces       :      0.02s CPU      0.02s WALL (       1 calls)
     stress       :      0.08s CPU      0.08s WALL (       1 calls)

     Called by init_run:
     wfcinit      :      0.02s CPU      0.02s WALL (       1 calls)
     potinit      :      0.04s CPU      0.04s WALL (       1 calls)
     hinit0       :      0.03s CPU      0.07s WALL (       1 calls)

     Called by electrons:
     c_bands      :      0.49s CPU      0.51s WALL (       7 calls)
     sum_band     :      0.10s CPU      0.11s WALL (       7 calls)
     v_of_rho     :      0.01s CPU      0.01s WALL (       8 calls)
     newd         :      0.04s CPU      0.05s WALL (       8 calls)
     PAW_pot      :      0.27s CPU      0.27s WALL (       8 calls)
     mix_rho      :      0.00s CPU      0.00s WALL (       7 calls)

     Called by c_bands:
     init_us_2    :      0.01s CPU      0.01s WALL (     357 calls)
     init_us_2:cp :      0.01s CPU      0.01s WALL (     357 calls)
     cegterg      :      0.36s CPU      0.38s WALL (     147 calls)

     Called by *egterg:
     cdiaghg      :      0.05s CPU      0.05s WALL (     689 calls)
     h_psi        :      0.28s CPU      0.30s WALL (     710 calls)
     s_psi        :      0.00s CPU      0.01s WALL (     710 calls)
     g_psi        :      0.00s CPU      0.00s WALL (     542 calls)

     Called by h_psi:
     h_psi:calbec :      0.01s CPU      0.01s WALL (     710 calls)
     vloc_psi     :      0.26s CPU      0.28s WALL (     710 calls)
     add_vuspsi   :      0.01s CPU      0.01s WALL (     710 calls)

     General routines
     calbec       :      0.02s CPU      0.02s WALL (     962 calls)
     fft          :      0.01s CPU      0.05s WALL (     113 calls)
     ffts         :      0.00s CPU      0.00s WALL (       7 calls)
     fftw         :      0.27s CPU      0.28s WALL (    8873 calls)
 
     Parallel routines
 
     PWSCF        :      1.18s CPU      1.29s WALL

 
   This run was terminated on:  14:42:23   5Jun2025            

=------------------------------------------------------------------------------=
   JOB DONE.
=------------------------------------------------------------------------------=
