
     Program PWSCF v.7.2 starts on  5Jun2025 at 14:42: 0 

     This program is part of the open-source Quantum ESPRESSO suite
     for quantum simulation of materials; please cite
         "P. Giannozzi et al., J. Phys.:Condens. Matter 21 395502 (2009);
         "P. Giannozzi et al., J. Phys.:Condens. Matter 29 465901 (2017);
         "P. Giannozzi et al., J. Chem. Phys. 152 154105 (2020);
          URL http://www.quantum-espresso.org", 
     in publications or presentations arising from this work. More details at
     http://www.quantum-espresso.org/quote

     Parallel version (MPI), running on    16 processors

     MPI processes distributed on     1 nodes
     38877 MiB available memory on the printing compute node when the environment starts
 
     Waiting for input...
     Reading input from standard input

     Current dimensions of program PWSCF are:
     Max number of different atomic species (ntypx) = 10
     Max number of k-points (npk) =  40000
     Max angular momentum in pseudopotentials (lmaxx) =  4
     file Co.pbe-n-kjpaw_psl.1.0.0.UPF: wavefunction(s)  4S 3D renormalized
     Message from routine setup:
     using ibrav=0 with symmetry is DISCOURAGED, use correct ibrav instead
 
     R & G space division:  proc/nbgrp/npool/nimage =      16
     Subspace diagonalization in iterative solution of the eigenvalue problem:
     a serial algorithm will be used

 
     Parallelization info
     --------------------
     sticks:   dense  smooth     PW     G-vecs:    dense   smooth      PW
     Min          21      21      6                 2049     2049     360
     Max          23      23      7                 2056     2056     379
     Sum         349     349    109                32845    32845    5901
 
     Using Slab Decomposition
 


     bravais-lattice index     =            0
     lattice parameter (alat)  =       4.3464  a.u.
     unit-cell volume          =     463.7396 (a.u.)^3
     number of atoms/cell      =            1
     number of atomic types    =            1
     number of electrons       =         9.00
     number of Kohn-Sham states=            9
     kinetic-energy cutoff     =      65.0000  Ry
     charge density cutoff     =     260.0000  Ry
     scf convergence threshold =      1.0E-06
     mixing beta               =       0.7000
     number of iterations used =            8  plain     mixing
     Exchange-correlation= SLA  PW   PBX  PBC
                           (   1   4   3   4   0   0   0)

     celldm(1)=   4.346370  celldm(2)=   0.000000  celldm(3)=   0.000000
     celldm(4)=   0.000000  celldm(5)=   0.000000  celldm(6)=   0.000000

     crystal axes: (cart. coord. in units of alat)
               a(1) = (   1.000000   0.000000   0.000000 )  
               a(2) = (   0.500000   0.866025   0.000000 )  
               a(3) = (   0.000000   0.000000   6.521739 )  

     reciprocal axes: (cart. coord. in units 2 pi/alat)
               b(1) = (  1.000000 -0.577350  0.000000 )  
               b(2) = (  0.000000  1.154701  0.000000 )  
               b(3) = (  0.000000  0.000000  0.153333 )  


     PseudoPot. # 1 for Co read from file:
     /shared/ESPRESSO/PSLIBRARY/1.0.0/pbe/PSEUDOPOTENTIALS/Co.pbe-n-kjpaw_psl.1.0.0.UPF
     MD5 check sum: 17e7ab8db721b244d1352252ea6cb8e7
     Pseudo is Projector augmented-wave + core cor, Zval =  9.0
     Generated using "atomic" code by A. Dal Corso  (Quantum ESPRESSO distribution)
     Shape of augmentation charge: PSQ
     Using radial grid of 1193 points,  6 beta functions with: 
                l(1) =   0
                l(2) =   0
                l(3) =   1
                l(4) =   1
                l(5) =   2
                l(6) =   2
     Q(r) pseudized with 0 coefficients 


     atomic species   valence    mass     pseudopotential
        Co             9.00    58.93320     Co( 1.00)

     24 Sym. Ops., with inversion, found



   Cartesian axes

     site n.     atom                  positions (alat units)
         1           Co  tau(   1) = (   0.0000000   0.0000000   3.2608696  )

     number of k points=    21  Fermi-Dirac smearing, width (Ry)=  0.0070
                       cart. coord. in units 2pi/alat
        k(    1) = (   0.0000000   0.0000000   0.0000000), wk =   0.0118343
        k(    2) = (   0.0000000   0.0888231   0.0000000), wk =   0.0710059
        k(    3) = (   0.0000000   0.1776462   0.0000000), wk =   0.0710059
        k(    4) = (   0.0000000   0.2664694   0.0000000), wk =   0.0710059
        k(    5) = (   0.0000000   0.3552925   0.0000000), wk =   0.0710059
        k(    6) = (   0.0000000   0.4441156   0.0000000), wk =   0.0710059
        k(    7) = (   0.0000000   0.5329387   0.0000000), wk =   0.0710059
        k(    8) = (   0.0769231   0.1332347   0.0000000), wk =   0.0710059
        k(    9) = (   0.0769231   0.2220578   0.0000000), wk =   0.1420118
        k(   10) = (   0.0769231   0.3108809   0.0000000), wk =   0.1420118
        k(   11) = (   0.0769231   0.3997040   0.0000000), wk =   0.1420118
        k(   12) = (   0.0769231   0.4885272   0.0000000), wk =   0.1420118
        k(   13) = (   0.0769231  -0.5773503   0.0000000), wk =   0.0710059
        k(   14) = (   0.1538462   0.2664694   0.0000000), wk =   0.0710059
        k(   15) = (   0.1538462   0.3552925   0.0000000), wk =   0.1420118
        k(   16) = (   0.1538462   0.4441156   0.0000000), wk =   0.1420118
        k(   17) = (   0.1538462  -0.6217618   0.0000000), wk =   0.1420118
        k(   18) = (   0.2307692   0.3997040   0.0000000), wk =   0.0710059
        k(   19) = (   0.2307692  -0.6661734   0.0000000), wk =   0.1420118
        k(   20) = (   0.2307692  -0.5773503   0.0000000), wk =   0.0710059
        k(   21) = (   0.3076923  -0.6217618   0.0000000), wk =   0.0710059

     Dense  grid:    32845 G-vectors     FFT dimensions: (  24,  24, 150)

     Estimated max dynamical RAM per process >       9.68 MB

     Estimated total dynamical RAM >     154.94 MB

     Check: negative core charge=   -0.000002

     Initial potential from superposition of free atoms

     starting charge       8.9997, renormalised to       9.0000

     negative rho (up, down):  1.195E-04 0.000E+00
     Starting wfcs are    9 randomized atomic wfcs
     Checking if some PAW data can be deallocated... 

     total cpu time spent up to now is        0.2 secs

     Self-consistent Calculation

     iteration #  1     ecut=    65.00 Ry     beta= 0.70
     Davidson diagonalization with overlap
     ethr =  1.00E-02,  avg # of iterations =  5.9

     negative rho (up, down):  1.517E-04 0.000E+00

     total cpu time spent up to now is        0.4 secs

     total energy              =    -161.86561421 Ry
     estimated scf accuracy    <       0.11973804 Ry

     iteration #  2     ecut=    65.00 Ry     beta= 0.70
     Davidson diagonalization with overlap
     ethr =  1.33E-03,  avg # of iterations =  4.2

     negative rho (up, down):  1.212E-04 0.000E+00

     total cpu time spent up to now is        0.5 secs

     total energy              =    -161.80485000 Ry
     estimated scf accuracy    <       0.87642262 Ry

     iteration #  3     ecut=    65.00 Ry     beta= 0.70
     Davidson diagonalization with overlap
     ethr =  1.33E-03,  avg # of iterations =  2.0

     negative rho (up, down):  1.478E-04 0.000E+00

     total cpu time spent up to now is        0.6 secs

     total energy              =    -161.92900613 Ry
     estimated scf accuracy    <       0.00339289 Ry

     iteration #  4     ecut=    65.00 Ry     beta= 0.70
     Davidson diagonalization with overlap
     ethr =  3.77E-05,  avg # of iterations =  6.0

     negative rho (up, down):  1.618E-04 0.000E+00

     total cpu time spent up to now is        0.8 secs

     total energy              =    -161.92964831 Ry
     estimated scf accuracy    <       0.00018725 Ry

     iteration #  5     ecut=    65.00 Ry     beta= 0.70
     Davidson diagonalization with overlap
     ethr =  2.08E-06,  avg # of iterations =  6.2

     negative rho (up, down):  1.694E-04 0.000E+00

     total cpu time spent up to now is        0.9 secs

     total energy              =    -161.92968953 Ry
     estimated scf accuracy    <       0.00001543 Ry

     iteration #  6     ecut=    65.00 Ry     beta= 0.70
     Davidson diagonalization with overlap
     ethr =  1.71E-07,  avg # of iterations =  1.3

     negative rho (up, down):  1.696E-04 0.000E+00

     total cpu time spent up to now is        1.0 secs

     total energy              =    -161.92969200 Ry
     estimated scf accuracy    <       0.00000188 Ry

     iteration #  7     ecut=    65.00 Ry     beta= 0.70
     Davidson diagonalization with overlap
     ethr =  2.09E-08,  avg # of iterations =  2.1

     negative rho (up, down):  1.697E-04 0.000E+00

     total cpu time spent up to now is        1.1 secs

     End of self-consistent calculation

          k = 0.0000 0.0000 0.0000 (  4165 PWs)   bands (ev):

    -8.7394  -4.2937  -4.1256  -4.1256  -2.1193  -2.1193  -1.9371   2.3642
     3.2103

          k = 0.0000 0.0888 0.0000 (  4147 PWs)   bands (ev):

    -8.4804  -4.2340  -4.1970  -3.9926  -2.8186  -2.1480  -1.1202   2.5823
     3.4511

          k = 0.0000 0.1776 0.0000 (  4143 PWs)   bands (ev):

    -7.7516  -4.4677  -3.9419  -3.6141  -3.5087  -2.2270  -0.0436   3.2360
     4.1633

          k = 0.0000 0.2665 0.0000 (  4124 PWs)   bands (ev):

    -6.8165  -4.5201  -4.1007  -3.5654  -3.0527  -2.3372   1.2800   4.3258
     5.3242

          k = 0.0000 0.3553 0.0000 (  4108 PWs)   bands (ev):

    -6.4230  -4.5716  -3.6489  -3.0998  -2.4529  -2.4152   2.9018   5.8471
     6.9197

          k = 0.0000 0.4441 0.0000 (  4078 PWs)   bands (ev):

    -6.5498  -4.8991  -2.9078  -2.5478  -1.8475  -1.6604   4.8346   7.6971
     8.6975

          k = 0.0000 0.5329 0.0000 (  4084 PWs)   bands (ev):

    -6.6880  -5.0669  -2.6947  -2.6009  -1.5084   0.1179   6.8072   6.9201
    10.4176

          k = 0.0769 0.1332 0.0000 (  4147 PWs)   bands (ev):

    -7.9817  -4.4208  -4.0314  -3.7151  -3.3273  -2.2104  -0.3507   3.0180
     3.9272

          k = 0.0769 0.2221 0.0000 (  4130 PWs)   bands (ev):

    -7.0902  -4.6841  -3.8843  -3.7122  -3.1840  -2.3276   0.7889   3.8907
     4.8635

          k = 0.0769 0.3109 0.0000 (  4117 PWs)   bands (ev):

    -6.3038  -4.5143  -4.3645  -3.3037  -2.4703  -2.4415   2.2425   5.1986
     6.2406

          k = 0.0769 0.3997 0.0000 (  4092 PWs)   bands (ev):

    -6.2852  -4.7270  -3.4681  -2.8614  -2.6049  -1.4153   4.0210   6.9264
     8.0443

          k = 0.0769 0.4885 0.0000 (  4087 PWs)   bands (ev):

    -6.4725  -4.9513  -2.8003  -2.7005  -2.3095   0.1068   6.0906   7.8389
     9.3488

          k = 0.0769-0.5774 0.0000 (  4092 PWs)   bands (ev):

    -6.5532  -5.0270  -2.7350  -2.6597  -2.0494   1.1833   6.4748   7.7232
     9.9856

          k = 0.1538 0.2665 0.0000 (  4123 PWs)   bands (ev):

    -6.1245  -5.0099  -4.2600  -3.3656  -2.5151  -2.3959   2.0287   4.9826
     6.0148

          k = 0.1538 0.3553 0.0000 (  4098 PWs)   bands (ev):

    -5.6640  -4.6988  -4.5554  -2.9934  -2.7387  -1.2311   3.6316   6.5114
     7.6075

          k = 0.1538 0.4441 0.0000 (  4096 PWs)   bands (ev):

    -5.9234  -4.7473  -3.7259  -2.9379  -2.7162   0.3741   5.5788   8.3891
     9.3717

          k = 0.1538-0.6218 0.0000 (  4084 PWs)   bands (ev):

    -6.0972  -4.8386  -3.0823  -3.0559  -2.6312   2.1426   7.1719   7.7384
    11.0554

          k = 0.2308 0.3997 0.0000 (  4094 PWs)   bands (ev):

    -5.3282  -4.6300  -4.5776  -3.0766  -2.7466   0.4708   5.4104   8.2551
     9.3686

          k = 0.2308-0.6662 0.0000 (  4089 PWs)   bands (ev):

    -5.4387  -4.6064  -4.0642  -3.3824  -2.6337   2.5401   7.5372   8.8920
    10.4969

          k = 0.2308-0.5774 0.0000 (  4106 PWs)   bands (ev):

    -5.5030  -4.5730  -3.8211  -3.5158  -2.6214   4.1094   6.9977   9.3930
    11.4131

          k = 0.3077-0.6218 0.0000 (  4092 PWs)   bands (ev):

    -4.9741  -4.4019  -4.3284  -3.8342  -2.6147   4.9601   7.7180   9.4098
     9.7957

     the Fermi energy is    -2.5849 ev

!    total energy              =    -161.92969240 Ry
     total all-electron energy =     -2786.773369 Ry
     estimated scf accuracy    <       0.00000001 Ry
     smearing contrib. (-TS)   =      -0.00959251 Ry
     internal energy E=F+TS    =    -161.92009989 Ry

     The total energy is F=E-TS. E is the sum of the following terms:
     one-electron contribution =    -238.14664557 Ry
     hartree contribution      =     126.84909786 Ry
     xc contribution           =     -32.51499247 Ry
     ewald contribution        =      68.44460552 Ry
     one-center paw contrib.   =     -86.55216523 Ry

     convergence has been achieved in   7 iterations

     negative rho (up, down):  1.697E-04 0.000E+00

     Forces acting on atoms (cartesian axes, Ry/au):

     atom    1 type  1   force =     0.00000000    0.00000000    0.00000000
     The non-local contrib.  to forces
     atom    1 type  1   force =     0.00000000    0.00000000    0.00000000
     The ionic contribution  to forces
     atom    1 type  1   force =    -0.00000000   -0.00000000   -0.00000000
     The local contribution  to forces
     atom    1 type  1   force =     0.00000000    0.00000000    0.00000000
     The core correction contribution to forces
     atom    1 type  1   force =     0.00000000    0.00000000    0.00000000
     The Hubbard contrib.    to forces
     atom    1 type  1   force =     0.00000000    0.00000000    0.00000000
     The SCF correction term to forces
     atom    1 type  1   force =    -0.00000000    0.00000000   -0.00000000

     Total force =     0.000000     Total SCF correction =     0.000000


     Computing stress (Cartesian axis) and pressure


     negative rho (up, down):  1.697E-04 0.000E+00
          total   stress  (Ry/bohr**3)                   (kbar)     P=        1.72
   0.00001820  -0.00000000   0.00000000            2.68       -0.00        0.00
  -0.00000000   0.00001820   0.00000000           -0.00        2.68        0.00
   0.00000000   0.00000000  -0.00000133            0.00        0.00       -0.20


     Writing all to output data dir ./tmp/scf.save/
 
     init_run     :      0.10s CPU      0.15s WALL (       1 calls)
     electrons    :      0.88s CPU      0.91s WALL (       1 calls)
     forces       :      0.02s CPU      0.02s WALL (       1 calls)
     stress       :      0.08s CPU      0.08s WALL (       1 calls)

     Called by init_run:
     wfcinit      :      0.01s CPU      0.02s WALL (       1 calls)
     potinit      :      0.03s CPU      0.04s WALL (       1 calls)
     hinit0       :      0.04s CPU      0.06s WALL (       1 calls)

     Called by electrons:
     c_bands      :      0.49s CPU      0.51s WALL (       7 calls)
     sum_band     :      0.10s CPU      0.11s WALL (       7 calls)
     v_of_rho     :      0.01s CPU      0.01s WALL (       8 calls)
     newd         :      0.04s CPU      0.04s WALL (       8 calls)
     PAW_pot      :      0.26s CPU      0.27s WALL (       8 calls)
     mix_rho      :      0.00s CPU      0.00s WALL (       7 calls)

     Called by c_bands:
     init_us_2    :      0.01s CPU      0.01s WALL (     357 calls)
     init_us_2:cp :      0.01s CPU      0.01s WALL (     357 calls)
     cegterg      :      0.37s CPU      0.39s WALL (     147 calls)

     Called by *egterg:
     cdiaghg      :      0.05s CPU      0.05s WALL (     729 calls)
     h_psi        :      0.29s CPU      0.31s WALL (     750 calls)
     s_psi        :      0.00s CPU      0.00s WALL (     750 calls)
     g_psi        :      0.00s CPU      0.00s WALL (     582 calls)

     Called by h_psi:
     h_psi:calbec :      0.01s CPU      0.01s WALL (     750 calls)
     vloc_psi     :      0.27s CPU      0.28s WALL (     750 calls)
     add_vuspsi   :      0.00s CPU      0.01s WALL (     750 calls)

     General routines
     calbec       :      0.02s CPU      0.02s WALL (    1002 calls)
     fft          :      0.02s CPU      0.05s WALL (     113 calls)
     ffts         :      0.00s CPU      0.00s WALL (       7 calls)
     fftw         :      0.27s CPU      0.29s WALL (    8915 calls)
 
     Parallel routines
 
     PWSCF        :      1.16s CPU      1.28s WALL

 
   This run was terminated on:  14:42: 2   5Jun2025            

=------------------------------------------------------------------------------=
   JOB DONE.
=------------------------------------------------------------------------------=
