
     Program PWSCF v.7.2 starts on  5Jun2025 at 14:42: 4 

     This program is part of the open-source Quantum ESPRESSO suite
     for quantum simulation of materials; please cite
         "P. Giannozzi et al., J. Phys.:Condens. Matter 21 395502 (2009);
         "P. Giannozzi et al., J. Phys.:Condens. Matter 29 465901 (2017);
         "P. Giannozzi et al., J. Chem. Phys. 152 154105 (2020);
          URL http://www.quantum-espresso.org", 
     in publications or presentations arising from this work. More details at
     http://www.quantum-espresso.org/quote

     Parallel version (MPI), running on    16 processors

     MPI processes distributed on     1 nodes
     38929 MiB available memory on the printing compute node when the environment starts
 
     Waiting for input...
     Reading input from standard input

     Current dimensions of program PWSCF are:
     Max number of different atomic species (ntypx) = 10
     Max number of k-points (npk) =  40000
     Max angular momentum in pseudopotentials (lmaxx) =  4
     file Co.pbe-n-kjpaw_psl.1.0.0.UPF: wavefunction(s)  4S 3D renormalized
     Message from routine setup:
     using ibrav=0 with symmetry is DISCOURAGED, use correct ibrav instead
 
     R & G space division:  proc/nbgrp/npool/nimage =      16
     Subspace diagonalization in iterative solution of the eigenvalue problem:
     a serial algorithm will be used

 
     Parallelization info
     --------------------
     sticks:   dense  smooth     PW     G-vecs:    dense   smooth      PW
     Min          21      21      6                 2066     2066     360
     Max          23      23      7                 2081     2081     381
     Sum         349     349    109                33157    33157    5925
 
     Using Slab Decomposition
 


     bravais-lattice index     =            0
     lattice parameter (alat)  =       4.3653  a.u.
     unit-cell volume          =     467.7809 (a.u.)^3
     number of atoms/cell      =            1
     number of atomic types    =            1
     number of electrons       =         9.00
     number of Kohn-Sham states=            9
     kinetic-energy cutoff     =      65.0000  Ry
     charge density cutoff     =     260.0000  Ry
     scf convergence threshold =      1.0E-06
     mixing beta               =       0.7000
     number of iterations used =            8  plain     mixing
     Exchange-correlation= SLA  PW   PBX  PBC
                           (   1   4   3   4   0   0   0)

     celldm(1)=   4.365267  celldm(2)=   0.000000  celldm(3)=   0.000000
     celldm(4)=   0.000000  celldm(5)=   0.000000  celldm(6)=   0.000000

     crystal axes: (cart. coord. in units of alat)
               a(1) = (   1.000000   0.000000   0.000000 )  
               a(2) = (   0.500000   0.866025   0.000000 )  
               a(3) = (   0.000000   0.000000   6.493506 )  

     reciprocal axes: (cart. coord. in units 2 pi/alat)
               b(1) = (  1.000000 -0.577350  0.000000 )  
               b(2) = (  0.000000  1.154701  0.000000 )  
               b(3) = (  0.000000  0.000000  0.154000 )  


     PseudoPot. # 1 for Co read from file:
     /shared/ESPRESSO/PSLIBRARY/1.0.0/pbe/PSEUDOPOTENTIALS/Co.pbe-n-kjpaw_psl.1.0.0.UPF
     MD5 check sum: 17e7ab8db721b244d1352252ea6cb8e7
     Pseudo is Projector augmented-wave + core cor, Zval =  9.0
     Generated using "atomic" code by A. Dal Corso  (Quantum ESPRESSO distribution)
     Shape of augmentation charge: PSQ
     Using radial grid of 1193 points,  6 beta functions with: 
                l(1) =   0
                l(2) =   0
                l(3) =   1
                l(4) =   1
                l(5) =   2
                l(6) =   2
     Q(r) pseudized with 0 coefficients 


     atomic species   valence    mass     pseudopotential
        Co             9.00    58.93320     Co( 1.00)

     24 Sym. Ops., with inversion, found



   Cartesian axes

     site n.     atom                  positions (alat units)
         1           Co  tau(   1) = (   0.0000000   0.0000000   3.2467532  )

     number of k points=    21  Fermi-Dirac smearing, width (Ry)=  0.0070
                       cart. coord. in units 2pi/alat
        k(    1) = (   0.0000000   0.0000000   0.0000000), wk =   0.0118343
        k(    2) = (   0.0000000   0.0888231   0.0000000), wk =   0.0710059
        k(    3) = (   0.0000000   0.1776462   0.0000000), wk =   0.0710059
        k(    4) = (   0.0000000   0.2664694   0.0000000), wk =   0.0710059
        k(    5) = (   0.0000000   0.3552925   0.0000000), wk =   0.0710059
        k(    6) = (   0.0000000   0.4441156   0.0000000), wk =   0.0710059
        k(    7) = (   0.0000000   0.5329387   0.0000000), wk =   0.0710059
        k(    8) = (   0.0769231   0.1332347   0.0000000), wk =   0.0710059
        k(    9) = (   0.0769231   0.2220578   0.0000000), wk =   0.1420118
        k(   10) = (   0.0769231   0.3108809   0.0000000), wk =   0.1420118
        k(   11) = (   0.0769231   0.3997040   0.0000000), wk =   0.1420118
        k(   12) = (   0.0769231   0.4885272   0.0000000), wk =   0.1420118
        k(   13) = (   0.0769231  -0.5773503   0.0000000), wk =   0.0710059
        k(   14) = (   0.1538462   0.2664694   0.0000000), wk =   0.0710059
        k(   15) = (   0.1538462   0.3552925   0.0000000), wk =   0.1420118
        k(   16) = (   0.1538462   0.4441156   0.0000000), wk =   0.1420118
        k(   17) = (   0.1538462  -0.6217618   0.0000000), wk =   0.1420118
        k(   18) = (   0.2307692   0.3997040   0.0000000), wk =   0.0710059
        k(   19) = (   0.2307692  -0.6661734   0.0000000), wk =   0.1420118
        k(   20) = (   0.2307692  -0.5773503   0.0000000), wk =   0.0710059
        k(   21) = (   0.3076923  -0.6217618   0.0000000), wk =   0.0710059

     Dense  grid:    33157 G-vectors     FFT dimensions: (  24,  24, 150)

     Estimated max dynamical RAM per process >       9.78 MB

     Estimated total dynamical RAM >     156.44 MB

     Check: negative core charge=   -0.000002

     Initial potential from superposition of free atoms

     starting charge       8.9997, renormalised to       9.0000

     negative rho (up, down):  1.224E-04 0.000E+00
     Starting wfcs are    9 randomized atomic wfcs
     Checking if some PAW data can be deallocated... 

     total cpu time spent up to now is        0.2 secs

     Self-consistent Calculation

     iteration #  1     ecut=    65.00 Ry     beta= 0.70
     Davidson diagonalization with overlap
     ethr =  1.00E-02,  avg # of iterations =  6.2

     negative rho (up, down):  1.548E-04 0.000E+00

     total cpu time spent up to now is        0.4 secs

     total energy              =    -161.86484059 Ry
     estimated scf accuracy    <       0.12033572 Ry

     iteration #  2     ecut=    65.00 Ry     beta= 0.70
     Davidson diagonalization with overlap
     ethr =  1.34E-03,  avg # of iterations =  3.8

     negative rho (up, down):  1.238E-04 0.000E+00

     total cpu time spent up to now is        0.5 secs

     total energy              =    -161.80255492 Ry
     estimated scf accuracy    <       0.90061649 Ry

     iteration #  3     ecut=    65.00 Ry     beta= 0.70
     Davidson diagonalization with overlap
     ethr =  1.34E-03,  avg # of iterations =  2.0

     negative rho (up, down):  1.477E-04 0.000E+00

     total cpu time spent up to now is        0.6 secs

     total energy              =    -161.92899420 Ry
     estimated scf accuracy    <       0.00335361 Ry

     iteration #  4     ecut=    65.00 Ry     beta= 0.70
     Davidson diagonalization with overlap
     ethr =  3.73E-05,  avg # of iterations =  5.9

     negative rho (up, down):  1.625E-04 0.000E+00

     total cpu time spent up to now is        0.8 secs

     total energy              =    -161.92965513 Ry
     estimated scf accuracy    <       0.00019487 Ry

     iteration #  5     ecut=    65.00 Ry     beta= 0.70
     Davidson diagonalization with overlap
     ethr =  2.17E-06,  avg # of iterations =  6.9

     negative rho (up, down):  1.710E-04 0.000E+00

     total cpu time spent up to now is        0.9 secs

     total energy              =    -161.92969522 Ry
     estimated scf accuracy    <       0.00001696 Ry

     iteration #  6     ecut=    65.00 Ry     beta= 0.70
     Davidson diagonalization with overlap
     ethr =  1.88E-07,  avg # of iterations =  1.2

     negative rho (up, down):  1.715E-04 0.000E+00

     total cpu time spent up to now is        1.0 secs

     total energy              =    -161.92969807 Ry
     estimated scf accuracy    <       0.00000205 Ry

     iteration #  7     ecut=    65.00 Ry     beta= 0.70
     Davidson diagonalization with overlap
     ethr =  2.28E-08,  avg # of iterations =  2.0

     negative rho (up, down):  1.717E-04 0.000E+00

     total cpu time spent up to now is        1.2 secs

     End of self-consistent calculation

          k = 0.0000 0.0000 0.0000 (  4165 PWs)   bands (ev):

    -8.7057  -4.2748  -4.1142  -4.1142  -2.1445  -2.1445  -1.9294   2.3430
     3.1918

          k = 0.0000 0.0888 0.0000 (  4169 PWs)   bands (ev):

    -8.4494  -4.2200  -4.1806  -3.9836  -2.8219  -2.1726  -1.1334   2.5591
     3.4304

          k = 0.0000 0.1776 0.0000 (  4166 PWs)   bands (ev):

    -7.7273  -4.4503  -3.9300  -3.6119  -3.5027  -2.2500  -0.0646   3.2071
     4.1357

          k = 0.0000 0.2665 0.0000 (  4158 PWs)   bands (ev):

    -6.7941  -4.5063  -4.0858  -3.5612  -3.0607  -2.3582   1.2500   4.2875
     5.2869

          k = 0.0000 0.3553 0.0000 (  4134 PWs)   bands (ev):

    -6.3860  -4.5491  -3.6560  -3.1072  -2.4716  -2.4348   2.8602   5.7956
     6.8676

          k = 0.0000 0.4441 0.0000 (  4128 PWs)   bands (ev):

    -6.5027  -4.8708  -2.9178  -2.5647  -1.8778  -1.6943   4.7783   7.6256
     8.6177

          k = 0.0000 0.5329 0.0000 (  4114 PWs)   bands (ev):

    -6.6366  -5.0356  -2.7092  -2.6168  -1.5451   0.0702   6.6841   6.8466
    10.3223

          k = 0.0769 0.1332 0.0000 (  4175 PWs)   bands (ev):

    -7.9556  -4.4038  -4.0177  -3.7111  -3.3239  -2.2338  -0.3696   2.9910
     3.9022

          k = 0.0769 0.2221 0.0000 (  4169 PWs)   bands (ev):

    -7.0708  -4.6630  -3.8728  -3.7051  -3.1900  -2.3487   0.7621   3.8560
     4.8300

          k = 0.0769 0.3109 0.0000 (  4156 PWs)   bands (ev):

    -6.2779  -4.5037  -4.3454  -3.3052  -2.4885  -2.4615   2.2054   5.1527
     6.1957

          k = 0.0769 0.3997 0.0000 (  4128 PWs)   bands (ev):

    -6.2445  -4.7018  -3.4746  -2.8734  -2.6205  -1.4529   3.9706   6.8657
     7.9842

          k = 0.0769 0.4885 0.0000 (  4121 PWs)   bands (ev):

    -6.4252  -4.9221  -2.8127  -2.7142  -2.3326   0.0531   6.0238   7.7197
     9.2606

          k = 0.0769-0.5774 0.0000 (  4122 PWs)   bands (ev):

    -6.5038  -4.9965  -2.7481  -2.6749  -2.0765   1.1233   6.3514   7.6417
     9.8934

          k = 0.1538 0.2665 0.0000 (  4157 PWs)   bands (ev):

    -6.1115  -4.9826  -4.2426  -3.3657  -2.5324  -2.4171   1.9929   4.9386
     5.9716

          k = 0.1538 0.3553 0.0000 (  4132 PWs)   bands (ev):

    -5.6356  -4.6876  -4.5332  -3.0016  -2.7515  -1.2716   3.5837   6.4537
     7.5515

          k = 0.1538 0.4441 0.0000 (  4133 PWs)   bands (ev):

    -5.8854  -4.7217  -3.7275  -2.9468  -2.7303   0.3142   5.5155   8.3116
     9.2838

          k = 0.1538-0.6218 0.0000 (  4121 PWs)   bands (ev):

    -6.0555  -4.8114  -3.0925  -3.0624  -2.6471   2.0689   7.0459   7.6568
    10.9555

          k = 0.2308 0.3997 0.0000 (  4132 PWs)   bands (ev):

    -5.2970  -4.6065  -4.5694  -3.0826  -2.7599   0.4089   5.3482   8.1821
     9.2906

          k = 0.2308-0.6662 0.0000 (  4130 PWs)   bands (ev):

    -5.4076  -4.5833  -4.0595  -3.3824  -2.6494   2.4589   7.4574   8.7599
    10.3986

          k = 0.2308-0.5774 0.0000 (  4126 PWs)   bands (ev):

    -5.4714  -4.5505  -3.8192  -3.5132  -2.6373   4.0184   6.8723   9.2941
    11.2583

          k = 0.3077-0.6218 0.0000 (  4130 PWs)   bands (ev):

    -4.9514  -4.3903  -4.3103  -3.8254  -2.6306   4.8595   7.5966   9.2599
     9.6944

     the Fermi energy is    -2.6007 ev

!    total energy              =    -161.92969847 Ry
     total all-electron energy =     -2786.773375 Ry
     estimated scf accuracy    <       0.00000001 Ry
     smearing contrib. (-TS)   =      -0.00973350 Ry
     internal energy E=F+TS    =    -161.91996497 Ry

     The total energy is F=E-TS. E is the sum of the following terms:
     one-electron contribution =    -236.29886965 Ry
     hartree contribution      =     125.92380063 Ry
     xc contribution           =     -32.50851326 Ry
     ewald contribution        =      67.51484211 Ry
     one-center paw contrib.   =     -86.55122480 Ry

     convergence has been achieved in   7 iterations

     negative rho (up, down):  1.717E-04 0.000E+00

     Forces acting on atoms (cartesian axes, Ry/au):

     atom    1 type  1   force =     0.00000000    0.00000000    0.00000000
     The non-local contrib.  to forces
     atom    1 type  1   force =    -0.00000000   -0.00000000    0.00000000
     The ionic contribution  to forces
     atom    1 type  1   force =    -0.00000000   -0.00000000    0.00000000
     The local contribution  to forces
     atom    1 type  1   force =     0.00000000    0.00000000    0.00000000
     The core correction contribution to forces
     atom    1 type  1   force =     0.00000000    0.00000000   -0.00000000
     The Hubbard contrib.    to forces
     atom    1 type  1   force =     0.00000000    0.00000000    0.00000000
     The SCF correction term to forces
     atom    1 type  1   force =     0.00000000   -0.00000000   -0.00000000

     Total force =     0.000000     Total SCF correction =     0.000000


     Computing stress (Cartesian axis) and pressure


     negative rho (up, down):  1.717E-04 0.000E+00
          total   stress  (Ry/bohr**3)                   (kbar)     P=       -1.66
  -0.00001587  -0.00000000  -0.00000000           -2.33       -0.00       -0.00
  -0.00000000  -0.00001587   0.00000000           -0.00       -2.33        0.00
   0.00000000   0.00000000  -0.00000203            0.00        0.00       -0.30


     Writing all to output data dir ./tmp/scf.save/
 
     init_run     :      0.12s CPU      0.15s WALL (       1 calls)
     electrons    :      0.84s CPU      0.92s WALL (       1 calls)
     forces       :      0.03s CPU      0.03s WALL (       1 calls)
     stress       :      0.08s CPU      0.08s WALL (       1 calls)

     Called by init_run:
     wfcinit      :      0.02s CPU      0.02s WALL (       1 calls)
     potinit      :      0.04s CPU      0.04s WALL (       1 calls)
     hinit0       :      0.03s CPU      0.07s WALL (       1 calls)

     Called by electrons:
     c_bands      :      0.45s CPU      0.51s WALL (       7 calls)
     sum_band     :      0.10s CPU      0.11s WALL (       7 calls)
     v_of_rho     :      0.01s CPU      0.01s WALL (       8 calls)
     newd         :      0.04s CPU      0.05s WALL (       8 calls)
     PAW_pot      :      0.28s CPU      0.28s WALL (       8 calls)
     mix_rho      :      0.00s CPU      0.00s WALL (       7 calls)

     Called by c_bands:
     init_us_2    :      0.01s CPU      0.01s WALL (     357 calls)
     init_us_2:cp :      0.01s CPU      0.01s WALL (     357 calls)
     cegterg      :      0.39s CPU      0.45s WALL (     147 calls)

     Called by *egterg:
     cdiaghg      :      0.04s CPU      0.05s WALL (     735 calls)
     h_psi        :      0.32s CPU      0.37s WALL (     756 calls)
     s_psi        :      0.00s CPU      0.00s WALL (     756 calls)
     g_psi        :      0.00s CPU      0.00s WALL (     588 calls)

     Called by h_psi:
     h_psi:calbec :      0.01s CPU      0.01s WALL (     756 calls)
     vloc_psi     :      0.30s CPU      0.34s WALL (     756 calls)
     add_vuspsi   :      0.00s CPU      0.01s WALL (     756 calls)

     General routines
     calbec       :      0.02s CPU      0.02s WALL (    1008 calls)
     fft          :      0.02s CPU      0.05s WALL (     113 calls)
     ffts         :      0.00s CPU      0.00s WALL (       7 calls)
     fftw         :      0.31s CPU      0.36s WALL (    8931 calls)
 
     Parallel routines
 
     PWSCF        :      1.15s CPU      1.30s WALL

 
   This run was terminated on:  14:42: 5   5Jun2025            

=------------------------------------------------------------------------------=
   JOB DONE.
=------------------------------------------------------------------------------=
