
     Program PWSCF v.7.2 starts on  5Jun2025 at 14:41:43 

     This program is part of the open-source Quantum ESPRESSO suite
     for quantum simulation of materials; please cite
         "P. Giannozzi et al., J. Phys.:Condens. Matter 21 395502 (2009);
         "P. Giannozzi et al., J. Phys.:Condens. Matter 29 465901 (2017);
         "P. Giannozzi et al., J. Chem. Phys. 152 154105 (2020);
          URL http://www.quantum-espresso.org", 
     in publications or presentations arising from this work. More details at
     http://www.quantum-espresso.org/quote

     Parallel version (MPI), running on    16 processors

     MPI processes distributed on     1 nodes
     38986 MiB available memory on the printing compute node when the environment starts
 
     Waiting for input...
     Reading input from standard input

     Current dimensions of program PWSCF are:
     Max number of different atomic species (ntypx) = 10
     Max number of k-points (npk) =  40000
     Max angular momentum in pseudopotentials (lmaxx) =  4
     file Co.pbe-n-kjpaw_psl.1.0.0.UPF: wavefunction(s)  4S 3D renormalized
     Message from routine setup:
     using ibrav=0 with symmetry is DISCOURAGED, use correct ibrav instead
 
     R & G space division:  proc/nbgrp/npool/nimage =      16
     Subspace diagonalization in iterative solution of the eigenvalue problem:
     a serial algorithm will be used

 
     Parallelization info
     --------------------
     sticks:   dense  smooth     PW     G-vecs:    dense   smooth      PW
     Min          19      19      6                 1937     1937     349
     Max          20      20      8                 1970     1970     360
     Sum         313     313    109                31261    31261    5687
 
     Using Slab Decomposition
 


     bravais-lattice index     =            0
     lattice parameter (alat)  =       4.2519  a.u.
     unit-cell volume          =     443.7961 (a.u.)^3
     number of atoms/cell      =            1
     number of atomic types    =            1
     number of electrons       =         9.00
     number of Kohn-Sham states=            9
     kinetic-energy cutoff     =      65.0000  Ry
     charge density cutoff     =     260.0000  Ry
     scf convergence threshold =      1.0E-06
     mixing beta               =       0.7000
     number of iterations used =            8  plain     mixing
     Exchange-correlation= SLA  PW   PBX  PBC
                           (   1   4   3   4   0   0   0)

     celldm(1)=   4.251884  celldm(2)=   0.000000  celldm(3)=   0.000000
     celldm(4)=   0.000000  celldm(5)=   0.000000  celldm(6)=   0.000000

     crystal axes: (cart. coord. in units of alat)
               a(1) = (   1.000000   0.000000   0.000000 )  
               a(2) = (   0.500000   0.866025   0.000000 )  
               a(3) = (   0.000000   0.000000   6.666667 )  

     reciprocal axes: (cart. coord. in units 2 pi/alat)
               b(1) = (  1.000000 -0.577350  0.000000 )  
               b(2) = (  0.000000  1.154701  0.000000 )  
               b(3) = (  0.000000  0.000000  0.150000 )  


     PseudoPot. # 1 for Co read from file:
     /shared/ESPRESSO/PSLIBRARY/1.0.0/pbe/PSEUDOPOTENTIALS/Co.pbe-n-kjpaw_psl.1.0.0.UPF
     MD5 check sum: 17e7ab8db721b244d1352252ea6cb8e7
     Pseudo is Projector augmented-wave + core cor, Zval =  9.0
     Generated using "atomic" code by A. Dal Corso  (Quantum ESPRESSO distribution)
     Shape of augmentation charge: PSQ
     Using radial grid of 1193 points,  6 beta functions with: 
                l(1) =   0
                l(2) =   0
                l(3) =   1
                l(4) =   1
                l(5) =   2
                l(6) =   2
     Q(r) pseudized with 0 coefficients 


     atomic species   valence    mass     pseudopotential
        Co             9.00    58.93320     Co( 1.00)

     24 Sym. Ops., with inversion, found



   Cartesian axes

     site n.     atom                  positions (alat units)
         1           Co  tau(   1) = (   0.0000000   0.0000000   3.3333333  )

     number of k points=    21  Fermi-Dirac smearing, width (Ry)=  0.0070
                       cart. coord. in units 2pi/alat
        k(    1) = (   0.0000000   0.0000000   0.0000000), wk =   0.0118343
        k(    2) = (   0.0000000   0.0888231   0.0000000), wk =   0.0710059
        k(    3) = (   0.0000000   0.1776462   0.0000000), wk =   0.0710059
        k(    4) = (   0.0000000   0.2664694   0.0000000), wk =   0.0710059
        k(    5) = (   0.0000000   0.3552925   0.0000000), wk =   0.0710059
        k(    6) = (   0.0000000   0.4441156   0.0000000), wk =   0.0710059
        k(    7) = (   0.0000000   0.5329387   0.0000000), wk =   0.0710059
        k(    8) = (   0.0769231   0.1332347   0.0000000), wk =   0.0710059
        k(    9) = (   0.0769231   0.2220578   0.0000000), wk =   0.1420118
        k(   10) = (   0.0769231   0.3108809   0.0000000), wk =   0.1420118
        k(   11) = (   0.0769231   0.3997040   0.0000000), wk =   0.1420118
        k(   12) = (   0.0769231   0.4885272   0.0000000), wk =   0.1420118
        k(   13) = (   0.0769231  -0.5773503   0.0000000), wk =   0.0710059
        k(   14) = (   0.1538462   0.2664694   0.0000000), wk =   0.0710059
        k(   15) = (   0.1538462   0.3552925   0.0000000), wk =   0.1420118
        k(   16) = (   0.1538462   0.4441156   0.0000000), wk =   0.1420118
        k(   17) = (   0.1538462  -0.6217618   0.0000000), wk =   0.1420118
        k(   18) = (   0.2307692   0.3997040   0.0000000), wk =   0.0710059
        k(   19) = (   0.2307692  -0.6661734   0.0000000), wk =   0.1420118
        k(   20) = (   0.2307692  -0.5773503   0.0000000), wk =   0.0710059
        k(   21) = (   0.3076923  -0.6217618   0.0000000), wk =   0.0710059

     Dense  grid:    31261 G-vectors     FFT dimensions: (  24,  24, 150)

     Estimated max dynamical RAM per process >       9.24 MB

     Estimated total dynamical RAM >     147.90 MB

     Check: negative core charge=   -0.000002

     Initial potential from superposition of free atoms

     starting charge       8.9997, renormalised to       9.0000

     negative rho (up, down):  1.160E-04 0.000E+00
     Starting wfcs are    9 randomized atomic wfcs
     Checking if some PAW data can be deallocated... 

     total cpu time spent up to now is        0.3 secs

     Self-consistent Calculation

     iteration #  1     ecut=    65.00 Ry     beta= 0.70
     Davidson diagonalization with overlap
     ethr =  1.00E-02,  avg # of iterations =  5.9

     negative rho (up, down):  1.461E-04 0.000E+00

     total cpu time spent up to now is        0.4 secs

     total energy              =    -161.86594748 Ry
     estimated scf accuracy    <       0.11861361 Ry

     iteration #  2     ecut=    65.00 Ry     beta= 0.70
     Davidson diagonalization with overlap
     ethr =  1.32E-03,  avg # of iterations =  4.7

     negative rho (up, down):  1.228E-04 0.000E+00

     total cpu time spent up to now is        0.5 secs

     total energy              =    -161.81184772 Ry
     estimated scf accuracy    <       0.77732331 Ry

     iteration #  3     ecut=    65.00 Ry     beta= 0.70
     Davidson diagonalization with overlap
     ethr =  1.32E-03,  avg # of iterations =  2.2

     negative rho (up, down):  1.389E-04 0.000E+00

     total cpu time spent up to now is        0.7 secs

     total energy              =    -161.92669247 Ry
     estimated scf accuracy    <       0.00373701 Ry

     iteration #  4     ecut=    65.00 Ry     beta= 0.70
     Davidson diagonalization with overlap
     ethr =  4.15E-05,  avg # of iterations =  4.5

     negative rho (up, down):  1.552E-04 0.000E+00

     total cpu time spent up to now is        0.8 secs

     total energy              =    -161.92737540 Ry
     estimated scf accuracy    <       0.00015837 Ry

     iteration #  5     ecut=    65.00 Ry     beta= 0.70
     Davidson diagonalization with overlap
     ethr =  1.76E-06,  avg # of iterations =  6.9

     negative rho (up, down):  1.629E-04 0.000E+00

     total cpu time spent up to now is        0.9 secs

     total energy              =    -161.92741759 Ry
     estimated scf accuracy    <       0.00000878 Ry

     iteration #  6     ecut=    65.00 Ry     beta= 0.70
     Davidson diagonalization with overlap
     ethr =  9.75E-08,  avg # of iterations =  1.3

     negative rho (up, down):  1.626E-04 0.000E+00

     total cpu time spent up to now is        1.0 secs

     total energy              =    -161.92741870 Ry
     estimated scf accuracy    <       0.00000122 Ry

     iteration #  7     ecut=    65.00 Ry     beta= 0.70
     Davidson diagonalization with overlap
     ethr =  1.36E-08,  avg # of iterations =  1.9

     negative rho (up, down):  1.629E-04 0.000E+00

     total cpu time spent up to now is        1.2 secs

     End of self-consistent calculation

          k = 0.0000 0.0000 0.0000 (  4009 PWs)   bands (ev):

    -8.9064  -4.3938  -4.1845  -4.1845  -1.9827  -1.9827  -1.9747   2.4957
     3.3292

          k = 0.0000 0.0888 0.0000 (  4001 PWs)   bands (ev):

    -8.6331  -4.3099  -4.2813  -4.0388  -2.8025  -2.0144  -1.0427   2.7233
     3.5818

          k = 0.0000 0.1776 0.0000 (  3973 PWs)   bands (ev):

    -7.8696  -4.5582  -4.0053  -3.6238  -3.5397  -2.1016   0.0709   3.4070
     4.3269

          k = 0.0000 0.2665 0.0000 (  3939 PWs)   bands (ev):

    -6.9292  -4.5870  -4.1785  -3.5871  -3.0079  -2.2234   1.4397   4.5455
     5.5407

          k = 0.0000 0.3553 0.0000 (  3932 PWs)   bands (ev):

    -6.6176  -4.6907  -3.6042  -3.0566  -2.3511  -2.3076   3.1213   6.1347
     7.2075

          k = 0.0000 0.4441 0.0000 (  3912 PWs)   bands (ev):

    -6.7978  -5.0487  -2.8524  -2.4557  -1.6832  -1.4719   5.1299   8.0812
     9.1177

          k = 0.0000 0.5329 0.0000 (  3884 PWs)   bands (ev):

    -6.9590  -5.2327  -2.6159  -2.5143  -1.3097   0.3795   7.3036   7.4489
    10.9153

          k = 0.0769 0.1332 0.0000 (  3979 PWs)   bands (ev):

    -8.1086  -4.5098  -4.1038  -3.7340  -3.3453  -2.0834  -0.2458   3.1791
     4.0805

          k = 0.0769 0.2221 0.0000 (  3958 PWs)   bands (ev):

    -7.1830  -4.7939  -3.9442  -3.7500  -3.1491  -2.2132   0.9326   4.0906
     5.0592

          k = 0.0769 0.3109 0.0000 (  3935 PWs)   bands (ev):

    -6.4384  -4.5621  -4.4648  -3.2946  -2.3710  -2.3312   2.4387   5.4572
     6.4986

          k = 0.0769 0.3997 0.0000 (  3929 PWs)   bands (ev):

    -6.4986  -4.8604  -3.4280  -2.7947  -2.5198  -1.2106   4.2857   7.2631
     8.3837

          k = 0.0769 0.4885 0.0000 (  3888 PWs)   bands (ev):

    -6.7214  -5.1061  -2.7315  -2.6253  -2.1815   0.3981   6.4396   8.4518
     9.8337

          k = 0.0769-0.5774 0.0000 (  3890 PWs)   bands (ev):

    -6.8130  -5.1892  -2.6634  -2.5769  -1.9006   1.5089   7.1186   8.1485
    10.4646

          k = 0.1538 0.2665 0.0000 (  3937 PWs)   bands (ev):

    -6.1843  -5.1533  -4.3510  -3.3641  -2.4210  -2.2796   2.2185   5.2317
     6.3950

          k = 0.1538 0.3553 0.0000 (  3928 PWs)   bands (ev):

    -5.8139  -4.7494  -4.6728  -2.9488  -2.6688  -1.0116   3.8838   6.8287
     7.9652

          k = 0.1538 0.4441 0.0000 (  3914 PWs)   bands (ev):

    -6.1226  -4.8828  -3.7111  -2.8894  -2.6388   0.6963   5.9100   8.8047
     9.8306

          k = 0.1538-0.6218 0.0000 (  3917 PWs)   bands (ev):

    -6.3154  -4.9832  -3.0220  -3.0199  -2.5447   2.5381   7.8297   8.1647
    11.5867

          k = 0.2308 0.3997 0.0000 (  3931 PWs)   bands (ev):

    -5.4908  -4.7543  -4.6142  -3.0432  -2.6737   0.8026   5.7363   8.6520
     9.7596

          k = 0.2308-0.6662 0.0000 (  3924 PWs)   bands (ev):

    -5.6002  -4.7288  -4.0832  -3.3815  -2.5484   2.9722   7.9545   9.5809
    11.0241

          k = 0.2308-0.5774 0.0000 (  3912 PWs)   bands (ev):

    -5.6669  -4.6923  -3.8252  -3.5289  -2.5352   4.5944   7.6540   9.9094
    11.5787

          k = 0.3077-0.6218 0.0000 (  3910 PWs)   bands (ev):

    -5.0899  -4.4578  -4.4239  -3.8802  -2.5280   5.4933   8.3581  10.1895
    10.3234

     the Fermi energy is    -2.4985 ev

!    total energy              =    -161.92741894 Ry
     total all-electron energy =     -2786.771095 Ry
     estimated scf accuracy    <          4.4E-09 Ry
     smearing contrib. (-TS)   =      -0.00889271 Ry
     internal energy E=F+TS    =    -161.91852623 Ry

     The total energy is F=E-TS. E is the sum of the following terms:
     one-electron contribution =    -247.79813678 Ry
     hartree contribution      =     131.68302751 Ry
     xc contribution           =     -32.55036497 Ry
     ewald contribution        =      73.30410559 Ry
     one-center paw contrib.   =     -86.55715757 Ry

     convergence has been achieved in   7 iterations

     negative rho (up, down):  1.629E-04 0.000E+00

     Forces acting on atoms (cartesian axes, Ry/au):

     atom    1 type  1   force =     0.00000000    0.00000000    0.00000000
     The non-local contrib.  to forces
     atom    1 type  1   force =     0.00000000    0.00000000    0.00000000
     The ionic contribution  to forces
     atom    1 type  1   force =     0.00000000    0.00000000    0.00000000
     The local contribution  to forces
     atom    1 type  1   force =     0.00000000    0.00000000    0.00000000
     The core correction contribution to forces
     atom    1 type  1   force =     0.00000000    0.00000000   -0.00000000
     The Hubbard contrib.    to forces
     atom    1 type  1   force =     0.00000000    0.00000000    0.00000000
     The SCF correction term to forces
     atom    1 type  1   force =    -0.00000000    0.00000000   -0.00000000

     Total force =     0.000000     Total SCF correction =     0.000000


     Computing stress (Cartesian axis) and pressure


     negative rho (up, down):  1.629E-04 0.000E+00
          total   stress  (Ry/bohr**3)                   (kbar)     P=       21.17
   0.00021704   0.00000000   0.00000000           31.93        0.00        0.00
   0.00000000   0.00021704   0.00000000            0.00       31.93        0.00
   0.00000000   0.00000000  -0.00000226            0.00        0.00       -0.33


     Writing all to output data dir ./tmp/scf.save/
 
     init_run     :      0.12s CPU      0.17s WALL (       1 calls)
     electrons    :      0.84s CPU      0.88s WALL (       1 calls)
     forces       :      0.02s CPU      0.02s WALL (       1 calls)
     stress       :      0.07s CPU      0.07s WALL (       1 calls)

     Called by init_run:
     wfcinit      :      0.02s CPU      0.02s WALL (       1 calls)
     potinit      :      0.04s CPU      0.04s WALL (       1 calls)
     hinit0       :      0.05s CPU      0.08s WALL (       1 calls)

     Called by electrons:
     c_bands      :      0.48s CPU      0.50s WALL (       7 calls)
     sum_band     :      0.08s CPU      0.10s WALL (       7 calls)
     v_of_rho     :      0.01s CPU      0.01s WALL (       8 calls)
     newd         :      0.04s CPU      0.04s WALL (       8 calls)
     PAW_pot      :      0.26s CPU      0.27s WALL (       8 calls)
     mix_rho      :      0.00s CPU      0.00s WALL (       7 calls)

     Called by c_bands:
     init_us_2    :      0.01s CPU      0.01s WALL (     357 calls)
     init_us_2:cp :      0.01s CPU      0.01s WALL (     357 calls)
     cegterg      :      0.35s CPU      0.37s WALL (     147 calls)

     Called by *egterg:
     cdiaghg      :      0.05s CPU      0.05s WALL (     721 calls)
     h_psi        :      0.28s CPU      0.29s WALL (     742 calls)
     s_psi        :      0.00s CPU      0.00s WALL (     742 calls)
     g_psi        :      0.00s CPU      0.00s WALL (     574 calls)

     Called by h_psi:
     h_psi:calbec :      0.01s CPU      0.01s WALL (     742 calls)
     vloc_psi     :      0.26s CPU      0.27s WALL (     742 calls)
     add_vuspsi   :      0.00s CPU      0.01s WALL (     742 calls)

     General routines
     calbec       :      0.02s CPU      0.02s WALL (     994 calls)
     fft          :      0.03s CPU      0.07s WALL (     113 calls)
     ffts         :      0.00s CPU      0.00s WALL (       7 calls)
     fftw         :      0.26s CPU      0.28s WALL (    8905 calls)
 
     Parallel routines
 
     PWSCF        :      1.15s CPU      1.28s WALL

 
   This run was terminated on:  14:41:45   5Jun2025            

=------------------------------------------------------------------------------=
   JOB DONE.
=------------------------------------------------------------------------------=
