
     Program PWSCF v.7.2 starts on  5Jun2025 at 14:41:57 

     This program is part of the open-source Quantum ESPRESSO suite
     for quantum simulation of materials; please cite
         "P. Giannozzi et al., J. Phys.:Condens. Matter 21 395502 (2009);
         "P. Giannozzi et al., J. Phys.:Condens. Matter 29 465901 (2017);
         "P. Giannozzi et al., J. Chem. Phys. 152 154105 (2020);
          URL http://www.quantum-espresso.org", 
     in publications or presentations arising from this work. More details at
     http://www.quantum-espresso.org/quote

     Parallel version (MPI), running on    16 processors

     MPI processes distributed on     1 nodes
     38887 MiB available memory on the printing compute node when the environment starts
 
     Waiting for input...
     Reading input from standard input

     Current dimensions of program PWSCF are:
     Max number of different atomic species (ntypx) = 10
     Max number of k-points (npk) =  40000
     Max angular momentum in pseudopotentials (lmaxx) =  4
     file Co.pbe-n-kjpaw_psl.1.0.0.UPF: wavefunction(s)  4S 3D renormalized
     Message from routine setup:
     using ibrav=0 with symmetry is DISCOURAGED, use correct ibrav instead
 
     R & G space division:  proc/nbgrp/npool/nimage =      16
     Subspace diagonalization in iterative solution of the eigenvalue problem:
     a serial algorithm will be used

 
     Parallelization info
     --------------------
     sticks:   dense  smooth     PW     G-vecs:    dense   smooth      PW
     Min          20      20      6                 2022     2022     358
     Max          22      22      7                 2038     2038     375
     Sum         337     337    109                32497    32497    5829
 
     Using Slab Decomposition
 


     bravais-lattice index     =            0
     lattice parameter (alat)  =       4.3275  a.u.
     unit-cell volume          =     459.7158 (a.u.)^3
     number of atoms/cell      =            1
     number of atomic types    =            1
     number of electrons       =         9.00
     number of Kohn-Sham states=            9
     kinetic-energy cutoff     =      65.0000  Ry
     charge density cutoff     =     260.0000  Ry
     scf convergence threshold =      1.0E-06
     mixing beta               =       0.7000
     number of iterations used =            8  plain     mixing
     Exchange-correlation= SLA  PW   PBX  PBC
                           (   1   4   3   4   0   0   0)

     celldm(1)=   4.327473  celldm(2)=   0.000000  celldm(3)=   0.000000
     celldm(4)=   0.000000  celldm(5)=   0.000000  celldm(6)=   0.000000

     crystal axes: (cart. coord. in units of alat)
               a(1) = (   1.000000   0.000000   0.000000 )  
               a(2) = (   0.500000   0.866025   0.000000 )  
               a(3) = (   0.000000   0.000000   6.550218 )  

     reciprocal axes: (cart. coord. in units 2 pi/alat)
               b(1) = (  1.000000 -0.577350  0.000000 )  
               b(2) = (  0.000000  1.154701  0.000000 )  
               b(3) = (  0.000000  0.000000  0.152667 )  


     PseudoPot. # 1 for Co read from file:
     /shared/ESPRESSO/PSLIBRARY/1.0.0/pbe/PSEUDOPOTENTIALS/Co.pbe-n-kjpaw_psl.1.0.0.UPF
     MD5 check sum: 17e7ab8db721b244d1352252ea6cb8e7
     Pseudo is Projector augmented-wave + core cor, Zval =  9.0
     Generated using "atomic" code by A. Dal Corso  (Quantum ESPRESSO distribution)
     Shape of augmentation charge: PSQ
     Using radial grid of 1193 points,  6 beta functions with: 
                l(1) =   0
                l(2) =   0
                l(3) =   1
                l(4) =   1
                l(5) =   2
                l(6) =   2
     Q(r) pseudized with 0 coefficients 


     atomic species   valence    mass     pseudopotential
        Co             9.00    58.93320     Co( 1.00)

     24 Sym. Ops., with inversion, found



   Cartesian axes

     site n.     atom                  positions (alat units)
         1           Co  tau(   1) = (   0.0000000   0.0000000   3.2751092  )

     number of k points=    21  Fermi-Dirac smearing, width (Ry)=  0.0070
                       cart. coord. in units 2pi/alat
        k(    1) = (   0.0000000   0.0000000   0.0000000), wk =   0.0118343
        k(    2) = (   0.0000000   0.0888231   0.0000000), wk =   0.0710059
        k(    3) = (   0.0000000   0.1776462   0.0000000), wk =   0.0710059
        k(    4) = (   0.0000000   0.2664694   0.0000000), wk =   0.0710059
        k(    5) = (   0.0000000   0.3552925   0.0000000), wk =   0.0710059
        k(    6) = (   0.0000000   0.4441156   0.0000000), wk =   0.0710059
        k(    7) = (   0.0000000   0.5329387   0.0000000), wk =   0.0710059
        k(    8) = (   0.0769231   0.1332347   0.0000000), wk =   0.0710059
        k(    9) = (   0.0769231   0.2220578   0.0000000), wk =   0.1420118
        k(   10) = (   0.0769231   0.3108809   0.0000000), wk =   0.1420118
        k(   11) = (   0.0769231   0.3997040   0.0000000), wk =   0.1420118
        k(   12) = (   0.0769231   0.4885272   0.0000000), wk =   0.1420118
        k(   13) = (   0.0769231  -0.5773503   0.0000000), wk =   0.0710059
        k(   14) = (   0.1538462   0.2664694   0.0000000), wk =   0.0710059
        k(   15) = (   0.1538462   0.3552925   0.0000000), wk =   0.1420118
        k(   16) = (   0.1538462   0.4441156   0.0000000), wk =   0.1420118
        k(   17) = (   0.1538462  -0.6217618   0.0000000), wk =   0.1420118
        k(   18) = (   0.2307692   0.3997040   0.0000000), wk =   0.0710059
        k(   19) = (   0.2307692  -0.6661734   0.0000000), wk =   0.1420118
        k(   20) = (   0.2307692  -0.5773503   0.0000000), wk =   0.0710059
        k(   21) = (   0.3076923  -0.6217618   0.0000000), wk =   0.0710059

     Dense  grid:    32497 G-vectors     FFT dimensions: (  24,  24, 150)

     Estimated max dynamical RAM per process >       9.63 MB

     Estimated total dynamical RAM >     154.00 MB

     Check: negative core charge=   -0.000002

     Initial potential from superposition of free atoms

     starting charge       8.9997, renormalised to       9.0000

     negative rho (up, down):  1.188E-04 0.000E+00
     Starting wfcs are    9 randomized atomic wfcs
     Checking if some PAW data can be deallocated... 

     total cpu time spent up to now is        0.3 secs

     Self-consistent Calculation

     iteration #  1     ecut=    65.00 Ry     beta= 0.70
     Davidson diagonalization with overlap
     ethr =  1.00E-02,  avg # of iterations =  6.4

     negative rho (up, down):  1.504E-04 0.000E+00

     total cpu time spent up to now is        0.4 secs

     total energy              =    -161.86653469 Ry
     estimated scf accuracy    <       0.11891897 Ry

     iteration #  2     ecut=    65.00 Ry     beta= 0.70
     Davidson diagonalization with overlap
     ethr =  1.32E-03,  avg # of iterations =  3.7

     negative rho (up, down):  1.220E-04 0.000E+00

     total cpu time spent up to now is        0.5 secs

     total energy              =    -161.80731730 Ry
     estimated scf accuracy    <       0.84853634 Ry

     iteration #  3     ecut=    65.00 Ry     beta= 0.70
     Davidson diagonalization with overlap
     ethr =  1.32E-03,  avg # of iterations =  2.0

     negative rho (up, down):  1.419E-04 0.000E+00

     total cpu time spent up to now is        0.7 secs

     total energy              =    -161.92885709 Ry
     estimated scf accuracy    <       0.00364636 Ry

     iteration #  4     ecut=    65.00 Ry     beta= 0.70
     Davidson diagonalization with overlap
     ethr =  4.05E-05,  avg # of iterations =  5.6

     negative rho (up, down):  1.580E-04 0.000E+00

     total cpu time spent up to now is        0.8 secs

     total energy              =    -161.92950548 Ry
     estimated scf accuracy    <       0.00017610 Ry

     iteration #  5     ecut=    65.00 Ry     beta= 0.70
     Davidson diagonalization with overlap
     c_bands:  1 eigenvalues not converged
     ethr =  1.96E-06,  avg # of iterations =  7.2

     negative rho (up, down):  1.668E-04 0.000E+00

     total cpu time spent up to now is        0.9 secs

     total energy              =    -161.92954100 Ry
     estimated scf accuracy    <       0.00001381 Ry

     iteration #  6     ecut=    65.00 Ry     beta= 0.70
     Davidson diagonalization with overlap
     ethr =  1.53E-07,  avg # of iterations =  1.6

     negative rho (up, down):  1.669E-04 0.000E+00

     total cpu time spent up to now is        1.1 secs

     total energy              =    -161.92954311 Ry
     estimated scf accuracy    <       0.00000184 Ry

     iteration #  7     ecut=    65.00 Ry     beta= 0.70
     Davidson diagonalization with overlap
     ethr =  2.04E-08,  avg # of iterations =  2.0

     negative rho (up, down):  1.672E-04 0.000E+00

     total cpu time spent up to now is        1.2 secs

     End of self-consistent calculation

          k = 0.0000 0.0000 0.0000 (  4165 PWs)   bands (ev):

    -8.7734  -4.3131  -4.1374  -4.1374  -2.0936  -2.0936  -1.9448   2.3918
     3.2371

          k = 0.0000 0.0888 0.0000 (  4129 PWs)   bands (ev):

    -8.5116  -4.2485  -4.2139  -4.0019  -2.8154  -2.1229  -1.1063   2.6114
     3.4802

          k = 0.0000 0.1776 0.0000 (  4121 PWs)   bands (ev):

    -7.7760  -4.4856  -3.9543  -3.6164  -3.5149  -2.2034  -0.0220   3.2712
     4.1984

          k = 0.0000 0.2665 0.0000 (  4086 PWs)   bands (ev):

    -6.8392  -4.5340  -4.1160  -3.5698  -3.0446  -2.3159   1.3107   4.3709
     5.3698

          k = 0.0000 0.3553 0.0000 (  4070 PWs)   bands (ev):

    -6.4609  -4.5948  -3.6414  -3.0923  -2.4339  -2.3951   2.9444   5.9050
     6.9783

          k = 0.0000 0.4441 0.0000 (  4044 PWs)   bands (ev):

    -6.5980  -4.9281  -2.8976  -2.5306  -1.8166  -1.6255   4.8920   7.7739
     8.7814

          k = 0.0000 0.5329 0.0000 (  4032 PWs)   bands (ev):

    -6.7406  -5.0990  -2.6800  -2.5848  -1.4709   0.1667   6.9320   6.9947
    10.5148

          k = 0.0769 0.1332 0.0000 (  4119 PWs)   bands (ev):

    -8.0079  -4.4383  -4.0455  -3.7192  -3.3310  -2.1865  -0.3310   3.0516
     3.9607

          k = 0.0769 0.2221 0.0000 (  4096 PWs)   bands (ev):

    -7.1096  -4.7057  -3.8962  -3.7197  -3.1778  -2.3062   0.8165   3.9316
     4.9050

          k = 0.0769 0.3109 0.0000 (  4071 PWs)   bands (ev):

    -6.3302  -4.5248  -4.3841  -3.3022  -2.4517  -2.4210   2.2805   5.2509
     6.2945

          k = 0.0769 0.3997 0.0000 (  4068 PWs)   bands (ev):

    -6.3267  -4.7529  -3.4613  -2.8492  -2.5890  -1.3768   4.0724   6.9940
     8.1127

          k = 0.0769 0.4885 0.0000 (  4048 PWs)   bands (ev):

    -6.5209  -4.9812  -2.7876  -2.6865  -2.2858   0.1618   6.1585   7.9595
     9.4439

          k = 0.0769-0.5774 0.0000 (  4024 PWs)   bands (ev):

    -6.6037  -5.0584  -2.7217  -2.6443  -2.0217   1.2447   6.5998   7.8060
    10.0787

          k = 0.1538 0.2665 0.0000 (  4081 PWs)   bands (ev):

    -6.1374  -5.0379  -4.2778  -3.3656  -2.4975  -2.3743   2.0654   5.0331
     6.0668

          k = 0.1538 0.3553 0.0000 (  4065 PWs)   bands (ev):

    -5.6931  -4.7099  -4.5782  -2.9852  -2.7257  -1.1897   3.6806   6.5751
     7.6727

          k = 0.1538 0.4441 0.0000 (  4060 PWs)   bands (ev):

    -5.9623  -4.7736  -3.7241  -2.9290  -2.7018   0.4353   5.6431   8.4720
     9.4628

          k = 0.1538-0.6218 0.0000 (  4038 PWs)   bands (ev):

    -6.1398  -4.8666  -3.0717  -3.0494  -2.6151   2.2179   7.2996   7.8214
    11.1601

          k = 0.2308 0.3997 0.0000 (  4074 PWs)   bands (ev):

    -5.3600  -4.6541  -4.5857  -3.0705  -2.7330   0.5339   5.4738   8.3341
     9.4415

          k = 0.2308-0.6662 0.0000 (  4058 PWs)   bands (ev):

    -5.4704  -4.6301  -4.0689  -3.3825  -2.6178   2.6227   7.6185   9.0260
    10.6012

          k = 0.2308-0.5774 0.0000 (  4062 PWs)   bands (ev):

    -5.5352  -4.5961  -3.8229  -3.5186  -2.6054   4.2021   7.1249   9.4936
    11.1593

          k = 0.3077-0.6218 0.0000 (  4058 PWs)   bands (ev):

    -4.9972  -4.4136  -4.3469  -3.8433  -2.5985   5.0625   7.8413   9.5616
     9.8985

     the Fermi energy is    -2.5688 ev

!    total energy              =    -161.92954348 Ry
     total all-electron energy =     -2786.773220 Ry
     estimated scf accuracy    <          5.2E-09 Ry
     smearing contrib. (-TS)   =      -0.00945154 Ry
     internal energy E=F+TS    =    -161.92009194 Ry

     The total energy is F=E-TS. E is the sum of the following terms:
     one-electron contribution =    -240.02117707 Ry
     hartree contribution      =     127.78772716 Ry
     xc contribution           =     -32.52159591 Ry
     ewald contribution        =      69.38806992 Ry
     one-center paw contrib.   =     -86.55311604 Ry

     convergence has been achieved in   7 iterations

     negative rho (up, down):  1.672E-04 0.000E+00

     Forces acting on atoms (cartesian axes, Ry/au):

     atom    1 type  1   force =     0.00000000    0.00000000    0.00000000
     The non-local contrib.  to forces
     atom    1 type  1   force =     0.00000000   -0.00000000    0.00000000
     The ionic contribution  to forces
     atom    1 type  1   force =     0.00000000    0.00000000   -0.00000000
     The local contribution  to forces
     atom    1 type  1   force =     0.00000000    0.00000000    0.00000000
     The core correction contribution to forces
     atom    1 type  1   force =     0.00000000    0.00000000    0.00000000
     The Hubbard contrib.    to forces
     atom    1 type  1   force =     0.00000000    0.00000000    0.00000000
     The SCF correction term to forces
     atom    1 type  1   force =     0.00000000   -0.00000000   -0.00000000

     Total force =     0.000000     Total SCF correction =     0.000000


     Computing stress (Cartesian axis) and pressure


     negative rho (up, down):  1.672E-04 0.000E+00
          total   stress  (Ry/bohr**3)                   (kbar)     P=        5.18
   0.00005360   0.00000000   0.00000000            7.88        0.00        0.00
   0.00000000   0.00005360   0.00000000            0.00        7.88        0.00
   0.00000000   0.00000000  -0.00000152            0.00        0.00       -0.22


     Writing all to output data dir ./tmp/scf.save/
 
     init_run     :      0.14s CPU      0.18s WALL (       1 calls)
     electrons    :      0.87s CPU      0.91s WALL (       1 calls)
     forces       :      0.02s CPU      0.02s WALL (       1 calls)
     stress       :      0.07s CPU      0.07s WALL (       1 calls)

     Called by init_run:
     wfcinit      :      0.02s CPU      0.02s WALL (       1 calls)
     potinit      :      0.05s CPU      0.06s WALL (       1 calls)
     hinit0       :      0.06s CPU      0.08s WALL (       1 calls)

     Called by electrons:
     c_bands      :      0.47s CPU      0.51s WALL (       7 calls)
     sum_band     :      0.11s CPU      0.11s WALL (       7 calls)
     v_of_rho     :      0.01s CPU      0.01s WALL (       8 calls)
     newd         :      0.04s CPU      0.04s WALL (       8 calls)
     PAW_pot      :      0.28s CPU      0.28s WALL (       8 calls)
     mix_rho      :      0.00s CPU      0.00s WALL (       7 calls)

     Called by c_bands:
     init_us_2    :      0.01s CPU      0.01s WALL (     357 calls)
     init_us_2:cp :      0.01s CPU      0.01s WALL (     357 calls)
     cegterg      :      0.36s CPU      0.38s WALL (     147 calls)

     Called by *egterg:
     cdiaghg      :      0.05s CPU      0.05s WALL (     747 calls)
     h_psi        :      0.28s CPU      0.30s WALL (     768 calls)
     s_psi        :      0.00s CPU      0.00s WALL (     768 calls)
     g_psi        :      0.00s CPU      0.00s WALL (     600 calls)

     Called by h_psi:
     h_psi:calbec :      0.01s CPU      0.01s WALL (     768 calls)
     vloc_psi     :      0.26s CPU      0.27s WALL (     768 calls)
     add_vuspsi   :      0.00s CPU      0.00s WALL (     768 calls)

     General routines
     calbec       :      0.02s CPU      0.02s WALL (    1020 calls)
     fft          :      0.04s CPU      0.06s WALL (     113 calls)
     ffts         :      0.00s CPU      0.00s WALL (       7 calls)
     fftw         :      0.27s CPU      0.29s WALL (    8923 calls)
 
     Parallel routines
 
     PWSCF        :      1.20s CPU      1.30s WALL

 
   This run was terminated on:  14:41:58   5Jun2025            

=------------------------------------------------------------------------------=
   JOB DONE.
=------------------------------------------------------------------------------=
