
     Program PWSCF v.7.2 starts on  5Jun2025 at 14:42: 7 

     This program is part of the open-source Quantum ESPRESSO suite
     for quantum simulation of materials; please cite
         "P. Giannozzi et al., J. Phys.:Condens. Matter 21 395502 (2009);
         "P. Giannozzi et al., J. Phys.:Condens. Matter 29 465901 (2017);
         "P. Giannozzi et al., J. Chem. Phys. 152 154105 (2020);
          URL http://www.quantum-espresso.org", 
     in publications or presentations arising from this work. More details at
     http://www.quantum-espresso.org/quote

     Parallel version (MPI), running on    16 processors

     MPI processes distributed on     1 nodes
     38917 MiB available memory on the printing compute node when the environment starts
 
     Waiting for input...
     Reading input from standard input

     Current dimensions of program PWSCF are:
     Max number of different atomic species (ntypx) = 10
     Max number of k-points (npk) =  40000
     Max angular momentum in pseudopotentials (lmaxx) =  4
     file Co.pbe-n-kjpaw_psl.1.0.0.UPF: wavefunction(s)  4S 3D renormalized
     Message from routine setup:
     using ibrav=0 with symmetry is DISCOURAGED, use correct ibrav instead
 
     R & G space division:  proc/nbgrp/npool/nimage =      16
     Subspace diagonalization in iterative solution of the eigenvalue problem:
     a serial algorithm will be used

 
     Parallelization info
     --------------------
     sticks:   dense  smooth     PW     G-vecs:    dense   smooth      PW
     Min          21      21      6                 2081     2081     360
     Max          22      22      7                 2102     2102     381
     Sum         349     349    109                33445    33445    5937
 
     Using Slab Decomposition
 


     bravais-lattice index     =            0
     lattice parameter (alat)  =       4.3842  a.u.
     unit-cell volume          =     471.8397 (a.u.)^3
     number of atoms/cell      =            1
     number of atomic types    =            1
     number of electrons       =         9.00
     number of Kohn-Sham states=            9
     kinetic-energy cutoff     =      65.0000  Ry
     charge density cutoff     =     260.0000  Ry
     scf convergence threshold =      1.0E-06
     mixing beta               =       0.7000
     number of iterations used =            8  plain     mixing
     Exchange-correlation= SLA  PW   PBX  PBC
                           (   1   4   3   4   0   0   0)

     celldm(1)=   4.384165  celldm(2)=   0.000000  celldm(3)=   0.000000
     celldm(4)=   0.000000  celldm(5)=   0.000000  celldm(6)=   0.000000

     crystal axes: (cart. coord. in units of alat)
               a(1) = (   1.000000   0.000000   0.000000 )  
               a(2) = (   0.500000   0.866025   0.000000 )  
               a(3) = (   0.000000   0.000000   6.465517 )  

     reciprocal axes: (cart. coord. in units 2 pi/alat)
               b(1) = (  1.000000 -0.577350  0.000000 )  
               b(2) = (  0.000000  1.154701  0.000000 )  
               b(3) = (  0.000000  0.000000  0.154667 )  


     PseudoPot. # 1 for Co read from file:
     /shared/ESPRESSO/PSLIBRARY/1.0.0/pbe/PSEUDOPOTENTIALS/Co.pbe-n-kjpaw_psl.1.0.0.UPF
     MD5 check sum: 17e7ab8db721b244d1352252ea6cb8e7
     Pseudo is Projector augmented-wave + core cor, Zval =  9.0
     Generated using "atomic" code by A. Dal Corso  (Quantum ESPRESSO distribution)
     Shape of augmentation charge: PSQ
     Using radial grid of 1193 points,  6 beta functions with: 
                l(1) =   0
                l(2) =   0
                l(3) =   1
                l(4) =   1
                l(5) =   2
                l(6) =   2
     Q(r) pseudized with 0 coefficients 


     atomic species   valence    mass     pseudopotential
        Co             9.00    58.93320     Co( 1.00)

     24 Sym. Ops., with inversion, found



   Cartesian axes

     site n.     atom                  positions (alat units)
         1           Co  tau(   1) = (   0.0000000   0.0000000   3.2327586  )

     number of k points=    21  Fermi-Dirac smearing, width (Ry)=  0.0070
                       cart. coord. in units 2pi/alat
        k(    1) = (   0.0000000   0.0000000   0.0000000), wk =   0.0118343
        k(    2) = (   0.0000000   0.0888231   0.0000000), wk =   0.0710059
        k(    3) = (   0.0000000   0.1776462   0.0000000), wk =   0.0710059
        k(    4) = (   0.0000000   0.2664694   0.0000000), wk =   0.0710059
        k(    5) = (   0.0000000   0.3552925   0.0000000), wk =   0.0710059
        k(    6) = (   0.0000000   0.4441156   0.0000000), wk =   0.0710059
        k(    7) = (   0.0000000   0.5329387   0.0000000), wk =   0.0710059
        k(    8) = (   0.0769231   0.1332347   0.0000000), wk =   0.0710059
        k(    9) = (   0.0769231   0.2220578   0.0000000), wk =   0.1420118
        k(   10) = (   0.0769231   0.3108809   0.0000000), wk =   0.1420118
        k(   11) = (   0.0769231   0.3997040   0.0000000), wk =   0.1420118
        k(   12) = (   0.0769231   0.4885272   0.0000000), wk =   0.1420118
        k(   13) = (   0.0769231  -0.5773503   0.0000000), wk =   0.0710059
        k(   14) = (   0.1538462   0.2664694   0.0000000), wk =   0.0710059
        k(   15) = (   0.1538462   0.3552925   0.0000000), wk =   0.1420118
        k(   16) = (   0.1538462   0.4441156   0.0000000), wk =   0.1420118
        k(   17) = (   0.1538462  -0.6217618   0.0000000), wk =   0.1420118
        k(   18) = (   0.2307692   0.3997040   0.0000000), wk =   0.0710059
        k(   19) = (   0.2307692  -0.6661734   0.0000000), wk =   0.1420118
        k(   20) = (   0.2307692  -0.5773503   0.0000000), wk =   0.0710059
        k(   21) = (   0.3076923  -0.6217618   0.0000000), wk =   0.0710059

     Dense  grid:    33445 G-vectors     FFT dimensions: (  24,  24, 150)

     Estimated max dynamical RAM per process >       9.86 MB

     Estimated total dynamical RAM >     157.83 MB

     Check: negative core charge=   -0.000002

     Initial potential from superposition of free atoms

     starting charge       8.9997, renormalised to       9.0000

     negative rho (up, down):  1.210E-04 0.000E+00
     Starting wfcs are    9 randomized atomic wfcs
     Checking if some PAW data can be deallocated... 

     total cpu time spent up to now is        0.3 secs

     Self-consistent Calculation

     iteration #  1     ecut=    65.00 Ry     beta= 0.70
     Davidson diagonalization with overlap
     ethr =  1.00E-02,  avg # of iterations =  6.2

     negative rho (up, down):  1.526E-04 0.000E+00

     total cpu time spent up to now is        0.5 secs

     total energy              =    -161.86396277 Ry
     estimated scf accuracy    <       0.12096538 Ry

     iteration #  2     ecut=    65.00 Ry     beta= 0.70
     Davidson diagonalization with overlap
     ethr =  1.34E-03,  avg # of iterations =  3.7

     negative rho (up, down):  1.215E-04 0.000E+00

     total cpu time spent up to now is        0.6 secs

     total energy              =    -161.79987327 Ry
     estimated scf accuracy    <       0.92565721 Ry

     iteration #  3     ecut=    65.00 Ry     beta= 0.70
     Davidson diagonalization with overlap
     ethr =  1.34E-03,  avg # of iterations =  2.2

     negative rho (up, down):  1.436E-04 0.000E+00

     total cpu time spent up to now is        0.8 secs

     total energy              =    -161.92890522 Ry
     estimated scf accuracy    <       0.00339609 Ry

     iteration #  4     ecut=    65.00 Ry     beta= 0.70
     Davidson diagonalization with overlap
     ethr =  3.77E-05,  avg # of iterations =  4.9

     negative rho (up, down):  1.595E-04 0.000E+00

     total cpu time spent up to now is        1.0 secs

     total energy              =    -161.92952535 Ry
     estimated scf accuracy    <       0.00018995 Ry

     iteration #  5     ecut=    65.00 Ry     beta= 0.70
     Davidson diagonalization with overlap
     ethr =  2.11E-06,  avg # of iterations =  6.0

     negative rho (up, down):  1.687E-04 0.000E+00

     total cpu time spent up to now is        1.2 secs

     total energy              =    -161.92956790 Ry
     estimated scf accuracy    <       0.00001857 Ry

     iteration #  6     ecut=    65.00 Ry     beta= 0.70
     Davidson diagonalization with overlap
     ethr =  2.06E-07,  avg # of iterations =  1.6

     negative rho (up, down):  1.690E-04 0.000E+00

     total cpu time spent up to now is        1.3 secs

     total energy              =    -161.92957103 Ry
     estimated scf accuracy    <       0.00000197 Ry

     iteration #  7     ecut=    65.00 Ry     beta= 0.70
     Davidson diagonalization with overlap
     ethr =  2.19E-08,  avg # of iterations =  2.4

     negative rho (up, down):  1.691E-04 0.000E+00

     total cpu time spent up to now is        1.5 secs

     End of self-consistent calculation

          k = 0.0000 0.0000 0.0000 (  4213 PWs)   bands (ev):

    -8.6717  -4.2563  -4.1028  -4.1028  -2.1690  -2.1690  -1.9214   2.3174
     3.1682

          k = 0.0000 0.0888 0.0000 (  4217 PWs)   bands (ev):

    -8.4181  -4.2062  -4.1643  -3.9746  -2.8253  -2.1966  -1.1458   2.5318
     3.4046

          k = 0.0000 0.1776 0.0000 (  4204 PWs)   bands (ev):

    -7.7026  -4.4330  -3.9183  -3.6095  -3.4967  -2.2725  -0.0849   3.1742
     4.1034

          k = 0.0000 0.2665 0.0000 (  4188 PWs)   bands (ev):

    -6.7716  -4.4923  -4.0712  -3.5570  -3.0683  -2.3785   1.2207   4.2454
     5.2445

          k = 0.0000 0.3553 0.0000 (  4176 PWs)   bands (ev):

    -6.3495  -4.5269  -3.6625  -3.1142  -2.4898  -2.4539   2.8193   5.7408
     6.8213

          k = 0.0000 0.4441 0.0000 (  4162 PWs)   bands (ev):

    -6.4563  -4.8431  -2.9276  -2.5811  -1.9072  -1.7270   4.7228   7.5521
     8.5349

          k = 0.0000 0.5329 0.0000 (  4170 PWs)   bands (ev):

    -6.5859  -5.0050  -2.7232  -2.6323  -1.5807   0.0242   6.5626   6.7742
    10.2286

          k = 0.0769 0.1332 0.0000 (  4203 PWs)   bands (ev):

    -7.9291  -4.3869  -4.0043  -3.7071  -3.3204  -2.2565  -0.3879   2.9603
     3.8722

          k = 0.0769 0.2221 0.0000 (  4197 PWs)   bands (ev):

    -7.0510  -4.6421  -3.8615  -3.6980  -3.1956  -2.3692   0.7360   3.8177
     4.7915

          k = 0.0769 0.3109 0.0000 (  4191 PWs)   bands (ev):

    -6.2523  -4.4928  -4.3266  -3.3066  -2.5063  -2.4809   2.1691   5.1032
     6.1454

          k = 0.0769 0.3997 0.0000 (  4160 PWs)   bands (ev):

    -6.2044  -4.6770  -3.4806  -2.8849  -2.6357  -1.4894   3.9211   6.8015
     7.9200

          k = 0.0769 0.4885 0.0000 (  4164 PWs)   bands (ev):

    -6.3785  -4.8934  -2.8249  -2.7276  -2.3549   0.0008   5.9581   7.6015
     9.1696

          k = 0.0769-0.5774 0.0000 (  4162 PWs)   bands (ev):

    -6.4551  -4.9665  -2.7608  -2.6897  -2.1026   1.0650   6.2297   7.5612
     9.8035

          k = 0.1538 0.2665 0.0000 (  4197 PWs)   bands (ev):

    -6.0981  -4.9556  -4.2255  -3.3657  -2.5492  -2.4374   1.9578   4.8909
     5.9236

          k = 0.1538 0.3553 0.0000 (  4170 PWs)   bands (ev):

    -5.6076  -4.6760  -4.5113  -3.0094  -2.7639  -1.3109   3.5366   6.3935
     7.4864

          k = 0.1538 0.4441 0.0000 (  4163 PWs)   bands (ev):

    -5.8478  -4.6966  -3.7286  -2.9553  -2.7441   0.2558   5.4533   8.2321
     9.1908

          k = 0.1538-0.6218 0.0000 (  4158 PWs)   bands (ev):

    -6.0144  -4.7846  -3.1022  -3.0687  -2.6625   1.9969   6.9218   7.5763
    10.8553

          k = 0.2308 0.3997 0.0000 (  4168 PWs)   bands (ev):

    -5.2662  -4.5834  -4.5609  -3.0884  -2.7729   0.3485   5.2870   8.1066
     9.2154

          k = 0.2308-0.6662 0.0000 (  4164 PWs)   bands (ev):

    -5.3767  -4.5607  -4.0544  -3.3823  -2.6646   2.3796   7.3787   8.6295
    10.2988

          k = 0.2308-0.5774 0.0000 (  4154 PWs)   bands (ev):

    -5.4400  -4.5284  -3.8169  -3.5106  -2.6527   3.9294   6.7488   9.1963
    11.1055

          k = 0.3077-0.6218 0.0000 (  4164 PWs)   bands (ev):

    -4.9288  -4.3785  -4.2926  -3.8168  -2.6461   4.7609   7.4776   9.1118
     9.5944

     the Fermi energy is    -2.6161 ev

!    total energy              =    -161.92957145 Ry
     total all-electron energy =     -2786.773248 Ry
     estimated scf accuracy    <       0.00000002 Ry
     smearing contrib. (-TS)   =      -0.00987398 Ry
     internal energy E=F+TS    =    -161.91969748 Ry

     The total energy is F=E-TS. E is the sum of the following terms:
     one-electron contribution =    -234.47775080 Ry
     hartree contribution      =     125.01215753 Ry
     xc contribution           =     -32.50232154 Ry
     ewald contribution        =      66.59853127 Ry
     one-center paw contrib.   =     -86.55031394 Ry

     convergence has been achieved in   7 iterations

     negative rho (up, down):  1.691E-04 0.000E+00

     Forces acting on atoms (cartesian axes, Ry/au):

     atom    1 type  1   force =     0.00000000    0.00000000    0.00000000
     The non-local contrib.  to forces
     atom    1 type  1   force =     0.00000000   -0.00000000    0.00000000
     The ionic contribution  to forces
     atom    1 type  1   force =    -0.00000000    0.00000000    0.00000000
     The local contribution  to forces
     atom    1 type  1   force =     0.00000000    0.00000000   -0.00000000
     The core correction contribution to forces
     atom    1 type  1   force =     0.00000000    0.00000000   -0.00000000
     The Hubbard contrib.    to forces
     atom    1 type  1   force =     0.00000000    0.00000000    0.00000000
     The SCF correction term to forces
     atom    1 type  1   force =    -0.00000000    0.00000000   -0.00000000

     Total force =     0.000000     Total SCF correction =     0.000000


     Computing stress (Cartesian axis) and pressure


     negative rho (up, down):  1.691E-04 0.000E+00
          total   stress  (Ry/bohr**3)                   (kbar)     P=       -4.72
  -0.00004758   0.00000000   0.00000000           -7.00        0.00        0.00
   0.00000000  -0.00004758   0.00000000            0.00       -7.00        0.00
   0.00000000   0.00000000  -0.00000117            0.00        0.00       -0.17


     Writing all to output data dir ./tmp/scf.save/
 
     init_run     :      0.14s CPU      0.19s WALL (       1 calls)
     electrons    :      1.11s CPU      1.21s WALL (       1 calls)
     forces       :      0.04s CPU      0.04s WALL (       1 calls)
     stress       :      0.13s CPU      0.13s WALL (       1 calls)

     Called by init_run:
     wfcinit      :      0.02s CPU      0.03s WALL (       1 calls)
     potinit      :      0.06s CPU      0.07s WALL (       1 calls)
     hinit0       :      0.05s CPU      0.07s WALL (       1 calls)

     Called by electrons:
     c_bands      :      0.56s CPU      0.61s WALL (       7 calls)
     sum_band     :      0.13s CPU      0.16s WALL (       7 calls)
     v_of_rho     :      0.01s CPU      0.02s WALL (       8 calls)
     newd         :      0.04s CPU      0.06s WALL (       8 calls)
     PAW_pot      :      0.41s CPU      0.43s WALL (       8 calls)
     mix_rho      :      0.00s CPU      0.00s WALL (       7 calls)

     Called by c_bands:
     init_us_2    :      0.01s CPU      0.01s WALL (     357 calls)
     init_us_2:cp :      0.01s CPU      0.01s WALL (     357 calls)
     cegterg      :      0.44s CPU      0.48s WALL (     147 calls)

     Called by *egterg:
     cdiaghg      :      0.04s CPU      0.05s WALL (     713 calls)
     h_psi        :      0.35s CPU      0.39s WALL (     734 calls)
     s_psi        :      0.00s CPU      0.00s WALL (     734 calls)
     g_psi        :      0.00s CPU      0.00s WALL (     566 calls)

     Called by h_psi:
     h_psi:calbec :      0.02s CPU      0.02s WALL (     734 calls)
     vloc_psi     :      0.32s CPU      0.36s WALL (     734 calls)
     add_vuspsi   :      0.00s CPU      0.01s WALL (     734 calls)

     General routines
     calbec       :      0.05s CPU      0.05s WALL (     986 calls)
     fft          :      0.03s CPU      0.06s WALL (     113 calls)
     ffts         :      0.00s CPU      0.00s WALL (       7 calls)
     fftw         :      0.36s CPU      0.39s WALL (    8853 calls)
 
     Parallel routines
 
     PWSCF        :      1.51s CPU      1.69s WALL

 
   This run was terminated on:  14:42: 9   5Jun2025            

=------------------------------------------------------------------------------=
   JOB DONE.
=------------------------------------------------------------------------------=
