
     Program PWSCF v.7.2 starts on 17Jul2025 at 13:30: 0 

     This program is part of the open-source Quantum ESPRESSO suite
     for quantum simulation of materials; please cite
         "P. Giannozzi et al., J. Phys.:Condens. Matter 21 395502 (2009);
         "P. Giannozzi et al., J. Phys.:Condens. Matter 29 465901 (2017);
         "P. Giannozzi et al., J. Chem. Phys. 152 154105 (2020);
          URL http://www.quantum-espresso.org", 
     in publications or presentations arising from this work. More details at
     http://www.quantum-espresso.org/quote

     Parallel version (MPI), running on    16 processors

     MPI processes distributed on     1 nodes
     18923 MiB available memory on the printing compute node when the environment starts
 
     Waiting for input...
     Reading input from standard input

     Current dimensions of program PWSCF are:
     Max number of different atomic species (ntypx) = 10
     Max number of k-points (npk) =  40000
     Max angular momentum in pseudopotentials (lmaxx) =  4
     file Mo.pbe-spn-kjpaw_psl.1.0.0.UPF: wavefunction(s)  4S 4D renormalized
     file S.pbe-n-kjpaw_psl.1.0.0.UPF: wavefunction(s)  3S 3P renormalized
     file Co.pbe-n-kjpaw_psl.1.0.0.UPF: wavefunction(s)  4S 3D renormalized
     Message from routine setup:
     using ibrav=0 with symmetry is DISCOURAGED, use correct ibrav instead
 
     R & G space division:  proc/nbgrp/npool/nimage =      16
     Subspace diagonalization in iterative solution of the eigenvalue problem:
     a serial algorithm will be used

 
     Parallelization info
     --------------------
     sticks:   dense  smooth     PW     G-vecs:    dense   smooth      PW
     Min         108      42     12                28601     7220    1136
     Max         110      43     13                28616     7259    1171
     Sum        1735     685    199               457675   115763   18407
 
     Using Slab Decomposition
 


     bravais-lattice index     =            0
     lattice parameter (alat)  =       5.9812  a.u.
     unit-cell volume          =    1463.6779 (a.u.)^3
     number of atoms/cell      =            4
     number of atomic types    =            3
     number of electrons       =        35.00
     number of Kohn-Sham states=           22
     kinetic-energy cutoff     =      70.0000  Ry
     charge density cutoff     =     700.0000  Ry
     scf convergence threshold =      1.0E-06
     mixing beta               =       0.7000
     number of iterations used =            8  plain     mixing
     energy convergence thresh.=      1.0E-04
     force convergence thresh. =      1.0E-03
     Exchange-correlation= SLA  PW   PBX  PBC
                           (   1   4   3   4   0   0   0)
     nstep                     =          100


     celldm(1)=   5.981197  celldm(2)=   0.000000  celldm(3)=   0.000000
     celldm(4)=   0.000000  celldm(5)=   0.000000  celldm(6)=   0.000000

     crystal axes: (cart. coord. in units of alat)
               a(1) = (   1.000000   0.000000   0.000000 )  
               a(2) = (  -0.500000   0.866025   0.000000 )  
               a(3) = (   0.000000   0.000000   7.898612 )  

     reciprocal axes: (cart. coord. in units 2 pi/alat)
               b(1) = (  1.000000  0.577351  0.000000 )  
               b(2) = (  0.000000  1.154701  0.000000 )  
               b(3) = (  0.000000  0.000000  0.126605 )  


     PseudoPot. # 1 for Mo read from file:
     /shared/ESPRESSO/PSLIBRARY/1.0.0/pbe/PSEUDOPOTENTIALS/Mo.pbe-spn-kjpaw_psl.1.0.0.UPF
     MD5 check sum: 4396e0c640fcce5c25f020efccf1ab12
     Pseudo is Projector augmented-wave + core cor, Zval = 14.0
     Generated using &quot;atomic&quot; code by A. Dal Corso  v.6.3
     Shape of augmentation charge: PSQ
     Using radial grid of 1229 points,  6 beta functions with: 
                l(1) =   0
                l(2) =   0
                l(3) =   1
                l(4) =   1
                l(5) =   2
                l(6) =   2
     Q(r) pseudized with 0 coefficients 


     PseudoPot. # 2 for S  read from file:
     /shared/ESPRESSO/PSLIBRARY/1.0.0/pbe/PSEUDOPOTENTIALS/S.pbe-n-kjpaw_psl.1.0.0.UPF
     MD5 check sum: c08f931834bcc19553f8bde8f1a3adc5
     Pseudo is Projector augmented-wave + core cor, Zval =  6.0
     Generated using "atomic" code by A. Dal Corso  (Quantum ESPRESSO distribution)
     Shape of augmentation charge: PSQ
     Using radial grid of 1151 points,  6 beta functions with: 
                l(1) =   0
                l(2) =   0
                l(3) =   1
                l(4) =   1
                l(5) =   2
                l(6) =   2
     Q(r) pseudized with 0 coefficients 


     PseudoPot. # 3 for Co read from file:
     /shared/ESPRESSO/PSLIBRARY/1.0.0/pbe/PSEUDOPOTENTIALS/Co.pbe-n-kjpaw_psl.1.0.0.UPF
     MD5 check sum: 17e7ab8db721b244d1352252ea6cb8e7
     Pseudo is Projector augmented-wave + core cor, Zval =  9.0
     Generated using "atomic" code by A. Dal Corso  (Quantum ESPRESSO distribution)
     Shape of augmentation charge: PSQ
     Using radial grid of 1193 points,  6 beta functions with: 
                l(1) =   0
                l(2) =   0
                l(3) =   1
                l(4) =   1
                l(5) =   2
                l(6) =   2
     Q(r) pseudized with 0 coefficients 


     atomic species   valence    mass     pseudopotential
        Mo            14.00    95.94000     Mo( 1.00)
        S              6.00    32.06500     S ( 1.00)
        Co             9.00    58.93320     Co( 1.00)

     Starting magnetic structure 
     atomic species   magnetization
        Mo           0.000
        S            0.000
        Co           0.800

      6 Sym. Ops. (no inversion) found



   Cartesian axes

     site n.     atom                  positions (alat units)
         1           Mo  tau(   1) = (   0.0000000   0.0000000   3.0014725  )
         2           S   tau(   2) = (   0.5000000   0.2886750   3.4964188  )
         3           S   tau(   3) = (   0.5000000   0.2886750   2.5065262  )
         4           Co  tau(   4) = (   0.0000000   0.0000000   4.1283077  )

     --------------------------------------------
     DFT-D3 Dispersion Correction (3-body terms):
     --------------------------------------------
       Reference C6 values for interpolation: 

         atom   Coordination number   C6
         S          0.000           268.01
         S          0.995           261.99
         S          1.990           251.62
         Co         0.000          1065.56
         Co         1.715           373.09
         Co         2.926           296.13
         Co         7.779           236.57
         Mo         0.000          1691.79
         Mo         1.942          1004.01
         Mo        11.056           674.22

       Values used:

         atom   Coordination number  R0_AB[au]  C6      C8
         Mo        10.170            3.547    674.22  77634.20
         S          5.160            3.128    251.62  12327.25
         S          3.718            3.128    251.62  12327.25
         Co         1.982            3.243    370.13  32544.23

         Molecular C6 ( Ry / a.u.^6 ) =      5896.64


     number of k points=    19  Gaussian smearing, width (Ry)=  0.0073
                       cart. coord. in units 2pi/alat
        k(    1) = (   0.0000000   0.0000000   0.0000000), wk =   0.0069444
        k(    2) = (   0.0000000   0.0962251   0.0000000), wk =   0.0416667
        k(    3) = (   0.0000000   0.1924502   0.0000000), wk =   0.0416667
        k(    4) = (   0.0000000   0.2886753   0.0000000), wk =   0.0416667
        k(    5) = (   0.0000000   0.3849004   0.0000000), wk =   0.0416667
        k(    6) = (   0.0000000   0.4811254   0.0000000), wk =   0.0416667
        k(    7) = (   0.0000000  -0.5773505   0.0000000), wk =   0.0208333
        k(    8) = (   0.0833333   0.1443376   0.0000000), wk =   0.0416667
        k(    9) = (   0.0833333   0.2405627   0.0000000), wk =   0.0833333
        k(   10) = (   0.0833333   0.3367878   0.0000000), wk =   0.0833333
        k(   11) = (   0.0833333   0.4330129   0.0000000), wk =   0.0833333
        k(   12) = (   0.0833333   0.5292380   0.0000000), wk =   0.0833333
        k(   13) = (   0.1666667   0.2886753   0.0000000), wk =   0.0416667
        k(   14) = (   0.1666667   0.3849004   0.0000000), wk =   0.0833333
        k(   15) = (   0.1666667   0.4811254   0.0000000), wk =   0.0833333
        k(   16) = (   0.1666667   0.5773505   0.0000000), wk =   0.0416667
        k(   17) = (   0.2500000   0.4330129   0.0000000), wk =   0.0416667
        k(   18) = (   0.2500000   0.5292380   0.0000000), wk =   0.0833333
        k(   19) = (   0.3333333   0.5773505   0.0000000), wk =   0.0138889

     Dense  grid:   457675 G-vectors     FFT dimensions: (  54,  54, 400)

     Smooth grid:   115763 G-vectors     FFT dimensions: (  32,  32, 256)

     Estimated max dynamical RAM per process >     137.57 MB

     Estimated total dynamical RAM >       2.15 GB
     Generating pointlists ...
     new r_m :   0.3137 (alat units)  1.8762 (a.u.) for type    1
     new r_m :   0.3137 (alat units)  1.8762 (a.u.) for type    2
     new r_m :   0.3531 (alat units)  2.1118 (a.u.) for type    3

     Initial potential from superposition of free atoms

     starting charge      34.9988, renormalised to      35.0000

     negative rho (up, down):  4.089E-05 3.773E-05
     Starting wfcs are   27 randomized atomic wfcs
     Checking if some PAW data can be deallocated... 

     total cpu time spent up to now is        4.5 secs

     Self-consistent Calculation

     iteration #  1     ecut=    70.00 Ry     beta= 0.70
     Davidson diagonalization with overlap
     ethr =  1.00E-02,  avg # of iterations =  2.2

     negative rho (up, down):  4.050E-07 7.339E-07

     total cpu time spent up to now is        8.8 secs

     total energy              =    -657.25406687 Ry
     estimated scf accuracy    <       1.61616850 Ry

     total magnetization       =     3.11 Bohr mag/cell
     absolute magnetization    =     3.71 Bohr mag/cell

     iteration #  2     ecut=    70.00 Ry     beta= 0.70
     Davidson diagonalization with overlap
     ethr =  4.62E-03,  avg # of iterations =  9.0

     negative rho (up, down):  4.419E-07 8.302E-07

     total cpu time spent up to now is       15.2 secs

     total energy              =    -647.12681095 Ry
     estimated scf accuracy    <     408.67796016 Ry

     total magnetization       =     0.48 Bohr mag/cell
     absolute magnetization    =     0.70 Bohr mag/cell

     iteration #  3     ecut=    70.00 Ry     beta= 0.70
     Davidson diagonalization with overlap
     ethr =  4.62E-03,  avg # of iterations =  8.2

     negative rho (up, down):  4.455E-07 1.056E-06

     total cpu time spent up to now is       21.2 secs

     total energy              =    -658.38294848 Ry
     estimated scf accuracy    <      14.30012787 Ry

     total magnetization       =     0.38 Bohr mag/cell
     absolute magnetization    =     0.49 Bohr mag/cell

     iteration #  4     ecut=    70.00 Ry     beta= 0.70
     Davidson diagonalization with overlap
     ethr =  4.62E-03,  avg # of iterations =  1.7

     negative rho (up, down):  1.227E-06 2.397E-06

     total cpu time spent up to now is       25.1 secs

     total energy              =    -658.50042245 Ry
     estimated scf accuracy    <       1.30734767 Ry

     total magnetization       =     2.03 Bohr mag/cell
     absolute magnetization    =     2.19 Bohr mag/cell

     iteration #  5     ecut=    70.00 Ry     beta= 0.70
     Davidson diagonalization with overlap
     ethr =  3.74E-03,  avg # of iterations =  2.8

     negative rho (up, down):  5.727E-06 9.983E-06

     total cpu time spent up to now is       29.2 secs

     total energy              =    -658.45723410 Ry
     estimated scf accuracy    <       4.80107553 Ry

     total magnetization       =     0.62 Bohr mag/cell
     absolute magnetization    =     0.84 Bohr mag/cell

     iteration #  6     ecut=    70.00 Ry     beta= 0.70
     Davidson diagonalization with overlap
     ethr =  3.74E-03,  avg # of iterations =  1.2

     negative rho (up, down):  1.603E-05 2.049E-05

     total cpu time spent up to now is       33.0 secs

     total energy              =    -658.56526931 Ry
     estimated scf accuracy    <       0.22191091 Ry

     total magnetization       =     1.99 Bohr mag/cell
     absolute magnetization    =     2.14 Bohr mag/cell

     iteration #  7     ecut=    70.00 Ry     beta= 0.70
     Davidson diagonalization with overlap
     ethr =  6.34E-04,  avg # of iterations =  6.1

     negative rho (up, down):  1.930E-03 1.955E-03

     total cpu time spent up to now is       37.6 secs

     total energy              =    -658.60026238 Ry
     estimated scf accuracy    <       0.15157853 Ry

     total magnetization       =     2.13 Bohr mag/cell
     absolute magnetization    =     2.36 Bohr mag/cell

     iteration #  8     ecut=    70.00 Ry     beta= 0.70
     Davidson diagonalization with overlap
     ethr =  4.33E-04,  avg # of iterations =  1.7

     negative rho (up, down):  5.233E-03 5.257E-03

     total cpu time spent up to now is       41.6 secs

     total energy              =    -658.60854156 Ry
     estimated scf accuracy    <       0.02319489 Ry

     total magnetization       =     2.08 Bohr mag/cell
     absolute magnetization    =     2.27 Bohr mag/cell

     iteration #  9     ecut=    70.00 Ry     beta= 0.70
     Davidson diagonalization with overlap
     ethr =  6.63E-05,  avg # of iterations =  5.6

     negative rho (up, down):  3.257E-03 3.341E-03

     total cpu time spent up to now is       46.3 secs

     total energy              =    -658.61237432 Ry
     estimated scf accuracy    <       0.00563434 Ry

     total magnetization       =     2.13 Bohr mag/cell
     absolute magnetization    =     2.31 Bohr mag/cell

     iteration # 10     ecut=    70.00 Ry     beta= 0.70
     Davidson diagonalization with overlap
     ethr =  1.61E-05,  avg # of iterations =  3.3

     negative rho (up, down):  8.421E-04 9.208E-04

     total cpu time spent up to now is       50.6 secs

     total energy              =    -658.61222905 Ry
     estimated scf accuracy    <       0.00566687 Ry

     total magnetization       =     2.14 Bohr mag/cell
     absolute magnetization    =     2.31 Bohr mag/cell

     iteration # 11     ecut=    70.00 Ry     beta= 0.70
     Davidson diagonalization with overlap
     ethr =  1.61E-05,  avg # of iterations =  1.5

     negative rho (up, down):  1.217E-04 1.404E-04

     total cpu time spent up to now is       54.8 secs

     total energy              =    -658.61258258 Ry
     estimated scf accuracy    <       0.00120637 Ry

     total magnetization       =     2.13 Bohr mag/cell
     absolute magnetization    =     2.28 Bohr mag/cell

     iteration # 12     ecut=    70.00 Ry     beta= 0.70
     Davidson diagonalization with overlap
     ethr =  3.45E-06,  avg # of iterations =  3.4

     negative rho (up, down):  8.680E-05 9.979E-05

     total cpu time spent up to now is       58.9 secs

     total energy              =    -658.61266453 Ry
     estimated scf accuracy    <       0.00058676 Ry

     total magnetization       =     2.13 Bohr mag/cell
     absolute magnetization    =     2.27 Bohr mag/cell

     iteration # 13     ecut=    70.00 Ry     beta= 0.70
     Davidson diagonalization with overlap
     ethr =  1.68E-06,  avg # of iterations =  1.6

     negative rho (up, down):  4.678E-05 4.839E-05

     total cpu time spent up to now is       63.2 secs

     total energy              =    -658.61275335 Ry
     estimated scf accuracy    <       0.00006733 Ry

     total magnetization       =     2.12 Bohr mag/cell
     absolute magnetization    =     2.27 Bohr mag/cell

     iteration # 14     ecut=    70.00 Ry     beta= 0.70
     Davidson diagonalization with overlap
     ethr =  1.92E-07,  avg # of iterations =  4.4

     negative rho (up, down):  4.093E-05 4.120E-05

     total cpu time spent up to now is       67.9 secs

     total energy              =    -658.61279014 Ry
     estimated scf accuracy    <       0.00007319 Ry

     total magnetization       =     2.13 Bohr mag/cell
     absolute magnetization    =     2.27 Bohr mag/cell

     iteration # 15     ecut=    70.00 Ry     beta= 0.70
     Davidson diagonalization with overlap
     ethr =  1.92E-07,  avg # of iterations =  2.5

     negative rho (up, down):  4.641E-05 4.768E-05

     total cpu time spent up to now is       72.2 secs

     total energy              =    -658.61284875 Ry
     estimated scf accuracy    <       0.00000790 Ry

     total magnetization       =     2.13 Bohr mag/cell
     absolute magnetization    =     2.26 Bohr mag/cell

     iteration # 16     ecut=    70.00 Ry     beta= 0.70
     Davidson diagonalization with overlap
     ethr =  2.26E-08,  avg # of iterations =  4.0

     negative rho (up, down):  4.770E-05 4.929E-05

     total cpu time spent up to now is       76.8 secs

     total energy              =    -658.61285250 Ry
     estimated scf accuracy    <       0.00000316 Ry

     total magnetization       =     2.13 Bohr mag/cell
     absolute magnetization    =     2.26 Bohr mag/cell

     iteration # 17     ecut=    70.00 Ry     beta= 0.70
     Davidson diagonalization with overlap
     ethr =  9.03E-09,  avg # of iterations =  2.4

     negative rho (up, down):  4.905E-05 5.104E-05

     total cpu time spent up to now is       80.8 secs

     total energy              =    -658.61285496 Ry
     estimated scf accuracy    <       0.00000170 Ry

     total magnetization       =     2.12 Bohr mag/cell
     absolute magnetization    =     2.26 Bohr mag/cell

     iteration # 18     ecut=    70.00 Ry     beta= 0.70
     Davidson diagonalization with overlap
     ethr =  4.86E-09,  avg # of iterations =  3.2

     negative rho (up, down):  4.669E-05 4.801E-05
 
     Magnetic moment per site  (integrated on atomic sphere of radius R)
     atom   1 (R=0.314)  charge= 10.7663  magn=  0.0149
     atom   2 (R=0.314)  charge=  4.1752  magn=  0.0415
     atom   3 (R=0.314)  charge=  4.1372  magn=  0.0031
     atom   4 (R=0.353)  charge=  7.5713  magn=  2.0565

     total cpu time spent up to now is       85.0 secs

     End of self-consistent calculation

 ------ SPIN UP ------------


          k = 0.0000 0.0000 0.0000 ( 14351 PWs)   bands (ev):

   -61.6485 -35.8570 -35.5676 -35.5676 -15.4362 -13.9886  -7.2322  -4.2398
    -3.5736  -3.5735  -2.6679  -2.5402  -2.5402  -1.8346  -1.8346  -1.4315
    -1.2286  -1.2286  -0.4623   1.7004   1.7004   2.0978

          k = 0.0000 0.0962 0.0000 ( 14357 PWs)   bands (ev):

   -61.6458 -35.8517 -35.5950 -35.5738 -15.3355 -13.9361  -7.1219  -4.2477
    -3.8327  -3.4866  -2.9540  -2.6817  -2.3846  -1.8557  -1.8116  -1.4334
    -1.2703  -1.2350  -0.3542   1.5183   1.7683   1.8493

          k = 0.0000 0.1925 0.0000 ( 14400 PWs)   bands (ev):

   -61.6384 -35.8369 -35.6690 -35.5907 -15.0500 -13.7853  -6.8387  -4.5194
    -4.3265  -3.3463  -3.1883  -2.9272  -2.3948  -1.8888  -1.7275  -1.5254
    -1.3676  -1.2463  -0.2465   1.3019   1.6228   1.6690

          k = 0.0000 0.2887 0.0000 ( 14448 PWs)   bands (ev):

   -61.6283 -35.8167 -35.7688 -35.6136 -14.6302 -13.5577  -6.5641  -5.2091
    -4.7172  -3.6092  -3.2889  -2.7398  -2.4515  -1.9634  -1.7124  -1.5951
    -1.4733  -1.2358  -0.1894   1.4010   1.4159   2.0096

          k = 0.0000 0.3849 0.0000 ( 14480 PWs)   bands (ev):

   -61.6181 -35.8671 -35.7964 -35.6365 -14.1676 -13.2928  -6.6439  -5.7454
    -5.0880  -3.9532  -3.4458  -2.4602  -2.4494  -2.0441  -1.8455  -1.4519
    -1.4130  -1.1749   0.2052   1.3390   1.7327   2.5097

          k = 0.0000 0.4811 0.0000 ( 14494 PWs)   bands (ev):

   -61.6107 -35.9381 -35.7816 -35.6531 -13.7977 -13.0572  -7.0213  -6.0692
    -5.3051  -4.1858  -3.6118  -2.4527  -2.3091  -1.9201  -1.8358  -1.3357
    -1.3074  -1.0943   0.9438   1.4051   2.0809   2.8196

          k = 0.0000-0.5774 0.0000 ( 14518 PWs)   bands (ev):

   -61.6079 -35.9639 -35.7761 -35.6592 -13.6563 -12.9558  -7.2083  -6.1955
    -5.3839  -4.2667  -3.6758  -2.4578  -2.2694  -1.8883  -1.7554  -1.2896
    -1.2253  -1.0602   1.4653   1.5217   2.0992   2.9084

          k = 0.0833 0.1443 0.0000 ( 14400 PWs)   bands (ev):

   -61.6408 -35.8416 -35.6443 -35.5867 -15.1423 -13.8343  -6.9232  -4.3243
    -4.2533  -3.3837  -3.1464  -2.9418  -2.3254  -1.8672  -1.7608  -1.4920
    -1.3102  -1.2518  -0.2572   1.3350   1.6132   1.6629

          k = 0.0833 0.2406 0.0000 ( 14456 PWs)   bands (ev):

   -61.6320 -35.8241 -35.7276 -35.6102 -14.7887 -13.6441  -6.6282  -4.8869
    -4.5519  -3.7483  -3.2005  -2.8634  -2.3550  -1.8785  -1.6697  -1.5883
    -1.4365  -1.2674  -0.2496   1.2907   1.4925   1.6840

          k = 0.0833 0.3368 0.0000 ( 14475 PWs)   bands (ev):

   -61.6218 -35.8224 -35.8038 -35.6373 -14.3439 -13.3944  -6.5078  -5.4629
    -4.9466  -4.1319  -3.2773  -2.6877  -2.3771  -1.9787  -1.7782  -1.5735
    -1.3577  -1.2377  -0.0912   1.3405   1.6035   2.1622

          k = 0.0833 0.4330 0.0000 ( 14478 PWs)   bands (ev):

   -61.6130 -35.9033 -35.7863 -35.6608 -13.9210 -13.1358  -6.7799  -5.8744
    -5.2586  -4.2937  -3.4744  -2.6888  -2.3425  -1.9455  -1.8110  -1.4790
    -1.2648  -1.1382   0.4631   1.5065   1.9127   2.7007

          k = 0.0833 0.5292 0.0000 ( 14500 PWs)   bands (ev):

   -61.6079 -35.9495 -35.7761 -35.6743 -13.6607 -12.9550  -7.0814  -6.1334
    -5.4153  -4.3263  -3.6616  -2.6982  -2.3163  -1.8770  -1.7504  -1.3633
    -1.2161  -1.0472   1.2077   1.6143   2.2095   2.8326

          k = 0.1667 0.2887 0.0000 ( 14482 PWs)   bands (ev):

   -61.6232 -35.8067 -35.7993 -35.6443 -14.4074 -13.4292  -6.4554  -5.2364
    -4.8605  -4.3880  -3.2964  -2.7458  -2.3047  -1.9215  -1.7254  -1.6000
    -1.3166  -1.2935  -0.2211   1.2905   1.5828   1.9414

          k = 0.1667 0.3849 0.0000 ( 14494 PWs)   bands (ev):

   -61.6144 -35.8669 -35.7890 -35.6819 -13.9938 -13.1769  -6.5472  -5.5710
    -5.2699  -4.5686  -3.5421  -2.8730  -2.2403  -1.9921  -1.7624  -1.5506
    -1.2681  -1.1563   0.1172   1.6146   1.7247   2.4053

          k = 0.1667 0.4811 0.0000 ( 14497 PWs)   bands (ev):

   -61.6079 -35.9145 -35.7762 -35.7107 -13.6697 -12.9531  -6.7908  -5.9945
    -5.4343  -4.5080  -3.7824  -3.1108  -2.2045  -1.8951  -1.7632  -1.4878
    -1.2159  -1.0545   0.8232   1.6771   2.1727   2.7152

          k = 0.1667 0.5774 0.0000 ( 14512 PWs)   bands (ev):

   -61.6056 -35.9317 -35.7714 -35.7214 -13.5471 -12.8585  -6.9114  -6.1456
    -5.5297  -4.3993  -3.9318  -3.2075  -2.1974  -1.8500  -1.7561  -1.4308
    -1.1986  -0.9690   1.2280   1.8125   2.3454   2.5528

          k = 0.2500 0.4330 0.0000 ( 14510 PWs)   bands (ev):

   -61.6080 -35.8911 -35.7762 -35.7348 -13.6742 -12.9520  -6.6137  -5.9660
    -5.2860  -4.7424  -3.9833  -3.1471  -2.1058  -1.9537  -1.7650  -1.5406
    -1.2092  -1.0803   0.6608   1.6377   2.1022   2.6974

          k = 0.2500 0.5292 0.0000 ( 14528 PWs)   bands (ev):

   -61.6042 -35.8961 -35.7743 -35.7687 -13.4836 -12.8002  -6.6718  -6.1683
    -5.4130  -4.7571  -4.2091  -3.3933  -2.0453  -1.8629  -1.7804  -1.5465
    -1.1610  -0.9199   1.0051   1.7228   2.2778   3.0289

          k = 0.3333 0.5774 0.0000 ( 14538 PWs)   bands (ev):

   -61.6029 -35.8666 -35.8204 -35.7660 -13.4149 -12.7399  -6.6407  -6.1192
    -5.2631  -5.2178  -4.2265  -3.5213  -1.9531  -1.8732  -1.7501  -1.6336
    -1.1502  -0.7639   0.8234   1.7770   2.4851   3.4086

 ------ SPIN DOWN ----------


          k = 0.0000 0.0000 0.0000 ( 14351 PWs)   bands (ev):

   -61.6365 -35.8291 -35.5618 -35.5618 -15.3994 -13.9728  -7.1880  -4.1080
    -3.5420  -3.5420  -2.4747  -2.4747  -1.7471  -0.4967   0.0523   0.0523
     0.1534   0.1534   0.6621   1.8345   1.8345   2.1363

          k = 0.0000 0.0962 0.0000 ( 14357 PWs)   bands (ev):

   -61.6338 -35.8237 -35.5891 -35.5680 -15.2983 -13.9207  -7.0768  -4.1489
    -3.7954  -3.4498  -2.6661  -2.6343  -1.6005  -0.6745   0.0069   0.0562
     0.1831   0.2636   0.7610   1.6748   1.8664   1.9375

          k = 0.0000 0.1925 0.0000 ( 14400 PWs)   bands (ev):

   -61.6264 -35.8089 -35.6631 -35.5848 -15.0112 -13.7712  -6.7907  -4.4701
    -4.2897  -3.2826  -2.9186  -2.9002  -1.5200  -1.0478  -0.0884   0.0262
     0.3094   0.4408   0.8861   1.4441   1.7082   1.7687

          k = 0.0000 0.2887 0.0000 ( 14448 PWs)   bands (ev):

   -61.6163 -35.7887 -35.7628 -35.6078 -14.5886 -13.5459  -6.5133  -5.1496
    -4.6962  -3.5594  -3.0901  -2.7098  -1.7429  -1.1824  -0.1772  -0.0057
     0.5069   0.5822   0.7927   1.5553   1.5976   2.1065

          k = 0.0000 0.3849 0.0000 ( 14480 PWs)   bands (ev):

   -61.6061 -35.8610 -35.7684 -35.6306 -14.1223 -13.2841  -6.5962  -5.6772
    -5.0602  -3.9135  -3.3068  -2.3869  -1.9817  -0.9680  -0.1697   0.0119
     0.7288   0.7575   0.8672   1.4443   1.9201   2.6497

          k = 0.0000 0.4811 0.0000 ( 14494 PWs)   bands (ev):

   -61.5987 -35.9319 -35.7535 -35.6472 -13.7492 -13.0511  -6.9732  -6.0118
    -5.2646  -4.1500  -3.4799  -2.1875  -1.8630  -0.8622  -0.0590   0.0673
     0.8515   0.9098   1.3559   1.4569   2.2724   3.0012

          k = 0.0000-0.5774 0.0000 ( 14518 PWs)   bands (ev):

   -61.5960 -35.9577 -35.7480 -35.6533 -13.6068 -12.9505  -7.1593  -6.1435
    -5.3405  -4.2319  -3.5401  -2.1273  -1.7341  -0.8493   0.0094   0.0954
     0.8639   0.9776   1.4945   1.7643   2.4601   3.0675

          k = 0.0833 0.1443 0.0000 ( 14400 PWs)   bands (ev):

   -61.6288 -35.8136 -35.6384 -35.5809 -15.1040 -13.8198  -6.8761  -4.2674
    -4.2128  -3.3275  -3.0049  -2.7258  -1.4871  -0.9334  -0.1204   0.0835
     0.2591   0.4022   0.8798   1.4897   1.6303   1.8098

          k = 0.0833 0.2406 0.0000 ( 14456 PWs)   bands (ev):

   -61.6200 -35.7961 -35.7216 -35.6043 -14.7482 -13.6314  -6.5775  -4.8346
    -4.5249  -3.7023  -3.0185  -2.6996  -1.5577  -1.1741  -0.2542   0.0406
     0.4203   0.5717   0.8075   1.4665   1.6131   1.8046

          k = 0.0833 0.3368 0.0000 ( 14475 PWs)   bands (ev):

   -61.6099 -35.8163 -35.7758 -35.6315 -14.3001 -13.3845  -6.4569  -5.3966
    -4.9233  -4.0932  -3.0862  -2.6185  -1.8329  -1.0202  -0.2887   0.0046
     0.5777   0.7150   0.7933   1.4995   1.7410   2.3328

          k = 0.0833 0.4330 0.0000 ( 14478 PWs)   bands (ev):

   -61.6011 -35.8971 -35.7582 -35.6549 -13.8736 -13.1289  -6.7306  -5.8173
    -5.2168  -4.2526  -3.3183  -2.6210  -1.7817  -0.8280  -0.1693   0.0240
     0.7391   0.8634   1.0153   1.6123   2.0705   2.8804

          k = 0.0833 0.5292 0.0000 ( 14500 PWs)   bands (ev):

   -61.5960 -35.9433 -35.7480 -35.6684 -13.6113 -12.9496  -7.0304  -6.0898
    -5.3627  -4.2855  -3.5127  -2.5983  -1.5874  -0.7811  -0.0389   0.0610
     0.8801   0.9207   1.4071   1.7442   2.4806   2.9921

          k = 0.1667 0.2887 0.0000 ( 14482 PWs)   bands (ev):

   -61.6112 -35.7935 -35.7785 -35.6384 -14.3641 -13.4188  -6.4024  -5.1718
    -4.8380  -4.3512  -3.1391  -2.5556  -1.7465  -1.0075  -0.4032   0.0076
     0.5399   0.6750   0.8025   1.4505   1.6686   2.1780

          k = 0.1667 0.3849 0.0000 ( 14494 PWs)   bands (ev):

   -61.6024 -35.8608 -35.7609 -35.6760 -13.9471 -13.1693  -6.4948  -5.5237
    -5.2199  -4.5143  -3.4421  -2.7334  -1.7646  -0.7041  -0.3709  -0.0260
     0.5314   0.8278   1.0021   1.7226   1.8137   2.6752

          k = 0.1667 0.4811 0.0000 ( 14497 PWs)   bands (ev):

   -61.5960 -35.9084 -35.7480 -35.7048 -13.6204 -12.9476  -6.7359  -5.9718
    -5.3553  -4.4442  -3.6835  -3.0355  -1.5606  -0.6040  -0.1595  -0.0163
     0.6381   0.9448   1.2918   1.7932   2.2548   3.0112

          k = 0.1667 0.5774 0.0000 ( 14512 PWs)   bands (ev):

   -61.5936 -35.9255 -35.7433 -35.7155 -13.4971 -12.8534  -6.8550  -6.1281
    -5.4486  -4.3340  -3.8178  -3.1591  -1.4139  -0.5984  -0.0653  -0.0107
     0.7497   0.9771   1.3473   1.9718   2.4791   2.9677

          k = 0.2500 0.4330 0.0000 ( 14510 PWs)   bands (ev):

   -61.5960 -35.8850 -35.7481 -35.7288 -13.6250 -12.9463  -6.5586  -5.9458
    -5.1945  -4.6597  -3.9598  -3.0191  -1.5851  -0.4145  -0.3090  -0.0644
     0.4821   0.9599   1.2747   1.7701   2.1430   3.0248

          k = 0.2500 0.5292 0.0000 ( 14528 PWs)   bands (ev):

   -61.5922 -35.8899 -35.7683 -35.7406 -13.4333 -12.7952  -6.6248  -6.1333
    -5.3232  -4.6712  -4.1783  -3.3126  -1.3294  -0.3942  -0.1682  -0.0323
     0.5581   1.0161   1.1513   1.9896   2.4187   3.3766

          k = 0.3333 0.5774 0.0000 ( 14538 PWs)   bands (ev):

   -61.5909 -35.8604 -35.8145 -35.7379 -13.3644 -12.7350  -6.6179  -6.0292
    -5.2028  -5.1561  -4.1652  -3.4596  -1.1958  -0.2517  -0.2311  -0.0047
     0.5571   0.8681   1.0464   2.0156   2.6675   3.8864

     the Fermi energy is     0.4918 ev

!    total energy              =    -658.61285585 Ry
     total all-electron energy =    -12481.786747 Ry
     estimated scf accuracy    <       0.00000075 Ry
     smearing contrib. (-TS)   =      -0.00113176 Ry
     internal energy E=F+TS    =    -658.61172409 Ry

     The total energy is F=E-TS. E is the sum of the following terms:
     one-electron contribution =   -2203.74555328 Ry
     hartree contribution      =    1113.12498232 Ry
     xc contribution           =     -62.30536889 Ry
     ewald contribution        =     900.53254913 Ry
     DFT-D3 Dispersion         =      -0.06402231 Ry
     one-center paw contrib.   =    -406.15431106 Ry

     total magnetization       =     2.12 Bohr mag/cell
     absolute magnetization    =     2.26 Bohr mag/cell

     convergence has been achieved in  18 iterations

     negative rho (up, down):  4.669E-05 4.801E-05

     Forces acting on atoms (cartesian axes, Ry/au):

     atom    1 type  1   force =     0.00000000   -0.00000000   -0.01461727
     atom    2 type  2   force =     0.00000000   -0.00000000    0.05249430
     atom    3 type  2   force =     0.00000000   -0.00000000   -0.00283157
     atom    4 type  3   force =     0.00000000    0.00000000   -0.03504547
     The non-local contrib.  to forces
     atom    1 type  1   force =     0.00000000   -0.00000000   -0.02807544
     atom    2 type  2   force =     0.00000000    0.00000000   -0.08210870
     atom    3 type  2   force =     0.00000000    0.00000000    0.26990672
     atom    4 type  3   force =     0.00000000    0.00000000   -0.04335412
     The ionic contribution  to forces
     atom    1 type  1   force =     0.00000000    0.00000500  -36.61090212
     atom    2 type  2   force =    -0.00000000   -0.00000324   20.54301379
     atom    3 type  2   force =    -0.00000000   -0.00000250  -51.21764332
     atom    4 type  3   force =     0.00000000    0.00000074   67.28553166
     The local contribution  to forces
     atom    1 type  1   force =     0.00000000   -0.00000301   36.62315253
     atom    2 type  2   force =    -0.00000000    0.00000228  -20.40315594
     atom    3 type  2   force =    -0.00000000    0.00000174   50.94626736
     atom    4 type  3   force =    -0.00000000   -0.00000044  -67.26251676
     The core correction contribution to forces
     atom    1 type  1   force =     0.00000000    0.00000000    0.00197912
     atom    2 type  2   force =     0.00000000    0.00000000   -0.00158899
     atom    3 type  2   force =     0.00000000    0.00000000   -0.00224860
     atom    4 type  3   force =     0.00000000    0.00000000   -0.01272904
     The Hubbard contrib.    to forces
     atom    1 type  1   force =     0.00000000    0.00000000    0.00000000
     atom    2 type  2   force =     0.00000000    0.00000000    0.00000000
     atom    3 type  2   force =     0.00000000    0.00000000    0.00000000
     atom    4 type  3   force =     0.00000000    0.00000000    0.00000000
     The SCF correction term to forces
     atom    1 type  1   force =    -0.00000000   -0.00000000   -0.00470642
     atom    2 type  2   force =     0.00000000   -0.00000000   -0.00001920
     atom    3 type  2   force =    -0.00000000   -0.00000000   -0.00127766
     atom    4 type  3   force =    -0.00000000    0.00000000    0.00190878

     DFT-D3 dispersion contribution to forces:
     atom    1 type  1   force =     0.00000000   -0.00000001    0.00429348
     atom    2 type  2   force =     0.00000000    0.00000000   -0.00328825
     atom    3 type  2   force =    -0.00000000    0.00000000    0.00252234
     atom    4 type  3   force =    -0.00000000    0.00000000   -0.00352758

     Total force =     0.064850     Total SCF correction =     0.005237


     Computing stress (Cartesian axis) and pressure


     negative rho (up, down):  4.669E-05 4.801E-05
          total   stress  (Ry/bohr**3)                   (kbar)     P=      -14.78
  -0.00012397   0.00000000   0.00000000          -18.24        0.00        0.00
   0.00000000  -0.00012397   0.00000000            0.00      -18.24        0.00
   0.00000000   0.00000000  -0.00005338            0.00        0.00       -7.85


     BFGS Geometry Optimization
     Energy error            =      0.0E+00 Ry
     Gradient error          =      5.2E-02 Ry/Bohr

     number of scf cycles    =   1
     number of bfgs steps    =   0

     energy             new  =    -658.6128558486 Ry

     new trust radius        =       0.0524943004 bohr
     new conv_thr            =       0.0000010000 Ry


ATOMIC_POSITIONS (crystal)
Mo           -0.0000000000       -0.0000000000        0.3796905959
S             0.6666666667        0.3333333333        0.4437735900
S             0.6666666667        0.3333333333        0.3172776273
Co            0.0000000000        0.0000000000        0.5219206280



     Writing config-only to output data dir ./tmp/scf.save/
     NEW-OLD atomic charge density approx. for the potential

     negative rho (up, down):  4.796E-05 4.855E-05
     Generating pointlists ...
     new r_m :   0.3486 (alat units)  2.0853 (a.u.) for type    3

     total cpu time spent up to now is       98.5 secs

     Self-consistent Calculation

     iteration #  1     ecut=    70.00 Ry     beta= 0.70
     Davidson diagonalization with overlap
     ethr =  1.00E-06,  avg # of iterations =  8.5

     negative rho (up, down):  4.703E-05 4.791E-05

     total cpu time spent up to now is      105.3 secs

     total energy              =    -658.61544641 Ry
     estimated scf accuracy    <       0.00166420 Ry

     total magnetization       =     2.12 Bohr mag/cell
     absolute magnetization    =     2.26 Bohr mag/cell

     iteration #  2     ecut=    70.00 Ry     beta= 0.70
     Davidson diagonalization with overlap
     ethr =  4.75E-06,  avg # of iterations =  7.7

     negative rho (up, down):  4.670E-05 4.797E-05

     total cpu time spent up to now is      110.0 secs

     total energy              =    -658.60852742 Ry
     estimated scf accuracy    <       0.17469067 Ry

     total magnetization       =     1.99 Bohr mag/cell
     absolute magnetization    =     2.12 Bohr mag/cell

     iteration #  3     ecut=    70.00 Ry     beta= 0.70
     Davidson diagonalization with overlap
     ethr =  4.75E-06,  avg # of iterations =  7.3

     negative rho (up, down):  4.670E-05 4.807E-05

     total cpu time spent up to now is      114.2 secs

     total energy              =    -658.61593895 Ry
     estimated scf accuracy    <       0.00299948 Ry

     total magnetization       =     2.14 Bohr mag/cell
     absolute magnetization    =     2.28 Bohr mag/cell

     iteration #  4     ecut=    70.00 Ry     beta= 0.70
     Davidson diagonalization with overlap
     ethr =  4.75E-06,  avg # of iterations =  3.4

     negative rho (up, down):  4.655E-05 4.790E-05

     total cpu time spent up to now is      117.7 secs

     total energy              =    -658.61628749 Ry
     estimated scf accuracy    <       0.00122675 Ry

     total magnetization       =     2.09 Bohr mag/cell
     absolute magnetization    =     2.24 Bohr mag/cell

     iteration #  5     ecut=    70.00 Ry     beta= 0.70
     Davidson diagonalization with overlap
     ethr =  3.51E-06,  avg # of iterations =  2.1

     negative rho (up, down):  4.652E-05 4.788E-05

     total cpu time spent up to now is      120.9 secs

     total energy              =    -658.61640067 Ry
     estimated scf accuracy    <       0.00017214 Ry

     total magnetization       =     2.11 Bohr mag/cell
     absolute magnetization    =     2.25 Bohr mag/cell

     iteration #  6     ecut=    70.00 Ry     beta= 0.70
     Davidson diagonalization with overlap
     ethr =  4.92E-07,  avg # of iterations =  2.4

     negative rho (up, down):  4.653E-05 4.789E-05

     total cpu time spent up to now is      124.2 secs

     total energy              =    -658.61643522 Ry
     estimated scf accuracy    <       0.00001407 Ry

     total magnetization       =     2.11 Bohr mag/cell
     absolute magnetization    =     2.25 Bohr mag/cell

     iteration #  7     ecut=    70.00 Ry     beta= 0.70
     Davidson diagonalization with overlap
     ethr =  4.02E-08,  avg # of iterations =  4.6

     negative rho (up, down):  4.654E-05 4.790E-05

     total cpu time spent up to now is      128.1 secs

     total energy              =    -658.61643862 Ry
     estimated scf accuracy    <       0.00001025 Ry

     total magnetization       =     2.11 Bohr mag/cell
     absolute magnetization    =     2.25 Bohr mag/cell

     iteration #  8     ecut=    70.00 Ry     beta= 0.70
     Davidson diagonalization with overlap
     ethr =  2.93E-08,  avg # of iterations =  1.9

     negative rho (up, down):  4.654E-05 4.790E-05
 
     Magnetic moment per site  (integrated on atomic sphere of radius R)
     atom   1 (R=0.314)  charge= 10.7583  magn=  0.0141
     atom   2 (R=0.314)  charge=  4.1599  magn=  0.0439
     atom   3 (R=0.314)  charge=  4.1401  magn=  0.0033
     atom   4 (R=0.349)  charge=  7.5343  magn=  2.0380

     total cpu time spent up to now is      131.7 secs

     End of self-consistent calculation

 ------ SPIN UP ------------


          k = 0.0000 0.0000 0.0000 ( 14351 PWs)   bands (ev):

   -61.6174 -35.8232 -35.5299 -35.5299 -15.3933 -13.9867  -7.1867  -4.3043
    -3.4555  -3.4555  -2.6637  -2.5103  -2.5103  -1.8412  -1.8412  -1.3721
    -1.2711  -1.2711  -0.4861   1.6412   1.6412   2.1554

          k = 0.0000 0.0962 0.0000 ( 14357 PWs)   bands (ev):

   -61.6147 -35.8179 -35.5570 -35.5361 -15.2931 -13.9325  -7.0766  -4.3012
    -3.7173  -3.3662  -2.9418  -2.6486  -2.3934  -1.8597  -1.8260  -1.4374
    -1.2772  -1.2421  -0.3705   1.4456   1.6904   1.9239

          k = 0.0000 0.1925 0.0000 ( 14400 PWs)   bands (ev):

   -61.6074 -35.8034 -35.6304 -35.5528 -15.0084 -13.7771  -6.7923  -4.4847
    -4.2792  -3.2199  -3.2153  -2.9051  -2.4236  -1.8875  -1.7489  -1.5621
    -1.3074  -1.2862  -0.2365   1.2399   1.5806   1.7364

          k = 0.0000 0.2887 0.0000 ( 14448 PWs)   bands (ev):

   -61.5973 -35.7835 -35.7292 -35.5756 -14.5884 -13.5432  -6.5069  -5.1693
    -4.6929  -3.5147  -3.3507  -2.6998  -2.4764  -1.9483  -1.7048  -1.6150
    -1.4786  -1.2676  -0.1601   1.3879   1.4030   2.0357

          k = 0.0000 0.3849 0.0000 ( 14480 PWs)   bands (ev):

   -61.5872 -35.8266 -35.7635 -35.5983 -14.1225 -13.2723  -6.5732  -5.7507
    -5.0625  -3.8665  -3.5002  -2.4707  -2.4478  -2.0041  -1.8381  -1.4633
    -1.4470  -1.1931   0.2263   1.3510   1.7567   2.5100

          k = 0.0000 0.4811 0.0000 ( 14494 PWs)   bands (ev):

   -61.5798 -35.8970 -35.7488 -35.6148 -13.7464 -13.0333  -6.9768  -6.0786
    -5.2642  -4.1010  -3.6637  -2.4753  -2.3260  -1.9090  -1.8015  -1.3395
    -1.3362  -1.1029   0.9343   1.4398   2.1219   2.8104

          k = 0.0000-0.5774 0.0000 ( 14518 PWs)   bands (ev):

   -61.5771 -35.9225 -35.7435 -35.6208 -13.6015 -12.9310  -7.1788  -6.2034
    -5.3325  -4.1822  -3.7293  -2.4813  -2.2967  -1.8921  -1.7148  -1.2909
    -1.2445  -1.0667   1.4863   1.5102   2.0968   2.9566

          k = 0.0833 0.1443 0.0000 ( 14400 PWs)   bands (ev):

   -61.6097 -35.8080 -35.6058 -35.5489 -15.1006 -13.8276  -6.8775  -4.3589
    -4.1404  -3.2550  -3.1567  -2.9254  -2.3547  -1.8658  -1.7801  -1.5254
    -1.2948  -1.2478  -0.2556   1.2603   1.6123   1.6938

          k = 0.0833 0.2406 0.0000 ( 14456 PWs)   bands (ev):

   -61.6010 -35.7908 -35.6884 -35.5722 -14.7472 -13.6319  -6.5770  -4.8339
    -4.5268  -3.6786  -3.2121  -2.8420  -2.3881  -1.8716  -1.6876  -1.5995
    -1.4109  -1.2977  -0.2272   1.2709   1.4661   1.7251

          k = 0.0833 0.3368 0.0000 ( 14475 PWs)   bands (ev):

   -61.5909 -35.7823 -35.7708 -35.5991 -14.3006 -13.3761  -6.4380  -5.4534
    -4.9234  -4.0634  -3.3097  -2.6756  -2.4010  -1.9528  -1.7708  -1.5841
    -1.3824  -1.2560  -0.0693   1.3545   1.6177   2.1672

          k = 0.0833 0.4330 0.0000 ( 14478 PWs)   bands (ev):

   -61.5822 -35.8624 -35.7535 -35.6224 -13.8725 -13.1131  -6.7205  -5.8809
    -5.2272  -4.2312  -3.5100  -2.6860  -2.3613  -1.9297  -1.8047  -1.4913
    -1.2862  -1.1418   0.4620   1.5359   1.9586   2.6924

          k = 0.0833 0.5292 0.0000 ( 14500 PWs)   bands (ev):

   -61.5771 -35.9083 -35.7435 -35.6358 -13.6065 -12.9305  -7.0484  -6.1351
    -5.3660  -4.2608  -3.7085  -2.7078  -2.3359  -1.8780  -1.7378  -1.3688
    -1.2330  -1.0432   1.1944   1.6412   2.2319   2.8243

          k = 0.1667 0.2887 0.0000 ( 14482 PWs)   bands (ev):

   -61.5923 -35.7735 -35.7596 -35.6060 -14.3647 -13.4118  -6.3883  -5.2213
    -4.8397  -4.3137  -3.3112  -2.7554  -2.3365  -1.9025  -1.7319  -1.5909
    -1.3399  -1.3060  -0.2028   1.3160   1.6001   1.9366

          k = 0.1667 0.3849 0.0000 ( 14494 PWs)   bands (ev):

   -61.5835 -35.8264 -35.7562 -35.6434 -13.9469 -13.1551  -6.4761  -5.5598
    -5.2620  -4.5183  -3.5451  -2.8879  -2.2653  -1.9826  -1.7795  -1.5499
    -1.2708  -1.1619   0.1101   1.6597   1.7637   2.3946

          k = 0.1667 0.4811 0.0000 ( 14497 PWs)   bands (ev):

   -61.5771 -35.8735 -35.7435 -35.6719 -13.6166 -12.9291  -6.7462  -5.9700
    -5.4133  -4.4796  -3.7935  -3.1159  -2.2259  -1.8974  -1.7810  -1.4976
    -1.2178  -1.0383   0.7961   1.7204   2.2194   2.6947

          k = 0.1667 0.5774 0.0000 ( 14512 PWs)   bands (ev):

   -61.5748 -35.8905 -35.7388 -35.6825 -13.4908 -12.8339  -6.8813  -6.1207
    -5.4932  -4.3689  -3.9593  -3.2090  -2.2182  -1.8525  -1.7774  -1.4460
    -1.2014  -0.9434   1.2462   1.7889   2.3468   2.5619

          k = 0.2500 0.4330 0.0000 ( 14510 PWs)   bands (ev):

   -61.5771 -35.8503 -35.7435 -35.6958 -13.6216 -12.9282  -6.5577  -5.9182
    -5.3082  -4.7225  -3.9649  -3.1601  -2.1292  -1.9608  -1.7949  -1.5513
    -1.1980  -1.0598   0.6260   1.6848   2.1474   2.6894

          k = 0.2500 0.5292 0.0000 ( 14528 PWs)   bands (ev):

   -61.5734 -35.8551 -35.7362 -35.7351 -13.4263 -12.7758  -6.6231  -6.1306
    -5.4108  -4.7618  -4.1955  -3.3945  -2.0650  -1.8771  -1.8134  -1.5682
    -1.1619  -0.8742   1.0305   1.7042   2.2712   3.0415

          k = 0.3333 0.5774 0.0000 ( 14538 PWs)   bands (ev):

   -61.5721 -35.8254 -35.7813 -35.7335 -13.3560 -12.7155  -6.5689  -6.1108
    -5.2730  -5.2016  -4.2272  -3.5121  -1.9611  -1.9093  -1.7811  -1.6568
    -1.1512  -0.7158   0.8855   1.7445   2.4338   3.4072

 ------ SPIN DOWN ----------


          k = 0.0000 0.0000 0.0000 ( 14351 PWs)   bands (ev):

   -61.6063 -35.7950 -35.5256 -35.5256 -15.3538 -13.9706  -7.1438  -4.1764
    -3.4216  -3.4215  -2.4135  -2.4135  -1.6736  -0.5080  -0.0031  -0.0031
     0.0857   0.0857   0.5962   1.8133   1.8134   2.1809

          k = 0.0000 0.0962 0.0000 ( 14357 PWs)   bands (ev):

   -61.6036 -35.7897 -35.5527 -35.5318 -15.2531 -13.9169  -7.0327  -4.2016
    -3.6781  -3.3260  -2.6316  -2.5786  -1.5320  -0.6964  -0.0496   0.0016
     0.1150   0.2146   0.7030   1.6302   1.8849   1.9362

          k = 0.0000 0.1925 0.0000 ( 14400 PWs)   bands (ev):

   -61.5962 -35.7752 -35.6259 -35.5485 -14.9667 -13.7628  -6.7453  -4.4328
    -4.2370  -3.1331  -2.9280  -2.8959  -1.4622  -1.0690  -0.1428  -0.0297
     0.2455   0.4045   0.8640   1.4001   1.7575   1.7637

          k = 0.0000 0.2887 0.0000 ( 14448 PWs)   bands (ev):

   -61.5862 -35.7553 -35.7247 -35.5712 -14.5438 -13.5312  -6.4565  -5.1049
    -4.6668  -3.4569  -3.1511  -2.6560  -1.6807  -1.2095  -0.2286  -0.0559
     0.4477   0.5587   0.7746   1.5646   1.6066   2.1155

          k = 0.0000 0.3849 0.0000 ( 14480 PWs)   bands (ev):

   -61.5761 -35.8220 -35.7352 -35.5939 -14.0740 -13.2634  -6.5238  -5.6783
    -5.0301  -3.8209  -3.3622  -2.3484  -1.9195  -1.0074  -0.2142  -0.0238
     0.6754   0.7124   0.8665   1.4676   1.9594   2.6449

          k = 0.0000 0.4811 0.0000 ( 14494 PWs)   bands (ev):

   -61.5687 -35.8923 -35.7206 -35.6104 -13.6945 -13.0271  -6.9243  -6.0196
    -5.2199  -4.0600  -3.5321  -2.1710  -1.8108  -0.9066  -0.0899   0.0455
     0.7948   0.8604   1.3485   1.4941   2.3100   3.0027

          k = 0.0000-0.5774 0.0000 ( 14518 PWs)   bands (ev):

   -61.5660 -35.9178 -35.7152 -35.6164 -13.5485 -12.9256  -7.1249  -6.1506
    -5.2856  -4.1425  -3.5930  -2.1199  -1.6909  -0.8924  -0.0131   0.0785
     0.8086   0.9290   1.5389   1.7616   2.4123   3.1316

          k = 0.0833 0.1443 0.0000 ( 14400 PWs)   bands (ev):

   -61.5986 -35.7798 -35.6014 -35.5446 -15.0594 -13.8128  -6.8315  -4.2995
    -4.0954  -3.1858  -2.9850  -2.7254  -1.4269  -0.9554  -0.1797   0.0340
     0.1914   0.3632   0.8474   1.4310   1.7059   1.7916

          k = 0.0833 0.2406 0.0000 ( 14456 PWs)   bands (ev):

   -61.5898 -35.7626 -35.6839 -35.5678 -14.7038 -13.6189  -6.5270  -4.7777
    -4.4946  -3.6241  -2.9802  -2.7175  -1.4904  -1.2009  -0.3087  -0.0096
     0.3619   0.5408   0.7916   1.4911   1.6053   1.8093

          k = 0.0833 0.3368 0.0000 ( 14475 PWs)   bands (ev):

   -61.5798 -35.7777 -35.7426 -35.5948 -14.2537 -13.3659  -6.3865  -5.3818
    -4.8950  -4.0215  -3.1048  -2.6014  -1.7684  -1.0526  -0.3324  -0.0392
     0.5482   0.6932   0.7469   1.5247   1.7776   2.3247

          k = 0.0833 0.4330 0.0000 ( 14478 PWs)   bands (ev):

   -61.5710 -35.8578 -35.7252 -35.6180 -13.8217 -13.1060  -6.6677  -5.8200
    -5.1821  -4.1860  -3.3503  -2.5993  -1.7299  -0.8715  -0.2024  -0.0078
     0.7088   0.8220   0.9861   1.6420   2.1221   2.8764

          k = 0.0833 0.5292 0.0000 ( 14500 PWs)   bands (ev):

   -61.5660 -35.9036 -35.7152 -35.6314 -13.5535 -12.9250  -6.9924  -6.0894
    -5.3107  -4.2153  -3.5577  -2.5860  -1.5450  -0.8260  -0.0616   0.0382
     0.8288   0.8829   1.4171   1.7576   2.4889   2.9714

          k = 0.1667 0.2887 0.0000 ( 14482 PWs)   bands (ev):

   -61.5811 -35.7550 -35.7452 -35.6016 -14.3183 -13.4012  -6.3349  -5.1509
    -4.8117  -4.2750  -3.1251  -2.5814  -1.6833  -1.0347  -0.4444  -0.0384
     0.5167   0.6532   0.7488   1.4954   1.6977   2.1605

          k = 0.1667 0.3849 0.0000 ( 14494 PWs)   bands (ev):

   -61.5724 -35.8217 -35.7279 -35.6390 -13.8969 -13.1474  -6.4210  -5.5026
    -5.2136  -4.4588  -3.4325  -2.7498  -1.7210  -0.7414  -0.3999  -0.0659
     0.5350   0.7787   0.9498   1.7608   1.8640   2.6702

          k = 0.1667 0.4811 0.0000 ( 14497 PWs)   bands (ev):

   -61.5660 -35.8689 -35.7152 -35.6675 -13.5637 -12.9235  -6.6861  -5.9438
    -5.3319  -4.4087  -3.6880  -3.0404  -1.5282  -0.6415  -0.1837  -0.0497
     0.6294   0.8970   1.2590   1.8221   2.2963   2.9928

          k = 0.1667 0.5774 0.0000 ( 14512 PWs)   bands (ev):

   -61.5636 -35.8858 -35.7106 -35.6781 -13.4372 -12.8287  -6.8191  -6.1005
    -5.4096  -4.2939  -3.8438  -3.1583  -1.3871  -0.6361  -0.0813  -0.0431
     0.7326   0.9276   1.3793   1.9438   2.4931   2.9369

          k = 0.2500 0.4330 0.0000 ( 14510 PWs)   bands (ev):

   -61.5660 -35.8457 -35.7152 -35.6914 -13.5689 -12.9225  -6.4974  -5.8967
    -5.2108  -4.6328  -3.9384  -3.0321  -1.5636  -0.4314  -0.3485  -0.1026
     0.4839   0.9118   1.2333   1.8002   2.1892   3.0195

          k = 0.2500 0.5292 0.0000 ( 14528 PWs)   bands (ev):

   -61.5623 -35.8505 -35.7306 -35.7079 -13.3724 -12.7707  -6.5688  -6.0957
    -5.3137  -4.6694  -4.1636  -3.3158  -1.3268  -0.4157  -0.1827  -0.0738
     0.5556   0.9692   1.1885   1.9528   2.4231   3.3743

          k = 0.3333 0.5774 0.0000 ( 14538 PWs)   bands (ev):

   -61.5609 -35.8206 -35.7769 -35.7052 -13.3018 -12.7104  -6.5430  -6.0145
    -5.1839  -5.1579  -4.1655  -3.4527  -1.2137  -0.2996  -0.2026  -0.0507
     0.5555   0.9315   0.9955   1.9841   2.6345   3.8858

     the Fermi energy is     0.4717 ev

!    total energy              =    -658.61643964 Ry
     total all-electron energy =    -12481.790330 Ry
     estimated scf accuracy    <       0.00000081 Ry
     smearing contrib. (-TS)   =      -0.00103483 Ry
     internal energy E=F+TS    =    -658.61540481 Ry

     The total energy is F=E-TS. E is the sum of the following terms:
     one-electron contribution =   -2205.00036747 Ry
     hartree contribution      =    1113.76281272 Ry
     xc contribution           =     -62.29414205 Ry
     ewald contribution        =     901.13172948 Ry
     DFT-D3 Dispersion         =      -0.06371386 Ry
     one-center paw contrib.   =    -406.15172364 Ry

     total magnetization       =     2.11 Bohr mag/cell
     absolute magnetization    =     2.25 Bohr mag/cell

     convergence has been achieved in   8 iterations

     negative rho (up, down):  4.654E-05 4.790E-05

     Forces acting on atoms (cartesian axes, Ry/au):

     atom    1 type  1   force =     0.00000000   -0.00000000    0.00432848
     atom    2 type  2   force =     0.00000000    0.00000000    0.03293844
     atom    3 type  2   force =     0.00000000    0.00000000   -0.00326958
     atom    4 type  3   force =     0.00000000   -0.00000000   -0.03399734
     The non-local contrib.  to forces
     atom    1 type  1   force =     0.00000000    0.00000000   -0.03815604
     atom    2 type  2   force =     0.00000000    0.00000000   -0.07853991
     atom    3 type  2   force =     0.00000000    0.00000000    0.26940590
     atom    4 type  3   force =     0.00000000    0.00000000   -0.03495121
     The ionic contribution  to forces
     atom    1 type  1   force =     0.00000000    0.00000488  -36.75699304
     atom    2 type  2   force =    -0.00000000   -0.00000316   20.57446683
     atom    3 type  2   force =    -0.00000000   -0.00000253  -51.19289919
     atom    4 type  3   force =     0.00000000    0.00000081   67.37542539
     The local contribution  to forces
     atom    1 type  1   force =    -0.00000000   -0.00000294   36.79684459
     atom    2 type  2   force =    -0.00000000    0.00000224  -20.45267194
     atom    3 type  2   force =    -0.00000000    0.00000176   50.92167696
     atom    4 type  3   force =     0.00000000   -0.00000048  -67.36223542
     The core correction contribution to forces
     atom    1 type  1   force =    -0.00000000    0.00000000    0.00259789
     atom    2 type  2   force =     0.00000000    0.00000000   -0.00135096
     atom    3 type  2   force =     0.00000000    0.00000000   -0.00219260
     atom    4 type  3   force =    -0.00000000    0.00000000   -0.01370972
     The Hubbard contrib.    to forces
     atom    1 type  1   force =     0.00000000    0.00000000    0.00000000
     atom    2 type  2   force =     0.00000000    0.00000000    0.00000000
     atom    3 type  2   force =     0.00000000    0.00000000    0.00000000
     atom    4 type  3   force =     0.00000000    0.00000000    0.00000000
     The SCF correction term to forces
     atom    1 type  1   force =     0.00000000   -0.00000000   -0.00361097
     atom    2 type  2   force =    -0.00000000   -0.00000000   -0.00050312
     atom    3 type  2   force =    -0.00000000   -0.00000000   -0.00166425
     atom    4 type  3   force =    -0.00000000   -0.00000000   -0.00056133

     DFT-D3 dispersion contribution to forces:
     atom    1 type  1   force =     0.00000000   -0.00000001    0.00374052
     atom    2 type  2   force =     0.00000000    0.00000000   -0.00836800
     atom    3 type  2   force =    -0.00000000    0.00000000    0.00249806
     atom    4 type  3   force =    -0.00000000    0.00000000    0.00212942

     Total force =     0.047646     Total SCF correction =     0.004047


     Computing stress (Cartesian axis) and pressure


     negative rho (up, down):  4.654E-05 4.790E-05
          total   stress  (Ry/bohr**3)                   (kbar)     P=      -15.67
  -0.00012062   0.00000000   0.00000000          -17.74        0.00        0.00
   0.00000000  -0.00012062  -0.00000000            0.00      -17.74       -0.00
   0.00000000  -0.00000000  -0.00007834            0.00       -0.00      -11.52

     Energy error            =      3.6E-03 Ry
     Gradient error          =      3.4E-02 Ry/Bohr

     number of scf cycles    =   2
     number of bfgs steps    =   1

     energy             old  =    -658.6128558486 Ry
     energy             new  =    -658.6164396425 Ry

     CASE: energy            _new < energy            _old

     new trust radius        =       0.0577437304 bohr
     new conv_thr            =       0.0000003400 Ry


ATOMIC_POSITIONS (crystal)
Mo           -0.0000000000       -0.0000000000        0.3797141879
S             0.6666666667        0.3333333333        0.4449958566
S             0.6666666667        0.3333333333        0.3171714534
Co            0.0000000000        0.0000000000        0.5207809432



     Writing config-only to output data dir ./tmp/scf.save/
     NEW-OLD atomic charge density approx. for the potential

     negative rho (up, down):  4.765E-05 4.847E-05
     Generating pointlists ...
     new r_m :   0.3431 (alat units)  2.0519 (a.u.) for type    3

     total cpu time spent up to now is      144.6 secs

     Self-consistent Calculation

     iteration #  1     ecut=    70.00 Ry     beta= 0.70
     Davidson diagonalization with overlap
     ethr =  1.00E-06,  avg # of iterations =  8.9

     negative rho (up, down):  4.667E-05 4.806E-05

     total cpu time spent up to now is      151.1 secs

     total energy              =    -658.61856633 Ry
     estimated scf accuracy    <       0.00202745 Ry

     total magnetization       =     2.09 Bohr mag/cell
     absolute magnetization    =     2.24 Bohr mag/cell

     iteration #  2     ecut=    70.00 Ry     beta= 0.70
     Davidson diagonalization with overlap
     ethr =  5.79E-06,  avg # of iterations =  6.8

     negative rho (up, down):  4.647E-05 4.819E-05

     total cpu time spent up to now is      155.9 secs

     total energy              =    -658.61286477 Ry
     estimated scf accuracy    <       0.12647486 Ry

     total magnetization       =     1.98 Bohr mag/cell
     absolute magnetization    =     2.12 Bohr mag/cell

     iteration #  3     ecut=    70.00 Ry     beta= 0.70
     Davidson diagonalization with overlap
     ethr =  5.79E-06,  avg # of iterations =  6.0

     negative rho (up, down):  4.646E-05 4.812E-05

     total cpu time spent up to now is      160.7 secs

     total energy              =    -658.61862177 Ry
     estimated scf accuracy    <       0.00833690 Ry

     total magnetization       =     2.13 Bohr mag/cell
     absolute magnetization    =     2.29 Bohr mag/cell

     iteration #  4     ecut=    70.00 Ry     beta= 0.70
     Davidson diagonalization with overlap
     ethr =  5.79E-06,  avg # of iterations =  2.9

     negative rho (up, down):  4.631E-05 4.784E-05

     total cpu time spent up to now is      164.9 secs

     total energy              =    -658.61914423 Ry
     estimated scf accuracy    <       0.00165317 Ry

     total magnetization       =     2.06 Bohr mag/cell
     absolute magnetization    =     2.22 Bohr mag/cell

     iteration #  5     ecut=    70.00 Ry     beta= 0.70
     Davidson diagonalization with overlap
     ethr =  4.72E-06,  avg # of iterations =  2.3

     negative rho (up, down):  4.631E-05 4.782E-05

     total cpu time spent up to now is      168.9 secs

     total energy              =    -658.61932543 Ry
     estimated scf accuracy    <       0.00068985 Ry

     total magnetization       =     2.08 Bohr mag/cell
     absolute magnetization    =     2.24 Bohr mag/cell

     iteration #  6     ecut=    70.00 Ry     beta= 0.70
     Davidson diagonalization with overlap
     ethr =  1.97E-06,  avg # of iterations =  2.0

     negative rho (up, down):  4.633E-05 4.783E-05

     total cpu time spent up to now is      172.7 secs

     total energy              =    -658.61941553 Ry
     estimated scf accuracy    <       0.00004796 Ry

     total magnetization       =     2.08 Bohr mag/cell
     absolute magnetization    =     2.24 Bohr mag/cell

     iteration #  7     ecut=    70.00 Ry     beta= 0.70
     Davidson diagonalization with overlap
     ethr =  1.37E-07,  avg # of iterations =  3.4

     negative rho (up, down):  4.635E-05 4.784E-05

     total cpu time spent up to now is      176.8 secs

     total energy              =    -658.61942497 Ry
     estimated scf accuracy    <       0.00002653 Ry

     total magnetization       =     2.08 Bohr mag/cell
     absolute magnetization    =     2.23 Bohr mag/cell

     iteration #  8     ecut=    70.00 Ry     beta= 0.70
     Davidson diagonalization with overlap
     ethr =  7.58E-08,  avg # of iterations =  1.8

     negative rho (up, down):  4.638E-05 4.784E-05

     total cpu time spent up to now is      180.6 secs

     total energy              =    -658.61942842 Ry
     estimated scf accuracy    <       0.00000216 Ry

     total magnetization       =     2.08 Bohr mag/cell
     absolute magnetization    =     2.24 Bohr mag/cell

     iteration #  9     ecut=    70.00 Ry     beta= 0.70
     Davidson diagonalization with overlap
     ethr =  6.18E-09,  avg # of iterations =  4.2

     negative rho (up, down):  4.638E-05 4.784E-05

     total cpu time spent up to now is      184.9 secs

     total energy              =    -658.61942942 Ry
     estimated scf accuracy    <       0.00000055 Ry

     total magnetization       =     2.08 Bohr mag/cell
     absolute magnetization    =     2.24 Bohr mag/cell

     iteration # 10     ecut=    70.00 Ry     beta= 0.70
     Davidson diagonalization with overlap
     ethr =  1.57E-09,  avg # of iterations =  2.8

     negative rho (up, down):  4.637E-05 4.783E-05
 
     Magnetic moment per site  (integrated on atomic sphere of radius R)
     atom   1 (R=0.314)  charge= 10.7492  magn=  0.0112
     atom   2 (R=0.314)  charge=  4.1513  magn=  0.0467
     atom   3 (R=0.314)  charge=  4.1376  magn=  0.0036
     atom   4 (R=0.343)  charge=  7.4880  magn=  2.0100

     total cpu time spent up to now is      188.7 secs

     End of self-consistent calculation

 ------ SPIN UP ------------


          k = 0.0000 0.0000 0.0000 ( 14351 PWs)   bands (ev):

   -61.5900 -35.7944 -35.4949 -35.4949 -15.3705 -13.9866  -7.1565  -4.3543
    -3.3535  -3.3535  -2.6413  -2.4919  -2.4919  -1.8285  -1.8285  -1.3318
    -1.3051  -1.3051  -0.4850   1.5930   1.5930   2.1862

          k = 0.0000 0.0962 0.0000 ( 14357 PWs)   bands (ev):

   -61.5873 -35.7892 -35.5217 -35.5010 -15.2712 -13.9302  -7.0467  -4.3426
    -3.6206  -3.2676  -2.9200  -2.6172  -2.3999  -1.8437  -1.8250  -1.4553
    -1.3109  -1.2156  -0.3581   1.3922   1.6314   1.9637

          k = 0.0000 0.1925 0.0000 ( 14400 PWs)   bands (ev):

   -61.5800 -35.7749 -35.5943 -35.5176 -14.9887 -13.7686  -6.7618  -4.4758
    -4.2215  -3.2401  -3.1370  -2.8501  -2.4448  -1.8683  -1.7600  -1.5887
    -1.3164  -1.2721  -0.1960   1.1902   1.5398   1.7776

          k = 0.0000 0.2887 0.0000 ( 14448 PWs)   bands (ev):

   -61.5700 -35.7554 -35.6922 -35.5402 -14.5708 -13.5254  -6.4672  -5.1506
    -4.6651  -3.4514  -3.4040  -2.6512  -2.4923  -1.9267  -1.7106  -1.6251
    -1.4691  -1.2863  -0.1054   1.3710   1.3872   2.0569

          k = 0.0000 0.3849 0.0000 ( 14480 PWs)   bands (ev):

   -61.5600 -35.7886 -35.7357 -35.5627 -14.1051 -13.2443  -6.5229  -5.7695
    -5.0411  -3.8013  -3.5500  -2.4846  -2.4416  -1.9700  -1.8228  -1.4692
    -1.4647  -1.1932   0.2698   1.3598   1.7740   2.5136

          k = 0.0000 0.4811 0.0000 ( 14494 PWs)   bands (ev):

   -61.5527 -35.8583 -35.7213 -35.5791 -13.7264 -12.9977  -6.9588  -6.0884
    -5.2370  -4.0344  -3.7139  -2.4905  -2.3531  -1.8857  -1.7705  -1.3567
    -1.3354  -1.0908   0.9416   1.4720   2.1496   2.8214

          k = 0.0000-0.5774 0.0000 ( 14518 PWs)   bands (ev):

   -61.5500 -35.8836 -35.7160 -35.5851 -13.5793 -12.8928  -7.1764  -6.2090
    -5.2977  -4.1152  -3.7821  -2.4971  -2.3345  -1.8724  -1.6866  -1.2851
    -1.2558  -1.0523   1.4568   1.5529   2.0932   3.0280

          k = 0.0833 0.1443 0.0000 ( 14400 PWs)   bands (ev):

   -61.5823 -35.7795 -35.5700 -35.5137 -15.0802 -13.8211  -6.8475  -4.3798
    -4.0555  -3.1722  -3.1545  -2.8832  -2.3776  -1.8468  -1.7865  -1.5502
    -1.3276  -1.2122  -0.2228   1.2069   1.5659   1.7383

          k = 0.0833 0.2406 0.0000 ( 14456 PWs)   bands (ev):

   -61.5737 -35.7625 -35.6517 -35.5368 -14.7290 -13.6176  -6.5428  -4.8025
    -4.4983  -3.6348  -3.2316  -2.7967  -2.4110  -1.8523  -1.6991  -1.6120
    -1.3950  -1.3096  -0.1785   1.2489   1.4380   1.7582

          k = 0.0833 0.3368 0.0000 ( 14475 PWs)   bands (ev):

   -61.5637 -35.7452 -35.7424 -35.5635 -14.2836 -13.3521  -6.3872  -5.4627
    -4.8989  -4.0141  -3.3478  -2.6556  -2.4163  -1.9311  -1.7695  -1.5787
    -1.3953  -1.2564  -0.0265   1.3656   1.6199   2.1795

          k = 0.0833 0.4330 0.0000 ( 14478 PWs)   bands (ev):

   -61.5550 -35.8241 -35.7259 -35.5866 -13.8540 -13.0802  -6.6861  -5.8926
    -5.2059  -4.1854  -3.5487  -2.6877  -2.3709  -1.9093  -1.7989  -1.4953
    -1.2966  -1.1257   0.4782   1.5627   1.9921   2.6952

          k = 0.0833 0.5292 0.0000 ( 14500 PWs)   bands (ev):

   -61.5500 -35.8695 -35.7160 -35.5999 -13.5847 -12.8927  -7.0435  -6.1342
    -5.3336  -4.2120  -3.7568  -2.7243  -2.3476  -1.8583  -1.7322  -1.3721
    -1.2365  -1.0223   1.1869   1.6678   2.2458   2.8073

          k = 0.1667 0.2887 0.0000 ( 14482 PWs)   bands (ev):

   -61.5650 -35.7456 -35.7222 -35.5703 -14.3477 -13.3893  -6.3403  -5.2273
    -4.8127  -4.2592  -3.3395  -2.7468  -2.3600  -1.8891  -1.7441  -1.5669
    -1.3548  -1.2978  -0.1651   1.3343   1.5990   1.9502

          k = 0.1667 0.3849 0.0000 ( 14494 PWs)   bands (ev):

   -61.5563 -35.7884 -35.7285 -35.6074 -13.9292 -13.1241  -6.4281  -5.5680
    -5.2495  -4.4878  -3.5566  -2.8967  -2.2819  -1.9758  -1.7929  -1.5384
    -1.2665  -1.1452   0.1190   1.6927   1.7883   2.4030

          k = 0.1667 0.4811 0.0000 ( 14497 PWs)   bands (ev):

   -61.5500 -35.8351 -35.7160 -35.6357 -13.5956 -12.8922  -6.7311  -5.9444
    -5.4078  -4.4694  -3.8076  -3.1234  -2.2359  -1.8909  -1.7935  -1.5021
    -1.2098  -1.0062   0.7794   1.7553   2.2426   2.6858

          k = 0.1667 0.5774 0.0000 ( 14512 PWs)   bands (ev):

   -61.5476 -35.8519 -35.7115 -35.6462 -13.4676 -12.7951  -6.8821  -6.0914
    -5.4751  -4.3635  -3.9813  -3.2153  -2.2270  -1.8370  -1.7973  -1.4567
    -1.1923  -0.9078   1.2580   1.7682   2.3374   2.5722

          k = 0.2500 0.4330 0.0000 ( 14510 PWs)   bands (ev):

   -61.5500 -35.8120 -35.7161 -35.6594 -13.6011 -12.8918  -6.5317  -5.8693
    -5.3451  -4.7230  -3.9458  -3.1771  -2.1430  -1.9600  -1.8178  -1.5514
    -1.1829  -1.0205   0.6021   1.7162   2.1707   2.7027

          k = 0.2500 0.5292 0.0000 ( 14528 PWs)   bands (ev):

   -61.5463 -35.8167 -35.7089 -35.6984 -13.4025 -12.7368  -6.6073  -6.0920
    -5.4270  -4.7816  -4.1797  -3.4019  -2.0733  -1.8832  -1.8332  -1.5794
    -1.1487  -0.8256   1.0479   1.6850   2.2528   3.0597

          k = 0.3333 0.5774 0.0000 ( 14538 PWs)   bands (ev):

   -61.5450 -35.7867 -35.7447 -35.7062 -13.3309 -12.6759  -6.5178  -6.1251
    -5.3023  -5.1836  -4.2306  -3.5097  -1.9466  -1.9466  -1.7985  -1.6688
    -1.1357  -0.6685   0.9412   1.7022   2.3779   3.4223

 ------ SPIN DOWN ----------


          k = 0.0000 0.0000 0.0000 ( 14351 PWs)   bands (ev):

   -61.5814 -35.7682 -35.4938 -35.4937 -15.3272 -13.9707  -7.1157  -4.2305
    -3.3133  -3.3133  -2.3504  -2.3504  -1.6252  -0.4937  -0.0720  -0.0720
     0.0221   0.0221   0.5207   1.8036   1.8037   2.2068

          k = 0.0000 0.0962 0.0000 ( 14357 PWs)   bands (ev):

   -61.5787 -35.7629 -35.5205 -35.4998 -15.2273 -13.9148  -7.0049  -4.2438
    -3.5738  -3.2187  -2.5925  -2.5168  -1.4907  -0.7062  -0.1148  -0.0607
     0.0455   0.1773   0.6412   1.6096   1.8602   1.9741

          k = 0.0000 0.1925 0.0000 ( 14400 PWs)   bands (ev):

   -61.5714 -35.7486 -35.5930 -35.5164 -14.9430 -13.7545  -6.7168  -4.4227
    -4.1681  -3.0260  -2.9473  -2.8420  -1.4361  -1.0812  -0.2041  -0.0877
     0.1757   0.3753   0.8607   1.3576   1.7510   1.8021

          k = 0.0000 0.2887 0.0000 ( 14448 PWs)   bands (ev):

   -61.5614 -35.7291 -35.6908 -35.5390 -14.5220 -13.5136  -6.4182  -5.0780
    -4.6344  -3.3794  -3.2056  -2.5907  -1.6461  -1.2311  -0.2845  -0.1043
     0.3829   0.5298   0.7849   1.5749   1.6012   2.1298

          k = 0.0000 0.3849 0.0000 ( 14480 PWs)   bands (ev):

   -61.5514 -35.7872 -35.7093 -35.5615 -14.0521 -13.2356  -6.4719  -5.6909
    -5.0052  -3.7456  -3.4145  -2.3105  -1.8798  -1.0459  -0.2577  -0.0528
     0.6177   0.6588   0.8898   1.4902   1.9882   2.6501

          k = 0.0000 0.4811 0.0000 ( 14494 PWs)   bands (ev):

   -61.5440 -35.8568 -35.6949 -35.5779 -13.6698 -12.9915  -6.9010  -6.0281
    -5.1889  -3.9850  -3.5844  -2.1605  -1.7798  -0.9523  -0.1118   0.0341
     0.7354   0.8083   1.3486   1.5289   2.3335   3.0282

          k = 0.0000-0.5774 0.0000 ( 14518 PWs)   bands (ev):

   -61.5413 -35.8821 -35.6896 -35.5839 -13.5215 -12.8873  -7.1168  -6.1561
    -5.2467  -4.0675  -3.6472  -2.1199  -1.6694  -0.9368  -0.0230   0.0731
     0.7511   0.8784   1.5804   1.7506   2.3649   3.2221

          k = 0.0833 0.1443 0.0000 ( 14400 PWs)   bands (ev):

   -61.5737 -35.7532 -35.5688 -35.5126 -15.0351 -13.8065  -6.8036  -4.3188
    -4.0007  -3.0772  -2.9500  -2.7092  -1.3973  -0.9684  -0.2462  -0.0168
     0.1162   0.3341   0.8272   1.3914   1.7486   1.7814

          k = 0.0833 0.2406 0.0000 ( 14456 PWs)   bands (ev):

   -61.5651 -35.7362 -35.6504 -35.5356 -14.6815 -13.6049  -6.4946  -4.7391
    -4.4602  -3.5685  -2.9634  -2.6956  -1.4551  -1.2187  -0.3678  -0.0601
     0.2974   0.5090   0.8045   1.4847   1.6010   1.8296

          k = 0.0833 0.3368 0.0000 ( 14475 PWs)   bands (ev):

   -61.5550 -35.7433 -35.7165 -35.5623 -14.2323 -13.3421  -6.3360  -5.3820
    -4.8670  -3.9670  -3.1337  -2.5695  -1.7273  -1.0829  -0.3768  -0.0797
     0.5078   0.6614   0.7359   1.5474   1.7947   2.3349

          k = 0.0833 0.4330 0.0000 ( 14478 PWs)   bands (ev):

   -61.5464 -35.8226 -35.6995 -35.5854 -13.7986 -13.0732  -6.6291  -5.8271
    -5.1582  -4.1341  -3.3867  -2.5806  -1.6952  -0.9162  -0.2304  -0.0314
     0.6724   0.7850   0.9666   1.6689   2.1580   2.8897

          k = 0.0833 0.5292 0.0000 ( 14500 PWs)   bands (ev):

   -61.5413 -35.8679 -35.6896 -35.5987 -13.5270 -12.8871  -6.9818  -6.0868
    -5.2751  -4.1590  -3.6062  -2.5818  -1.5189  -0.8737  -0.0742   0.0258
     0.7745   0.8491   1.4192   1.7706   2.4849   2.9418

          k = 0.1667 0.2887 0.0000 ( 14482 PWs)   bands (ev):

   -61.5564 -35.7215 -35.7185 -35.5691 -14.2970 -13.3789  -6.2877  -5.1458
    -4.7818  -4.2165  -3.1283  -2.5859  -1.6450  -1.0591  -0.4862  -0.0824
     0.4818   0.6613   0.6942   1.5276   1.7064   2.1707

          k = 0.1667 0.3849 0.0000 ( 14494 PWs)   bands (ev):

   -61.5477 -35.7869 -35.7021 -35.6062 -13.8747 -13.1164  -6.3705  -5.4955
    -5.2062  -4.4215  -3.4326  -2.7634  -1.6933  -0.7789  -0.4271  -0.0992
     0.5551   0.7338   0.8908   1.7896   1.8922   2.6915

          k = 0.1667 0.4811 0.0000 ( 14497 PWs)   bands (ev):

   -61.5413 -35.8335 -35.6897 -35.6344 -13.5381 -12.8865  -6.6656  -5.9135
    -5.3242  -4.3887  -3.6989  -3.0483  -1.5089  -0.6829  -0.2022  -0.0741
     0.6334   0.8503   1.2174   1.8471   2.3147   2.9815

          k = 0.1667 0.5774 0.0000 ( 14512 PWs)   bands (ev):

   -61.5390 -35.8503 -35.6851 -35.6449 -13.4093 -12.7898  -6.8141  -6.0681
    -5.3884  -4.2721  -3.8721  -3.1624  -1.3730  -0.6788  -0.0884  -0.0672
     0.7269   0.8763   1.3989   1.9146   2.4876   2.9100

          k = 0.2500 0.4330 0.0000 ( 14510 PWs)   bands (ev):

   -61.5414 -35.8105 -35.6897 -35.6581 -13.5437 -12.8860  -6.4661  -5.8448
    -5.2409  -4.6272  -3.9163  -3.0524  -1.5530  -0.4578  -0.3814  -0.1305
     0.5043   0.8637   1.1831   1.8217   2.2133   3.0293

          k = 0.2500 0.5292 0.0000 ( 14528 PWs)   bands (ev):

   -61.5377 -35.8152 -35.6971 -35.6824 -13.3438 -12.7316  -6.5450  -6.0564
    -5.3218  -4.6832  -4.1484  -3.3267  -1.3330  -0.4483  -0.1885  -0.1067
     0.5719   0.9160   1.2160   1.9131   2.4132   3.3704

          k = 0.3333 0.5774 0.0000 ( 14538 PWs)   bands (ev):

   -61.5363 -35.7850 -35.7435 -35.6798 -13.2720 -12.6706  -6.4874  -6.0226
    -5.1778  -5.1633  -4.1710  -3.4537  -1.2371  -0.3506  -0.1761  -0.0899
     0.5771   0.9337   0.9891   1.9432   2.5939   3.8706

     the Fermi energy is     0.4570 ev

!    total energy              =    -658.61942974 Ry
     total all-electron energy =    -12481.793321 Ry
     estimated scf accuracy    <       0.00000013 Ry
     smearing contrib. (-TS)   =      -0.00092506 Ry
     internal energy E=F+TS    =    -658.61850468 Ry

     The total energy is F=E-TS. E is the sum of the following terms:
     one-electron contribution =   -2209.49645597 Ry
     hartree contribution      =    1116.01267022 Ry
     xc contribution           =     -62.28350509 Ry
     ewald contribution        =     903.36014107 Ry
     DFT-D3 Dispersion         =      -0.06255796 Ry
     one-center paw contrib.   =    -406.14879695 Ry

     total magnetization       =     2.08 Bohr mag/cell
     absolute magnetization    =     2.24 Bohr mag/cell

     convergence has been achieved in  10 iterations

     negative rho (up, down):  4.637E-05 4.783E-05

     Forces acting on atoms (cartesian axes, Ry/au):

     atom    1 type  1   force =     0.00000000    0.00000000    0.01302047
     atom    2 type  2   force =     0.00000000   -0.00000000    0.01565401
     atom    3 type  2   force =     0.00000000    0.00000000    0.00091520
     atom    4 type  3   force =     0.00000000    0.00000000   -0.02958968
     The non-local contrib.  to forces
     atom    1 type  1   force =     0.00000000    0.00000000   -0.04570161
     atom    2 type  2   force =     0.00000000    0.00000000   -0.07105740
     atom    3 type  2   force =     0.00000000    0.00000000    0.27118926
     atom    4 type  3   force =     0.00000000    0.00000000   -0.02377898
     The ionic contribution  to forces
     atom    1 type  1   force =     0.00000000    0.00000475  -36.93465484
     atom    2 type  2   force =    -0.00000000   -0.00000314   20.58481300
     atom    3 type  2   force =    -0.00000000   -0.00000251  -51.20312171
     atom    4 type  3   force =     0.00000000    0.00000090   67.55296356
     The local contribution  to forces
     atom    1 type  1   force =    -0.00000000   -0.00000287   36.98866223
     atom    2 type  2   force =    -0.00000000    0.00000223  -20.48167604
     atom    3 type  2   force =    -0.00000000    0.00000175   50.93265872
     atom    4 type  3   force =     0.00000000   -0.00000053  -67.55362520
     The core correction contribution to forces
     atom    1 type  1   force =    -0.00000000    0.00000000    0.00305322
     atom    2 type  2   force =     0.00000000    0.00000000   -0.00122681
     atom    3 type  2   force =     0.00000000    0.00000000   -0.00227424
     atom    4 type  3   force =     0.00000000    0.00000000   -0.01496028
     The Hubbard contrib.    to forces
     atom    1 type  1   force =     0.00000000    0.00000000    0.00000000
     atom    2 type  2   force =     0.00000000    0.00000000    0.00000000
     atom    3 type  2   force =     0.00000000    0.00000000    0.00000000
     atom    4 type  3   force =     0.00000000    0.00000000    0.00000000
     The SCF correction term to forces
     atom    1 type  1   force =    -0.00000000   -0.00000000   -0.00093541
     atom    2 type  2   force =     0.00000000   -0.00000000    0.00006642
     atom    3 type  2   force =    -0.00000000    0.00000000   -0.00000165
     atom    4 type  3   force =     0.00000000    0.00000000   -0.00039605

     DFT-D3 dispersion contribution to forces:
     atom    1 type  1   force =     0.00000000   -0.00000000    0.00259593
     atom    2 type  2   force =     0.00000000    0.00000000   -0.01526611
     atom    3 type  2   force =    -0.00000000    0.00000000    0.00246387
     atom    4 type  3   force =    -0.00000000   -0.00000000    0.01020632

     Total force =     0.035930     Total SCF correction =     0.001018


     Computing stress (Cartesian axis) and pressure


     negative rho (up, down):  4.637E-05 4.783E-05
          total   stress  (Ry/bohr**3)                   (kbar)     P=      -16.72
  -0.00011774   0.00000000   0.00000000          -17.32        0.00        0.00
   0.00000000  -0.00011774   0.00000000            0.00      -17.32        0.00
   0.00000000  -0.00000000  -0.00010559            0.00       -0.00      -15.53

     Energy error            =      3.0E-03 Ry
     Gradient error          =      3.0E-02 Ry/Bohr

     number of scf cycles    =   3
     number of bfgs steps    =   2

     energy             old  =    -658.6164396425 Ry
     energy             new  =    -658.6194297387 Ry

     CASE: energy            _new < energy            _old

     new trust radius        =       0.0866155957 bohr
     new conv_thr            =       0.0000002959 Ry


ATOMIC_POSITIONS (crystal)
Mo            0.0000000000        0.0000000000        0.3800350861
S             0.6666666667        0.3333333333        0.4465327682
S             0.6666666667        0.3333333333        0.3171470437
Co            0.0000000000        0.0000000000        0.5189475432



     Writing config-only to output data dir ./tmp/scf.save/
     NEW-OLD atomic charge density approx. for the potential

     negative rho (up, down):  4.758E-05 5.089E-05
     Generating pointlists ...
     new r_m :   0.3352 (alat units)  2.0051 (a.u.) for type    3

     total cpu time spent up to now is      201.6 secs

     Self-consistent Calculation

     iteration #  1     ecut=    70.00 Ry     beta= 0.70
     Davidson diagonalization with overlap
     ethr =  1.00E-06,  avg # of iterations = 10.8

     negative rho (up, down):  4.754E-05 4.954E-05

     total cpu time spent up to now is      209.0 secs

     total energy              =    -658.62329353 Ry
     estimated scf accuracy    <       0.00344660 Ry

     total magnetization       =     2.03 Bohr mag/cell
     absolute magnetization    =     2.20 Bohr mag/cell

     iteration #  2     ecut=    70.00 Ry     beta= 0.70
     Davidson diagonalization with overlap
     ethr =  9.85E-06,  avg # of iterations =  3.2

     negative rho (up, down):  4.653E-05 4.857E-05

     total cpu time spent up to now is      212.9 secs

     total energy              =    -658.62227886 Ry
     estimated scf accuracy    <       0.00815701 Ry

     total magnetization       =     2.04 Bohr mag/cell
     absolute magnetization    =     2.22 Bohr mag/cell

     iteration #  3     ecut=    70.00 Ry     beta= 0.70
     Davidson diagonalization with overlap
     ethr =  9.85E-06,  avg # of iterations =  4.1

     negative rho (up, down):  4.670E-05 4.892E-05

     total cpu time spent up to now is      217.0 secs

     total energy              =    -658.62133950 Ry
     estimated scf accuracy    <       0.04663868 Ry

     total magnetization       =     2.13 Bohr mag/cell
     absolute magnetization    =     2.30 Bohr mag/cell

     iteration #  4     ecut=    70.00 Ry     beta= 0.70
     Davidson diagonalization with overlap
     ethr =  9.85E-06,  avg # of iterations =  3.6

     negative rho (up, down):  4.644E-05 4.783E-05

     total cpu time spent up to now is      221.1 secs

     total energy              =    -658.62362898 Ry
     estimated scf accuracy    <       0.01042775 Ry

     total magnetization       =     1.98 Bohr mag/cell
     absolute magnetization    =     2.15 Bohr mag/cell

     iteration #  5     ecut=    70.00 Ry     beta= 0.70
     Davidson diagonalization with overlap
     ethr =  9.85E-06,  avg # of iterations =  2.0

     negative rho (up, down):  4.644E-05 4.772E-05

     total cpu time spent up to now is      224.8 secs

     total energy              =    -658.62406290 Ry
     estimated scf accuracy    <       0.00082743 Ry

     total magnetization       =     2.03 Bohr mag/cell
     absolute magnetization    =     2.21 Bohr mag/cell

     iteration #  6     ecut=    70.00 Ry     beta= 0.70
     Davidson diagonalization with overlap
     ethr =  2.36E-06,  avg # of iterations =  2.0

     negative rho (up, down):  4.649E-05 4.781E-05

     total cpu time spent up to now is      228.6 secs

     total energy              =    -658.62418158 Ry
     estimated scf accuracy    <       0.00012454 Ry

     total magnetization       =     2.03 Bohr mag/cell
     absolute magnetization    =     2.20 Bohr mag/cell

     iteration #  7     ecut=    70.00 Ry     beta= 0.70
     Davidson diagonalization with overlap
     ethr =  3.56E-07,  avg # of iterations =  2.2

     negative rho (up, down):  4.650E-05 4.783E-05

     total cpu time spent up to now is      232.3 secs

     total energy              =    -658.62418971 Ry
     estimated scf accuracy    <       0.00006865 Ry

     total magnetization       =     2.03 Bohr mag/cell
     absolute magnetization    =     2.20 Bohr mag/cell

     iteration #  8     ecut=    70.00 Ry     beta= 0.70
     Davidson diagonalization with overlap
     ethr =  1.96E-07,  avg # of iterations =  1.5

     negative rho (up, down):  4.651E-05 4.788E-05

     total cpu time spent up to now is      235.8 secs

     total energy              =    -658.62419477 Ry
     estimated scf accuracy    <       0.00001685 Ry

     total magnetization       =     2.03 Bohr mag/cell
     absolute magnetization    =     2.20 Bohr mag/cell

     iteration #  9     ecut=    70.00 Ry     beta= 0.70
     Davidson diagonalization with overlap
     ethr =  4.81E-08,  avg # of iterations =  1.7

     negative rho (up, down):  4.650E-05 4.790E-05

     total cpu time spent up to now is      239.7 secs

     total energy              =    -658.62419592 Ry
     estimated scf accuracy    <       0.00000090 Ry

     total magnetization       =     2.03 Bohr mag/cell
     absolute magnetization    =     2.20 Bohr mag/cell

     iteration # 10     ecut=    70.00 Ry     beta= 0.70
     Davidson diagonalization with overlap
     ethr =  2.58E-09,  avg # of iterations =  5.0

     negative rho (up, down):  4.647E-05 4.789E-05
 
     Magnetic moment per site  (integrated on atomic sphere of radius R)
     atom   1 (R=0.314)  charge= 10.7401  magn=  0.0037
     atom   2 (R=0.314)  charge=  4.1476  magn=  0.0500
     atom   3 (R=0.314)  charge=  4.1313  magn=  0.0041
     atom   4 (R=0.335)  charge=  7.4231  magn=  1.9630

     total cpu time spent up to now is      243.6 secs

     End of self-consistent calculation

 ------ SPIN UP ------------


          k = 0.0000 0.0000 0.0000 ( 14351 PWs)   bands (ev):

   -61.5588 -35.7644 -35.4540 -35.4540 -15.3737 -13.9856  -7.1387  -4.4062
    -3.2595  -3.2595  -2.6042  -2.5027  -2.5027  -1.7925  -1.7925  -1.3323
    -1.3323  -1.2952  -0.4557   1.5506   1.5508   2.2078

          k = 0.0000 0.0962 0.0000 ( 14357 PWs)   bands (ev):

   -61.5562 -35.7593 -35.4805 -35.4601 -15.2758 -13.9264  -7.0296  -4.3853
    -3.5375  -3.1846  -2.8998  -2.6028  -2.4158  -1.8040  -1.8040  -1.4761
    -1.3391  -1.1891  -0.3106   1.3484   1.5813   1.9915

          k = 0.0000 0.1925 0.0000 ( 14400 PWs)   bands (ev):

   -61.5489 -35.7453 -35.5523 -35.4765 -14.9969 -13.7566  -6.7451  -4.4753
    -4.1793  -3.2640  -3.1124  -2.7683  -2.4689  -1.8298  -1.7562  -1.6118
    -1.3414  -1.2437  -0.1121   1.1512   1.5033   1.8082

          k = 0.0000 0.2887 0.0000 ( 14448 PWs)   bands (ev):

   -61.5390 -35.7261 -35.6491 -35.4989 -14.5831 -13.5011  -6.4421  -5.1596
    -4.6384  -3.4612  -3.4201  -2.6035  -2.5127  -1.8921  -1.7272  -1.6189
    -1.4448  -1.2951  -0.0118   1.3649   1.3747   2.0770

          k = 0.0000 0.3849 0.0000 ( 14480 PWs)   bands (ev):

   -61.5291 -35.7446 -35.7067 -35.5212 -14.1200 -13.2061  -6.4911  -5.8161
    -5.0219  -3.7590  -3.6019  -2.5062  -2.4532  -1.9273  -1.8105  -1.4774
    -1.4517  -1.1738   0.3435   1.3729   1.8033   2.5241

          k = 0.0000 0.4811 0.0000 ( 14494 PWs)   bands (ev):

   -61.5218 -35.8135 -35.6926 -35.5375 -13.7401 -12.9488  -6.9744  -6.1064
    -5.2190  -3.9874  -3.7668  -2.5138  -2.4025  -1.8479  -1.7387  -1.3695
    -1.3210  -1.0543   0.9649   1.5101   2.1738   2.8617

          k = 0.0000-0.5774 0.0000 ( 14518 PWs)   bands (ev):

   -61.5191 -35.8386 -35.6874 -35.5434 -13.5911 -12.8403  -7.2106  -6.2187
    -5.2737  -4.0668  -3.8386  -2.5207  -2.3951  -1.8362  -1.6580  -1.2698
    -1.2591  -1.0131   1.4284   1.6025   2.0885   3.1310

          k = 0.0833 0.1443 0.0000 ( 14400 PWs)   bands (ev):

   -61.5512 -35.7497 -35.5283 -35.4727 -15.0873 -13.8118  -6.8311  -4.3993
    -3.9936  -3.1658  -3.1271  -2.8207  -2.4037  -1.8152  -1.7710  -1.5697
    -1.3576  -1.1835  -0.1477   1.1656   1.5246   1.7698

          k = 0.0833 0.2406 0.0000 ( 14456 PWs)   bands (ev):

   -61.5426 -35.7331 -35.6091 -35.4956 -14.7400 -13.5981  -6.5233  -4.7920
    -4.4766  -3.6100  -3.2753  -2.7443  -2.4330  -1.8216  -1.7103  -1.6061
    -1.3954  -1.2980  -0.0899   1.2398   1.4130   1.7866

          k = 0.0833 0.3368 0.0000 ( 14475 PWs)   bands (ev):

   -61.5327 -35.7141 -35.7009 -35.5221 -14.2980 -13.3194  -6.3513  -5.5054
    -4.8739  -3.9802  -3.4039  -2.6388  -2.4373  -1.9038  -1.7799  -1.5545
    -1.3959  -1.2362   0.0470   1.3850   1.6282   2.1996

          k = 0.0833 0.4330 0.0000 ( 14478 PWs)   bands (ev):

   -61.5241 -35.7797 -35.6971 -35.5449 -13.8688 -13.0351  -6.6804  -5.9207
    -5.1911  -4.1562  -3.5984  -2.6997  -2.3885  -1.8809  -1.7929  -1.4929
    -1.2922  -1.0865   0.5143   1.5946   2.0302   2.7123

          k = 0.0833 0.5292 0.0000 ( 14500 PWs)   bands (ev):

   -61.5191 -35.8246 -35.6875 -35.5581 -13.5970 -12.8408  -7.0753  -6.1374
    -5.3131  -4.1828  -3.8109  -2.7549  -2.3680  -1.8245  -1.7216  -1.3791
    -1.2166  -0.9835   1.1850   1.6988   2.2565   2.7779

          k = 0.1667 0.2887 0.0000 ( 14482 PWs)   bands (ev):

   -61.5340 -35.7165 -35.6788 -35.5288 -14.3618 -13.3587  -6.3076  -5.2676
    -4.7835  -4.2188  -3.3926  -2.7326  -2.3890  -1.8738  -1.7632  -1.5282
    -1.3638  -1.2622  -0.0984   1.3639   1.5959   1.9774

          k = 0.1667 0.3849 0.0000 ( 14494 PWs)   bands (ev):

   -61.5254 -35.7443 -35.6997 -35.5655 -13.9446 -13.0816  -6.4023  -5.6136
    -5.2291  -4.4777  -3.5834  -2.9010  -2.3067  -1.9702  -1.8058  -1.5172
    -1.2544  -1.0954   0.1456   1.7275   1.8123   2.4341

          k = 0.1667 0.4811 0.0000 ( 14497 PWs)   bands (ev):

   -61.5191 -35.7905 -35.6875 -35.5935 -13.6088 -12.8414  -6.7522  -5.9243
    -5.4174  -4.4848  -3.8270  -3.1318  -2.2513  -1.8858  -1.7922  -1.5078
    -1.1797  -0.9540   0.7706   1.7880   2.2555   2.6904

          k = 0.1667 0.5774 0.0000 ( 14512 PWs)   bands (ev):

   -61.5168 -35.8071 -35.6830 -35.6040 -13.4787 -12.7417  -6.9223  -6.0621
    -5.4751  -4.3966  -3.9941  -3.2251  -2.2402  -1.8254  -1.7948  -1.4727
    -1.1546  -0.8594   1.2675   1.7472   2.3215   2.5874

          k = 0.2500 0.4330 0.0000 ( 14510 PWs)   bands (ev):

   -61.5191 -35.7676 -35.6875 -35.6171 -13.6147 -12.8416  -6.5397  -5.8228
    -5.4060  -4.7493  -3.9264  -3.1939  -2.1650  -1.9574  -1.8343  -1.5473
    -1.1495  -0.9549   0.5842   1.7386   2.1884   2.7410

          k = 0.2500 0.5292 0.0000 ( 14528 PWs)   bands (ev):

   -61.5155 -35.7722 -35.6804 -35.6557 -13.4130 -12.6830  -6.6312  -6.0560
    -5.4706  -4.8249  -4.1593  -3.4089  -2.0880  -1.8940  -1.8322  -1.5926
    -1.1030  -0.7648   1.0604   1.6614   2.2308   3.0881

          k = 0.3333 0.5774 0.0000 ( 14538 PWs)   bands (ev):

   -61.5141 -35.7418 -35.7022 -35.6779 -13.3401 -12.6212  -6.4897  -6.1749
    -5.3608  -5.1676  -4.2347  -3.5048  -1.9870  -1.9260  -1.8080  -1.6848
    -1.0839  -0.6109   0.9972   1.6483   2.3169   3.4548

 ------ SPIN DOWN ----------


          k = 0.0000 0.0000 0.0000 ( 14351 PWs)   bands (ev):

   -61.5564 -35.7439 -35.4603 -35.4603 -15.3259 -13.9704  -7.1014  -4.2829
    -3.2040  -3.2040  -2.2969  -2.2969  -1.5804  -0.4394  -0.1735  -0.1735
    -0.0626  -0.0626   0.4285   1.8117   1.8117   2.2252

          k = 0.0000 0.0962 0.0000 ( 14357 PWs)   bands (ev):

   -61.5538 -35.7388 -35.4867 -35.4663 -15.2273 -13.9117  -6.9913  -4.2846
    -3.4727  -3.1135  -2.5619  -2.4614  -1.4581  -0.7118  -0.1993  -0.1529
    -0.0473   0.1479   0.5652   1.6116   1.8585   1.9998

          k = 0.0000 0.1925 0.0000 ( 14400 PWs)   bands (ev):

   -61.5465 -35.7248 -35.5584 -35.4827 -14.9464 -13.7432  -6.7037  -4.4181
    -4.1058  -2.9751  -2.9534  -2.7640  -1.4248  -1.0930  -0.2840  -0.1696
     0.0805   0.3533   0.8751   1.3254   1.7587   1.8310

          k = 0.0000 0.2887 0.0000 ( 14448 PWs)   bands (ev):

   -61.5366 -35.7056 -35.6551 -35.5051 -14.5293 -13.4899  -6.3964  -5.0706
    -4.6045  -3.3206  -3.2672  -2.5238  -1.6233  -1.2568  -0.3595  -0.1690
     0.2945   0.4973   0.8278   1.5955   1.6003   2.1480

          k = 0.0000 0.3849 0.0000 ( 14480 PWs)   bands (ev):

   -61.5267 -35.7504 -35.6862 -35.5274 -14.0618 -13.1977  -6.4390  -5.7278
    -4.9840  -3.6848  -3.4718  -2.2851  -1.8497  -1.0936  -0.3193  -0.0868
     0.5399   0.6047   0.9354   1.5197   2.0246   2.6700

          k = 0.0000 0.4811 0.0000 ( 14494 PWs)   bands (ev):

   -61.5194 -35.8193 -35.6720 -35.5437 -13.6782 -12.9425  -6.9097  -6.0454
    -5.1673  -3.9229  -3.6431  -2.1708  -1.7615  -1.0058  -0.1468   0.0257
     0.6764   0.7390   1.3577   1.5679   2.3477   3.0937

          k = 0.0000-0.5774 0.0000 ( 14518 PWs)   bands (ev):

   -61.5167 -35.8443 -35.6669 -35.5496 -13.5280 -12.8345  -7.1440  -6.1664
    -5.2186  -4.0050  -3.7090  -2.1432  -1.6639  -0.9861  -0.0415   0.0734
     0.6952   0.8114   1.6254   1.7326   2.3124   3.1879

          k = 0.0833 0.1443 0.0000 ( 14400 PWs)   bands (ev):

   -61.5488 -35.7292 -35.5344 -35.4789 -15.0374 -13.7979  -6.7908  -4.3344
    -3.9189  -2.9904  -2.9193  -2.6854  -1.3816  -0.9813  -0.3322  -0.0881
     0.0116   0.3143   0.8138   1.3705   1.7752   1.7900

          k = 0.0833 0.2406 0.0000 ( 14456 PWs)   bands (ev):

   -61.5402 -35.7126 -35.6151 -35.5018 -14.6875 -13.5860  -6.4786  -4.7125
    -4.4327  -3.5280  -2.9851  -2.6430  -1.4351  -1.2370  -0.4424  -0.1310
     0.2074   0.4782   0.8509   1.4676   1.6139   1.8549

          k = 0.0833 0.3368 0.0000 ( 14475 PWs)   bands (ev):

   -61.5303 -35.7072 -35.6931 -35.5282 -14.2415 -13.3098  -6.3024  -5.4083
    -4.8411  -3.9241  -3.1831  -2.5330  -1.6986  -1.1215  -0.4335  -0.1330
     0.4416   0.6113   0.7738   1.5752   1.8125   2.3635

          k = 0.0833 0.4330 0.0000 ( 14478 PWs)   bands (ev):

   -61.5217 -35.7854 -35.6765 -35.5511 -13.8081 -13.0281  -6.6179  -5.8494
    -5.1424  -4.0941  -3.4362  -2.5700  -1.6728  -0.9715  -0.2724  -0.0567
     0.6245   0.7370   0.9696   1.6981   2.1921   2.9235

          k = 0.0833 0.5292 0.0000 ( 14500 PWs)   bands (ev):

   -61.5167 -35.8303 -35.6669 -35.5642 -13.5339 -12.8349  -7.0067  -6.0886
    -5.2521  -4.1151  -3.6658  -2.5928  -1.5056  -0.9311  -0.0990   0.0184
     0.7189   0.8065   1.4179   1.7860   2.4706   2.9034

          k = 0.1667 0.2887 0.0000 ( 14482 PWs)   bands (ev):

   -61.5316 -35.6962 -35.6845 -35.5350 -14.3060 -13.3487  -6.2580  -5.1650
    -4.7542  -4.1677  -3.1634  -2.5763  -1.6207  -1.0919  -0.5344  -0.1430
     0.4172   0.6418   0.7037   1.5628   1.7070   2.2071

          k = 0.1667 0.3849 0.0000 ( 14494 PWs)   bands (ev):

   -61.5230 -35.7501 -35.6791 -35.5716 -13.8847 -13.0741  -6.3423  -5.5202
    -5.1946  -4.4001  -3.4520  -2.7738  -1.6794  -0.8275  -0.4612  -0.1413
     0.5794   0.7004   0.8207   1.8164   1.9133   2.7422

          k = 0.1667 0.4811 0.0000 ( 14497 PWs)   bands (ev):

   -61.5167 -35.7962 -35.6669 -35.5996 -13.5459 -12.8355  -6.6802  -5.8862
    -5.3342  -4.3878  -3.7225  -3.0575  -1.5013  -0.7365  -0.2336  -0.0979
     0.6403   0.8100   1.1650   1.8699   2.3232   2.9728

          k = 0.1667 0.5774 0.0000 ( 14512 PWs)   bands (ev):

   -61.5144 -35.8128 -35.6624 -35.6101 -13.4149 -12.7360  -6.8476  -6.0344
    -5.3868  -4.2764  -3.9050  -3.1700  -1.3699  -0.7347  -0.1231  -0.0730
     0.7221   0.8278   1.4093   1.8814   2.4728   2.8832

          k = 0.2500 0.4330 0.0000 ( 14510 PWs)   bands (ev):

   -61.5167 -35.7734 -35.6669 -35.6231 -13.5519 -12.8356  -6.4681  -5.7923
    -5.2962  -4.6472  -3.8947  -3.0769  -1.5549  -0.5072  -0.4128  -0.1622
     0.5378   0.8196   1.1180   1.8362   2.2308   3.0535

          k = 0.2500 0.5292 0.0000 ( 14528 PWs)   bands (ev):

   -61.5131 -35.7779 -35.6618 -35.6598 -13.3488 -12.6773  -6.5599  -6.0176
    -5.3574  -4.7219  -4.1299  -3.3402  -1.3512  -0.4998  -0.2037  -0.1361
     0.6010   0.8594   1.2359   1.8666   2.3967   3.3666

          k = 0.3333 0.5774 0.0000 ( 14538 PWs)   bands (ev):

   -61.5118 -35.7474 -35.7084 -35.6572 -13.2755 -12.6155  -6.4530  -6.0648
    -5.2273  -5.1456  -4.1795  -3.4551  -1.2718  -0.4166  -0.1749  -0.1140
     0.6154   0.8682   1.0403   1.8919   2.5458   3.8441

     the Fermi energy is     0.4330 ev

!    total energy              =    -658.62419626 Ry
     total all-electron energy =    -12481.798087 Ry
     estimated scf accuracy    <       0.00000006 Ry
     smearing contrib. (-TS)   =      -0.00080884 Ry
     internal energy E=F+TS    =    -658.62338743 Ry

     The total energy is F=E-TS. E is the sum of the following terms:
     one-electron contribution =   -2219.28523098 Ry
     hartree contribution      =    1120.91467164 Ry
     xc contribution           =     -62.27801050 Ry
     ewald contribution        =     908.23228466 Ry
     DFT-D3 Dispersion         =      -0.06159139 Ry
     one-center paw contrib.   =    -406.14551086 Ry

     total magnetization       =     2.03 Bohr mag/cell
     absolute magnetization    =     2.20 Bohr mag/cell

     convergence has been achieved in  10 iterations

     negative rho (up, down):  4.647E-05 4.789E-05

     Forces acting on atoms (cartesian axes, Ry/au):

     atom    1 type  1   force =     0.00000000    0.00000000    0.01887575
     atom    2 type  2   force =     0.00000000    0.00000000    0.01831745
     atom    3 type  2   force =     0.00000000   -0.00000000    0.00839501
     atom    4 type  3   force =     0.00000000    0.00000000   -0.04558821
     The non-local contrib.  to forces
     atom    1 type  1   force =     0.00000000    0.00000000   -0.05299134
     atom    2 type  2   force =     0.00000000    0.00000000   -0.06026483
     atom    3 type  2   force =     0.00000000    0.00000000    0.27436335
     atom    4 type  3   force =     0.00000000    0.00000000   -0.00697777
     The ionic contribution  to forces
     atom    1 type  1   force =     0.00000000    0.00000460  -37.19897476
     atom    2 type  2   force =    -0.00000000   -0.00000317   20.59961949
     atom    3 type  2   force =    -0.00000000   -0.00000248  -51.25350669
     atom    4 type  3   force =     0.00000000    0.00000105   67.85286196
     The local contribution  to forces
     atom    1 type  1   force =     0.00000000   -0.00000279   37.26513989
     atom    2 type  2   force =    -0.00000000    0.00000226  -20.51664668
     atom    3 type  2   force =    -0.00000000    0.00000173   50.98765863
     atom    4 type  3   force =     0.00000000   -0.00000062  -67.87265349
     The core correction contribution to forces
     atom    1 type  1   force =     0.00000000    0.00000000    0.00350722
     atom    2 type  2   force =     0.00000000    0.00000000   -0.00110463
     atom    3 type  2   force =     0.00000000    0.00000000   -0.00241774
     atom    4 type  3   force =     0.00000000    0.00000000   -0.01678873
     The Hubbard contrib.    to forces
     atom    1 type  1   force =     0.00000000    0.00000000    0.00000000
     atom    2 type  2   force =     0.00000000    0.00000000    0.00000000
     atom    3 type  2   force =     0.00000000    0.00000000    0.00000000
     atom    4 type  3   force =     0.00000000    0.00000000    0.00000000
     The SCF correction term to forces
     atom    1 type  1   force =    -0.00000000    0.00000000   -0.00081654
     atom    2 type  2   force =     0.00000000   -0.00000000    0.00025772
     atom    3 type  2   force =    -0.00000000   -0.00000000   -0.00014040
     atom    4 type  3   force =     0.00000000   -0.00000000   -0.00002673

     DFT-D3 dispersion contribution to forces:
     atom    1 type  1   force =     0.00000000   -0.00000000    0.00303576
     atom    2 type  2   force =     0.00000000    0.00000000   -0.00351913
     atom    3 type  2   force =    -0.00000000    0.00000000    0.00246234
     atom    4 type  3   force =    -0.00000000   -0.00000000   -0.00197897

     Total force =     0.053297     Total SCF correction =     0.000868


     Computing stress (Cartesian axis) and pressure


     negative rho (up, down):  4.647E-05 4.789E-05
          total   stress  (Ry/bohr**3)                   (kbar)     P=      -24.09
  -0.00015350   0.00000000   0.00000000          -22.58        0.00        0.00
   0.00000000  -0.00015350  -0.00000000            0.00      -22.58       -0.00
   0.00000000  -0.00000000  -0.00018431            0.00       -0.00      -27.11

     Energy error            =      4.8E-03 Ry
     Gradient error          =      4.6E-02 Ry/Bohr

     number of scf cycles    =   4
     number of bfgs steps    =   3

     energy             old  =    -658.6194297387 Ry
     energy             new  =    -658.6241962628 Ry

     CASE: energy            _new < energy            _old


     WARNING: bfgs curvature condition failed, Theta= 0.469
     new trust radius        =       0.0472346868 bohr
     new conv_thr            =       0.0000004559 Ry


ATOMIC_POSITIONS (crystal)
Mo            0.0000000000        0.0000000000        0.3802228937
S             0.6666666667        0.3333333333        0.4474422172
S             0.6666666667        0.3333333333        0.3170496078
Co           -0.0000000000       -0.0000000000        0.5179477224



     Writing config-only to output data dir ./tmp/scf.save/
     NEW-OLD atomic charge density approx. for the potential

     negative rho (up, down):  4.769E-05 4.822E-05
     Generating pointlists ...
     new r_m :   0.3309 (alat units)  1.9791 (a.u.) for type    3

     total cpu time spent up to now is      256.2 secs

     Self-consistent Calculation

     iteration #  1     ecut=    70.00 Ry     beta= 0.70
     Davidson diagonalization with overlap
     ethr =  1.00E-06,  avg # of iterations =  8.4

     negative rho (up, down):  4.667E-05 4.825E-05

     total cpu time spent up to now is      262.5 secs

     total energy              =    -658.62696304 Ry
     estimated scf accuracy    <       0.00105794 Ry

     total magnetization       =     2.00 Bohr mag/cell
     absolute magnetization    =     2.18 Bohr mag/cell

     iteration #  2     ecut=    70.00 Ry     beta= 0.70
     Davidson diagonalization with overlap
     ethr =  3.02E-06,  avg # of iterations =  5.3

     negative rho (up, down):  4.653E-05 4.818E-05

     total cpu time spent up to now is      266.6 secs

     total energy              =    -658.62508813 Ry
     estimated scf accuracy    <       0.03029001 Ry

     total magnetization       =     1.95 Bohr mag/cell
     absolute magnetization    =     2.12 Bohr mag/cell

     iteration #  3     ecut=    70.00 Ry     beta= 0.70
     Davidson diagonalization with overlap
     ethr =  3.02E-06,  avg # of iterations =  5.1

     negative rho (up, down):  4.649E-05 4.802E-05

     total cpu time spent up to now is      271.0 secs

     total energy              =    -658.62654035 Ry
     estimated scf accuracy    <       0.01372736 Ry

     total magnetization       =     2.05 Bohr mag/cell
     absolute magnetization    =     2.24 Bohr mag/cell

     iteration #  4     ecut=    70.00 Ry     beta= 0.70
     Davidson diagonalization with overlap
     ethr =  3.02E-06,  avg # of iterations =  2.8

     negative rho (up, down):  4.638E-05 4.787E-05

     total cpu time spent up to now is      274.9 secs

     total energy              =    -658.62720949 Ry
     estimated scf accuracy    <       0.00049029 Ry

     total magnetization       =     1.99 Bohr mag/cell
     absolute magnetization    =     2.17 Bohr mag/cell

     iteration #  5     ecut=    70.00 Ry     beta= 0.70
     Davidson diagonalization with overlap
     ethr =  1.40E-06,  avg # of iterations =  2.3

     negative rho (up, down):  4.634E-05 4.785E-05

     total cpu time spent up to now is      278.7 secs

     total energy              =    -658.62725025 Ry
     estimated scf accuracy    <       0.00028093 Ry

     total magnetization       =     2.00 Bohr mag/cell
     absolute magnetization    =     2.18 Bohr mag/cell

     iteration #  6     ecut=    70.00 Ry     beta= 0.70
     Davidson diagonalization with overlap
     ethr =  8.03E-07,  avg # of iterations =  1.8

     negative rho (up, down):  4.634E-05 4.789E-05

     total cpu time spent up to now is      282.5 secs

     total energy              =    -658.62728753 Ry
     estimated scf accuracy    <       0.00003287 Ry

     total magnetization       =     1.99 Bohr mag/cell
     absolute magnetization    =     2.18 Bohr mag/cell

     iteration #  7     ecut=    70.00 Ry     beta= 0.70
     Davidson diagonalization with overlap
     ethr =  9.39E-08,  avg # of iterations =  2.6

     negative rho (up, down):  4.635E-05 4.789E-05

     total cpu time spent up to now is      286.2 secs

     total energy              =    -658.62728990 Ry
     estimated scf accuracy    <       0.00001354 Ry

     total magnetization       =     1.99 Bohr mag/cell
     absolute magnetization    =     2.18 Bohr mag/cell

     iteration #  8     ecut=    70.00 Ry     beta= 0.70
     Davidson diagonalization with overlap
     ethr =  3.87E-08,  avg # of iterations =  2.1

     negative rho (up, down):  4.638E-05 4.791E-05

     total cpu time spent up to now is      289.1 secs

     total energy              =    -658.62729110 Ry
     estimated scf accuracy    <       0.00000481 Ry

     total magnetization       =     1.99 Bohr mag/cell
     absolute magnetization    =     2.18 Bohr mag/cell

     iteration #  9     ecut=    70.00 Ry     beta= 0.70
     Davidson diagonalization with overlap
     ethr =  1.37E-08,  avg # of iterations =  1.6

     negative rho (up, down):  4.639E-05 4.791E-05
 
     Magnetic moment per site  (integrated on atomic sphere of radius R)
     atom   1 (R=0.314)  charge= 10.7341  magn= -0.0013
     atom   2 (R=0.314)  charge=  4.1468  magn=  0.0514
     atom   3 (R=0.314)  charge=  4.1262  magn=  0.0043
     atom   4 (R=0.331)  charge=  7.3869  magn=  1.9323

     total cpu time spent up to now is      292.1 secs

     End of self-consistent calculation

 ------ SPIN UP ------------


          k = 0.0000 0.0000 0.0000 ( 14351 PWs)   bands (ev):

   -61.5387 -35.7451 -35.4277 -35.4277 -15.3759 -13.9790  -7.1246  -4.4327
    -3.2075  -3.2075  -2.5849  -2.5095  -2.5095  -1.7632  -1.7632  -1.3371
    -1.3371  -1.2802  -0.4347   1.5338   1.5339   2.2183

          k = 0.0000 0.0962 0.0000 ( 14357 PWs)   bands (ev):

   -61.5360 -35.7400 -35.4540 -35.4337 -15.2788 -13.9182  -7.0158  -4.4063
    -3.4936  -3.1429  -2.8857  -2.5908  -2.4252  -1.7820  -1.7748  -1.4833
    -1.3459  -1.1757  -0.2781   1.3305   1.5606   2.0047

          k = 0.0000 0.1925 0.0000 ( 14400 PWs)   bands (ev):

   -61.5288 -35.7262 -35.5253 -35.4500 -15.0021 -13.7435  -6.7314  -4.4722
    -4.1594  -3.2693  -3.1114  -2.7087  -2.4825  -1.8067  -1.7443  -1.6178
    -1.3476  -1.2302  -0.0587   1.1331   1.4879   1.8235

          k = 0.0000 0.2887 0.0000 ( 14448 PWs)   bands (ev):

   -61.5190 -35.7072 -35.6214 -35.4723 -14.5910 -13.4807  -6.4231  -5.1672
    -4.6185  -3.4844  -3.4084  -2.5707  -2.5268  -1.8724  -1.7336  -1.6068
    -1.4281  -1.2902   0.0432   1.3636   1.3715   2.0884

          k = 0.0000 0.3849 0.0000 ( 14480 PWs)   bands (ev):

   -61.5091 -35.7163 -35.6880 -35.4945 -14.1295 -13.1774  -6.4695  -5.8426
    -5.0050  -3.7378  -3.6229  -2.5222  -2.4561  -1.9002  -1.8077  -1.4749
    -1.4406  -1.1491   0.3854   1.3841   1.8203   2.5322

          k = 0.0000 0.4811 0.0000 ( 14494 PWs)   bands (ev):

   -61.5018 -35.7847 -35.6741 -35.5107 -13.7490 -12.9137  -6.9847  -6.1092
    -5.2049  -3.9619  -3.7882  -2.5303  -2.4257  -1.8280  -1.7192  -1.3731
    -1.3117  -1.0201   0.9788   1.5359   2.1826   2.8914

          k = 0.0000-0.5774 0.0000 ( 14518 PWs)   bands (ev):

   -61.4992 -35.8096 -35.6690 -35.5166 -13.5990 -12.8030  -7.2313  -6.2161
    -5.2571  -4.0402  -3.8617  -2.5372  -2.4241  -1.8168  -1.6406  -1.2606
    -1.2580  -0.9780   1.4139   1.6350   2.0851   3.1878

          k = 0.0833 0.1443 0.0000 ( 14400 PWs)   bands (ev):

   -61.5311 -35.7306 -35.5014 -35.4462 -15.0918 -13.8003  -6.8176  -4.4064
    -3.9635  -3.1640  -3.1172  -2.7730  -2.4152  -1.7963  -1.7532  -1.5721
    -1.3677  -1.1695  -0.0989   1.1473   1.5070   1.7851

          k = 0.0833 0.2406 0.0000 ( 14456 PWs)   bands (ev):

   -61.5226 -35.7142 -35.5817 -35.4690 -14.7470 -13.5805  -6.5078  -4.7876
    -4.4621  -3.5947  -3.2990  -2.7115  -2.4412  -1.8052  -1.7154  -1.5881
    -1.3989  -1.2812  -0.0361   1.2376   1.4028   1.8021

          k = 0.0833 0.3368 0.0000 ( 14475 PWs)   bands (ev):

   -61.5127 -35.6953 -35.6729 -35.4953 -14.3071 -13.2939  -6.3254  -5.5331
    -4.8527  -3.9607  -3.4312  -2.6254  -2.4514  -1.8862  -1.7874  -1.5348
    -1.3934  -1.2109   0.0894   1.3988   1.6343   2.2128

          k = 0.0833 0.4330 0.0000 ( 14478 PWs)   bands (ev):

   -61.5041 -35.7511 -35.6786 -35.5181 -13.8783 -13.0023  -6.6775  -5.9323
    -5.1768  -4.1399  -3.6202  -2.7027  -2.4025  -1.8634  -1.7881  -1.4886
    -1.2855  -1.0527   0.5360   1.6155   2.0493   2.7235

          k = 0.0833 0.5292 0.0000 ( 14500 PWs)   bands (ev):

   -61.4992 -35.7957 -35.6690 -35.5312 -13.6051 -12.8039  -7.0947  -6.1322
    -5.2973  -4.1687  -3.8318  -2.7684  -2.3829  -1.8073  -1.7098  -1.3832
    -1.1986  -0.9534   1.1858   1.7191   2.2609   2.7569

          k = 0.1667 0.2887 0.0000 ( 14482 PWs)   bands (ev):

   -61.5140 -35.6977 -35.6508 -35.5020 -14.3708 -13.3344  -6.2839  -5.2944
    -4.7592  -4.1960  -3.4192  -2.7188  -2.4068  -1.8628  -1.7741  -1.5024
    -1.3665  -1.2293  -0.0592   1.3831   1.5950   1.9953

          k = 0.1667 0.3849 0.0000 ( 14494 PWs)   bands (ev):

   -61.5055 -35.7160 -35.6811 -35.5385 -13.9544 -13.0503  -6.3850  -5.6434
    -5.2060  -4.4727  -3.5942  -2.8964  -2.3253  -1.9632  -1.8128  -1.5027
    -1.2449  -1.0555   0.1620   1.7465   1.8261   2.4542

          k = 0.1667 0.4811 0.0000 ( 14497 PWs)   bands (ev):

   -61.4992 -35.7618 -35.6691 -35.5664 -13.6174 -12.8052  -6.7652  -5.9098
    -5.4146  -4.4957  -3.8293  -3.1315  -2.2643  -1.8828  -1.7859  -1.5097
    -1.1565  -0.9180   0.7679   1.8057   2.2592   2.6936

          k = 0.1667 0.5774 0.0000 ( 14512 PWs)   bands (ev):

   -61.4969 -35.7783 -35.6646 -35.5768 -13.4861 -12.7038  -6.9460  -6.0410
    -5.4686  -4.4221  -3.9869  -3.2265  -2.2516  -1.8260  -1.7805  -1.4813
    -1.1252  -0.8282   1.2737   1.7372   2.3098   2.5986

          k = 0.2500 0.4330 0.0000 ( 14510 PWs)   bands (ev):

   -61.4992 -35.7391 -35.6691 -35.5898 -13.6235 -12.8057  -6.5448  -5.7932
    -5.4339  -4.7629  -3.9104  -3.1973  -2.1821  -1.9523  -1.8408  -1.5434
    -1.1259  -0.9101   0.5757   1.7479   2.1988   2.7629

          k = 0.2500 0.5292 0.0000 ( 14528 PWs)   bands (ev):

   -61.4956 -35.7435 -35.6621 -35.6283 -13.4201 -12.6448  -6.6467  -6.0310
    -5.4906  -4.8457  -4.1417  -3.4077  -2.1008  -1.8987  -1.8265  -1.5996
    -1.0690  -0.7265   1.0674   1.6486   2.2179   3.1046

          k = 0.3333 0.5774 0.0000 ( 14538 PWs)   bands (ev):

   -61.4942 -35.7129 -35.6749 -35.6595 -13.3465 -12.5825  -6.4741  -6.2026
    -5.3884  -5.1524  -4.2317  -3.4968  -2.0061  -1.9210  -1.8065  -1.6953
    -1.0457  -0.5747   1.0314   1.6165   2.2814   3.4761

 ------ SPIN DOWN ----------


          k = 0.0000 0.0000 0.0000 ( 14351 PWs)   bands (ev):

   -61.5403 -35.7287 -35.4385 -35.4385 -15.3256 -13.9645  -7.0889  -4.3076
    -3.1361  -3.1361  -2.2660  -2.2660  -1.5600  -0.4005  -0.2358  -0.2358
    -0.1103  -0.1103   0.3796   1.8237   1.8237   2.2338

          k = 0.0000 0.0962 0.0000 ( 14357 PWs)   bands (ev):

   -61.5377 -35.7237 -35.4648 -35.4445 -15.2279 -13.9041  -6.9792  -4.3027
    -3.4113  -3.0493  -2.5432  -2.4279  -1.4451  -0.7174  -0.2472  -0.2108
    -0.0987   0.1408   0.5235   1.6203   1.8651   2.0116

          k = 0.0000 0.1925 0.0000 ( 14400 PWs)   bands (ev):

   -61.5305 -35.7098 -35.5360 -35.4609 -14.9491 -13.7307  -6.6917  -4.4111
    -4.0697  -2.9860  -2.9188  -2.7067  -1.4239  -1.0975  -0.3305  -0.2183
     0.0254   0.3454   0.8860   1.3133   1.7677   1.8455

          k = 0.0000 0.2887 0.0000 ( 14448 PWs)   bands (ev):

   -61.5206 -35.6909 -35.6320 -35.4832 -14.5346 -13.4699  -6.3793  -5.0660
    -4.5836  -3.2952  -3.2875  -2.4808  -1.6114  -1.2716  -0.4046  -0.2045
     0.2429   0.4822   0.8546   1.6016   1.6098   2.1597

          k = 0.0000 0.3849 0.0000 ( 14480 PWs)   bands (ev):

   -61.5108 -35.7267 -35.6717 -35.5053 -14.0686 -13.1692  -6.4165  -5.7480
    -4.9669  -3.6491  -3.4974  -2.2695  -1.8332  -1.1198  -0.3588  -0.1025
     0.4948   0.5810   0.9601   1.5385   2.0428   2.6864

          k = 0.0000 0.4811 0.0000 ( 14494 PWs)   bands (ev):

   -61.5035 -35.7951 -35.6577 -35.5215 -13.6845 -12.9073  -6.9157  -6.0482
    -5.1516  -3.8859  -3.6692  -2.1769  -1.7533  -1.0332  -0.1734   0.0248
     0.6503   0.6989   1.3633   1.5929   2.3479   3.1409

          k = 0.0000-0.5774 0.0000 ( 14518 PWs)   bands (ev):

   -61.5009 -35.8199 -35.6526 -35.5274 -13.5331 -12.7971  -7.1608  -6.1646
    -5.1996  -3.9676  -3.7369  -2.1567  -1.6642  -1.0099  -0.0592   0.0772
     0.6709   0.7723   1.6544   1.7216   2.2841   3.1538

          k = 0.0833 0.1443 0.0000 ( 14400 PWs)   bands (ev):

   -61.5328 -35.7142 -35.5122 -35.4571 -15.0395 -13.7870  -6.7790  -4.3378
    -3.8717  -2.9463  -2.8997  -2.6588  -1.3785  -0.9870  -0.3799  -0.1339
    -0.0477   0.3086   0.8086   1.3662   1.7864   1.8011

          k = 0.0833 0.2406 0.0000 ( 14456 PWs)   bands (ev):

   -61.5243 -35.6978 -35.5923 -35.4798 -14.6919 -13.5689  -6.4649  -4.6948
    -4.4155  -3.5036  -2.9999  -2.6000  -1.4272  -1.2464  -0.4825  -0.1743
     0.1544   0.4648   0.8812   1.4565   1.6264   1.8704

          k = 0.0833 0.3368 0.0000 ( 14475 PWs)   bands (ev):

   -61.5144 -35.6842 -35.6781 -35.5061 -14.2480 -13.2847  -6.2781  -5.4247
    -4.8205  -3.8978  -3.2076  -2.5068  -1.6833  -1.1441  -0.4658  -0.1627
     0.3996   0.5886   0.7985   1.5912   1.8224   2.3837

          k = 0.0833 0.4330 0.0000 ( 14478 PWs)   bands (ev):

   -61.5058 -35.7615 -35.6622 -35.5289 -13.8150 -12.9953  -6.6113  -5.8580
    -5.1283  -4.0695  -3.4590  -2.5617  -1.6605  -1.0020  -0.3016  -0.0673
     0.5985   0.7066   0.9790   1.7163   2.2067   2.9425

          k = 0.0833 0.5292 0.0000 ( 14500 PWs)   bands (ev):

   -61.5009 -35.8060 -35.6526 -35.5419 -13.5393 -12.7979  -7.0221  -6.0829
    -5.2350  -4.0889  -3.6928  -2.5977  -1.4992  -0.9619  -0.1211   0.0186
     0.6933   0.7803   1.4185   1.7976   2.4600   2.8792

          k = 0.1667 0.2887 0.0000 ( 14482 PWs)   bands (ev):

   -61.5157 -35.6815 -35.6613 -35.5128 -14.3123 -13.3248  -6.2362  -5.1776
    -4.7320  -4.1378  -3.1845  -2.5604  -1.6083  -1.1125  -0.5578  -0.1794
     0.3753   0.6199   0.7295   1.5821   1.7070   2.2323

          k = 0.1667 0.3849 0.0000 ( 14494 PWs)   bands (ev):

   -61.5071 -35.7264 -35.6647 -35.5493 -13.8919 -13.0429  -6.3233  -5.5392
    -5.1758  -4.3869  -3.4612  -2.7726  -1.6710  -0.8564  -0.4811  -0.1639
     0.5824   0.6900   0.7871   1.8319   1.9231   2.7719

          k = 0.1667 0.4811 0.0000 ( 14497 PWs)   bands (ev):

   -61.5009 -35.7721 -35.6527 -35.5771 -13.5518 -12.7991  -6.6893  -5.8670
    -5.3331  -4.3878  -3.7300  -3.0580  -1.4955  -0.7680  -0.2588  -0.1058
     0.6402   0.7929   1.1376   1.8834   2.3252   2.9645

          k = 0.1667 0.5774 0.0000 ( 14512 PWs)   bands (ev):

   -61.4986 -35.7886 -35.6482 -35.5875 -13.4195 -12.6980  -6.8677  -6.0103
    -5.3801  -4.2844  -3.9115  -3.1708  -1.3666  -0.7675  -0.1530  -0.0692
     0.7160   0.8062   1.4148   1.8649   2.4613   2.8714

          k = 0.2500 0.4330 0.0000 ( 14510 PWs)   bands (ev):

   -61.5009 -35.7494 -35.6527 -35.6005 -13.5580 -12.7996  -6.4694  -5.7577
    -5.3230  -4.6575  -3.8779  -3.0860  -1.5537  -0.5423  -0.4297  -0.1759
     0.5537   0.7999   1.0810   1.8429   2.2404   3.0630

          k = 0.2500 0.5292 0.0000 ( 14528 PWs)   bands (ev):

   -61.4972 -35.7539 -35.6457 -35.6389 -13.3531 -12.6390  -6.5705  -5.9900
    -5.3739  -4.7412  -4.1137  -3.3435  -1.3585  -0.5335  -0.2297  -0.1344
     0.6150   0.8309   1.2467   1.8406   2.3858   3.3639

          k = 0.3333 0.5774 0.0000 ( 14538 PWs)   bands (ev):

   -61.4959 -35.7232 -35.6856 -35.6431 -13.2791 -12.5766  -6.4333  -6.0883
    -5.2513  -5.1299  -4.1791  -3.4513  -1.2874  -0.4563  -0.2074  -0.0961
     0.6347   0.8338   1.0720   1.8601   2.5164   3.8263

     the Fermi energy is     0.4159 ev

!    total energy              =    -658.62729107 Ry
     total all-electron energy =    -12481.801182 Ry
     estimated scf accuracy    <       0.00000039 Ry
     smearing contrib. (-TS)   =      -0.00078123 Ry
     internal energy E=F+TS    =    -658.62650984 Ry

     The total energy is F=E-TS. E is the sum of the following terms:
     one-electron contribution =   -2224.14782526 Ry
     hartree contribution      =    1123.35147648 Ry
     xc contribution           =     -62.27496347 Ry
     ewald contribution        =     910.65015362 Ry
     DFT-D3 Dispersion         =      -0.06166085 Ry
     one-center paw contrib.   =    -406.14369036 Ry

     total magnetization       =     1.99 Bohr mag/cell
     absolute magnetization    =     2.18 Bohr mag/cell

     convergence has been achieved in   9 iterations

     negative rho (up, down):  4.639E-05 4.791E-05

     Forces acting on atoms (cartesian axes, Ry/au):

     atom    1 type  1   force =     0.00000000   -0.00000000    0.02098125
     atom    2 type  2   force =     0.00000000    0.00000000    0.01485156
     atom    3 type  2   force =     0.00000000    0.00000000    0.01382841
     atom    4 type  3   force =     0.00000000    0.00000000   -0.04966123
     The non-local contrib.  to forces
     atom    1 type  1   force =     0.00000000    0.00000000   -0.05720574
     atom    2 type  2   force =     0.00000000    0.00000000   -0.05497042
     atom    3 type  2   force =     0.00000000    0.00000000    0.27670501
     atom    4 type  3   force =     0.00000000    0.00000000    0.00371048
     The ionic contribution  to forces
     atom    1 type  1   force =     0.00000000    0.00000450  -37.33836977
     atom    2 type  2   force =    -0.00000000   -0.00000320   20.61503573
     atom    3 type  2   force =    -0.00000000   -0.00000245  -51.27803043
     atom    4 type  3   force =     0.00000000    0.00000114   68.00136448
     The local contribution  to forces
     atom    1 type  1   force =    -0.00000000   -0.00000273   37.41194067
     atom    2 type  2   force =    -0.00000000    0.00000229  -20.54139758
     atom    3 type  2   force =    -0.00000000    0.00000171   51.01549508
     atom    4 type  3   force =    -0.00000000   -0.00000067  -68.03182768
     The core correction contribution to forces
     atom    1 type  1   force =     0.00000000    0.00000000    0.00376257
     atom    2 type  2   force =     0.00000000    0.00000000   -0.00099164
     atom    3 type  2   force =     0.00000000    0.00000000   -0.00252762
     atom    4 type  3   force =     0.00000000    0.00000000   -0.01794685
     The Hubbard contrib.    to forces
     atom    1 type  1   force =     0.00000000    0.00000000    0.00000000
     atom    2 type  2   force =     0.00000000    0.00000000    0.00000000
     atom    3 type  2   force =     0.00000000    0.00000000    0.00000000
     atom    4 type  3   force =     0.00000000    0.00000000    0.00000000
     The SCF correction term to forces
     atom    1 type  1   force =    -0.00000000    0.00000000   -0.00212914
     atom    2 type  2   force =    -0.00000000   -0.00000000   -0.00125247
     atom    3 type  2   force =    -0.00000000    0.00000000   -0.00023478
     atom    4 type  3   force =     0.00000000   -0.00000000   -0.00091341

     DFT-D3 dispersion contribution to forces:
     atom    1 type  1   force =     0.00000000   -0.00000000    0.00303679
     atom    2 type  2   force =     0.00000000    0.00000000   -0.00151794
     atom    3 type  2   force =    -0.00000000    0.00000000    0.00247527
     atom    4 type  3   force =    -0.00000000   -0.00000000   -0.00399413

     Total force =     0.057604     Total SCF correction =     0.002644


     Computing stress (Cartesian axis) and pressure


     negative rho (up, down):  4.639E-05 4.791E-05
          total   stress  (Ry/bohr**3)                   (kbar)     P=      -25.92
  -0.00015818   0.00000000   0.00000000          -23.27        0.00        0.00
   0.00000000  -0.00015818   0.00000000            0.00      -23.27        0.00
   0.00000000  -0.00000000  -0.00021218            0.00       -0.00      -31.21

     Energy error            =      3.1E-03 Ry
     Gradient error          =      5.0E-02 Ry/Bohr

     number of scf cycles    =   5
     number of bfgs steps    =   4

     energy             old  =    -658.6241962628 Ry
     energy             new  =    -658.6272910689 Ry

     CASE: energy            _new < energy            _old


     WARNING: bfgs curvature condition failed, Theta= 0.790
     new trust radius        =       0.0519581555 bohr
     new conv_thr            =       0.0000003095 Ry


ATOMIC_POSITIONS (crystal)
Mo            0.0000000000        0.0000000000        0.3804286008
S             0.6666666667        0.3333333333        0.4484703267
S             0.6666666667        0.3333333333        0.3169155942
Co           -0.0000000000       -0.0000000000        0.5168479196



     Writing config-only to output data dir ./tmp/scf.save/
     NEW-OLD atomic charge density approx. for the potential

     negative rho (up, down):  4.752E-05 4.889E-05
     Generating pointlists ...
     new r_m :   0.3261 (alat units)  1.9506 (a.u.) for type    3

     total cpu time spent up to now is      303.6 secs

     Self-consistent Calculation

     iteration #  1     ecut=    70.00 Ry     beta= 0.70
     Davidson diagonalization with overlap
     c_bands:  1 eigenvalues not converged
     ethr =  1.00E-06,  avg # of iterations =  9.3

     negative rho (up, down):  4.679E-05 4.874E-05

     total cpu time spent up to now is      310.1 secs

     total energy              =    -658.62965533 Ry
     estimated scf accuracy    <       0.00187312 Ry

     total magnetization       =     1.97 Bohr mag/cell
     absolute magnetization    =     2.16 Bohr mag/cell

     iteration #  2     ecut=    70.00 Ry     beta= 0.70
     Davidson diagonalization with overlap
     ethr =  5.35E-06,  avg # of iterations =  7.0

     negative rho (up, down):  4.631E-05 4.830E-05

     total cpu time spent up to now is      314.9 secs

     total energy              =    -658.62167405 Ry
     estimated scf accuracy    <       0.20871275 Ry

     total magnetization       =     1.77 Bohr mag/cell
     absolute magnetization    =     1.96 Bohr mag/cell

     iteration #  3     ecut=    70.00 Ry     beta= 0.70
     Davidson diagonalization with overlap
     ethr =  5.35E-06,  avg # of iterations =  7.3

     negative rho (up, down):  4.629E-05 4.799E-05

     total cpu time spent up to now is      319.7 secs

     total energy              =    -658.63009040 Ry
     estimated scf accuracy    <       0.00354452 Ry

     total magnetization       =     1.98 Bohr mag/cell
     absolute magnetization    =     2.18 Bohr mag/cell

     iteration #  4     ecut=    70.00 Ry     beta= 0.70
     Davidson diagonalization with overlap
     ethr =  5.35E-06,  avg # of iterations =  2.3

     negative rho (up, down):  4.620E-05 4.775E-05

     total cpu time spent up to now is      323.5 secs

     total energy              =    -658.63047117 Ry
     estimated scf accuracy    <       0.00046358 Ry

     total magnetization       =     1.95 Bohr mag/cell
     absolute magnetization    =     2.15 Bohr mag/cell

     iteration #  5     ecut=    70.00 Ry     beta= 0.70
     Davidson diagonalization with overlap
     ethr =  1.32E-06,  avg # of iterations =  2.5

     negative rho (up, down):  4.616E-05 4.768E-05

     total cpu time spent up to now is      327.6 secs

     total energy              =    -658.63051013 Ry
     estimated scf accuracy    <       0.00038552 Ry

     total magnetization       =     1.96 Bohr mag/cell
     absolute magnetization    =     2.16 Bohr mag/cell

     iteration #  6     ecut=    70.00 Ry     beta= 0.70
     Davidson diagonalization with overlap
     ethr =  1.10E-06,  avg # of iterations =  2.1

     negative rho (up, down):  4.618E-05 4.772E-05

     total cpu time spent up to now is      331.4 secs

     total energy              =    -658.63055864 Ry
     estimated scf accuracy    <       0.00003468 Ry

     total magnetization       =     1.96 Bohr mag/cell
     absolute magnetization    =     2.15 Bohr mag/cell

     iteration #  7     ecut=    70.00 Ry     beta= 0.70
     Davidson diagonalization with overlap
     ethr =  9.91E-08,  avg # of iterations =  2.7

     negative rho (up, down):  4.620E-05 4.774E-05

     total cpu time spent up to now is      335.4 secs

     total energy              =    -658.63056650 Ry
     estimated scf accuracy    <       0.00003283 Ry

     total magnetization       =     1.96 Bohr mag/cell
     absolute magnetization    =     2.15 Bohr mag/cell

     iteration #  8     ecut=    70.00 Ry     beta= 0.70
     Davidson diagonalization with overlap
     ethr =  9.38E-08,  avg # of iterations =  1.4

     negative rho (up, down):  4.625E-05 4.778E-05

     total cpu time spent up to now is      339.1 secs

     total energy              =    -658.63057008 Ry
     estimated scf accuracy    <       0.00000126 Ry

     total magnetization       =     1.96 Bohr mag/cell
     absolute magnetization    =     2.15 Bohr mag/cell

     iteration #  9     ecut=    70.00 Ry     beta= 0.70
     Davidson diagonalization with overlap
     ethr =  3.59E-09,  avg # of iterations =  4.8

     negative rho (up, down):  4.628E-05 4.780E-05

     total cpu time spent up to now is      343.3 secs

     total energy              =    -658.63057045 Ry
     estimated scf accuracy    <       0.00000043 Ry

     total magnetization       =     1.96 Bohr mag/cell
     absolute magnetization    =     2.15 Bohr mag/cell

     iteration # 10     ecut=    70.00 Ry     beta= 0.70
     Davidson diagonalization with overlap
     ethr =  1.23E-09,  avg # of iterations =  2.1

     negative rho (up, down):  4.628E-05 4.781E-05
 
     Magnetic moment per site  (integrated on atomic sphere of radius R)
     atom   1 (R=0.314)  charge= 10.7276  magn= -0.0069
     atom   2 (R=0.314)  charge=  4.1468  magn=  0.0532
     atom   3 (R=0.314)  charge=  4.1204  magn=  0.0047
     atom   4 (R=0.326)  charge=  7.3462  magn=  1.8963

     total cpu time spent up to now is      347.2 secs

     End of self-consistent calculation

 ------ SPIN UP ------------


          k = 0.0000 0.0000 0.0000 ( 14351 PWs)   bands (ev):

   -61.5144 -35.7221 -35.3963 -35.3963 -15.3813 -13.9682  -7.1077  -4.4606
    -3.1609  -3.1609  -2.5621  -2.5156  -2.5156  -1.7280  -1.7280  -1.3300
    -1.3300  -1.2651  -0.4062   1.5207   1.5207   2.2307

          k = 0.0000 0.0962 0.0000 ( 14357 PWs)   bands (ev):

   -61.5118 -35.7171 -35.4224 -35.4022 -15.2852 -13.9055  -6.9994  -4.4283
    -3.4562  -3.1121  -2.8663  -2.5728  -2.4334  -1.7519  -1.7410  -1.4828
    -1.3428  -1.1597  -0.2362   1.3159   1.5437   2.0197

          k = 0.0000 0.1925 0.0000 ( 14400 PWs)   bands (ev):

   -61.5046 -35.7035 -35.4931 -35.4185 -15.0110 -13.7256  -6.7151  -4.4695
    -4.1462  -3.2674  -3.1247  -2.6385  -2.4956  -1.7846  -1.7241  -1.6133
    -1.3451  -1.2148   0.0057   1.1167   1.4757   1.8409

          k = 0.0000 0.2887 0.0000 ( 14448 PWs)   bands (ev):

   -61.4948 -35.6848 -35.5885 -35.4407 -14.6029 -13.4547  -6.4007  -5.1820
    -4.5947  -3.5030  -3.4063  -2.5425  -2.5327  -1.8544  -1.7320  -1.5890
    -1.4067  -1.2726   0.1060   1.3657   1.3717   2.1026

          k = 0.0000 0.3849 0.0000 ( 14480 PWs)   bands (ev):

   -61.4850 -35.6828 -35.6658 -35.4627 -14.1431 -13.1426  -6.4456  -5.8743
    -4.9831  -3.7222  -3.6401  -2.5410  -2.4576  -1.8684  -1.8057  -1.4662
    -1.4283  -1.1076   0.4321   1.3993   1.8409   2.5446

          k = 0.0000 0.4811 0.0000 ( 14494 PWs)   bands (ev):

   -61.4778 -35.7506 -35.6522 -35.4788 -13.7620 -12.8721  -6.9997  -6.1085
    -5.1875  -3.9404  -3.8055  -2.5495  -2.4482  -1.8065  -1.6948  -1.3743
    -1.3018  -0.9700   0.9950   1.5669   2.1892   2.9300

          k = 0.0000-0.5774 0.0000 ( 14518 PWs)   bands (ev):

   -61.4752 -35.7753 -35.6471 -35.4847 -13.6107 -12.7592  -7.2571  -6.2092
    -5.2377  -4.0169  -3.8806  -2.5562  -2.4526  -1.7943  -1.6200  -1.2550
    -1.2505  -0.9278   1.3994   1.6736   2.0812   3.0427

          k = 0.0833 0.1443 0.0000 ( 14400 PWs)   bands (ev):

   -61.5069 -35.7078 -35.4694 -35.4147 -15.1000 -13.7840  -6.8015  -4.4135
    -3.9405  -3.1614  -3.1173  -2.7167  -2.4220  -1.7719  -1.7343  -1.5617
    -1.3711  -1.1531  -0.0389   1.1312   1.4927   1.8024

          k = 0.0833 0.2406 0.0000 ( 14456 PWs)   bands (ev):

   -61.4984 -35.6916 -35.5491 -35.4373 -14.7579 -13.5576  -6.4894  -4.7893
    -4.4460  -3.5790  -3.3265  -2.6793  -2.4433  -1.7915  -1.7141  -1.5581
    -1.3993  -1.2560   0.0268   1.2389   1.3957   1.8201

          k = 0.0833 0.3368 0.0000 ( 14475 PWs)   bands (ev):

   -61.4886 -35.6730 -35.6396 -35.4635 -14.3204 -13.2626  -6.2948  -5.5699
    -4.8258  -3.9427  -3.4592  -2.6114  -2.4661  -1.8647  -1.7948  -1.5089
    -1.3888  -1.1701   0.1373   1.4163   1.6441   2.2298

          k = 0.0833 0.4330 0.0000 ( 14478 PWs)   bands (ev):

   -61.4801 -35.7172 -35.6565 -35.4861 -13.8919 -12.9631  -6.6777  -5.9433
    -5.1577  -4.1262  -3.6403  -2.7040  -2.4198  -1.8433  -1.7799  -1.4807
    -1.2759  -1.0051   0.5613   1.6403   2.0697   2.7365

          k = 0.0833 0.5292 0.0000 ( 14500 PWs)   bands (ev):

   -61.4752 -35.7615 -35.6471 -35.4992 -13.6172 -12.7604  -7.1190  -6.1232
    -5.2780  -4.1605  -3.8467  -2.7805  -2.4011  -1.7885  -1.6918  -1.3864
    -1.1757  -0.9124   1.1880   1.7430   2.2652   2.7322

          k = 0.1667 0.2887 0.0000 ( 14482 PWs)   bands (ev):

   -61.4899 -35.6755 -35.6177 -35.4702 -14.3839 -13.3044  -6.2558  -5.3308
    -4.7285  -4.1749  -3.4460  -2.7027  -2.4255  -1.8473  -1.7851  -1.4717
    -1.3651  -1.1834  -0.0142   1.4071   1.5961   2.0178

          k = 0.1667 0.3849 0.0000 ( 14494 PWs)   bands (ev):

   -61.4814 -35.6824 -35.6590 -35.5064 -13.9683 -13.0128  -6.3669  -5.6801
    -5.1750  -4.4705  -3.6033  -2.8874  -2.3480  -1.9506  -1.8203  -1.4835
    -1.2317  -1.0031   0.1818   1.7662   1.8440   2.4787

          k = 0.1667 0.4811 0.0000 ( 14497 PWs)   bands (ev):

   -61.4752 -35.7278 -35.6472 -35.5341 -13.6300 -12.7624  -6.7828  -5.8947
    -5.4064  -4.5121  -3.8261  -3.1280  -2.2808  -1.8773  -1.7755  -1.5092
    -1.1270  -0.8733   0.7672   1.8239   2.2629   2.6983

          k = 0.1667 0.5774 0.0000 ( 14512 PWs)   bands (ev):

   -61.4729 -35.7442 -35.6428 -35.5444 -13.4974 -12.6594  -6.9746  -6.0174
    -5.4578  -4.4565  -3.9702  -3.2254  -2.2661  -1.8236  -1.7618  -1.4886
    -1.0870  -0.7912   1.2803   1.7279   2.2960   2.6134

          k = 0.2500 0.4330 0.0000 ( 14510 PWs)   bands (ev):

   -61.4752 -35.7052 -35.6472 -35.5573 -13.6364 -12.7633  -6.5535  -5.7628
    -5.4593  -4.7780  -3.8906  -3.1967  -2.2032  -1.9424  -1.8461  -1.5363
    -1.0962  -0.8553   0.5683   1.7552   2.2122   2.7876

          k = 0.2500 0.5292 0.0000 ( 14528 PWs)   bands (ev):

   -61.4716 -35.7096 -35.6403 -35.5956 -13.4311 -12.6001  -6.6674  -6.0039
    -5.5101  -4.8667  -4.1191  -3.4026  -2.1164  -1.9007  -1.8172  -1.6050
    -1.0254  -0.6817   1.0740   1.6353   2.2046   3.1235

          k = 0.3333 0.5774 0.0000 ( 14538 PWs)   bands (ev):

   -61.4703 -35.6787 -35.6423 -35.6378 -13.3567 -12.5373  -6.4612  -6.2343
    -5.4155  -5.1330  -4.2250  -3.4842  -2.0245  -1.9188  -1.7983  -1.7064
    -0.9968  -0.5325   1.0689   1.5822   2.2422   3.5025

 ------ SPIN DOWN ----------


          k = 0.0000 0.0000 0.0000 ( 14351 PWs)   bands (ev):

   -61.5211 -35.7111 -35.4127 -35.4127 -15.3280 -13.9542  -7.0729  -4.3319
    -3.0617  -3.0616  -2.2370  -2.2370  -1.5387  -0.3476  -0.3060  -0.3060
    -0.1611  -0.1611   0.3283   1.8434   1.8434   2.2440

          k = 0.0000 0.0962 0.0000 ( 14357 PWs)   bands (ev):

   -61.5185 -35.7061 -35.4388 -35.4187 -15.2312 -13.8919  -6.9636  -4.3199
    -3.3453  -2.9802  -2.5252  -2.3939  -1.4331  -0.7236  -0.3001  -0.2765
    -0.1534   0.1443   0.4803   1.6363   1.8791   2.0249

          k = 0.0000 0.1925 0.0000 ( 14400 PWs)   bands (ev):

   -61.5113 -35.6925 -35.5094 -35.4349 -14.9549 -13.7131  -6.6762  -4.4019
    -4.0340  -2.9955  -2.8899  -2.6385  -1.4249  -1.0986  -0.3830  -0.2709
    -0.0356   0.3401   0.9029   1.3072   1.7818   1.8622

          k = 0.0000 0.2887 0.0000 ( 14448 PWs)   bands (ev):

   -61.5015 -35.6738 -35.6046 -35.4571 -14.5432 -13.4442  -6.3580  -5.0648
    -4.5592  -3.3210  -3.2560  -2.4339  -1.5981  -1.2862  -0.4558  -0.2395
     0.1852   0.4687   0.8863   1.6076   1.6287   2.1759

          k = 0.0000 0.3849 0.0000 ( 14480 PWs)   bands (ev):

   -61.4917 -35.6986 -35.6549 -35.4791 -14.0790 -13.1343  -6.3908  -5.7723
    -4.9452  -3.6134  -3.5202  -2.2552  -1.8152  -1.1470  -0.4047  -0.1140
     0.4447   0.5596   0.9874   1.5616   2.0627   2.7115

          k = 0.0000 0.4811 0.0000 ( 14494 PWs)   bands (ev):

   -61.4845 -35.7665 -35.6412 -35.4951 -13.6941 -12.8655  -6.9255  -6.0473
    -5.1324  -3.8482  -3.6924  -2.1867  -1.7463  -1.0599  -0.2059   0.0293
     0.6260   0.6547   1.3704   1.6224   2.3435   3.1059

          k = 0.0000-0.5774 0.0000 ( 14518 PWs)   bands (ev):

   -61.4819 -35.7911 -35.6361 -35.5010 -13.5415 -12.7529  -7.1820  -6.1582
    -5.1773  -3.9293  -3.7618  -2.1746  -1.6679  -1.0316  -0.0822   0.0867
     0.6485   0.7292   1.6883   1.7090   2.2543   3.1170

          k = 0.0833 0.1443 0.0000 ( 14400 PWs)   bands (ev):

   -61.5136 -35.6968 -35.4858 -35.4311 -15.0445 -13.7712  -6.7637  -4.3392
    -3.8235  -2.9106  -2.8786  -2.6195  -1.3777  -0.9898  -0.4307  -0.1884
    -0.1114   0.3064   0.8083   1.3688   1.8008   1.8169

          k = 0.0833 0.2406 0.0000 ( 14456 PWs)   bands (ev):

   -61.5051 -35.6807 -35.5653 -35.4537 -14.6996 -13.5463  -6.4474  -4.6777
    -4.3971  -3.4783  -3.0186  -2.5487  -1.4205  -1.2535  -0.5243  -0.2224
     0.0950   0.4535   0.9188   1.4478   1.6445   1.8900

          k = 0.0833 0.3368 0.0000 ( 14475 PWs)   bands (ev):

   -61.4953 -35.6625 -35.6551 -35.4799 -14.2580 -13.2534  -6.2489  -5.4475
    -4.7948  -3.8701  -3.2332  -2.4773  -1.6669  -1.1684  -0.5017  -0.1914
     0.3510   0.5686   0.8276   1.6095   1.8359   2.4113

          k = 0.0833 0.4330 0.0000 ( 14478 PWs)   bands (ev):

   -61.4868 -35.7331 -35.6455 -35.5025 -13.8253 -12.9560  -6.6063  -5.8659
    -5.1096  -4.0441  -3.4810  -2.5529  -1.6478  -1.0347  -0.3373  -0.0729
     0.5705   0.6735   0.9936   1.7376   2.2207   2.9486

          k = 0.0833 0.5292 0.0000 ( 14500 PWs)   bands (ev):

   -61.4819 -35.7773 -35.6361 -35.5155 -13.5480 -12.7540  -7.0417  -6.0730
    -5.2141  -4.0630  -3.7171  -2.6038  -1.4940  -0.9938  -0.1495   0.0246
     0.6682   0.7505   1.4199   1.8125   2.4477   2.8523

          k = 0.1667 0.2887 0.0000 ( 14482 PWs)   bands (ev):

   -61.4966 -35.6645 -35.6337 -35.4865 -14.3222 -13.2949  -6.2096  -5.1969
    -4.7041  -4.1059  -3.2097  -2.5386  -1.5956  -1.1355  -0.5805  -0.2181
     0.3266   0.6014   0.7596   1.6037   1.7094   2.2656

          k = 0.1667 0.3849 0.0000 ( 14494 PWs)   bands (ev):

   -61.4881 -35.6983 -35.6480 -35.5227 -13.9025 -13.0053  -6.3023  -5.5655
    -5.1482  -4.3739  -3.4712  -2.7669  -1.6618  -0.8893  -0.5047  -0.1833
     0.5759   0.6818   0.7608   1.8486   1.9350   2.8032

          k = 0.1667 0.4811 0.0000 ( 14497 PWs)   bands (ev):

   -61.4819 -35.7437 -35.6361 -35.5504 -13.5610 -12.7561  -6.7019  -5.8459
    -5.3272  -4.3909  -3.7342  -3.0555  -1.4884  -0.8042  -0.2921  -0.1063
     0.6384   0.7756   1.1106   1.8979   2.3275   2.9544

          k = 0.1667 0.5774 0.0000 ( 14512 PWs)   bands (ev):

   -61.4796 -35.7601 -35.6318 -35.5607 -13.4274 -12.6531  -6.8920  -5.9829
    -5.3693  -4.3009  -3.9087  -3.1695  -1.3621  -0.8053  -0.1893  -0.0597
     0.7073   0.7850   1.4198   1.8489   2.4483   2.8611

          k = 0.2500 0.4330 0.0000 ( 14510 PWs)   bands (ev):

   -61.4819 -35.7211 -35.6362 -35.5736 -13.5675 -12.7569  -6.4731  -5.7198
    -5.3488  -4.6692  -3.8577  -3.0919  -1.5511  -0.5845  -0.4527  -0.1817
     0.5708   0.7802   1.0411   1.8488   2.2523   3.0714

          k = 0.2500 0.5292 0.0000 ( 14528 PWs)   bands (ev):

   -61.4783 -35.7254 -35.6293 -35.6118 -13.3606 -12.5939  -6.5854  -5.9588
    -5.3899  -4.7614  -4.0926  -3.3433  -1.3642  -0.5738  -0.2689  -0.1188
     0.6303   0.8003   1.2571   1.8131   2.3739   3.3620

          k = 0.3333 0.5774 0.0000 ( 14538 PWs)   bands (ev):

   -61.4769 -35.6945 -35.6586 -35.6268 -13.2857 -12.5310  -6.4147  -6.1153
    -5.2750  -5.1102  -4.1751  -3.4435  -1.3013  -0.5015  -0.2519  -0.0668
     0.6562   0.7958   1.1067   1.8244   2.4834   3.8066

     the Fermi energy is     0.3970 ev

!    total energy              =    -658.63057044 Ry
     total all-electron energy =    -12481.804461 Ry
     estimated scf accuracy    <       0.00000007 Ry
     smearing contrib. (-TS)   =      -0.00072544 Ry
     internal energy E=F+TS    =    -658.62984500 Ry

     The total energy is F=E-TS. E is the sum of the following terms:
     one-electron contribution =   -2229.32815943 Ry
     hartree contribution      =    1125.94908327 Ry
     xc contribution           =     -62.27134978 Ry
     ewald contribution        =     913.22430710 Ry
     DFT-D3 Dispersion         =      -0.06183797 Ry
     one-center paw contrib.   =    -406.14188820 Ry

     total magnetization       =     1.96 Bohr mag/cell
     absolute magnetization    =     2.15 Bohr mag/cell

     convergence has been achieved in  10 iterations

     negative rho (up, down):  4.628E-05 4.781E-05

     Forces acting on atoms (cartesian axes, Ry/au):

     atom    1 type  1   force =     0.00000000   -0.00000000    0.02230164
     atom    2 type  2   force =     0.00000000    0.00000000    0.00865209
     atom    3 type  2   force =     0.00000000   -0.00000000    0.02011307
     atom    4 type  3   force =     0.00000000   -0.00000000   -0.05106680
     The non-local contrib.  to forces
     atom    1 type  1   force =     0.00000000    0.00000000   -0.06219315
     atom    2 type  2   force =     0.00000000   -0.00000000   -0.05005967
     atom    3 type  2   force =     0.00000000    0.00000000    0.27936376
     atom    4 type  3   force =     0.00000000    0.00000000    0.01697749
     The ionic contribution  to forces
     atom    1 type  1   force =     0.00000000    0.00000439  -37.48906112
     atom    2 type  2   force =    -0.00000000   -0.00000324   20.64110198
     atom    3 type  2   force =    -0.00000000   -0.00000241  -51.30319589
     atom    4 type  3   force =     0.00000000    0.00000126   68.15115503
     The local contribution  to forces
     atom    1 type  1   force =     0.00000000   -0.00000267   37.56730011
     atom    2 type  2   force =    -0.00000000    0.00000232  -20.58001936
     atom    3 type  2   force =    -0.00000000    0.00000169   51.04401935
     atom    4 type  3   force =     0.00000000   -0.00000073  -68.19492982
     The core correction contribution to forces
     atom    1 type  1   force =     0.00000000    0.00000000    0.00404151
     atom    2 type  2   force =     0.00000000    0.00000000   -0.00083936
     atom    3 type  2   force =     0.00000000    0.00000000   -0.00265720
     atom    4 type  3   force =    -0.00000000    0.00000000   -0.01935311
     The Hubbard contrib.    to forces
     atom    1 type  1   force =     0.00000000    0.00000000    0.00000000
     atom    2 type  2   force =     0.00000000    0.00000000    0.00000000
     atom    3 type  2   force =     0.00000000    0.00000000    0.00000000
     atom    4 type  3   force =     0.00000000    0.00000000    0.00000000
     The SCF correction term to forces
     atom    1 type  1   force =    -0.00000000    0.00000000   -0.00068177
     atom    2 type  2   force =    -0.00000000   -0.00000000   -0.00055543
     atom    3 type  2   force =     0.00000000    0.00000000    0.00008174
     atom    4 type  3   force =    -0.00000000   -0.00000000   -0.00052083

     DFT-D3 dispersion contribution to forces:
     atom    1 type  1   force =     0.00000000   -0.00000000    0.00288962
     atom    2 type  2   force =     0.00000000    0.00000000   -0.00098250
     atom    3 type  2   force =    -0.00000000    0.00000000    0.00249487
     atom    4 type  3   force =    -0.00000000   -0.00000000   -0.00440199

     Total force =     0.059871     Total SCF correction =     0.001025


     Computing stress (Cartesian axis) and pressure


     negative rho (up, down):  4.628E-05 4.781E-05
          total   stress  (Ry/bohr**3)                   (kbar)     P=      -28.62
  -0.00016847   0.00000000   0.00000000          -24.78        0.00        0.00
   0.00000000  -0.00016847  -0.00000000            0.00      -24.78       -0.00
   0.00000000   0.00000000  -0.00024678            0.00        0.00      -36.30

     Energy error            =      3.3E-03 Ry
     Gradient error          =      5.1E-02 Ry/Bohr

     number of scf cycles    =   6
     number of bfgs steps    =   5

     energy             old  =    -658.6272910689 Ry
     energy             new  =    -658.6305704402 Ry

     CASE: energy            _new < energy            _old

     new trust radius        =       0.0779372333 bohr
     new conv_thr            =       0.0000003279 Ry


ATOMIC_POSITIONS (crystal)
Mo            0.0000000000        0.0000000000        0.3807459723
S             0.6666666667        0.3333333333        0.4498597949
S             0.6666666667        0.3333333333        0.3168584587
Co           -0.0000000000       -0.0000000000        0.5151982153



     Writing config-only to output data dir ./tmp/scf.save/
     NEW-OLD atomic charge density approx. for the potential

     negative rho (up, down):  4.750E-05 4.907E-05
     Generating pointlists ...
     new r_m :   0.3194 (alat units)  1.9106 (a.u.) for type    3

     total cpu time spent up to now is      360.0 secs

     Self-consistent Calculation

     iteration #  1     ecut=    70.00 Ry     beta= 0.70
     Davidson diagonalization with overlap
     ethr =  1.00E-06,  avg # of iterations = 10.2

     negative rho (up, down):  4.639E-05 4.818E-05

     total cpu time spent up to now is      367.0 secs

     total energy              =    -658.63400323 Ry
     estimated scf accuracy    <       0.00305518 Ry

     total magnetization       =     1.93 Bohr mag/cell
     absolute magnetization    =     2.13 Bohr mag/cell

     iteration #  2     ecut=    70.00 Ry     beta= 0.70
     Davidson diagonalization with overlap
     ethr =  8.73E-06,  avg # of iterations =  6.1

     negative rho (up, down):  4.618E-05 4.823E-05

     total cpu time spent up to now is      371.4 secs

     total energy              =    -658.62686402 Ry
     estimated scf accuracy    <       0.13834864 Ry

     total magnetization       =     1.76 Bohr mag/cell
     absolute magnetization    =     1.97 Bohr mag/cell

     iteration #  3     ecut=    70.00 Ry     beta= 0.70
     Davidson diagonalization with overlap
     ethr =  8.73E-06,  avg # of iterations =  5.6

     negative rho (up, down):  4.616E-05 4.790E-05

     total cpu time spent up to now is      376.0 secs

     total energy              =    -658.63309739 Ry
     estimated scf accuracy    <       0.03269560 Ry

     total magnetization       =     1.97 Bohr mag/cell
     absolute magnetization    =     2.20 Bohr mag/cell

     iteration #  4     ecut=    70.00 Ry     beta= 0.70
     Davidson diagonalization with overlap
     ethr =  8.73E-06,  avg # of iterations =  3.0

     negative rho (up, down):  4.608E-05 4.744E-05

     total cpu time spent up to now is      379.9 secs

     total energy              =    -658.63481388 Ry
     estimated scf accuracy    <       0.00124881 Ry

     total magnetization       =     1.92 Bohr mag/cell
     absolute magnetization    =     2.11 Bohr mag/cell

     iteration #  5     ecut=    70.00 Ry     beta= 0.70
     Davidson diagonalization with overlap
     ethr =  3.57E-06,  avg # of iterations =  3.4

     negative rho (up, down):  4.603E-05 4.734E-05

     total cpu time spent up to now is      384.1 secs

     total energy              =    -658.63491435 Ry
     estimated scf accuracy    <       0.00124270 Ry

     total magnetization       =     1.93 Bohr mag/cell
     absolute magnetization    =     2.12 Bohr mag/cell

     iteration #  6     ecut=    70.00 Ry     beta= 0.70
     Davidson diagonalization with overlap
     ethr =  3.55E-06,  avg # of iterations =  2.2

     negative rho (up, down):  4.606E-05 4.737E-05

     total cpu time spent up to now is      388.1 secs

     total energy              =    -658.63505905 Ry
     estimated scf accuracy    <       0.00018604 Ry

     total magnetization       =     1.93 Bohr mag/cell
     absolute magnetization    =     2.12 Bohr mag/cell

     iteration #  7     ecut=    70.00 Ry     beta= 0.70
     Davidson diagonalization with overlap
     ethr =  5.32E-07,  avg # of iterations =  2.0

     negative rho (up, down):  4.610E-05 4.744E-05

     total cpu time spent up to now is      392.1 secs

     total energy              =    -658.63509581 Ry
     estimated scf accuracy    <       0.00003847 Ry

     total magnetization       =     1.93 Bohr mag/cell
     absolute magnetization    =     2.12 Bohr mag/cell

     iteration #  8     ecut=    70.00 Ry     beta= 0.70
     Davidson diagonalization with overlap
     ethr =  1.10E-07,  avg # of iterations =  2.3

     negative rho (up, down):  4.617E-05 4.751E-05

     total cpu time spent up to now is      395.9 secs

     total energy              =    -658.63510147 Ry
     estimated scf accuracy    <       0.00000225 Ry

     total magnetization       =     1.93 Bohr mag/cell
     absolute magnetization    =     2.12 Bohr mag/cell

     iteration #  9     ecut=    70.00 Ry     beta= 0.70
     Davidson diagonalization with overlap
     ethr =  6.44E-09,  avg # of iterations =  4.3

     negative rho (up, down):  4.620E-05 4.755E-05

     total cpu time spent up to now is      400.6 secs

     total energy              =    -658.63510244 Ry
     estimated scf accuracy    <       0.00000034 Ry

     total magnetization       =     1.93 Bohr mag/cell
     absolute magnetization    =     2.12 Bohr mag/cell

     iteration # 10     ecut=    70.00 Ry     beta= 0.70
     Davidson diagonalization with overlap
     ethr =  9.63E-10,  avg # of iterations =  3.0

     negative rho (up, down):  4.620E-05 4.755E-05
 
     Magnetic moment per site  (integrated on atomic sphere of radius R)
     atom   1 (R=0.314)  charge= 10.7206  magn= -0.0087
     atom   2 (R=0.314)  charge=  4.1509  magn=  0.0571
     atom   3 (R=0.314)  charge=  4.1139  magn=  0.0054
     atom   4 (R=0.319)  charge=  7.2879  magn=  1.8499

     total cpu time spent up to now is      404.8 secs

     End of self-consistent calculation

 ------ SPIN UP ------------


          k = 0.0000 0.0000 0.0000 ( 14351 PWs)   bands (ev):

   -61.4802 -35.6915 -35.3535 -35.3534 -15.4057 -13.9511  -7.0942  -4.5030
    -3.1494  -3.1494  -2.5383  -2.5273  -2.5273  -1.7027  -1.7027  -1.3070
    -1.3070  -1.2430  -0.3560   1.5117   1.5117   2.2536

          k = 0.0000 0.0962 0.0000 ( 14357 PWs)   bands (ev):

   -61.4776 -35.6865 -35.3793 -35.3594 -15.3109 -13.8861  -6.9866  -4.4631
    -3.4530  -3.1279  -2.8433  -2.5475  -2.4508  -1.7271  -1.7188  -1.4729
    -1.3293  -1.1329  -0.1695   1.3049   1.5307   2.0453

          k = 0.0000 0.1925 0.0000 ( 14400 PWs)   bands (ev):

   -61.4705 -35.6731 -35.4494 -35.3755 -15.0400 -13.6997  -6.7029  -4.4779
    -4.1609  -3.2636  -3.1884  -2.5533  -2.5231  -1.7844  -1.7085  -1.5931
    -1.3357  -1.1899   0.0997   1.1033   1.4681   1.8690

          k = 0.0000 0.2887 0.0000 ( 14448 PWs)   bands (ev):

   -61.4608 -35.6548 -35.5439 -35.3975 -14.6358 -13.4192  -6.3809  -5.2297
    -4.5678  -3.5247  -3.4444  -2.5786  -2.4918  -1.8610  -1.7152  -1.5828
    -1.3764  -1.2376   0.1921   1.3773   1.3781   2.1278

          k = 0.0000 0.3849 0.0000 ( 14480 PWs)   bands (ev):

   -61.4510 -35.6390 -35.6344 -35.4194 -14.1785 -13.0967  -6.4299  -5.9326
    -4.9557  -3.7367  -3.6587  -2.5836  -2.4680  -1.8517  -1.7966  -1.4543
    -1.4331  -1.0403   0.4942   1.4214   1.8739   2.5697

          k = 0.0000 0.4811 0.0000 ( 14494 PWs)   bands (ev):

   -61.4439 -35.7046 -35.6227 -35.4354 -13.7966 -12.8187  -7.0393  -6.1126
    -5.1682  -3.9437  -3.8233  -2.5926  -2.4847  -1.7956  -1.6602  -1.3832
    -1.3087  -0.8946   1.0162   1.6075   2.1949   2.9894

          k = 0.0000-0.5774 0.0000 ( 14518 PWs)   bands (ev):

   -61.4412 -35.7291 -35.6177 -35.4412 -13.6439 -12.7033  -7.3089  -6.2041
    -5.2173  -4.0170  -3.9004  -2.5989  -2.4966  -1.7769  -1.5955  -1.2591
    -1.2568  -0.8531   1.3798   1.7236   2.0751   2.9968

          k = 0.0833 0.1443 0.0000 ( 14400 PWs)   bands (ev):

   -61.4728 -35.6774 -35.4259 -35.3718 -15.1279 -13.7603  -6.7895  -4.4305
    -3.9489  -3.2009  -3.1234  -2.6569  -2.4296  -1.7558  -1.7329  -1.5319
    -1.3734  -1.1256   0.0505   1.1176   1.4829   1.8302

          k = 0.0833 0.2406 0.0000 ( 14456 PWs)   bands (ev):

   -61.4643 -35.6615 -35.5049 -35.3942 -14.7895 -13.5258  -6.4749  -4.8223
    -4.4313  -3.5770  -3.3802  -2.6635  -2.4438  -1.8061  -1.7046  -1.5221
    -1.3984  -1.2149   0.1152   1.2500   1.3931   1.8487

          k = 0.0833 0.3368 0.0000 ( 14475 PWs)   bands (ev):

   -61.4546 -35.6431 -35.5946 -35.4202 -14.3552 -13.2207  -6.2635  -5.6448
    -4.7924  -3.9411  -3.5036  -2.6111  -2.4949  -1.8584  -1.7995  -1.4857
    -1.3907  -1.1053   0.2026   1.4413   1.6661   2.2593

          k = 0.0833 0.4330 0.0000 ( 14478 PWs)   bands (ev):

   -61.4461 -35.6716 -35.6269 -35.4427 -13.9273 -12.9123  -6.6991  -5.9665
    -5.1346  -4.1324  -3.6681  -2.7122  -2.4625  -1.8386  -1.7639  -1.4782
    -1.2772  -0.9350   0.5962   1.6719   2.0986   2.7551

          k = 0.0833 0.5292 0.0000 ( 14500 PWs)   bands (ev):

   -61.4412 -35.7154 -35.6177 -35.4556 -13.6507 -12.7048  -7.1693  -6.1169
    -5.2576  -4.1805  -3.8586  -2.8009  -2.4449  -1.7795  -1.6686  -1.4008
    -1.1589  -0.8532   1.1904   1.7732   2.2695   2.7032

          k = 0.1667 0.2887 0.0000 ( 14482 PWs)   bands (ev):

   -61.4559 -35.6456 -35.5729 -35.4268 -14.4184 -13.2641  -6.2281  -5.4067
    -4.6906  -4.1702  -3.4863  -2.6952  -2.4636  -1.8413  -1.8013  -1.4490
    -1.3632  -1.1150   0.0482   1.4432   1.6046   2.0536

          k = 0.1667 0.3849 0.0000 ( 14494 PWs)   bands (ev):

   -61.4474 -35.6374 -35.6290 -35.4628 -14.0041 -12.9639  -6.3610  -5.7450
    -5.1370  -4.4874  -3.6178  -2.8767  -2.4004  -1.9364  -1.8446  -1.4680
    -1.2243  -0.9291   0.2104   1.7871   1.8755   2.5172

          k = 0.1667 0.4811 0.0000 ( 14497 PWs)   bands (ev):

   -61.4412 -35.6820 -35.6178 -35.4903 -13.6643 -12.7077  -6.8253  -5.8873
    -5.3980  -4.5540  -3.8192  -3.1227  -2.3251  -1.8829  -1.7668  -1.5184
    -1.0970  -0.8134   0.7678   1.8424   2.2712   2.7065

          k = 0.1667 0.5774 0.0000 ( 14512 PWs)   bands (ev):

   -61.4390 -35.6982 -35.6135 -35.5005 -13.5302 -12.6029  -7.0297  -5.9962
    -5.4496  -4.5228  -3.9428  -3.2234  -2.3069  -1.8298  -1.7477  -1.5075
    -1.0417  -0.7456   1.2856   1.7158   2.2790   2.6348

          k = 0.2500 0.4330 0.0000 ( 14510 PWs)   bands (ev):

   -61.4412 -35.6596 -35.6177 -35.5133 -13.6710 -12.7090  -6.5855  -5.7424
    -5.4940  -4.8083  -3.8670  -3.1913  -2.2544  -1.9376  -1.8627  -1.5379
    -1.0656  -0.7813   0.5594   1.7605   2.2339   2.8224

          k = 0.2500 0.5292 0.0000 ( 14528 PWs)   bands (ev):

   -61.4377 -35.6638 -35.6110 -35.5513 -13.4636 -12.5434  -6.7142  -5.9836
    -5.5443  -4.9005  -4.0889  -3.3910  -2.1592  -1.9167  -1.8128  -1.6234
    -0.9714  -0.6250   1.0768   1.6177   2.1893   3.1497

          k = 0.3333 0.5774 0.0000 ( 14538 PWs)   bands (ev):

   -61.4363 -35.6327 -35.6086 -35.5982 -13.3883 -12.4799  -6.4675  -6.2906
    -5.4589  -5.1115  -4.2133  -3.4625  -2.0658  -1.9387  -1.7877  -1.7369
    -0.9341  -0.4790   1.1107   1.5387   2.1913   3.5372

 ------ SPIN DOWN ----------


          k = 0.0000 0.0000 0.0000 ( 14351 PWs)   bands (ev):

   -61.4885 -35.6811 -35.3722 -35.3722 -15.3464 -13.9369  -7.0552  -4.3616
    -2.9793  -2.9793  -2.2225  -2.2225  -1.5049  -0.4078  -0.4078  -0.2471
    -0.2371  -0.2371   0.2576   1.8844   1.8844   2.2665

          k = 0.0000 0.0962 0.0000 ( 14357 PWs)   bands (ev):

   -61.4859 -35.6762 -35.3980 -35.3781 -15.2508 -13.8723  -6.9465  -4.3410
    -3.2774  -2.9092  -2.5176  -2.3672  -1.4162  -0.7297  -0.3841  -0.3717
    -0.2358   0.1694   0.4260   1.6730   1.9139   2.0506

          k = 0.0000 0.1925 0.0000 ( 14400 PWs)   bands (ev):

   -61.4787 -35.6627 -35.4680 -35.3943 -14.9777 -13.6870  -6.6598  -4.3929
    -4.0088  -3.0116  -2.8843  -2.5530  -1.4266  -1.0922  -0.4677  -0.3439
    -0.1303   0.3349   0.9370   1.3176   1.8146   1.8927

          k = 0.0000 0.2887 0.0000 ( 14448 PWs)   bands (ev):

   -61.4690 -35.6444 -35.5623 -35.4163 -14.5698 -13.4083  -6.3349  -5.0840
    -4.5303  -3.3504  -3.2402  -2.3844  -1.5765  -1.3067  -0.5387  -0.2849
     0.0952   0.4527   0.9365   1.6301   1.6639   2.2107

          k = 0.0000 0.3849 0.0000 ( 14480 PWs)   bands (ev):

   -61.4593 -35.6557 -35.6257 -35.4381 -14.1079 -13.0878  -6.3677  -5.8173
    -4.9169  -3.5887  -3.5431  -2.2525  -1.7896  -1.1868  -0.4798  -0.1269
     0.3673   0.5334   1.0300   1.5991   2.0951   2.7643

          k = 0.0000 0.4811 0.0000 ( 14494 PWs)   bands (ev):

   -61.4521 -35.7228 -35.6123 -35.4541 -13.7220 -12.8111  -6.9553  -6.0474
    -5.1088  -3.8194  -3.7147  -2.2154  -1.7410  -1.0961  -0.2631   0.0368
     0.5864   0.5947   1.3862   1.6664   2.3370   3.0739

          k = 0.0000-0.5774 0.0000 ( 14518 PWs)   bands (ev):

   -61.4495 -35.7473 -35.6073 -35.4599 -13.5678 -12.6959  -7.2256  -6.1500
    -5.1506  -3.8992  -3.7863  -2.2132  -1.6797  -1.0586  -0.1258   0.1010
     0.6187   0.6620   1.6956   1.7375   2.2202   3.0786

          k = 0.0833 0.1443 0.0000 ( 14400 PWs)   bands (ev):

   -61.4810 -35.6670 -35.4446 -35.3905 -15.0664 -13.7473  -6.7474  -4.3413
    -3.7827  -2.8964  -2.8685  -2.5611  -1.3777  -0.9855  -0.5047  -0.2764
    -0.2053   0.3054   0.8218   1.3898   1.8310   1.8487

          k = 0.0833 0.2406 0.0000 ( 14456 PWs)   bands (ev):

   -61.4726 -35.6511 -35.5234 -35.4129 -14.7249 -13.5142  -6.4290  -4.6741
    -4.3797  -3.4564  -3.0582  -2.4880  -1.4123  -1.2593  -0.5862  -0.2943
     0.0029   0.4401   0.9784   1.4512   1.6801   1.9264

          k = 0.0833 0.3368 0.0000 ( 14475 PWs)   bands (ev):

   -61.4628 -35.6329 -35.6128 -35.4389 -14.2864 -13.2110  -6.2158  -5.4983
    -4.7618  -3.8448  -3.2737  -2.4469  -1.6450  -1.2054  -0.5628  -0.2278
     0.2734   0.5455   0.8733   1.6383   1.8663   2.4634

          k = 0.0833 0.4330 0.0000 ( 14478 PWs)   bands (ev):

   -61.4544 -35.6898 -35.6166 -35.4613 -13.8541 -12.9043  -6.6167  -5.8817
    -5.0855  -4.0240  -3.5107  -2.5487  -1.6333  -1.0848  -0.4005  -0.0765
     0.5233   0.6273   1.0227   1.7699   2.2439   2.9526

          k = 0.0833 0.5292 0.0000 ( 14500 PWs)   bands (ev):

   -61.4495 -35.7336 -35.6073 -35.4742 -13.5747 -12.6975  -7.0836  -6.0620
    -5.1893  -4.0476  -3.7424  -2.6194  -1.4924  -1.0404  -0.2022   0.0354
     0.6318   0.7018   1.4259   1.8383   2.4347   2.8251

          k = 0.1667 0.2887 0.0000 ( 14482 PWs)   bands (ev):

   -61.4641 -35.6352 -35.5912 -35.4455 -14.3503 -13.2541  -6.1798  -5.2450
    -4.6683  -4.0754  -3.2528  -2.5123  -1.5788  -1.1708  -0.6189  -0.2726
     0.2488   0.5812   0.8053   1.6366   1.7262   2.3241

          k = 0.1667 0.3849 0.0000 ( 14494 PWs)   bands (ev):

   -61.4557 -35.6553 -35.6190 -35.4814 -13.9317 -12.9556  -6.2876  -5.6158
    -5.1105  -4.3695  -3.4893  -2.7566  -1.6513  -0.9426  -0.5531  -0.2032
     0.5433   0.6634   0.7539   1.8730   1.9611   2.8515

          k = 0.1667 0.4811 0.0000 ( 14497 PWs)   bands (ev):

   -61.4495 -35.7002 -35.6073 -35.5089 -13.5884 -12.7003  -6.7351  -5.8266
    -5.3194  -4.4108  -3.7372  -3.0495  -1.4793  -0.8656  -0.3547  -0.0996
     0.6309   0.7443   1.0830   1.9193   2.3386   2.9458

          k = 0.1667 0.5774 0.0000 ( 14512 PWs)   bands (ev):

   -61.4472 -35.7164 -35.6031 -35.5191 -13.4531 -12.5955  -6.9393  -5.9528
    -5.3581  -4.3445  -3.8938  -3.1661  -1.3556  -0.8690  -0.2521  -0.0437
     0.6877   0.7517   1.4272   1.8345   2.4385   2.8541

          k = 0.2500 0.4330 0.0000 ( 14510 PWs)   bands (ev):

   -61.4495 -35.6778 -35.6073 -35.5319 -13.5953 -12.7016  -6.4949  -5.6821
    -5.3833  -4.6942  -3.8325  -3.0929  -1.5485  -0.6559  -0.5048  -0.1771
     0.5951   0.7481   0.9874   1.8591   2.2759   3.0868

          k = 0.2500 0.5292 0.0000 ( 14528 PWs)   bands (ev):

   -61.4459 -35.6820 -35.6006 -35.5699 -13.3860 -12.5360  -6.6225  -5.9277
    -5.4161  -4.7944  -4.0627  -3.3362  -1.3710  -0.6440  -0.3396  -0.0886
     0.6490   0.7514   1.2693   1.7817   2.3643   3.3662

          k = 0.3333 0.5774 0.0000 ( 14538 PWs)   bands (ev):

   -61.4446 -35.6508 -35.6168 -35.5981 -13.3100 -12.4725  -6.4098  -6.1631
    -5.3103  -5.0879  -4.1660  -3.4259  -1.3182  -0.5764  -0.3272  -0.0222
     0.6861   0.7334   1.1534   1.7795   2.4434   3.7900

     the Fermi energy is     0.3653 ev

!    total energy              =    -658.63510252 Ry
     total all-electron energy =    -12481.808993 Ry
     estimated scf accuracy    <       0.00000005 Ry
     smearing contrib. (-TS)   =      -0.00061541 Ry
     internal energy E=F+TS    =    -658.63448711 Ry

     The total energy is F=E-TS. E is the sum of the following terms:
     one-electron contribution =   -2238.13192060 Ry
     hartree contribution      =    1130.36077108 Ry
     xc contribution           =     -62.27337895 Ry
     ewald contribution        =     917.61264804 Ry
     DFT-D3 Dispersion         =      -0.06215832 Ry
     one-center paw contrib.   =    -406.14044835 Ry

     total magnetization       =     1.93 Bohr mag/cell
     absolute magnetization    =     2.12 Bohr mag/cell

     convergence has been achieved in  10 iterations

     negative rho (up, down):  4.620E-05 4.755E-05

     Forces acting on atoms (cartesian axes, Ry/au):

     atom    1 type  1   force =     0.00000000    0.00000000    0.02417356
     atom    2 type  2   force =     0.00000000    0.00000000   -0.00044512
     atom    3 type  2   force =     0.00000000    0.00000000    0.02699058
     atom    4 type  3   force =     0.00000000    0.00000000   -0.05071902
     The non-local contrib.  to forces
     atom    1 type  1   force =     0.00000000    0.00000000   -0.06806457
     atom    2 type  2   force =     0.00000000    0.00000000   -0.04512548
     atom    3 type  2   force =     0.00000000    0.00000000    0.28224351
     atom    4 type  3   force =     0.00000000    0.00000000    0.03622832
     The ionic contribution  to forces
     atom    1 type  1   force =     0.00000000    0.00000426  -37.71547776
     atom    2 type  2   force =    -0.00000000   -0.00000332   20.70248880
     atom    3 type  2   force =    -0.00000000   -0.00000237  -51.34819972
     atom    4 type  3   force =     0.00000000    0.00000143   68.36118868
     The local contribution  to forces
     atom    1 type  1   force =     0.00000000   -0.00000260   37.80086972
     atom    2 type  2   force =    -0.00000000    0.00000239  -20.65629669
     atom    3 type  2   force =    -0.00000000    0.00000166   51.09302693
     atom    4 type  3   force =     0.00000000   -0.00000083  -68.42199872
     The core correction contribution to forces
     atom    1 type  1   force =     0.00000000    0.00000000    0.00440362
     atom    2 type  2   force =     0.00000000    0.00000000   -0.00056031
     atom    3 type  2   force =     0.00000000    0.00000000   -0.00280018
     atom    4 type  3   force =     0.00000000   -0.00000000   -0.02144531
     The Hubbard contrib.    to forces
     atom    1 type  1   force =     0.00000000    0.00000000    0.00000000
     atom    2 type  2   force =     0.00000000    0.00000000    0.00000000
     atom    3 type  2   force =     0.00000000    0.00000000    0.00000000
     atom    4 type  3   force =     0.00000000    0.00000000    0.00000000
     The SCF correction term to forces
     atom    1 type  1   force =    -0.00000000    0.00000000   -0.00022166
     atom    2 type  2   force =     0.00000000   -0.00000000   -0.00015580
     atom    3 type  2   force =     0.00000000    0.00000000    0.00016819
     atom    4 type  3   force =     0.00000000   -0.00000000   -0.00033503

     DFT-D3 dispersion contribution to forces:
     atom    1 type  1   force =     0.00000000   -0.00000000    0.00264835
     atom    2 type  2   force =     0.00000000    0.00000000   -0.00081150
     atom    3 type  2   force =    -0.00000000    0.00000000    0.00253599
     atom    4 type  3   force =    -0.00000000   -0.00000000   -0.00437283

     Total force =     0.062334     Total SCF correction =     0.000463


     Computing stress (Cartesian axis) and pressure


     negative rho (up, down):  4.620E-05 4.755E-05
          total   stress  (Ry/bohr**3)                   (kbar)     P=      -30.45
  -0.00017165   0.00000000   0.00000000          -25.25        0.00        0.00
   0.00000000  -0.00017165  -0.00000000            0.00      -25.25       -0.00
   0.00000000  -0.00000000  -0.00027768            0.00       -0.00      -40.85

     Energy error            =      4.5E-03 Ry
     Gradient error          =      5.1E-02 Ry/Bohr

     number of scf cycles    =   7
     number of bfgs steps    =   6

     energy             old  =    -658.6305704402 Ry
     energy             new  =    -658.6351025225 Ry

     CASE: energy            _new < energy            _old

     new trust radius        =       0.1169058499 bohr
     new conv_thr            =       0.0000004532 Ry


ATOMIC_POSITIONS (crystal)
Mo            0.0000000000        0.0000000000        0.3812598555
S             0.6666666667        0.3333333333        0.4517384672
S             0.6666666667        0.3333333333        0.3169404597
Co           -0.0000000000       -0.0000000000        0.5127236588



     Writing config-only to output data dir ./tmp/scf.save/
     NEW-OLD atomic charge density approx. for the potential

     negative rho (up, down):  4.556E-05 4.989E-05
     Generating pointlists ...
     new r_m :   0.3102 (alat units)  1.8551 (a.u.) for type    2
     new r_m :   0.3102 (alat units)  1.8551 (a.u.) for type    3

     total cpu time spent up to now is      417.6 secs

     Self-consistent Calculation

     iteration #  1     ecut=    70.00 Ry     beta= 0.70
     Davidson diagonalization with overlap
     c_bands:  1 eigenvalues not converged
     c_bands:  1 eigenvalues not converged
     ethr =  1.00E-06,  avg # of iterations = 12.3

     negative rho (up, down):  4.620E-05 4.965E-05

     total cpu time spent up to now is      426.1 secs

     total energy              =    -658.63860508 Ry
     estimated scf accuracy    <       0.00710661 Ry

     total magnetization       =     1.82 Bohr mag/cell
     absolute magnetization    =     2.02 Bohr mag/cell

     iteration #  2     ecut=    70.00 Ry     beta= 0.70
     Davidson diagonalization with overlap
     ethr =  2.03E-05,  avg # of iterations =  4.4

     negative rho (up, down):  4.557E-05 4.934E-05

     total cpu time spent up to now is      430.3 secs

     total energy              =    -658.62860266 Ry
     estimated scf accuracy    <       0.12505361 Ry

     total magnetization       =     1.96 Bohr mag/cell
     absolute magnetization    =     2.20 Bohr mag/cell

     iteration #  3     ecut=    70.00 Ry     beta= 0.70
     Davidson diagonalization with overlap
     ethr =  2.03E-05,  avg # of iterations =  5.9

     negative rho (up, down):  4.523E-05 4.807E-05

     total cpu time spent up to now is      435.1 secs

     total energy              =    -658.63100219 Ry
     estimated scf accuracy    <       0.27929315 Ry

     total magnetization       =     1.47 Bohr mag/cell
     absolute magnetization    =     1.76 Bohr mag/cell

     iteration #  4     ecut=    70.00 Ry     beta= 0.70
     Davidson diagonalization with overlap
     ethr =  2.03E-05,  avg # of iterations =  5.0

     negative rho (up, down):  4.510E-05 4.668E-05

     total cpu time spent up to now is      439.3 secs

     total energy              =    -658.64040215 Ry
     estimated scf accuracy    <       0.00307154 Ry

     total magnetization       =     1.81 Bohr mag/cell
     absolute magnetization    =     2.02 Bohr mag/cell

     iteration #  5     ecut=    70.00 Ry     beta= 0.70
     Davidson diagonalization with overlap
     ethr =  8.78E-06,  avg # of iterations =  3.1

     negative rho (up, down):  4.508E-05 4.636E-05

     total cpu time spent up to now is      443.6 secs

     total energy              =    -658.64062348 Ry
     estimated scf accuracy    <       0.00309340 Ry

     total magnetization       =     1.81 Bohr mag/cell
     absolute magnetization    =     2.01 Bohr mag/cell

     iteration #  6     ecut=    70.00 Ry     beta= 0.70
     Davidson diagonalization with overlap
     ethr =  8.78E-06,  avg # of iterations =  2.3

     negative rho (up, down):  4.516E-05 4.641E-05

     total cpu time spent up to now is      447.6 secs

     total energy              =    -658.64095687 Ry
     estimated scf accuracy    <       0.00079325 Ry

     total magnetization       =     1.81 Bohr mag/cell
     absolute magnetization    =     2.02 Bohr mag/cell

     iteration #  7     ecut=    70.00 Ry     beta= 0.70
     Davidson diagonalization with overlap
     ethr =  2.27E-06,  avg # of iterations =  2.1

     negative rho (up, down):  4.526E-05 4.652E-05

     total cpu time spent up to now is      451.6 secs

     total energy              =    -658.64108392 Ry
     estimated scf accuracy    <       0.00009243 Ry

     total magnetization       =     1.79 Bohr mag/cell
     absolute magnetization    =     2.01 Bohr mag/cell

     iteration #  8     ecut=    70.00 Ry     beta= 0.70
     Davidson diagonalization with overlap
     ethr =  2.64E-07,  avg # of iterations =  2.2

     negative rho (up, down):  4.532E-05 4.662E-05

     total cpu time spent up to now is      455.4 secs

     total energy              =    -658.64109458 Ry
     estimated scf accuracy    <       0.00002065 Ry

     total magnetization       =     1.80 Bohr mag/cell
     absolute magnetization    =     2.01 Bohr mag/cell

     iteration #  9     ecut=    70.00 Ry     beta= 0.70
     Davidson diagonalization with overlap
     ethr =  5.90E-08,  avg # of iterations =  2.6

     negative rho (up, down):  4.534E-05 4.666E-05

     total cpu time spent up to now is      459.4 secs

     total energy              =    -658.64109651 Ry
     estimated scf accuracy    <       0.00000735 Ry

     total magnetization       =     1.80 Bohr mag/cell
     absolute magnetization    =     2.01 Bohr mag/cell

     iteration # 10     ecut=    70.00 Ry     beta= 0.70
     Davidson diagonalization with overlap
     ethr =  2.10E-08,  avg # of iterations =  2.6

     negative rho (up, down):  4.533E-05 4.666E-05

     total cpu time spent up to now is      463.4 secs

     total energy              =    -658.64109720 Ry
     estimated scf accuracy    <       0.00000107 Ry

     total magnetization       =     1.80 Bohr mag/cell
     absolute magnetization    =     2.01 Bohr mag/cell

     iteration # 11     ecut=    70.00 Ry     beta= 0.70
     Davidson diagonalization with overlap
     ethr =  3.06E-09,  avg # of iterations =  3.5

     negative rho (up, down):  4.532E-05 4.665E-05
 
     Magnetic moment per site  (integrated on atomic sphere of radius R)
     atom   1 (R=0.314)  charge= 10.7138  magn= -0.0223
     atom   2 (R=0.310)  charge=  4.0799  magn=  0.0558
     atom   3 (R=0.310)  charge=  4.0293  magn=  0.0065
     atom   4 (R=0.310)  charge=  7.2093  magn=  1.7263

     total cpu time spent up to now is      467.5 secs

     End of self-consistent calculation

 ------ SPIN UP ------------


          k = 0.0000 0.0000 0.0000 ( 14351 PWs)   bands (ev):

   -61.4386 -35.6550 -35.3015 -35.3015 -15.4753 -13.9384  -7.0960  -4.5583
    -3.2372  -3.2372  -2.5096  -2.5096  -2.4211  -1.6670  -1.6670  -1.2029
    -1.2029  -1.1985  -0.2346   1.5259   1.5259   2.2760

          k = 0.0000 0.0962 0.0000 ( 14357 PWs)   bands (ev):

   -61.4360 -35.6502 -35.3271 -35.3074 -15.3821 -13.8708  -6.9894  -4.5113
    -3.5380  -3.2458  -2.7825  -2.4947  -2.3997  -1.6845  -1.6840  -1.3826
    -1.2367  -1.0869  -0.0227   1.3167   1.5407   2.0708

          k = 0.0000 0.1925 0.0000 ( 14400 PWs)   bands (ev):

   -61.4289 -35.6370 -35.3964 -35.3234 -15.1157 -13.6770  -6.7068  -4.5158
    -4.2337  -3.3392  -3.2335  -2.4951  -2.4605  -1.7707  -1.6646  -1.4864
    -1.2485  -1.1503   0.2773   1.1131   1.4803   1.9011

          k = 0.0000 0.2887 0.0000 ( 14448 PWs)   bands (ev):

   -61.4193 -35.6190 -35.4900 -35.3452 -14.7171 -13.3857  -6.3747  -5.3437
    -4.5455  -3.5644  -3.5372  -2.5670  -2.4453  -1.8601  -1.6350  -1.5517
    -1.2999  -1.1186   0.3351   1.3983   1.4284   2.1685

          k = 0.0000 0.3849 0.0000 ( 14480 PWs)   bands (ev):

   -61.4096 -35.6012 -35.5820 -35.3670 -14.2639 -13.0516  -6.4463  -6.0292
    -4.9299  -3.8229  -3.6755  -2.5854  -2.4751  -1.8433  -1.7230  -1.4103
    -1.3793  -0.8915   0.5944   1.4543   1.9339   2.6289

          k = 0.0000 0.4811 0.0000 ( 14494 PWs)   bands (ev):

   -61.4025 -35.6492 -35.5875 -35.3828 -13.8826 -12.7655  -7.1264  -6.1291
    -5.1551  -4.0117  -3.8395  -2.6008  -2.5201  -1.7313  -1.5936  -1.3570
    -1.2839  -0.7418   1.0580   1.6577   2.1962   2.9452

          k = 0.0000-0.5774 0.0000 ( 14518 PWs)   bands (ev):

   -61.3999 -35.6734 -35.5827 -35.3886 -13.7290 -12.6475  -7.4066  -6.2087
    -5.2048  -4.0795  -3.9184  -2.6083  -2.5403  -1.6808  -1.5465  -1.2457
    -1.2299  -0.7027   1.3663   1.7840   2.0678   2.9390

          k = 0.0833 0.1443 0.0000 ( 14400 PWs)   bands (ev):

   -61.4312 -35.6412 -35.3732 -35.3196 -15.2022 -13.7400  -6.7936  -4.4641
    -4.0324  -3.3400  -3.0893  -2.5833  -2.3807  -1.7374  -1.6879  -1.4170
    -1.3067  -1.0826   0.2266   1.1257   1.4942   1.8593

          k = 0.0833 0.2406 0.0000 ( 14456 PWs)   bands (ev):

   -61.4228 -35.6256 -35.4513 -35.3419 -14.8688 -13.4964  -6.4759  -4.9227
    -4.4266  -3.6406  -3.4279  -2.6349  -2.4040  -1.8081  -1.6514  -1.4450
    -1.3218  -1.1280   0.2686   1.2986   1.4083   1.8864

          k = 0.0833 0.3368 0.0000 ( 14475 PWs)   bands (ev):

   -61.4131 -35.6076 -35.5402 -35.3677 -14.4394 -13.1801  -6.2388  -5.7895
    -4.7597  -3.9955  -3.5536  -2.6063  -2.4868  -1.8534  -1.7537  -1.4317
    -1.3195  -0.9705   0.3126   1.4764   1.7205   2.3180

          k = 0.0833 0.4330 0.0000 ( 14478 PWs)   bands (ev):

   -61.4047 -35.6165 -35.5916 -35.3900 -14.0137 -12.8619  -6.7681  -6.0084
    -5.1147  -4.1943  -3.6991  -2.7175  -2.4736  -1.8093  -1.7102  -1.4188
    -1.2385  -0.7953   0.6593   1.7105   2.1372   2.7766

          k = 0.0833 0.5292 0.0000 ( 14500 PWs)   bands (ev):

   -61.3999 -35.6598 -35.5827 -35.4028 -13.7362 -12.6494  -7.2660  -6.1223
    -5.2442  -4.2631  -3.8648  -2.8186  -2.4596  -1.7125  -1.6034  -1.3876
    -1.1050  -0.7288   1.2030   1.8102   2.2743   2.6653

          k = 0.1667 0.2887 0.0000 ( 14482 PWs)   bands (ev):

   -61.4144 -35.6100 -35.5187 -35.3742 -14.5021 -13.2252  -6.2097  -5.5528
    -4.6533  -4.2205  -3.5264  -2.6817  -2.4654  -1.8370  -1.7660  -1.4081
    -1.2711  -0.9880   0.1577   1.4937   1.6368   2.1236

          k = 0.1667 0.3849 0.0000 ( 14494 PWs)   bands (ev):

   -61.4060 -35.5947 -35.5816 -35.4099 -14.0906 -12.9155  -6.3943  -5.8443
    -5.1044  -4.5492  -3.6348  -2.8645  -2.4176  -1.8923  -1.8406  -1.3942
    -1.1706  -0.7935   0.2697   1.8077   1.9209   2.5931

          k = 0.1667 0.4811 0.0000 ( 14497 PWs)   bands (ev):

   -61.3999 -35.6268 -35.5827 -35.4372 -13.7505 -12.6531  -6.9154  -5.9008
    -5.3971  -4.6416  -3.8101  -3.1191  -2.3353  -1.8533  -1.7119  -1.4778
    -1.0199  -0.7016   0.7826   1.8589   2.2781   2.7254

          k = 0.1667 0.5774 0.0000 ( 14512 PWs)   bands (ev):

   -61.3976 -35.6428 -35.5785 -35.4473 -13.6154 -12.5465  -7.1308  -5.9920
    -5.4518  -4.6362  -3.9107  -3.2243  -2.3147  -1.7937  -1.6712  -1.4942
    -0.9388  -0.6633   1.2920   1.7057   2.2554   2.6694

          k = 0.2500 0.4330 0.0000 ( 14510 PWs)   bands (ev):

   -61.3999 -35.6046 -35.5826 -35.4600 -13.7576 -12.6549  -6.6653  -5.7542
    -5.5417  -4.8623  -3.8471  -3.1842  -2.2710  -1.9046  -1.8327  -1.4841
    -0.9873  -0.6532   0.5624   1.7604   2.2586   2.8803

          k = 0.2500 0.5292 0.0000 ( 14528 PWs)   bands (ev):

   -61.3963 -35.6086 -35.5761 -35.4978 -13.5488 -12.4867  -6.8083  -5.9948
    -5.5972  -4.9513  -4.0594  -3.3793  -2.1712  -1.8859  -1.7567  -1.5993
    -0.8522  -0.5361   1.0776   1.5956   2.1699   3.1952

          k = 0.3333 0.5774 0.0000 ( 14538 PWs)   bands (ev):

   -61.3950 -35.5771 -35.5737 -35.5448 -13.4729 -12.4228  -6.5259  -6.3821
    -5.5214  -5.0959  -4.2030  -3.4401  -2.0872  -1.8824  -1.7364  -1.7312
    -0.7984  -0.3995   1.1531   1.4857   2.1278   3.6108

 ------ SPIN DOWN ----------


          k = 0.0000 0.0000 0.0000 ( 14351 PWs)   bands (ev):

   -61.4579 -35.6546 -35.3335 -35.3335 -15.4149 -13.9253  -7.0529  -4.4113
    -2.9360  -2.9360  -2.2601  -2.2601  -1.4785  -0.5503  -0.5503  -0.3173
    -0.3173  -0.0706   0.1476   1.9571   1.9571   2.2878

          k = 0.0000 0.0962 0.0000 ( 14357 PWs)   bands (ev):

   -61.4553 -35.6498 -35.3590 -35.3394 -15.3210 -13.8580  -6.9452  -4.3809
    -3.2606  -2.8951  -2.5450  -2.3699  -1.4148  -0.7402  -0.5050  -0.5014
    -0.3279   0.1849   0.4143   1.7412   1.9805   2.0740

          k = 0.0000 0.1925 0.0000 ( 14400 PWs)   bands (ev):

   -61.4482 -35.6366 -35.4283 -35.3554 -15.0524 -13.6650  -6.6595  -4.4033
    -4.0462  -3.0441  -2.9642  -2.4638  -1.4461  -1.0805  -0.5909  -0.4229
    -0.2658   0.3031   1.0191   1.3580   1.8721   1.9254

          k = 0.0000 0.2887 0.0000 ( 14448 PWs)   bands (ev):

   -61.4385 -35.6187 -35.5217 -35.3772 -14.6501 -13.3749  -6.3263  -5.1709
    -4.5116  -3.3928  -3.2950  -2.3505  -1.5722  -1.3313  -0.6579  -0.3155
    -0.0435   0.4151   1.0089   1.6784   1.7170   2.2677

          k = 0.0000 0.3849 0.0000 ( 14480 PWs)   bands (ev):

   -61.4289 -35.6144 -35.6000 -35.3989 -14.1923 -13.0423  -6.3759  -5.9105
    -4.8948  -3.6239  -3.5768  -2.2811  -1.7822  -1.2395  -0.5861  -0.1181
     0.2510   0.4847   1.0854   1.6457   2.1278   2.8618

          k = 0.0000 0.4811 0.0000 ( 14494 PWs)   bands (ev):

   -61.4218 -35.6806 -35.5871 -35.4147 -13.8067 -12.7570  -7.0389  -6.0646
    -5.0956  -3.8451  -3.7464  -2.2809  -1.7692  -1.1340  -0.3446   0.0685
     0.4881   0.5346   1.4034   1.7116   2.3094   3.0291

          k = 0.0000-0.5774 0.0000 ( 14518 PWs)   bands (ev):

   -61.4192 -35.7048 -35.5823 -35.4205 -13.6513 -12.6391  -7.3227  -6.1557
    -5.1355  -3.9221  -3.8202  -2.2898  -1.7333  -1.0802  -0.1878   0.1428
     0.5563   0.5650   1.6666   1.7858   2.1708   3.0251

          k = 0.0833 0.1443 0.0000 ( 14400 PWs)   bands (ev):

   -61.4505 -35.6408 -35.4051 -35.3516 -15.1397 -13.7277  -6.7472  -4.3601
    -3.8048  -2.9533  -2.9021  -2.4905  -1.3955  -0.9771  -0.6019  -0.3941
    -0.3315   0.2751   0.8916   1.4402   1.8621   1.9047

          k = 0.0833 0.2406 0.0000 ( 14456 PWs)   bands (ev):

   -61.4421 -35.6252 -35.4831 -35.3739 -14.8033 -13.4851  -6.4264  -4.7329
    -4.3804  -3.4666  -3.1532  -2.4350  -1.4282  -1.2625  -0.6726  -0.3678
    -0.1381   0.4039   1.0702   1.4809   1.7330   1.9812

          k = 0.0833 0.3368 0.0000 ( 14475 PWs)   bands (ev):

   -61.4324 -35.6073 -35.5717 -35.3997 -14.3697 -13.1702  -6.1942  -5.6219
    -4.7338  -3.8568  -3.3537  -2.4332  -1.6388  -1.2614  -0.6578  -0.2441
     0.1511   0.5028   0.9400   1.6691   1.9079   2.5542

          k = 0.0833 0.4330 0.0000 ( 14478 PWs)   bands (ev):

   -61.4240 -35.6479 -35.5913 -35.4219 -13.9393 -12.8532  -6.6785  -5.9229
    -5.0690  -4.0477  -3.5664  -2.5655  -1.6399  -1.1549  -0.4954  -0.0537
     0.4374   0.5571   1.0649   1.7993   2.2610   2.9343

          k = 0.0833 0.5292 0.0000 ( 14500 PWs)   bands (ev):

   -61.4191 -35.6913 -35.5823 -35.4347 -13.6586 -12.6411  -7.1793  -6.0663
    -5.1759  -4.0893  -3.7765  -2.6595  -1.5253  -1.0938  -0.2802   0.0771
     0.5640   0.6176   1.4248   1.8608   2.4073   2.7852

          k = 0.1667 0.2887 0.0000 ( 14482 PWs)   bands (ev):

   -61.4337 -35.6097 -35.5503 -35.4061 -14.4330 -13.2150  -6.1621  -5.3689
    -4.6367  -4.0850  -3.3333  -2.4978  -1.5768  -1.2284  -0.6862  -0.3130
     0.1254   0.5422   0.8750   1.6677   1.7543   2.4251

          k = 0.1667 0.3849 0.0000 ( 14494 PWs)   bands (ev):

   -61.4253 -35.6139 -35.5936 -35.4418 -14.0171 -12.9065  -6.3119  -5.7134
    -5.0774  -4.4113  -3.5302  -2.7553  -1.6533  -1.0287  -0.6421  -0.1924
     0.4555   0.6174   0.7851   1.8890   1.9893   2.9073

          k = 0.1667 0.4811 0.0000 ( 14497 PWs)   bands (ev):

   -61.4192 -35.6582 -35.5823 -35.4690 -13.6732 -12.6448  -6.8225  -5.8307
    -5.3240  -4.4849  -3.7486  -3.0534  -1.4792  -0.9628  -0.4544  -0.0604
     0.6064   0.6641   1.0596   1.9305   2.3444   2.9263

          k = 0.1667 0.5774 0.0000 ( 14512 PWs)   bands (ev):

   -61.4169 -35.6743 -35.5781 -35.4791 -13.5365 -12.5382  -7.0407  -5.9405
    -5.3635  -4.4514  -3.8761  -3.1740  -1.3574  -0.9676  -0.3458   0.0034
     0.6255   0.6948   1.4214   1.8126   2.4169   2.8412

          k = 0.2500 0.4330 0.0000 ( 14510 PWs)   bands (ev):

   -61.4192 -35.6360 -35.5823 -35.4918 -13.6804 -12.6465  -6.5698  -5.6744
    -5.4390  -4.7571  -3.8170  -3.1016  -1.5535  -0.7560  -0.6133  -0.1361
     0.6307   0.6617   0.9215   1.8583   2.2954   3.0970

          k = 0.2500 0.5292 0.0000 ( 14528 PWs)   bands (ev):

   -61.4156 -35.6401 -35.5757 -35.5295 -13.4692 -12.4784  -6.7146  -5.9270
    -5.4698  -4.8578  -4.0376  -3.3353  -1.3812  -0.7475  -0.4521  -0.0305
     0.6241   0.6925   1.2687   1.7346   2.3407   3.3649

          k = 0.3333 0.5774 0.0000 ( 14538 PWs)   bands (ev):

   -61.4143 -35.6085 -35.5767 -35.5733 -13.3925 -12.4144  -6.4577  -6.2586
    -5.3740  -5.0764  -4.1641  -3.4125  -1.3363  -0.6777  -0.4454   0.0443
     0.6010   0.7322   1.1960   1.7098   2.3780   3.7609

     the Fermi energy is     0.3540 ev

!    total energy              =    -658.64109730 Ry
     total all-electron energy =    -12481.814988 Ry
     estimated scf accuracy    <       0.00000013 Ry
     smearing contrib. (-TS)   =      -0.00108093 Ry
     internal energy E=F+TS    =    -658.64001637 Ry

     The total energy is F=E-TS. E is the sum of the following terms:
     one-electron contribution =   -2252.70562321 Ry
     hartree contribution      =    1137.65217703 Ry
     xc contribution           =     -62.28277564 Ry
     ewald contribution        =     924.89670070 Ry
     DFT-D3 Dispersion         =      -0.06266560 Ry
     one-center paw contrib.   =    -406.13782965 Ry

     total magnetization       =     1.80 Bohr mag/cell
     absolute magnetization    =     2.00 Bohr mag/cell

     convergence has been achieved in  11 iterations

     negative rho (up, down):  4.532E-05 4.665E-05

     Forces acting on atoms (cartesian axes, Ry/au):

     atom    1 type  1   force =     0.00000000    0.00000000    0.02600815
     atom    2 type  2   force =     0.00000000   -0.00000000   -0.01093999
     atom    3 type  2   force =     0.00000000    0.00000000    0.03513333
     atom    4 type  3   force =     0.00000000   -0.00000000   -0.05020149
     The non-local contrib.  to forces
     atom    1 type  1   force =     0.00000000   -0.00000000   -0.07219316
     atom    2 type  2   force =     0.00000000    0.00000000   -0.03561435
     atom    3 type  2   force =     0.00000000    0.00000000    0.28534892
     atom    4 type  3   force =     0.00000000    0.00000000    0.06360209
     The ionic contribution  to forces
     atom    1 type  1   force =     0.00000000    0.00000411  -38.05591808
     atom    2 type  2   force =    -0.00000000   -0.00000350   20.84739932
     atom    3 type  2   force =    -0.00000000   -0.00000233  -51.42685552
     atom    4 type  3   force =     0.00000000    0.00000173   68.63537428
     The local contribution  to forces
     atom    1 type  1   force =    -0.00000000   -0.00000251   38.14697567
     atom    2 type  2   force =    -0.00000000    0.00000252  -20.82098323
     atom    3 type  2   force =    -0.00000000    0.00000163   51.17674483
     atom    4 type  3   force =     0.00000000   -0.00000099  -68.71898977
     The core correction contribution to forces
     atom    1 type  1   force =    -0.00000000    0.00000000    0.00475395
     atom    2 type  2   force =     0.00000000    0.00000000   -0.00021342
     atom    3 type  2   force =     0.00000000    0.00000000   -0.00296015
     atom    4 type  3   force =     0.00000000   -0.00000000   -0.02509186
     The Hubbard contrib.    to forces
     atom    1 type  1   force =     0.00000000    0.00000000    0.00000000
     atom    2 type  2   force =     0.00000000    0.00000000    0.00000000
     atom    3 type  2   force =     0.00000000    0.00000000    0.00000000
     atom    4 type  3   force =     0.00000000    0.00000000    0.00000000
     The SCF correction term to forces
     atom    1 type  1   force =    -0.00000000   -0.00000000   -0.00008353
     atom    2 type  2   force =    -0.00000000   -0.00000000   -0.00083045
     atom    3 type  2   force =    -0.00000000    0.00000000    0.00018928
     atom    4 type  3   force =     0.00000000    0.00000000   -0.00086182

     DFT-D3 dispersion contribution to forces:
     atom    1 type  1   force =     0.00000000   -0.00000000    0.00242155
     atom    2 type  2   force =    -0.00000000    0.00000000   -0.00074961
     atom    3 type  2   force =    -0.00000000    0.00000000    0.00261422
     atom    4 type  3   force =    -0.00000000   -0.00000000   -0.00428616

     Total force =     0.067458     Total SCF correction =     0.001215


     Computing stress (Cartesian axis) and pressure


     negative rho (up, down):  4.532E-05 4.665E-05
          total   stress  (Ry/bohr**3)                   (kbar)     P=      -31.66
  -0.00016801   0.00000000   0.00000000          -24.72        0.00        0.00
   0.00000000  -0.00016801   0.00000000            0.00      -24.72        0.00
   0.00000000  -0.00000000  -0.00030969            0.00       -0.00      -45.56

     Energy error            =      6.0E-03 Ry
     Gradient error          =      5.0E-02 Ry/Bohr

     number of scf cycles    =   8
     number of bfgs steps    =   7

     energy             old  =    -658.6351025225 Ry
     energy             new  =    -658.6410972987 Ry

     CASE: energy            _new < energy            _old

     new trust radius        =       0.1753587749 bohr
     new conv_thr            =       0.0000005020 Ry


ATOMIC_POSITIONS (crystal)
Mo            0.0000000000        0.0000000000        0.3820670807
S             0.6666666667        0.3333333333        0.4543204106
S             0.6666666667        0.3333333333        0.3172631258
Co           -0.0000000000       -0.0000000000        0.5090118241



     Writing config-only to output data dir ./tmp/scf.save/
     NEW-OLD atomic charge density approx. for the potential

     negative rho (up, down):  4.486E-05 4.710E-05
     Generating pointlists ...
     new r_m :   0.2974 (alat units)  1.7791 (a.u.) for type    2
     new r_m :   0.2974 (alat units)  1.7791 (a.u.) for type    3

     total cpu time spent up to now is      480.6 secs

     Self-consistent Calculation

     iteration #  1     ecut=    70.00 Ry     beta= 0.70
     Davidson diagonalization with overlap
     c_bands:  1 eigenvalues not converged
     c_bands:  1 eigenvalues not converged
     c_bands:  1 eigenvalues not converged
     ethr =  1.00E-06,  avg # of iterations = 15.2

     negative rho (up, down):  4.645E-05 4.712E-05

     total cpu time spent up to now is      491.2 secs

     total energy              =    -658.60361723 Ry
     estimated scf accuracy    <       0.07098949 Ry

     total magnetization       =     1.17 Bohr mag/cell
     absolute magnetization    =     1.63 Bohr mag/cell

     iteration #  2     ecut=    70.00 Ry     beta= 0.70
     Davidson diagonalization with overlap
     ethr =  2.03E-04,  avg # of iterations =  8.6

     negative rho (up, down):  5.795E-05 5.906E-05

     total cpu time spent up to now is      497.0 secs

     total energy              =    -657.33405332 Ry
     estimated scf accuracy    <      80.06215105 Ry

     total magnetization       =     1.12 Bohr mag/cell
     absolute magnetization    =     1.27 Bohr mag/cell

     iteration #  3     ecut=    70.00 Ry     beta= 0.70
     Davidson diagonalization with overlap
     ethr =  2.03E-04,  avg # of iterations =  7.4

     negative rho (up, down):  4.759E-05 4.856E-05

     total cpu time spent up to now is      504.1 secs

     total energy              =    -658.62294593 Ry
     estimated scf accuracy    <       0.24623604 Ry

     total magnetization       =     1.27 Bohr mag/cell
     absolute magnetization    =     1.70 Bohr mag/cell

     iteration #  4     ecut=    70.00 Ry     beta= 0.70
     Davidson diagonalization with overlap
     ethr =  2.03E-04,  avg # of iterations =  3.3

     negative rho (up, down):  4.620E-05 4.480E-05

     total cpu time spent up to now is      508.4 secs

     total energy              =    -658.65116456 Ry
     estimated scf accuracy    <       0.00988155 Ry

     total magnetization       =     1.09 Bohr mag/cell
     absolute magnetization    =     1.58 Bohr mag/cell

     iteration #  5     ecut=    70.00 Ry     beta= 0.70
     Davidson diagonalization with overlap
     ethr =  2.82E-05,  avg # of iterations =  4.5

     negative rho (up, down):  4.669E-05 4.486E-05

     total cpu time spent up to now is      512.9 secs

     total energy              =    -658.65162954 Ry
     estimated scf accuracy    <       0.00745976 Ry

     total magnetization       =     1.06 Bohr mag/cell
     absolute magnetization    =     1.55 Bohr mag/cell

     iteration #  6     ecut=    70.00 Ry     beta= 0.70
     Davidson diagonalization with overlap
     ethr =  2.13E-05,  avg # of iterations =  1.7

     negative rho (up, down):  4.732E-05 4.545E-05

     total cpu time spent up to now is      517.1 secs

     total energy              =    -658.65236804 Ry
     estimated scf accuracy    <       0.00167085 Ry

     total magnetization       =     1.04 Bohr mag/cell
     absolute magnetization    =     1.52 Bohr mag/cell

     iteration #  7     ecut=    70.00 Ry     beta= 0.70
     Davidson diagonalization with overlap
     ethr =  4.77E-06,  avg # of iterations =  3.6

     negative rho (up, down):  4.759E-05 4.572E-05

     total cpu time spent up to now is      521.4 secs

     total energy              =    -658.65239644 Ry
     estimated scf accuracy    <       0.00203287 Ry

     total magnetization       =     1.03 Bohr mag/cell
     absolute magnetization    =     1.51 Bohr mag/cell

     iteration #  8     ecut=    70.00 Ry     beta= 0.70
     Davidson diagonalization with overlap
     ethr =  4.77E-06,  avg # of iterations =  1.5

     negative rho (up, down):  4.814E-05 4.640E-05

     total cpu time spent up to now is      526.6 secs

     total energy              =    -658.65253168 Ry
     estimated scf accuracy    <       0.00031761 Ry

     total magnetization       =     1.03 Bohr mag/cell
     absolute magnetization    =     1.51 Bohr mag/cell

     iteration #  9     ecut=    70.00 Ry     beta= 0.70
     Davidson diagonalization with overlap
     ethr =  9.07E-07,  avg # of iterations =  2.2

     negative rho (up, down):  4.819E-05 4.652E-05

     total cpu time spent up to now is      531.4 secs

     total energy              =    -658.65255127 Ry
     estimated scf accuracy    <       0.00009950 Ry

     total magnetization       =     1.03 Bohr mag/cell
     absolute magnetization    =     1.50 Bohr mag/cell

     iteration # 10     ecut=    70.00 Ry     beta= 0.70
     Davidson diagonalization with overlap
     ethr =  2.84E-07,  avg # of iterations =  1.9

     negative rho (up, down):  4.814E-05 4.651E-05

     total cpu time spent up to now is      536.5 secs

     total energy              =    -658.65255298 Ry
     estimated scf accuracy    <       0.00003293 Ry

     total magnetization       =     1.03 Bohr mag/cell
     absolute magnetization    =     1.49 Bohr mag/cell

     iteration # 11     ecut=    70.00 Ry     beta= 0.70
     Davidson diagonalization with overlap
     ethr =  9.41E-08,  avg # of iterations =  2.2

     negative rho (up, down):  4.810E-05 4.653E-05

     total cpu time spent up to now is      541.7 secs

     total energy              =    -658.65255467 Ry
     estimated scf accuracy    <       0.00000484 Ry

     total magnetization       =     1.03 Bohr mag/cell
     absolute magnetization    =     1.49 Bohr mag/cell

     iteration # 12     ecut=    70.00 Ry     beta= 0.70
     Davidson diagonalization with overlap
     ethr =  1.38E-08,  avg # of iterations =  4.0

     negative rho (up, down):  4.809E-05 4.652E-05

     total cpu time spent up to now is      547.2 secs

     total energy              =    -658.65255564 Ry
     estimated scf accuracy    <       0.00000130 Ry

     total magnetization       =     1.03 Bohr mag/cell
     absolute magnetization    =     1.49 Bohr mag/cell

     iteration # 13     ecut=    70.00 Ry     beta= 0.70
     Davidson diagonalization with overlap
     ethr =  3.72E-09,  avg # of iterations =  2.6

     negative rho (up, down):  4.808E-05 4.652E-05
 
     Magnetic moment per site  (integrated on atomic sphere of radius R)
     atom   1 (R=0.314)  charge= 10.7074  magn= -0.1074
     atom   2 (R=0.297)  charge=  3.7895  magn=  0.0087
     atom   3 (R=0.297)  charge=  3.7382  magn=  0.0089
     atom   4 (R=0.297)  charge=  7.1168  magn=  1.1775

     total cpu time spent up to now is      552.3 secs

     End of self-consistent calculation

 ------ SPIN UP ------------


          k = 0.0000 0.0000 0.0000 ( 14351 PWs)   bands (ev):

   -61.3654 -35.5855 -35.2147 -35.2147 -15.5831 -13.9386  -7.0759  -4.5617
    -3.3563  -3.3563  -2.4116  -2.4116  -1.8843  -1.3403  -1.3403  -0.9582
    -0.8344  -0.8344   0.1827   1.7214   1.7215   2.2993

          k = 0.0000 0.0962 0.0000 ( 14357 PWs)   bands (ev):

   -61.3629 -35.5808 -35.2400 -35.2205 -15.4921 -13.8685  -6.9702  -4.5144
    -3.6600  -3.3840  -2.6494  -2.3920  -1.9369  -1.3439  -1.3419  -0.9801
    -0.9022  -0.8618   0.4469   1.5012   1.7310   2.1000

          k = 0.0000 0.1925 0.0000 ( 14400 PWs)   bands (ev):

   -61.3559 -35.5679 -35.3086 -35.2364 -15.2316 -13.6676  -6.6881  -4.5672
    -4.3090  -3.5000  -3.1311  -2.3586  -2.0787  -1.4370  -1.2999  -1.1571
    -0.8645  -0.8576   0.7868   1.2776   1.6526   1.9630

          k = 0.0000 0.2887 0.0000 ( 14448 PWs)   bands (ev):

   -61.3463 -35.5502 -35.4012 -35.2581 -14.8413 -13.3660  -6.3428  -5.4894
    -4.5170  -3.7136  -3.4942  -2.3664  -2.1740  -1.5934  -1.3959  -1.1717
    -0.8228  -0.6968   0.7021   1.5481   1.6529   2.3167

          k = 0.0000 0.3849 0.0000 ( 14480 PWs)   bands (ev):

   -61.3367 -35.5327 -35.4924 -35.2796 -14.3963 -13.0210  -6.4991  -6.0825
    -4.8969  -3.9484  -3.6569  -2.4235  -2.2359  -1.6335  -1.4204  -1.0125
    -0.8512  -0.4343   0.8647   1.5747   2.0840   2.8918

          k = 0.0000 0.4811 0.0000 ( 14494 PWs)   bands (ev):

   -61.3296 -35.5589 -35.5193 -35.2954 -14.0205 -12.7270  -7.2313  -6.1171
    -5.1276  -4.1207  -3.8190  -2.4861  -2.2898  -1.4319  -1.2552  -0.9133
    -0.8654  -0.2692   1.2313   1.7636   2.2279   2.9182

          k = 0.0000-0.5774 0.0000 ( 14518 PWs)   bands (ev):

   -61.3271 -35.5828 -35.5146 -35.3011 -13.8685 -12.6065  -7.5150  -6.1919
    -5.1734  -4.1830  -3.8964  -2.5120  -2.3064  -1.3338  -1.0428  -1.0048
    -0.8006  -0.2312   1.4633   1.8912   2.1042   2.9014

          k = 0.0833 0.1443 0.0000 ( 14400 PWs)   bands (ev):

   -61.3581 -35.5720 -35.2857 -35.2327 -15.3163 -13.7328  -6.7753  -4.4710
    -4.1538  -3.4918  -2.9809  -2.4145  -2.0107  -1.3967  -1.3417  -1.0241
    -0.9505  -0.8429   0.7538   1.2822   1.6733   1.9000

          k = 0.0833 0.2406 0.0000 ( 14456 PWs)   bands (ev):

   -61.3498 -35.5567 -35.3630 -35.2548 -14.9900 -13.4806  -6.4531  -5.0569
    -4.4155  -3.7650  -3.3763  -2.4499  -2.0944  -1.4993  -1.3838  -1.1376
    -0.8422  -0.7649   0.6829   1.4928   1.5939   2.0001

          k = 0.0833 0.3368 0.0000 ( 14475 PWs)   bands (ev):

   -61.3402 -35.5390 -35.4509 -35.2804 -14.5689 -13.1537  -6.1785  -5.9667
    -4.7224  -4.0949  -3.5478  -2.5023  -2.1531  -1.6493  -1.4784  -1.0378
    -0.7857  -0.5556   0.6253   1.5932   1.8863   2.5555

          k = 0.0833 0.4330 0.0000 ( 14478 PWs)   bands (ev):

   -61.3319 -35.5278 -35.5220 -35.3025 -14.1500 -12.8262  -6.8644  -6.0126
    -5.0848  -4.2913  -3.6917  -2.6644  -2.1479  -1.5636  -1.4136  -0.9136
    -0.8012  -0.3523   0.8715   1.8093   2.2213   2.8188

          k = 0.0833 0.5292 0.0000 ( 14500 PWs)   bands (ev):

   -61.3271 -35.5694 -35.5146 -35.3152 -13.8759 -12.6089  -7.3748  -6.1066
    -5.2112  -4.3719  -3.8400  -2.7809  -2.1473  -1.3959  -1.1995  -0.9935
    -0.6809  -0.2928   1.3195   1.9037   2.3262   2.6555

          k = 0.1667 0.2887 0.0000 ( 14482 PWs)   bands (ev):

   -61.3415 -35.5414 -35.4296 -35.2868 -14.6305 -13.2004  -6.1602  -5.7268
    -4.6149  -4.3104  -3.5126  -2.5772  -2.1144  -1.6439  -1.4829  -1.0236
    -0.7446  -0.5976   0.4895   1.6122   1.7641   2.4022

          k = 0.1667 0.3849 0.0000 ( 14494 PWs)   bands (ev):

   -61.3332 -35.5262 -35.4920 -35.3222 -14.2261 -12.8817  -6.4665  -5.8890
    -5.0807  -4.6249  -3.6240  -2.8221  -2.0446  -1.7085  -1.5062  -0.8912
    -0.7340  -0.3708   0.4992   1.8852   2.0031   2.8087

          k = 0.1667 0.4811 0.0000 ( 14497 PWs)   bands (ev):

   -61.3271 -35.5366 -35.5145 -35.3492 -13.8905 -12.6135  -7.0226  -5.8936
    -5.3810  -4.7326  -3.7833  -3.0980  -1.9709  -1.5439  -1.4132  -0.9727
    -0.5803  -0.3002   0.9115   1.9249   2.3131   2.8111

          k = 0.1667 0.5774 0.0000 ( 14512 PWs)   bands (ev):

   -61.3248 -35.5524 -35.5105 -35.3593 -13.7568 -12.5051  -7.2416  -5.9807
    -5.4281  -4.7436  -3.8691  -3.2099  -1.9572  -1.4695  -1.2509  -1.0899
    -0.4485  -0.3286   1.3713   1.7663   2.2714   2.7740

          k = 0.2500 0.4330 0.0000 ( 14510 PWs)   bands (ev):

   -61.3271 -35.5166 -35.5125 -35.3719 -13.8978 -12.6157  -6.7689  -5.7497
    -5.5733  -4.9052  -3.8223  -3.1622  -1.8929  -1.6318  -1.5080  -0.9697
    -0.5655  -0.2271   0.6802   1.8069   2.3146   3.0186

          k = 0.2500 0.5292 0.0000 ( 14528 PWs)   bands (ev):

   -61.3235 -35.5185 -35.5081 -35.4093 -13.6914 -12.4452  -6.9165  -6.0286
    -5.5955  -4.9857  -4.0311  -3.3608  -1.8135  -1.5250  -1.3978  -1.1363
    -0.3487  -0.2186   1.1496   1.6266   2.1973   3.3170

          k = 0.3333 0.5774 0.0000 ( 14538 PWs)   bands (ev):

   -61.3223 -35.5058 -35.4865 -35.4567 -13.6163 -12.3807  -6.6306  -6.4533
    -5.5238  -5.0782  -4.1931  -3.4164  -1.7601  -1.4516  -1.3946  -1.2677
    -0.2426  -0.1405   1.2383   1.4918   2.1175   3.7438

 ------ SPIN DOWN ----------


          k = 0.0000 0.0000 0.0000 ( 14351 PWs)   bands (ev):

   -61.4559 -35.6631 -35.3248 -35.3247 -15.5744 -13.9307  -7.0681  -4.4973
    -3.0742  -3.0742  -2.3503  -2.3503  -1.4955  -0.7137  -0.7137  -0.3056
    -0.3056  -0.0638   0.2879   2.0889   2.0889   2.3030

          k = 0.0000 0.0962 0.0000 ( 14357 PWs)   bands (ev):

   -61.4533 -35.6584 -35.3500 -35.3306 -15.4832 -13.8605  -6.9613  -4.4578
    -3.4256  -3.0891  -2.6006  -2.3864  -1.4594  -0.7866  -0.6750  -0.5354
    -0.3219   0.0388   0.6496   1.8744   2.0844   2.1127

          k = 0.0000 0.1925 0.0000 ( 14400 PWs)   bands (ev):

   -61.4463 -35.6455 -35.4185 -35.3465 -15.2219 -13.6593  -6.6767  -4.4778
    -4.2145  -3.2283  -3.0883  -2.3922  -1.5054  -1.0604  -0.6869  -0.5370
    -0.3168   0.1860   1.1958   1.4920   1.9603   1.9806

          k = 0.0000 0.2887 0.0000 ( 14448 PWs)   bands (ev):

   -61.4367 -35.6280 -35.5108 -35.3681 -14.8300 -13.3573  -6.3325  -5.3876
    -4.5168  -3.5108  -3.4538  -2.3432  -1.6277  -1.3335  -0.7537  -0.2695
    -0.2082   0.3133   1.1061   1.7704   1.8083   2.3944

          k = 0.0000 0.3849 0.0000 ( 14480 PWs)   bands (ev):

   -61.4271 -35.6113 -35.6011 -35.3896 -14.3826 -13.0122  -6.4637  -6.0424
    -4.8898  -3.7983  -3.6319  -2.3421  -1.8323  -1.2687  -0.6721  -0.0394
     0.1265   0.3770   1.1510   1.7073   2.1384   2.9498

          k = 0.0000 0.4811 0.0000 ( 14494 PWs)   bands (ev):

   -61.4200 -35.6681 -35.5973 -35.4053 -14.0043 -12.7182  -7.1991  -6.1042
    -5.0998  -3.9979  -3.7973  -2.3776  -1.8656  -1.1192  -0.4118   0.1515
     0.4022   0.4198   1.4134   1.7416   2.2395   2.9630

          k = 0.0000-0.5774 0.0000 ( 14518 PWs)   bands (ev):

   -61.4175 -35.6921 -35.5925 -35.4111 -13.8510 -12.5977  -7.4877  -6.1847
    -5.1386  -4.0683  -3.8724  -2.3967  -1.8556  -1.0385  -0.2305   0.2393
     0.4035   0.5031   1.6137   1.8064   2.0934   2.9478

          k = 0.0833 0.1443 0.0000 ( 14400 PWs)   bands (ev):

   -61.4485 -35.6496 -35.3956 -35.3427 -15.3068 -13.7246  -6.7645  -4.4195
    -3.9910  -3.2129  -2.9426  -2.4279  -1.4529  -0.9755  -0.6568  -0.5656
    -0.3520   0.1496   1.1074   1.5632   1.8741   2.0225

          k = 0.0833 0.2406 0.0000 ( 14456 PWs)   bands (ev):

   -61.4402 -35.6344 -35.4727 -35.3648 -14.9793 -13.4720  -6.4404  -4.9354
    -4.4085  -3.5935  -3.3029  -2.4080  -1.4964  -1.2617  -0.7321  -0.3738
    -0.2956   0.2980   1.1941   1.5850   1.8051   2.1094

          k = 0.0833 0.3368 0.0000 ( 14475 PWs)   bands (ev):

   -61.4306 -35.6169 -35.5603 -35.3903 -14.5562 -13.1449  -6.1811  -5.8677
    -4.7244  -3.9796  -3.4798  -2.4482  -1.6825  -1.3174  -0.7341  -0.1639
    -0.0100   0.4011   1.0396   1.7020   1.9500   2.7268

          k = 0.0833 0.4330 0.0000 ( 14478 PWs)   bands (ev):

   -61.4223 -35.6358 -35.6012 -35.4124 -14.1348 -12.8173  -6.8266  -5.9876
    -5.0691  -4.1841  -3.6531  -2.6079  -1.7039  -1.1989  -0.5796   0.0568
     0.3242   0.4303   1.1224   1.8072   2.2527   2.8883

          k = 0.0833 0.5292 0.0000 ( 14500 PWs)   bands (ev):

   -61.4175 -35.6786 -35.5926 -35.4251 -13.8585 -12.6000  -7.3453  -6.0961
    -5.1806  -4.2542  -3.8239  -2.7220  -1.6320  -1.0845  -0.3505   0.2218
     0.4213   0.5009   1.4064   1.8569   2.3535   2.7256

          k = 0.1667 0.2887 0.0000 ( 14482 PWs)   bands (ev):

   -61.4319 -35.6193 -35.5391 -35.3968 -14.6182 -13.1916  -6.1538  -5.6220
    -4.6236  -4.2067  -3.4499  -2.5111  -1.6130  -1.3078  -0.7392  -0.2481
    -0.0423   0.4408   0.9908   1.6926   1.7863   2.6197

          k = 0.1667 0.3849 0.0000 ( 14494 PWs)   bands (ev):

   -61.4236 -35.6058 -35.5997 -35.4321 -14.2114 -12.8729  -6.4253  -5.8409
    -5.0731  -4.5455  -3.5980  -2.7777  -1.6764  -1.1421  -0.7256  -0.0741
     0.3008   0.5145   0.8676   1.8779   2.0054   2.9457

          k = 0.1667 0.4811 0.0000 ( 14497 PWs)   bands (ev):

   -61.4175 -35.6459 -35.5925 -35.4590 -13.8734 -12.6046  -6.9874  -5.8706
    -5.3520  -4.6456  -3.7778  -3.0780  -1.4962  -1.0562  -0.5606   0.0872
     0.4428   0.5882   1.0519   1.9091   2.3308   2.8842

          k = 0.1667 0.5774 0.0000 ( 14512 PWs)   bands (ev):

   -61.4152 -35.6618 -35.5885 -35.4691 -13.7385 -12.4961  -7.2109  -5.9658
    -5.3940  -4.6414  -3.8753  -3.2011  -1.3831  -1.0413  -0.4428   0.1625
     0.4172   0.6409   1.3842   1.7783   2.3687   2.8156

          k = 0.2500 0.4330 0.0000 ( 14510 PWs)   bands (ev):

   -61.4175 -35.6240 -35.5925 -35.4817 -13.8807 -12.6067  -6.7293  -5.7201
    -5.5238  -4.8648  -3.8257  -3.1328  -1.5556  -0.8441  -0.7618   0.0031
     0.4497   0.6824   0.8605   1.8328   2.2881   3.0855

          k = 0.2500 0.5292 0.0000 ( 14528 PWs)   bands (ev):

   -61.4139 -35.6278 -35.5861 -35.5190 -13.6725 -12.4361  -6.8820  -5.9982
    -5.5438  -4.9504  -4.0336  -3.3570  -1.3705  -0.8290  -0.5925   0.1066
     0.3800   0.7275   1.2372   1.6697   2.2807   3.3436

          k = 0.3333 0.5774 0.0000 ( 14538 PWs)   bands (ev):

   -61.4126 -35.5959 -35.5838 -35.5664 -13.5968 -12.3716  -6.6012  -6.4086
    -5.4578  -5.0844  -4.1817  -3.4231  -1.3198  -0.7182  -0.6151   0.1836
     0.3008   0.8059   1.2035   1.6169   2.2601   3.7010

     the Fermi energy is     0.3673 ev

!    total energy              =    -658.65255554 Ry
     total all-electron energy =    -12481.826446 Ry
     estimated scf accuracy    <       0.00000031 Ry
     smearing contrib. (-TS)   =      -0.00173624 Ry
     internal energy E=F+TS    =    -658.65081930 Ry

     The total energy is F=E-TS. E is the sum of the following terms:
     one-electron contribution =   -2276.32481272 Ry
     hartree contribution      =    1149.51570625 Ry
     xc contribution           =     -62.29530341 Ry
     ewald contribution        =     936.64374762 Ry
     DFT-D3 Dispersion         =      -0.06347046 Ry
     one-center paw contrib.   =    -406.12668659 Ry

     total magnetization       =     1.03 Bohr mag/cell
     absolute magnetization    =     1.49 Bohr mag/cell

     convergence has been achieved in  13 iterations

     negative rho (up, down):  4.808E-05 4.652E-05

     Forces acting on atoms (cartesian axes, Ry/au):

     atom    1 type  1   force =     0.00000000   -0.00000000    0.03400534
     atom    2 type  2   force =     0.00000000    0.00000000   -0.01039451
     atom    3 type  2   force =     0.00000000   -0.00000000    0.04591302
     atom    4 type  3   force =     0.00000000   -0.00000000   -0.06952386
     The non-local contrib.  to forces
     atom    1 type  1   force =     0.00000000    0.00000000   -0.05919381
     atom    2 type  2   force =     0.00000000    0.00000000   -0.01267908
     atom    3 type  2   force =     0.00000000    0.00000000    0.28872944
     atom    4 type  3   force =     0.00000000   -0.00000000    0.08662087
     The ionic contribution  to forces
     atom    1 type  1   force =     0.00000000    0.00000393  -38.57131166
     atom    2 type  2   force =    -0.00000000   -0.00000388   21.20541771
     atom    3 type  2   force =    -0.00000000   -0.00000228  -51.55765629
     atom    4 type  3   force =     0.00000000    0.00000224   68.92355024
     The local contribution  to forces
     atom    1 type  1   force =     0.00000000   -0.00000241   38.65573620
     atom    2 type  2   force =    -0.00000000    0.00000280  -21.20364950
     atom    3 type  2   force =    -0.00000000    0.00000160   51.31516123
     atom    4 type  3   force =     0.00000000   -0.00000125  -69.04301606
     The core correction contribution to forces
     atom    1 type  1   force =     0.00000000    0.00000000    0.00458869
     atom    2 type  2   force =     0.00000000    0.00000000    0.00005697
     atom    3 type  2   force =     0.00000000    0.00000000   -0.00313374
     atom    4 type  3   force =     0.00000000   -0.00000001   -0.03278455
     The Hubbard contrib.    to forces
     atom    1 type  1   force =     0.00000000    0.00000000    0.00000000
     atom    2 type  2   force =     0.00000000    0.00000000    0.00000000
     atom    3 type  2   force =     0.00000000    0.00000000    0.00000000
     atom    4 type  3   force =     0.00000000    0.00000000    0.00000000
     The SCF correction term to forces
     atom    1 type  1   force =     0.00000000    0.00000000    0.00166885
     atom    2 type  2   force =     0.00000000    0.00000000    0.00117674
     atom    3 type  2   force =    -0.00000000   -0.00000000    0.00001859
     atom    4 type  3   force =    -0.00000000   -0.00000000    0.00054457

     DFT-D3 dispersion contribution to forces:
     atom    1 type  1   force =     0.00000000   -0.00000000    0.00247843
     atom    2 type  2   force =    -0.00000000    0.00000000   -0.00075600
     atom    3 type  2   force =    -0.00000000    0.00000000    0.00275514
     atom    4 type  3   force =    -0.00000000   -0.00000000   -0.00447758

     Total force =     0.090587     Total SCF correction =     0.002113


     Computing stress (Cartesian axis) and pressure


     negative rho (up, down):  4.808E-05 4.652E-05
          total   stress  (Ry/bohr**3)                   (kbar)     P=      -37.35
  -0.00017459   0.00000000   0.00000000          -25.68        0.00        0.00
   0.00000000  -0.00017459  -0.00000000            0.00      -25.68       -0.00
   0.00000000  -0.00000000  -0.00041260            0.00       -0.00      -60.70

     Energy error            =      1.1E-02 Ry
     Gradient error          =      7.0E-02 Ry/Bohr

     number of scf cycles    =   9
     number of bfgs steps    =   8

     energy             old  =    -658.6410972987 Ry
     energy             new  =    -658.6525555413 Ry

     CASE: energy            _new < energy            _old


     WARNING: bfgs curvature condition failed, Theta= 0.258
     new trust radius        =       0.2630381623 bohr
     new conv_thr            =       0.0000006952 Ry


ATOMIC_POSITIONS (crystal)
Mo            0.0000000000        0.0000000000        0.3832765830
S             0.6666666667        0.3333333333        0.4581965146
S             0.6666666667        0.3333333333        0.3177452715
Co           -0.0000000000       -0.0000000000        0.5034440721



     Writing config-only to output data dir ./tmp/scf.save/
     NEW-OLD atomic charge density approx. for the potential

     negative rho (up, down):  4.625E-05 4.390E-05
     Generating pointlists ...
     new r_m :   0.2801 (alat units)  1.6753 (a.u.) for type    2
     new r_m :   0.2801 (alat units)  1.6753 (a.u.) for type    3

     total cpu time spent up to now is      568.6 secs

     Self-consistent Calculation

     iteration #  1     ecut=    70.00 Ry     beta= 0.70
     Davidson diagonalization with overlap
     c_bands:  1 eigenvalues not converged
     c_bands:  1 eigenvalues not converged
     c_bands:  1 eigenvalues not converged
     c_bands:  1 eigenvalues not converged
     c_bands:  3 eigenvalues not converged
     c_bands:  1 eigenvalues not converged
     c_bands:  2 eigenvalues not converged
     ethr =  1.00E-06,  avg # of iterations = 19.9

     negative rho (up, down):  4.968E-05 4.733E-05

     total cpu time spent up to now is      583.3 secs

     total energy              =    -658.55794290 Ry
     estimated scf accuracy    <       0.14074208 Ry

     total magnetization       =     1.00 Bohr mag/cell
     absolute magnetization    =     1.20 Bohr mag/cell

     iteration #  2     ecut=    70.00 Ry     beta= 0.70
     Davidson diagonalization with overlap
     ethr =  4.02E-04,  avg # of iterations = 11.4

     negative rho (up, down):  4.029E-05 3.877E-05

     total cpu time spent up to now is      591.1 secs

     total energy              =    -656.82028482 Ry
     estimated scf accuracy    <     113.56696317 Ry

     total magnetization       =     0.20 Bohr mag/cell
     absolute magnetization    =     0.25 Bohr mag/cell

     iteration #  3     ecut=    70.00 Ry     beta= 0.70
     Davidson diagonalization with overlap
     ethr =  4.02E-04,  avg # of iterations =  8.6

     negative rho (up, down):  3.127E-05 2.980E-05

     total cpu time spent up to now is      599.2 secs

     total energy              =    -658.63399302 Ry
     estimated scf accuracy    <       0.34106557 Ry

     total magnetization       =     0.95 Bohr mag/cell
     absolute magnetization    =     1.18 Bohr mag/cell

     iteration #  4     ecut=    70.00 Ry     beta= 0.70
     Davidson diagonalization with overlap
     ethr =  4.02E-04,  avg # of iterations =  2.2

     negative rho (up, down):  3.714E-05 3.505E-05

     total cpu time spent up to now is      604.6 secs

     total energy              =    -658.66917596 Ry
     estimated scf accuracy    <       0.01097502 Ry

     total magnetization       =     1.00 Bohr mag/cell
     absolute magnetization    =     1.16 Bohr mag/cell

     iteration #  5     ecut=    70.00 Ry     beta= 0.70
     Davidson diagonalization with overlap
     ethr =  3.14E-05,  avg # of iterations =  7.2

     negative rho (up, down):  5.298E-05 5.111E-05

     total cpu time spent up to now is      611.2 secs

     total energy              =    -658.66996050 Ry
     estimated scf accuracy    <       0.00771695 Ry

     total magnetization       =     1.00 Bohr mag/cell
     absolute magnetization    =     1.15 Bohr mag/cell

     iteration #  6     ecut=    70.00 Ry     beta= 0.70
     Davidson diagonalization with overlap
     ethr =  2.20E-05,  avg # of iterations =  2.5

     negative rho (up, down):  1.073E-04 1.075E-04

     total cpu time spent up to now is      617.4 secs

     total energy              =    -658.67054714 Ry
     estimated scf accuracy    <       0.00897186 Ry

     total magnetization       =     1.00 Bohr mag/cell
     absolute magnetization    =     1.14 Bohr mag/cell

     iteration #  7     ecut=    70.00 Ry     beta= 0.70
     Davidson diagonalization with overlap
     ethr =  2.20E-05,  avg # of iterations =  1.8

     negative rho (up, down):  1.369E-04 1.378E-04

     total cpu time spent up to now is      622.7 secs

     total energy              =    -658.67148249 Ry
     estimated scf accuracy    <       0.00123979 Ry

     total magnetization       =     1.00 Bohr mag/cell
     absolute magnetization    =     1.13 Bohr mag/cell

     iteration #  8     ecut=    70.00 Ry     beta= 0.70
     Davidson diagonalization with overlap
     ethr =  3.54E-06,  avg # of iterations =  2.7

     negative rho (up, down):  1.199E-04 1.203E-04

     total cpu time spent up to now is      628.1 secs

     total energy              =    -658.67160588 Ry
     estimated scf accuracy    <       0.00044333 Ry

     total magnetization       =     1.00 Bohr mag/cell
     absolute magnetization    =     1.12 Bohr mag/cell

     iteration #  9     ecut=    70.00 Ry     beta= 0.70
     Davidson diagonalization with overlap
     ethr =  1.27E-06,  avg # of iterations =  2.2

     negative rho (up, down):  5.290E-05 5.132E-05

     total cpu time spent up to now is      633.9 secs

     total energy              =    -658.67165949 Ry
     estimated scf accuracy    <       0.00004181 Ry

     total magnetization       =     1.00 Bohr mag/cell
     absolute magnetization    =     1.11 Bohr mag/cell

     iteration # 10     ecut=    70.00 Ry     beta= 0.70
     Davidson diagonalization with overlap
     ethr =  1.19E-07,  avg # of iterations =  5.3

     negative rho (up, down):  4.028E-05 3.853E-05

     total cpu time spent up to now is      639.9 secs

     total energy              =    -658.67167549 Ry
     estimated scf accuracy    <       0.00010095 Ry

     total magnetization       =     1.00 Bohr mag/cell
     absolute magnetization    =     1.10 Bohr mag/cell

     iteration # 11     ecut=    70.00 Ry     beta= 0.70
     Davidson diagonalization with overlap
     ethr =  1.19E-07,  avg # of iterations =  2.2

     negative rho (up, down):  4.728E-05 4.563E-05

     total cpu time spent up to now is      644.9 secs

     total energy              =    -658.67168895 Ry
     estimated scf accuracy    <       0.00007032 Ry

     total magnetization       =     0.99 Bohr mag/cell
     absolute magnetization    =     1.10 Bohr mag/cell

     iteration # 12     ecut=    70.00 Ry     beta= 0.70
     Davidson diagonalization with overlap
     ethr =  1.19E-07,  avg # of iterations =  1.0

     negative rho (up, down):  4.910E-05 4.747E-05

     total cpu time spent up to now is      650.1 secs

     total energy              =    -658.67169307 Ry
     estimated scf accuracy    <       0.00000077 Ry

     total magnetization       =     1.00 Bohr mag/cell
     absolute magnetization    =     1.10 Bohr mag/cell

     iteration # 13     ecut=    70.00 Ry     beta= 0.70
     Davidson diagonalization with overlap
     ethr =  2.20E-09,  avg # of iterations =  5.2

     negative rho (up, down):  4.929E-05 4.766E-05

     total cpu time spent up to now is      655.1 secs

     total energy              =    -658.67169378 Ry
     estimated scf accuracy    <       0.00000081 Ry

     total magnetization       =     0.99 Bohr mag/cell
     absolute magnetization    =     1.10 Bohr mag/cell

     iteration # 14     ecut=    70.00 Ry     beta= 0.70
     Davidson diagonalization with overlap
     ethr =  2.20E-09,  avg # of iterations =  1.0

     negative rho (up, down):  4.964E-05 4.802E-05
 
     Magnetic moment per site  (integrated on atomic sphere of radius R)
     atom   1 (R=0.314)  charge= 10.6975  magn=  0.0386
     atom   2 (R=0.280)  charge=  3.4086  magn=  0.0127
     atom   3 (R=0.280)  charge=  3.3261  magn=  0.0261
     atom   4 (R=0.280)  charge=  6.9443  magn=  0.8294

     total cpu time spent up to now is      658.9 secs

     End of self-consistent calculation

 ------ SPIN UP ------------


          k = 0.0000 0.0000 0.0000 ( 14351 PWs)   bands (ev):

   -61.4334 -35.6510 -35.2835 -35.2835 -15.8227 -14.0055  -7.1785  -4.7190
    -4.0111  -4.0111  -2.4069  -2.4069  -1.7402  -1.4943  -1.4943  -0.7800
    -0.7078  -0.7078   0.8373   2.0341   2.0341   2.2214

          k = 0.0000 0.0962 0.0000 ( 14357 PWs)   bands (ev):

   -61.4309 -35.6465 -35.3084 -35.2893 -15.7345 -13.9327  -7.0741  -4.6672
    -4.2630  -4.0386  -2.6407  -2.3738  -1.8326  -1.4826  -1.4813  -0.8530
    -0.7447  -0.7158   1.0825   1.7655   2.0091   2.0274

          k = 0.0000 0.1925 0.0000 ( 14400 PWs)   bands (ev):

   -61.4239 -35.6340 -35.3759 -35.3050 -15.4819 -13.7240  -6.7939  -4.9928
    -4.5046  -4.1282  -3.1469  -2.3355  -2.0265  -1.5572  -1.4140  -1.1391
    -0.7366  -0.5739   1.2068   1.5287   1.8317   2.0070

          k = 0.0000 0.2887 0.0000 ( 14448 PWs)   bands (ev):

   -61.4145 -35.6170 -35.4669 -35.3264 -15.1035 -13.4111  -6.4436  -5.8904
    -4.5742  -4.2762  -3.5729  -2.3819  -2.1728  -1.7044  -1.4240  -1.2775
    -0.5182  -0.4773   0.9068   1.6357   1.7507   2.5843

          k = 0.0000 0.3849 0.0000 ( 14480 PWs)   bands (ev):

   -61.4049 -35.6000 -35.5567 -35.3477 -14.6728 -13.0540  -6.8111  -6.1839
    -4.9324  -4.4415  -3.7530  -2.4870  -2.2835  -1.7187  -1.4736  -1.0965
    -0.5212  -0.1858   0.9770   1.5667   2.0283   2.7670

          k = 0.0000 0.4811 0.0000 ( 14494 PWs)   bands (ev):

   -61.3980 -35.6222 -35.5870 -35.3632 -14.3098 -12.7511  -7.5027  -6.1952
    -5.1674  -4.5679  -3.9050  -2.5793  -2.3616  -1.4713  -1.3339  -0.9151
    -0.6613   0.0033   1.2589   1.7016   2.0702   2.7358

          k = 0.0000-0.5774 0.0000 ( 14518 PWs)   bands (ev):

   -61.3954 -35.6457 -35.5825 -35.3689 -14.1631 -12.6277  -7.7685  -6.2689
    -5.2098  -4.6146  -3.9792  -2.6147  -2.3830  -1.3322  -1.1431  -0.8315
    -0.8108   0.0339   1.4232   1.8242   1.9653   2.6981

          k = 0.0833 0.1443 0.0000 ( 14400 PWs)   bands (ev):

   -61.4261 -35.6380 -35.3533 -35.3013 -15.5640 -13.7918  -6.8810  -4.7632
    -4.5321  -4.1179  -2.9862  -2.3855  -1.9445  -1.5273  -1.4510  -1.0212
    -0.7830  -0.6037   1.3296   1.4951   1.8361   1.8936

          k = 0.0833 0.2406 0.0000 ( 14456 PWs)   bands (ev):

   -61.4179 -35.6232 -35.4293 -35.3231 -15.2476 -13.5300  -6.5581  -5.4941
    -4.5183  -4.2972  -3.4328  -2.4528  -2.0798  -1.6303  -1.4373  -1.2256
    -0.6485  -0.4633   0.9528   1.6009   1.7071   2.2301

          k = 0.0833 0.3368 0.0000 ( 14475 PWs)   bands (ev):

   -61.4084 -35.6062 -35.5158 -35.3484 -14.8398 -13.1914  -6.3921  -6.2105
    -4.7658  -4.5430  -3.6609  -2.5483  -2.1965  -1.7366  -1.5456  -1.1376
    -0.4645  -0.3185   0.7866   1.5848   1.8806   2.7027

          k = 0.0833 0.4330 0.0000 ( 14478 PWs)   bands (ev):

   -61.4002 -35.5936 -35.5875 -35.3702 -14.4351 -12.8534  -7.1579  -6.0978
    -5.1339  -4.6932  -3.7930  -2.7364  -2.2292  -1.6235  -1.4837  -0.9381
    -0.5787  -0.0909   0.9359   1.7442   2.1326   2.6634

          k = 0.0833 0.5292 0.0000 ( 14500 PWs)   bands (ev):

   -61.3954 -35.6325 -35.5825 -35.3827 -14.1706 -12.6305  -7.6348  -6.1854
    -5.2560  -4.7663  -3.9189  -2.8639  -2.2393  -1.4208  -1.2821  -0.8297
    -0.6885  -0.0475   1.2937   1.8254   2.1952   2.4893

          k = 0.1667 0.2887 0.0000 ( 14482 PWs)   bands (ev):

   -61.4097 -35.6085 -35.4948 -35.3547 -14.8996 -13.2399  -6.2724  -6.0992
    -4.7298  -4.6540  -3.6165  -2.6217  -2.1616  -1.7216  -1.5763  -1.1334
    -0.4810  -0.3127   0.6737   1.6012   1.7479   2.6360

          k = 0.1667 0.3849 0.0000 ( 14494 PWs)   bands (ev):

   -61.4015 -35.5937 -35.5562 -35.3896 -14.5088 -12.9113  -6.7864  -5.9838
    -5.2335  -4.8647  -3.7174  -2.8904  -2.1371  -1.7318  -1.6231  -0.9229
    -0.5527  -0.0892   0.5799   1.7989   1.9564   2.7575

          k = 0.1667 0.4811 0.0000 ( 14497 PWs)   bands (ev):

   -61.3954 -35.6003 -35.5823 -35.4162 -14.1853 -12.6362  -7.3010  -5.9879
    -5.4981  -4.9820  -3.8498  -3.1739  -2.0800  -1.5790  -1.4894  -0.8413
    -0.5783  -0.0670   0.9030   1.8029   2.2108   2.6935

          k = 0.1667 0.5774 0.0000 ( 14512 PWs)   bands (ev):

   -61.3932 -35.6158 -35.5785 -35.4261 -14.0565 -12.5256  -7.5022  -6.0843
    -5.5255  -5.0033  -3.9202  -3.2858  -2.0691  -1.5072  -1.3254  -0.9615
    -0.4263  -0.1396   1.3194   1.6420   2.0984   2.7188

          k = 0.2500 0.4330 0.0000 ( 14510 PWs)   bands (ev):

   -61.3954 -35.5836 -35.5773 -35.4386 -14.1926 -12.6389  -7.0649  -5.8801
    -5.7217  -5.0467  -3.8829  -3.2426  -2.0143  -1.6417  -1.6055  -0.8524
    -0.5651   0.0344   0.6512   1.6777   2.2271   2.9223

          k = 0.2500 0.5292 0.0000 ( 14528 PWs)   bands (ev):

   -61.3919 -35.5823 -35.5761 -35.4756 -13.9943 -12.4654  -7.1912  -6.2320
    -5.6637  -5.1066  -4.0843  -3.4334  -1.9510  -1.5814  -1.4251  -1.0542
    -0.2868  -0.0355   1.0769   1.4572   2.0389   3.2424

          k = 0.3333 0.5774 0.0000 ( 14538 PWs)   bands (ev):

   -61.3907 -35.5740 -35.5497 -35.5232 -13.9226 -12.4002  -6.9499  -6.6285
    -5.5955  -5.1393  -4.2641  -3.4795  -1.9081  -1.5511  -1.3929  -1.1780
    -0.1087  -0.0075   1.2171   1.2344   1.9063   3.5960

 ------ SPIN DOWN ----------


          k = 0.0000 0.0000 0.0000 ( 14351 PWs)   bands (ev):

   -61.4019 -35.6185 -35.2474 -35.2474 -15.7958 -13.9662  -7.1175  -4.6476
    -3.6858  -3.6858  -2.3524  -2.3524  -1.5713  -0.9719  -0.9719  -0.3075
    -0.3075  -0.2651   1.0249   2.2586   2.2586   2.4744

          k = 0.0000 0.0962 0.0000 ( 14357 PWs)   bands (ev):

   -61.3993 -35.6140 -35.2723 -35.2531 -15.7073 -13.8931  -7.0121  -4.5977
    -3.9869  -3.7209  -2.5867  -2.3300  -1.5868  -0.9796  -0.9502  -0.5218
    -0.3334  -0.1772   1.2911   2.0800   2.1953   2.3099

          k = 0.0000 0.1925 0.0000 ( 14400 PWs)   bands (ev):

   -61.3924 -35.6016 -35.3398 -35.2689 -15.4538 -13.6839  -6.7284  -4.8167
    -4.4370  -3.8358  -3.0894  -2.2992  -1.6908  -1.0594  -0.8770  -0.8385
    -0.3290  -0.0012   1.5109   1.7990   2.1562   2.1700

          k = 0.0000 0.2887 0.0000 ( 14448 PWs)   bands (ev):

   -61.3829 -35.5846 -35.4309 -35.2903 -15.0737 -13.3704  -6.3702  -5.7747
    -4.5358  -4.0201  -3.5117  -2.3229  -1.8203  -1.3544  -0.9924  -0.6273
    -0.1374   0.1435   1.2656   1.8870   1.9680   2.7980

          k = 0.0000 0.3849 0.0000 ( 14480 PWs)   bands (ev):

   -61.3734 -35.5676 -35.5207 -35.3116 -14.6401 -13.0129  -6.7322  -6.1119
    -4.8914  -4.2174  -3.7026  -2.3988  -1.9881  -1.3698  -0.9278  -0.4089
     0.1736   0.2591   1.2659   1.8279   2.1233   2.9088

          k = 0.0000 0.4811 0.0000 ( 14494 PWs)   bands (ev):

   -61.3664 -35.5863 -35.5546 -35.3271 -14.2737 -12.7100  -7.4495  -6.1256
    -5.1096  -4.3633  -3.8598  -2.4738  -2.0751  -1.1396  -0.7078  -0.2182
     0.0959   0.5864   1.4621   1.8375   2.1403   2.8715

          k = 0.0000-0.5774 0.0000 ( 14518 PWs)   bands (ev):

   -61.3639 -35.6098 -35.5501 -35.3328 -14.1253 -12.5867  -7.7234  -6.2029
    -5.1429  -4.4165  -3.9336  -2.5039  -2.0929  -1.0052  -0.5027  -0.1340
    -0.0196   0.6784   1.5772   1.9042   2.0420   2.8336

          k = 0.0833 0.1443 0.0000 ( 14400 PWs)   bands (ev):

   -61.3946 -35.6055 -35.3172 -35.2652 -15.5362 -13.7518  -6.8166  -4.5996
    -4.4194  -3.8246  -2.9313  -2.3408  -1.6266  -1.0407  -0.9101  -0.7104
    -0.3825  -0.0442   1.6104   1.8446   1.9127   2.2518

          k = 0.0833 0.2406 0.0000 ( 14456 PWs)   bands (ev):

   -61.3864 -35.5908 -35.3932 -35.2870 -15.2186 -13.4895  -6.4883  -5.3514
    -4.4647  -4.0570  -3.3721  -2.3804  -1.7109  -1.2748  -0.9610  -0.6723
    -0.2793   0.1267   1.3720   1.7667   1.9301   2.5099

          k = 0.0833 0.3368 0.0000 ( 14475 PWs)   bands (ev):

   -61.3769 -35.5738 -35.4798 -35.3123 -14.8084 -13.1504  -6.2868  -6.1474
    -4.7229  -4.3454  -3.5973  -2.4722  -1.8374  -1.4548  -0.9799  -0.4734
     0.0496   0.2204   1.1813   1.7841   2.0115   2.8927

          k = 0.0833 0.4330 0.0000 ( 14478 PWs)   bands (ev):

   -61.3686 -35.5603 -35.5525 -35.3341 -14.4003 -12.8123  -7.0935  -6.0235
    -5.0778  -4.5204  -3.7411  -2.6575  -1.8865  -1.3152  -0.8692  -0.2399
     0.1532   0.4195   1.2264   1.8684   2.2308   2.8107

          k = 0.0833 0.5292 0.0000 ( 14500 PWs)   bands (ev):

   -61.3639 -35.5965 -35.5501 -35.3466 -14.1329 -12.5896  -7.5866  -6.1165
    -5.1850  -4.5992  -3.8744  -2.7854  -1.8802  -1.0930  -0.6612  -0.0747
     0.0402   0.5751   1.4496   1.9194   2.2945   2.6274

          k = 0.1667 0.2887 0.0000 ( 14482 PWs)   bands (ev):

   -61.3781 -35.5761 -35.4588 -35.3186 -14.8685 -13.1990  -6.1801  -6.0114
    -4.6200  -4.5450  -3.5521  -2.5445  -1.7475  -1.4966  -0.9807  -0.4876
    -0.0458   0.2624   1.1387   1.7543   1.8736   2.8808

          k = 0.1667 0.3849 0.0000 ( 14494 PWs)   bands (ev):

   -61.3699 -35.5614 -35.5203 -35.3535 -14.4747 -12.8702  -6.7072  -5.9060
    -5.1361  -4.7774  -3.6659  -2.8263  -1.7265  -1.4730  -0.9889  -0.2272
     0.1225   0.3760   0.9869   1.9351   2.0246   2.9247

          k = 0.1667 0.4811 0.0000 ( 14497 PWs)   bands (ev):

   -61.3639 -35.5644 -35.5499 -35.3801 -14.1480 -12.5951  -7.2436  -5.9096
    -5.4084  -4.8888  -3.8082  -3.1216  -1.6086  -1.2828  -0.8827  -0.0776
     0.1176   0.5088   1.1217   1.9428   2.3057   2.8048

          k = 0.1667 0.5774 0.0000 ( 14512 PWs)   bands (ev):

   -61.3617 -35.5798 -35.5462 -35.3901 -14.0178 -12.4846  -7.4522  -6.0093
    -5.4347  -4.9042  -3.8823  -3.2406  -1.5728  -1.1552  -0.7676  -0.1739
     0.2453   0.4976   1.4288   1.7976   2.2692   2.7894

          k = 0.2500 0.4330 0.0000 ( 14510 PWs)   bands (ev):

   -61.3639 -35.5509 -35.5416 -35.4025 -14.1555 -12.5979  -6.9986  -5.7986
    -5.6262  -4.9886  -3.8428  -3.1934  -1.5342  -1.3144  -1.0099  -0.0940
     0.1011   0.6085   0.9007   1.8449   2.2948   3.0287

          k = 0.2500 0.5292 0.0000 ( 14528 PWs)   bands (ev):

   -61.3604 -35.5466 -35.5435 -35.4395 -13.9549 -12.4244  -7.1311  -6.1581
    -5.5716  -5.0470  -4.0462  -3.4005  -1.3587  -1.1844  -0.9161  -0.2844
     0.2843   0.6547   1.2261   1.6176   2.1890   3.2998

          k = 0.3333 0.5774 0.0000 ( 14538 PWs)   bands (ev):

   -61.3591 -35.5417 -35.5137 -35.4872 -13.8823 -12.3593  -6.8674  -6.5853
    -5.4940  -5.0916  -4.2264  -3.4536  -1.2829  -1.0899  -0.9151  -0.4120
     0.3477   0.7953   1.2913   1.4109   2.0908   3.6201

     the Fermi energy is     0.1696 ev

!    total energy              =    -658.67169383 Ry
     total all-electron energy =    -12481.845585 Ry
     estimated scf accuracy    <          9.2E-09 Ry
     smearing contrib. (-TS)   =      -0.00127597 Ry
     internal energy E=F+TS    =    -658.67041786 Ry

     The total energy is F=E-TS. E is the sum of the following terms:
     one-electron contribution =   -2311.24004915 Ry
     hartree contribution      =    1166.89683913 Ry
     xc contribution           =     -62.36049954 Ry
     ewald contribution        =     954.22815121 Ry
     DFT-D3 Dispersion         =      -0.06482917 Ry
     one-center paw contrib.   =    -406.13003033 Ry

     total magnetization       =     0.99 Bohr mag/cell
     absolute magnetization    =     1.10 Bohr mag/cell

     convergence has been achieved in  14 iterations

     negative rho (up, down):  4.964E-05 4.802E-05

     Forces acting on atoms (cartesian axes, Ry/au):

     atom    1 type  1   force =     0.00000000    0.00000000    0.01638062
     atom    2 type  2   force =     0.00000000   -0.00000000   -0.01785515
     atom    3 type  2   force =     0.00000000    0.00000000    0.06096811
     atom    4 type  3   force =     0.00000000   -0.00000000   -0.05949358
     The non-local contrib.  to forces
     atom    1 type  1   force =     0.00000000   -0.00000000   -0.06441910
     atom    2 type  2   force =     0.00000000    0.00000000   -0.06826660
     atom    3 type  2   force =     0.00000000    0.00000000    0.29125764
     atom    4 type  3   force =     0.00000000    0.00000000    0.07667850
     The ionic contribution  to forces
     atom    1 type  1   force =     0.00000000    0.00000367  -39.35105674
     atom    2 type  2   force =    -0.00000000   -0.00000467   22.16607432
     atom    3 type  2   force =    -0.00000000   -0.00000221  -51.75199759
     atom    4 type  3   force =     0.00000000    0.00000322   68.93698001
     The local contribution  to forces
     atom    1 type  1   force =    -0.00000000   -0.00000227   39.42346131
     atom    2 type  2   force =    -0.00000000    0.00000334  -22.11791175
     atom    3 type  2   force =    -0.00000000    0.00000156   51.52182856
     atom    4 type  3   force =    -0.00000000   -0.00000171  -69.02778958
     The core correction contribution to forces
     atom    1 type  1   force =     0.00000000   -0.00000000    0.00492621
     atom    2 type  2   force =     0.00000000    0.00000000    0.00318947
     atom    3 type  2   force =     0.00000000    0.00000000   -0.00333770
     atom    4 type  3   force =    -0.00000000   -0.00000002   -0.03979916
     The Hubbard contrib.    to forces
     atom    1 type  1   force =     0.00000000    0.00000000    0.00000000
     atom    2 type  2   force =     0.00000000    0.00000000    0.00000000
     atom    3 type  2   force =     0.00000000    0.00000000    0.00000000
     atom    4 type  3   force =     0.00000000    0.00000000    0.00000000
     The SCF correction term to forces
     atom    1 type  1   force =    -0.00000000   -0.00000000    0.00015707
     atom    2 type  2   force =     0.00000000   -0.00000000   -0.00009142
     atom    3 type  2   force =     0.00000000    0.00000000    0.00015079
     atom    4 type  3   force =     0.00000000    0.00000000   -0.00026188

     DFT-D3 dispersion contribution to forces:
     atom    1 type  1   force =     0.00000000   -0.00000000    0.00325496
     atom    2 type  2   force =    -0.00000000    0.00000000   -0.00090608
     atom    3 type  2   force =    -0.00000000    0.00000000    0.00300949
     atom    4 type  3   force =     0.00000000   -0.00000000   -0.00535837

     Total force =     0.088565     Total SCF correction =     0.000353


     Computing stress (Cartesian axis) and pressure


     negative rho (up, down):  4.964E-05 4.802E-05
          total   stress  (Ry/bohr**3)                   (kbar)     P=      -30.62
  -0.00010962   0.00000000   0.00000000          -16.13        0.00        0.00
   0.00000000  -0.00010962   0.00000000            0.00      -16.13        0.00
   0.00000000   0.00000000  -0.00040520            0.00        0.00      -59.61

     Energy error            =      1.9E-02 Ry
     Gradient error          =      6.1E-02 Ry/Bohr

     number of scf cycles    =  10
     number of bfgs steps    =   9

     energy             old  =    -658.6525555413 Ry
     energy             new  =    -658.6716938295 Ry

     CASE: energy            _new < energy            _old

     new trust radius        =       0.3945572435 bohr
     new conv_thr            =       0.0000006097 Ry


ATOMIC_POSITIONS (crystal)
Mo            0.0000000000        0.0000000000        0.3846810700
S             0.6666666667        0.3333333333        0.4637969973
S             0.6666666667        0.3333333333        0.3190919299
Co           -0.0000000000       -0.0000000000        0.4950924440



     Writing config-only to output data dir ./tmp/scf.save/
     NEW-OLD atomic charge density approx. for the potential

     negative rho (up, down):  4.544E-05 4.287E-05
     Generating pointlists ...
     new r_m :   0.2591 (alat units)  1.5495 (a.u.) for type    2
     new r_m :   0.2591 (alat units)  1.5495 (a.u.) for type    3

     total cpu time spent up to now is      671.7 secs

     Self-consistent Calculation

     iteration #  1     ecut=    70.00 Ry     beta= 0.70
     Davidson diagonalization with overlap
     c_bands:  1 eigenvalues not converged
     c_bands:  1 eigenvalues not converged
     c_bands:  1 eigenvalues not converged
     c_bands:  1 eigenvalues not converged
     c_bands:  1 eigenvalues not converged
     c_bands:  1 eigenvalues not converged
     c_bands:  3 eigenvalues not converged
     ethr =  1.00E-06,  avg # of iterations = 22.5

     negative rho (up, down):  4.984E-05 4.767E-05

     total cpu time spent up to now is      684.4 secs

     total energy              =    -658.45828459 Ry
     estimated scf accuracy    <       0.24736937 Ry

     total magnetization       =     0.62 Bohr mag/cell
     absolute magnetization    =     0.74 Bohr mag/cell

     iteration #  2     ecut=    70.00 Ry     beta= 0.70
     Davidson diagonalization with overlap
     ethr =  7.07E-04,  avg # of iterations = 10.0

     negative rho (up, down):  4.419E-05 4.009E-05

     total cpu time spent up to now is      690.6 secs

     total energy              =    -656.41097769 Ry
     estimated scf accuracy    <     117.33390148 Ry

     total magnetization       =     0.05 Bohr mag/cell
     absolute magnetization    =     0.09 Bohr mag/cell

     iteration #  3     ecut=    70.00 Ry     beta= 0.70
     Davidson diagonalization with overlap
     ethr =  7.07E-04,  avg # of iterations =  9.0

     negative rho (up, down):  3.283E-05 3.128E-05

     total cpu time spent up to now is      696.5 secs

     total energy              =    -658.61700028 Ry
     estimated scf accuracy    <       0.71790261 Ry

     total magnetization       =     0.40 Bohr mag/cell
     absolute magnetization    =     0.56 Bohr mag/cell

     iteration #  4     ecut=    70.00 Ry     beta= 0.70
     Davidson diagonalization with overlap
     ethr =  7.07E-04,  avg # of iterations =  2.5

     negative rho (up, down):  3.712E-05 3.618E-05

     total cpu time spent up to now is      700.7 secs

     total energy              =    -658.66686717 Ry
     estimated scf accuracy    <       0.08783585 Ry

     total magnetization       =     0.39 Bohr mag/cell
     absolute magnetization    =     0.54 Bohr mag/cell

     iteration #  5     ecut=    70.00 Ry     beta= 0.70
     Davidson diagonalization with overlap
     ethr =  2.51E-04,  avg # of iterations =  2.6

     negative rho (up, down):  4.071E-04 4.059E-04

     total cpu time spent up to now is      704.7 secs

     total energy              =    -658.66487709 Ry
     estimated scf accuracy    <       0.12063256 Ry

     total magnetization       =     0.29 Bohr mag/cell
     absolute magnetization    =     0.44 Bohr mag/cell

     iteration #  6     ecut=    70.00 Ry     beta= 0.70
     Davidson diagonalization with overlap
     ethr =  2.51E-04,  avg # of iterations =  1.6

     negative rho (up, down):  1.079E-03 1.075E-03

     total cpu time spent up to now is      709.0 secs

     total energy              =    -658.67113881 Ry
     estimated scf accuracy    <       0.02097535 Ry

     total magnetization       =     0.38 Bohr mag/cell
     absolute magnetization    =     0.48 Bohr mag/cell

     iteration #  7     ecut=    70.00 Ry     beta= 0.70
     Davidson diagonalization with overlap
     ethr =  5.99E-05,  avg # of iterations =  3.8

     negative rho (up, down):  8.089E-04 8.066E-04

     total cpu time spent up to now is      713.2 secs

     total energy              =    -658.67224254 Ry
     estimated scf accuracy    <       0.00800434 Ry

     total magnetization       =     0.33 Bohr mag/cell
     absolute magnetization    =     0.40 Bohr mag/cell

     iteration #  8     ecut=    70.00 Ry     beta= 0.70
     Davidson diagonalization with overlap
     ethr =  2.29E-05,  avg # of iterations =  2.4

     negative rho (up, down):  3.495E-04 3.502E-04

     total cpu time spent up to now is      717.7 secs

     total energy              =    -658.67230260 Ry
     estimated scf accuracy    <       0.00289730 Ry

     total magnetization       =     0.31 Bohr mag/cell
     absolute magnetization    =     0.37 Bohr mag/cell

     iteration #  9     ecut=    70.00 Ry     beta= 0.70
     Davidson diagonalization with overlap
     ethr =  8.28E-06,  avg # of iterations =  2.6

     negative rho (up, down):  4.235E-05 4.149E-05

     total cpu time spent up to now is      721.6 secs

     total energy              =    -658.67247415 Ry
     estimated scf accuracy    <       0.00020937 Ry

     total magnetization       =     0.27 Bohr mag/cell
     absolute magnetization    =     0.31 Bohr mag/cell

     iteration # 10     ecut=    70.00 Ry     beta= 0.70
     Davidson diagonalization with overlap
     ethr =  5.98E-07,  avg # of iterations =  5.1

     negative rho (up, down):  3.759E-05 3.658E-05

     total cpu time spent up to now is      726.7 secs

     total energy              =    -658.67263093 Ry
     estimated scf accuracy    <       0.00051554 Ry

     total magnetization       =     0.20 Bohr mag/cell
     absolute magnetization    =     0.23 Bohr mag/cell

     iteration # 11     ecut=    70.00 Ry     beta= 0.70
     Davidson diagonalization with overlap
     ethr =  5.98E-07,  avg # of iterations =  2.6

     negative rho (up, down):  4.607E-05 4.557E-05

     total cpu time spent up to now is      730.7 secs

     total energy              =    -658.67264805 Ry
     estimated scf accuracy    <       0.00070407 Ry

     total magnetization       =     0.13 Bohr mag/cell
     absolute magnetization    =     0.15 Bohr mag/cell

     iteration # 12     ecut=    70.00 Ry     beta= 0.70
     Davidson diagonalization with overlap
     ethr =  5.98E-07,  avg # of iterations =  2.3

     negative rho (up, down):  4.745E-05 4.717E-05

     total cpu time spent up to now is      734.8 secs

     total energy              =    -658.67271877 Ry
     estimated scf accuracy    <       0.00001115 Ry

     total magnetization       =     0.07 Bohr mag/cell
     absolute magnetization    =     0.08 Bohr mag/cell

     iteration # 13     ecut=    70.00 Ry     beta= 0.70
     Davidson diagonalization with overlap
     ethr =  3.18E-08,  avg # of iterations =  5.5

     negative rho (up, down):  4.895E-05 4.883E-05

     total cpu time spent up to now is      740.2 secs

     total energy              =    -658.67278365 Ry
     estimated scf accuracy    <       0.00000777 Ry

     total magnetization       =     0.01 Bohr mag/cell
     absolute magnetization    =     0.02 Bohr mag/cell

     iteration # 14     ecut=    70.00 Ry     beta= 0.70
     Davidson diagonalization with overlap
     ethr =  2.22E-08,  avg # of iterations =  2.5

     negative rho (up, down):  4.999E-05 4.998E-05
 
     Magnetic moment per site  (integrated on atomic sphere of radius R)
     atom   1 (R=0.314)  charge= 10.6962  magn=  0.0010
     atom   2 (R=0.259)  charge=  2.9522  magn= -0.0002
     atom   3 (R=0.259)  charge=  2.8171  magn= -0.0002
     atom   4 (R=0.259)  charge=  6.6872  magn=  0.0001

     total cpu time spent up to now is      744.0 secs

     End of self-consistent calculation

 ------ SPIN UP ------------


          k = 0.0000 0.0000 0.0000 ( 14351 PWs)   bands (ev):

   -61.3650 -35.5888 -35.2074 -35.2074 -16.2827 -14.0276  -7.3800  -5.3843
    -5.3843  -4.8889  -2.3723  -2.3723  -1.9164  -1.9164  -1.7050  -0.6929
    -0.3752  -0.3752   2.2311   2.2794   2.2794   2.8509

          k = 0.0000 0.0962 0.0000 ( 14357 PWs)   bands (ev):

   -61.3624 -35.5843 -35.2320 -35.2131 -16.1967 -13.9519  -7.2843  -5.5566
    -5.3698  -4.8174  -2.5989  -2.3524  -2.0877  -1.9041  -1.6031  -0.6432
    -0.5282  -0.4094   2.0709   2.3196   2.4133   2.4600

          k = 0.0000 0.1925 0.0000 ( 14400 PWs)   bands (ev):

   -61.3556 -35.5723 -35.2987 -35.2287 -15.9512 -13.7355  -7.0322  -6.0176
    -5.3368  -4.6558  -3.1155  -2.3658  -2.3538  -1.8492  -1.5577  -0.9509
    -0.4670  -0.3853   1.6524   1.9139   2.2062   2.7188

          k = 0.0000 0.2887 0.0000 ( 14448 PWs)   bands (ev):

   -61.3461 -35.5557 -35.3888 -35.2499 -15.5855 -13.4126  -6.8836  -6.4734
    -5.3087  -4.6286  -3.6142  -2.5777  -2.4269  -1.7662  -1.6610  -1.3116
    -0.3942  -0.1278   1.2082   1.8750   1.8788   2.7555

          k = 0.0000 0.3849 0.0000 ( 14480 PWs)   bands (ev):

   -61.3367 -35.5393 -35.4776 -35.2711 -15.1738 -13.0467  -7.4465  -6.3187
    -5.3018  -4.9413  -3.8364  -2.6567  -2.5336  -1.8597  -1.6487  -1.3124
    -0.5900   0.2537   1.1594   1.6266   1.9977   2.7110

          k = 0.0000 0.4811 0.0000 ( 14494 PWs)   bands (ev):

   -61.3298 -35.5430 -35.5260 -35.2865 -14.8317 -12.7392  -7.9711  -6.2974
    -5.3106  -5.1833  -3.9745  -2.6217  -2.5952  -1.8991  -1.4997  -1.1801
    -0.9069   0.4049   1.3356   1.6997   2.0074   2.5958

          k = 0.0000-0.5774 0.0000 ( 14518 PWs)   bands (ev):

   -61.3273 -35.5659 -35.5220 -35.2921 -14.6950 -12.6150  -8.1766  -6.3596
    -5.3166  -5.2256  -4.0412  -2.6552  -2.5332  -1.7772  -1.4226  -1.3731
    -0.9059   0.3793   1.4312   1.8582   1.9860   2.5094

          k = 0.0833 0.1443 0.0000 ( 14400 PWs)   bands (ev):

   -61.3577 -35.5761 -35.2764 -35.2250 -16.0309 -13.8057  -7.1084  -5.8615
    -5.3619  -4.6962  -2.9450  -2.4055  -2.2494  -1.8962  -1.5408  -0.8010
    -0.5471  -0.3968   1.8405   1.9873   2.2067   2.6301

          k = 0.0833 0.2406 0.0000 ( 14456 PWs)   bands (ev):

   -61.3496 -35.5618 -35.3516 -35.2467 -15.7245 -13.5352  -6.8461  -6.3495
    -5.3668  -4.5838  -3.4310  -2.5406  -2.4196  -1.8884  -1.5487  -1.1823
    -0.4070  -0.2344   1.3270   1.8062   1.9379   2.7061

          k = 0.0833 0.3368 0.0000 ( 14475 PWs)   bands (ev):

   -61.3402 -35.5452 -35.4371 -35.2717 -15.3330 -13.1874  -7.1252  -6.3795
    -5.3963  -4.7702  -3.7278  -2.6724  -2.5540  -1.8565  -1.6519  -1.3756
    -0.4818   0.1090   1.0371   1.6621   1.9615   2.7080

          k = 0.0833 0.4330 0.0000 ( 14478 PWs)   bands (ev):

   -61.3320 -35.5313 -35.5099 -35.2934 -14.9495 -12.8430  -7.6938  -6.2268
    -5.4610  -5.0814  -3.8631  -2.8311  -2.5528  -1.8891  -1.5563  -1.2678
    -0.8308   0.3425   1.0841   1.7454   2.0943   2.5378

          k = 0.0833 0.5292 0.0000 ( 14500 PWs)   bands (ev):

   -61.3273 -35.5528 -35.5220 -35.3058 -14.7026 -12.6181  -8.0555  -6.2859
    -5.4901  -5.1853  -3.9780  -2.9048  -2.4955  -1.8352  -1.4555  -1.2394
    -0.9923   0.2995   1.3653   1.8687   2.0612   2.4060

          k = 0.1667 0.2887 0.0000 ( 14482 PWs)   bands (ev):

   -61.3414 -35.5474 -35.4164 -35.2780 -15.3902 -13.2372  -6.9485  -6.4143
    -5.4888  -4.6908  -3.6561  -2.6863  -2.6028  -1.9346  -1.5824  -1.3927
    -0.4535   0.0666   0.9558   1.6816   1.8717   2.7145

          k = 0.1667 0.3849 0.0000 ( 14494 PWs)   bands (ev):

   -61.3333 -35.5332 -35.4772 -35.3125 -15.0195 -12.9021  -7.3921  -6.1840
    -5.6809  -4.9831  -3.7535  -3.0145  -2.5786  -1.8646  -1.6307  -1.3748
    -0.8028   0.3393   0.7690   1.8144   2.0118   2.6301

          k = 0.1667 0.4811 0.0000 ( 14497 PWs)   bands (ev):

   -61.3273 -35.5244 -35.5184 -35.3390 -14.7176 -12.6241  -7.7590  -6.1695
    -5.7844  -5.1560  -3.8819  -3.2457  -2.5475  -1.8369  -1.4839  -1.2607
    -1.0499   0.2467   1.0370   1.7522   2.1736   2.5968

          k = 0.1667 0.5774 0.0000 ( 14512 PWs)   bands (ev):

   -61.3251 -35.5362 -35.5182 -35.3488 -14.5989 -12.5133  -7.9015  -6.2566
    -5.7727  -5.1875  -3.9568  -3.3189  -2.5232  -1.8049  -1.6006  -1.1480
    -0.9587   0.1224   1.4212   1.5698   1.9685   2.7342

          k = 0.2500 0.4330 0.0000 ( 14510 PWs)   bands (ev):

   -61.3273 -35.5226 -35.4986 -35.3611 -14.7250 -12.6271  -7.5586  -6.2394
    -5.8371  -5.1397  -3.8968  -3.3437  -2.5791  -1.8088  -1.5325  -1.3564
    -1.0129   0.3081   0.7963   1.6346   2.2331   2.8005

          k = 0.2500 0.5292 0.0000 ( 14528 PWs)   bands (ev):

   -61.3238 -35.5162 -35.5026 -35.3978 -14.5432 -12.4533  -7.6076  -6.5225
    -5.7667  -5.1789  -4.1197  -3.4760  -2.5953  -1.8227  -1.6347  -1.2522
    -0.7256   0.0752   1.0976   1.4261   1.9420   3.2217

          k = 0.3333 0.5774 0.0000 ( 14538 PWs)   bands (ev):

   -61.3225 -35.5138 -35.4697 -35.4459 -14.4785 -12.3885  -7.4085  -6.8394
    -5.7043  -5.1457  -4.3261  -3.5066  -2.6294  -1.8521  -1.6860  -1.2147
    -0.4088  -0.0962   1.0533   1.3811   1.7562   3.5616

 ------ SPIN DOWN ----------


          k = 0.0000 0.0000 0.0000 ( 14351 PWs)   bands (ev):

   -61.3634 -35.5872 -35.2056 -35.2056 -16.2838 -14.0285  -7.3807  -5.3855
    -5.3855  -4.8890  -2.3720  -2.3720  -1.9166  -1.9166  -1.7053  -0.6937
    -0.3738  -0.3738   2.2304   2.2793   2.2793   2.8500

          k = 0.0000 0.0962 0.0000 ( 14357 PWs)   bands (ev):

   -61.3609 -35.5828 -35.2302 -35.2113 -16.1978 -13.9528  -7.2849  -5.5577
    -5.3710  -4.8175  -2.5987  -2.3522  -2.0880  -1.9042  -1.6033  -0.6438
    -0.5271  -0.4080   2.0710   2.3196   2.4125   2.4593

          k = 0.0000 0.1925 0.0000 ( 14400 PWs)   bands (ev):

   -61.3540 -35.5707 -35.2969 -35.2269 -15.9523 -13.7364  -7.0329  -6.0186
    -5.3379  -4.6559  -3.1154  -2.3662  -2.3537  -1.8495  -1.5577  -0.9502
    -0.4678  -0.3838   1.6523   1.9139   2.2059   2.7186

          k = 0.0000 0.2887 0.0000 ( 14448 PWs)   bands (ev):

   -61.3446 -35.5541 -35.3870 -35.2482 -15.5867 -13.4136  -6.8845  -6.4741
    -5.3097  -4.6287  -3.6144  -2.5782  -2.4269  -1.7668  -1.6610  -1.3111
    -0.3951  -0.1264   1.2081   1.8755   1.8787   2.7557

          k = 0.0000 0.3849 0.0000 ( 14480 PWs)   bands (ev):

   -61.3352 -35.5377 -35.4758 -35.2693 -15.1749 -13.0477  -7.4474  -6.3193
    -5.3027  -4.9418  -3.8365  -2.6573  -2.5336  -1.8598  -1.6495  -1.3121
    -0.5911   0.2545   1.1596   1.6271   1.9984   2.7114

          k = 0.0000 0.4811 0.0000 ( 14494 PWs)   bands (ev):

   -61.3283 -35.5413 -35.5244 -35.2847 -14.8328 -12.7401  -7.9720  -6.2977
    -5.3114  -5.1840  -3.9745  -2.6218  -2.5956  -1.8994  -1.5007  -1.1805
    -0.9076   0.4048   1.3358   1.7013   2.0083   2.5962

          k = 0.0000-0.5774 0.0000 ( 14518 PWs)   bands (ev):

   -61.3257 -35.5641 -35.5205 -35.2903 -14.6962 -12.6160  -8.1775  -6.3599
    -5.3175  -5.2264  -4.0410  -2.6553  -2.5334  -1.7776  -1.4237  -1.3742
    -0.9061   0.3790   1.4311   1.8601   1.9872   2.5098

          k = 0.0833 0.1443 0.0000 ( 14400 PWs)   bands (ev):

   -61.3562 -35.5745 -35.2746 -35.2233 -16.0320 -13.8066  -7.1091  -5.8626
    -5.3630  -4.6963  -2.9448  -2.4054  -2.2498  -1.8965  -1.5408  -0.8001
    -0.5475  -0.3958   1.8405   1.9871   2.2063   2.6295

          k = 0.0833 0.2406 0.0000 ( 14456 PWs)   bands (ev):

   -61.3481 -35.5602 -35.3498 -35.2449 -15.7256 -13.5361  -6.8468  -6.3504
    -5.3678  -4.5839  -3.4311  -2.5409  -2.4199  -1.8889  -1.5488  -1.1817
    -0.4076  -0.2333   1.3267   1.8066   1.9379   2.7060

          k = 0.0833 0.3368 0.0000 ( 14475 PWs)   bands (ev):

   -61.3386 -35.5437 -35.4353 -35.2699 -15.3341 -13.1883  -7.1262  -6.3801
    -5.3972  -4.7704  -3.7280  -2.6728  -2.5543  -1.8569  -1.6521  -1.3752
    -0.4829   0.1100   1.0372   1.6625   1.9621   2.7083

          k = 0.0833 0.4330 0.0000 ( 14478 PWs)   bands (ev):

   -61.3305 -35.5297 -35.5081 -35.2916 -14.9507 -12.8439  -7.6948  -6.2273
    -5.4619  -5.0820  -3.8632  -2.8314  -2.5534  -1.8892  -1.5571  -1.2677
    -0.8319   0.3426   1.0845   1.7465   2.0949   2.5383

          k = 0.0833 0.5292 0.0000 ( 14500 PWs)   bands (ev):

   -61.3257 -35.5511 -35.5204 -35.3040 -14.7038 -12.6190  -8.0564  -6.2862
    -5.4909  -5.1861  -3.9779  -2.9050  -2.4961  -1.8355  -1.4565  -1.2402
    -0.9924   0.2992   1.3659   1.8700   2.0621   2.4066

          k = 0.1667 0.2887 0.0000 ( 14482 PWs)   bands (ev):

   -61.3399 -35.5459 -35.4146 -35.2762 -15.3913 -13.2381  -6.9495  -6.4150
    -5.4897  -4.6909  -3.6562  -2.6866  -2.6034  -1.9350  -1.5825  -1.3923
    -0.4545   0.0675   0.9557   1.6820   1.8725   2.7148

          k = 0.1667 0.3849 0.0000 ( 14494 PWs)   bands (ev):

   -61.3317 -35.5316 -35.4754 -35.3108 -15.0206 -12.9030  -7.3931  -6.1846
    -5.6817  -4.9835  -3.7536  -3.0150  -2.5794  -1.8648  -1.6307  -1.3748
    -0.8038   0.3395   0.7692   1.8155   2.0125   2.6306

          k = 0.1667 0.4811 0.0000 ( 14497 PWs)   bands (ev):

   -61.3257 -35.5227 -35.5167 -35.3372 -14.7187 -12.6251  -7.7598  -6.1701
    -5.7851  -5.1567  -3.8820  -3.2460  -2.5485  -1.8371  -1.4846  -1.2605
    -1.0506   0.2464   1.0378   1.7530   2.1746   2.5975

          k = 0.1667 0.5774 0.0000 ( 14512 PWs)   bands (ev):

   -61.3235 -35.5345 -35.5166 -35.3470 -14.6001 -12.5142  -7.9024  -6.2571
    -5.7734  -5.1883  -3.9568  -3.3191  -2.5242  -1.8052  -1.6014  -1.1478
    -0.9596   0.1221   1.4222   1.5705   1.9696   2.7348

          k = 0.2500 0.4330 0.0000 ( 14510 PWs)   bands (ev):

   -61.3257 -35.5210 -35.4968 -35.3593 -14.7262 -12.6280  -7.5595  -6.2402
    -5.8377  -5.1402  -3.8969  -3.3441  -2.5802  -1.8091  -1.5324  -1.3567
    -1.0137   0.3078   0.7971   1.6353   2.2343   2.8011

          k = 0.2500 0.5292 0.0000 ( 14528 PWs)   bands (ev):

   -61.3223 -35.5146 -35.5008 -35.3960 -14.5444 -12.4543  -7.6085  -6.5233
    -5.7673  -5.1794  -4.1201  -3.4762  -2.5966  -1.8234  -1.6351  -1.2516
    -0.7263   0.0747   1.0985   1.4269   1.9432   3.2223

          k = 0.3333 0.5774 0.0000 ( 14538 PWs)   bands (ev):

   -61.3210 -35.5123 -35.4680 -35.4441 -14.4797 -12.3894  -7.4093  -6.8403
    -5.7049  -5.1460  -4.3268  -3.5067  -2.6307  -1.8531  -1.6859  -1.2141
    -0.4090  -0.0974   1.0544   1.3821   1.7571   3.5623

     the Fermi energy is     0.1660 ev

!    total energy              =    -658.67278795 Ry
     total all-electron energy =    -12481.846679 Ry
     estimated scf accuracy    <       0.00000057 Ry
     smearing contrib. (-TS)   =      -0.00098506 Ry
     internal energy E=F+TS    =    -658.67180288 Ry

     The total energy is F=E-TS. E is the sum of the following terms:
     one-electron contribution =   -2363.98873550 Ry
     hartree contribution      =    1193.04257014 Ry
     xc contribution           =     -62.50992462 Ry
     ewald contribution        =     981.00562624 Ry
     DFT-D3 Dispersion         =      -0.06746185 Ry
     one-center paw contrib.   =    -406.15387730 Ry

     total magnetization       =     0.00 Bohr mag/cell
     absolute magnetization    =     0.00 Bohr mag/cell

     convergence has been achieved in  14 iterations

     negative rho (up, down):  4.999E-05 4.998E-05

     Forces acting on atoms (cartesian axes, Ry/au):

     atom    1 type  1   force =     0.00000000    0.00000000   -0.01333665
     atom    2 type  2   force =     0.00000000    0.00000000   -0.10050187
     atom    3 type  2   force =     0.00000000    0.00000000    0.06858775
     atom    4 type  3   force =     0.00000000   -0.00000000    0.04525077
     The non-local contrib.  to forces
     atom    1 type  1   force =     0.00000000    0.00000000   -0.08167914
     atom    2 type  2   force =     0.00000000    0.00000000   -0.18053080
     atom    3 type  2   force =     0.00000000    0.00000000    0.28879726
     atom    4 type  3   force =     0.00000000    0.00000000    0.03939728
     The ionic contribution  to forces
     atom    1 type  1   force =     0.00000000    0.00000341  -40.56381443
     atom    2 type  2   force =    -0.00000000   -0.00000627   24.90467152
     atom    3 type  2   force =    -0.00000000   -0.00000221  -52.04800344
     atom    4 type  3   force =     0.00000000    0.00000507   67.70714636
     The local contribution  to forces
     atom    1 type  1   force =    -0.00000000   -0.00000213   40.62006850
     atom    2 type  2   force =    -0.00000000    0.00000438  -24.83157798
     atom    3 type  2   force =    -0.00000000    0.00000156   51.82612519
     atom    4 type  3   force =    -0.00000000   -0.00000248  -67.65470157
     The core correction contribution to forces
     atom    1 type  1   force =     0.00000000   -0.00000000    0.00549555
     atom    2 type  2   force =     0.00000000    0.00000000    0.00806433
     atom    3 type  2   force =     0.00000000    0.00000000   -0.00332003
     atom    4 type  3   force =    -0.00000000   -0.00000003   -0.03984880
     The Hubbard contrib.    to forces
     atom    1 type  1   force =     0.00000000    0.00000000    0.00000000
     atom    2 type  2   force =     0.00000000    0.00000000    0.00000000
     atom    3 type  2   force =     0.00000000    0.00000000    0.00000000
     atom    4 type  3   force =     0.00000000    0.00000000    0.00000000
     The SCF correction term to forces
     atom    1 type  1   force =    -0.00000000    0.00000000    0.00158845
     atom    2 type  2   force =    -0.00000000   -0.00000000    0.00000755
     atom    3 type  2   force =     0.00000000   -0.00000000    0.00144623
     atom    4 type  3   force =     0.00000000   -0.00000000    0.00015238

     DFT-D3 dispersion contribution to forces:
     atom    1 type  1   force =     0.00000000   -0.00000000    0.00487553
     atom    2 type  2   force =    -0.00000000    0.00000000   -0.00126539
     atom    3 type  2   force =    -0.00000000    0.00000000    0.00341365
     atom    4 type  3   force =     0.00000000   -0.00000000   -0.00702378

     Total force =     0.130501     Total SCF correction =     0.002154


     Computing stress (Cartesian axis) and pressure


     negative rho (up, down):  4.999E-05 4.998E-05
          total   stress  (Ry/bohr**3)                   (kbar)     P=       -4.24
   0.00007794   0.00000000   0.00000000           11.47        0.00        0.00
   0.00000000   0.00007794   0.00000000            0.00       11.47        0.00
   0.00000000   0.00000000  -0.00024244            0.00        0.00      -35.66

     Energy error            =      1.1E-03 Ry
     Gradient error          =      1.0E-01 Ry/Bohr

     number of scf cycles    =  11
     number of bfgs steps    =  10

     energy             old  =    -658.6716938295 Ry
     energy             new  =    -658.6727879474 Ry

     CASE: energy            _new < energy            _old

     new trust radius        =       0.2324733780 bohr
     new conv_thr            =       0.0000001094 Ry


ATOMIC_POSITIONS (crystal)
Mo            0.0000000000        0.0000000000        0.3837361268
S             0.6666666667        0.3333333333        0.4598760195
S             0.6666666667        0.3333333333        0.3190370664
Co           -0.0000000000       -0.0000000000        0.5000132285



     Writing config-only to output data dir ./tmp/scf.save/
     NEW-OLD atomic charge density approx. for the potential

     negative rho (up, down):  4.795E-05 4.794E-05
     Generating pointlists ...

     total cpu time spent up to now is      756.6 secs

     Self-consistent Calculation

     iteration #  1     ecut=    70.00 Ry     beta= 0.70
     Davidson diagonalization with overlap
     c_bands:  1 eigenvalues not converged
     c_bands:  1 eigenvalues not converged
     c_bands:  3 eigenvalues not converged
     c_bands:  1 eigenvalues not converged
     c_bands:  4 eigenvalues not converged
     c_bands:  1 eigenvalues not converged
     c_bands:  1 eigenvalues not converged
     c_bands:  1 eigenvalues not converged
     c_bands:  2 eigenvalues not converged
     c_bands:  1 eigenvalues not converged
     c_bands:  4 eigenvalues not converged
     c_bands:  1 eigenvalues not converged
     ethr =  1.00E-06,  avg # of iterations = 18.0

     negative rho (up, down):  4.840E-05 4.839E-05

     total cpu time spent up to now is      764.9 secs

     total energy              =    -658.48611653 Ry
     estimated scf accuracy    <       0.22971133 Ry

     total magnetization       =     0.00 Bohr mag/cell
     absolute magnetization    =     0.00 Bohr mag/cell

     iteration #  2     ecut=    70.00 Ry     beta= 0.70
     Davidson diagonalization with overlap
     ethr =  6.56E-04,  avg # of iterations = 10.3

     negative rho (up, down):  4.645E-05 4.651E-05

     total cpu time spent up to now is      771.1 secs

     total energy              =    -656.48740752 Ry
     estimated scf accuracy    <     124.73645244 Ry

     total magnetization       =     0.00 Bohr mag/cell
     absolute magnetization    =     0.00 Bohr mag/cell

     iteration #  3     ecut=    70.00 Ry     beta= 0.70
     Davidson diagonalization with overlap
     ethr =  6.56E-04,  avg # of iterations =  9.0

     negative rho (up, down):  3.868E-05 3.875E-05

     total cpu time spent up to now is      776.0 secs

     total energy              =    -658.63281123 Ry
     estimated scf accuracy    <       0.50439917 Ry

     total magnetization       =     0.00 Bohr mag/cell
     absolute magnetization    =     0.01 Bohr mag/cell

     iteration #  4     ecut=    70.00 Ry     beta= 0.70
     Davidson diagonalization with overlap
     ethr =  6.56E-04,  avg # of iterations =  2.2

     negative rho (up, down):  3.720E-05 3.733E-05

     total cpu time spent up to now is      780.1 secs

     total energy              =    -658.67731492 Ry
     estimated scf accuracy    <       0.02937572 Ry

     total magnetization       =     0.00 Bohr mag/cell
     absolute magnetization    =     0.00 Bohr mag/cell

     iteration #  5     ecut=    70.00 Ry     beta= 0.70
     Davidson diagonalization with overlap
     ethr =  8.39E-05,  avg # of iterations =  2.6

     negative rho (up, down):  3.979E-05 3.996E-05

     total cpu time spent up to now is      784.2 secs

     total energy              =    -658.68225785 Ry
     estimated scf accuracy    <       0.01067329 Ry

     total magnetization       =     0.00 Bohr mag/cell
     absolute magnetization    =     0.00 Bohr mag/cell

     iteration #  6     ecut=    70.00 Ry     beta= 0.70
     Davidson diagonalization with overlap
     ethr =  3.05E-05,  avg # of iterations =  2.1

     negative rho (up, down):  4.506E-05 4.519E-05

     total cpu time spent up to now is      788.1 secs

     total energy              =    -658.68308126 Ry
     estimated scf accuracy    <       0.00184149 Ry

     total magnetization       =     0.00 Bohr mag/cell
     absolute magnetization    =     0.00 Bohr mag/cell

     iteration #  7     ecut=    70.00 Ry     beta= 0.70
     Davidson diagonalization with overlap
     ethr =  5.26E-06,  avg # of iterations =  6.2

     negative rho (up, down):  5.364E-05 5.359E-05

     total cpu time spent up to now is      792.7 secs

     total energy              =    -658.68337379 Ry
     estimated scf accuracy    <       0.00038797 Ry

     total magnetization       =    -0.00 Bohr mag/cell
     absolute magnetization    =     0.00 Bohr mag/cell

     iteration #  8     ecut=    70.00 Ry     beta= 0.70
     Davidson diagonalization with overlap
     ethr =  1.11E-06,  avg # of iterations =  2.9

     negative rho (up, down):  5.543E-05 5.533E-05

     total cpu time spent up to now is      796.6 secs

     total energy              =    -658.68339817 Ry
     estimated scf accuracy    <       0.00021876 Ry

     total magnetization       =    -0.00 Bohr mag/cell
     absolute magnetization    =     0.00 Bohr mag/cell

     iteration #  9     ecut=    70.00 Ry     beta= 0.70
     Davidson diagonalization with overlap
     ethr =  6.25E-07,  avg # of iterations =  1.1

     negative rho (up, down):  5.174E-05 5.170E-05

     total cpu time spent up to now is      800.3 secs

     total energy              =    -658.68340253 Ry
     estimated scf accuracy    <       0.00003584 Ry

     total magnetization       =    -0.00 Bohr mag/cell
     absolute magnetization    =     0.00 Bohr mag/cell

     iteration # 10     ecut=    70.00 Ry     beta= 0.70
     Davidson diagonalization with overlap
     ethr =  1.02E-07,  avg # of iterations =  2.8

     negative rho (up, down):  4.986E-05 4.985E-05

     total cpu time spent up to now is      804.2 secs

     total energy              =    -658.68340492 Ry
     estimated scf accuracy    <       0.00000389 Ry

     total magnetization       =    -0.00 Bohr mag/cell
     absolute magnetization    =     0.00 Bohr mag/cell

     iteration # 11     ecut=    70.00 Ry     beta= 0.70
     Davidson diagonalization with overlap
     ethr =  1.11E-08,  avg # of iterations =  4.5

     negative rho (up, down):  4.896E-05 4.896E-05

     total cpu time spent up to now is      808.3 secs

     total energy              =    -658.68340575 Ry
     estimated scf accuracy    <       0.00000014 Ry

     total magnetization       =    -0.00 Bohr mag/cell
     absolute magnetization    =     0.00 Bohr mag/cell

     iteration # 12     ecut=    70.00 Ry     beta= 0.70
     Davidson diagonalization with overlap
     ethr =  4.11E-10,  avg # of iterations =  4.0

     negative rho (up, down):  4.882E-05 4.882E-05
 
     Magnetic moment per site  (integrated on atomic sphere of radius R)
     atom   1 (R=0.314)  charge= 10.7080  magn= -0.0000
     atom   2 (R=0.259)  charge=  2.8934  magn= -0.0000
     atom   3 (R=0.259)  charge=  2.8245  magn= -0.0000
     atom   4 (R=0.259)  charge=  6.6181  magn= -0.0001

     total cpu time spent up to now is      812.6 secs

     End of self-consistent calculation

 ------ SPIN UP ------------


          k = 0.0000 0.0000 0.0000 ( 14351 PWs)   bands (ev):

   -61.4886 -35.7163 -35.3400 -35.3400 -16.0853 -14.1695  -7.3254  -4.9026
    -4.4582  -4.4582  -2.5819  -2.5819  -1.7008  -1.5208  -1.5208  -0.5924
    -0.5924  -0.5415   1.3911   2.1599   2.1599   2.3630

          k = 0.0000 0.0962 0.0000 ( 14357 PWs)   bands (ev):

   -61.4860 -35.7117 -35.3650 -35.3458 -15.9980 -14.0963  -7.2225  -4.8642
    -4.6786  -4.4762  -2.8121  -2.5540  -1.8278  -1.5088  -1.4565  -0.7583
    -0.6213  -0.4722   1.6033   1.9913   2.0550   2.2074

          k = 0.0000 0.1925 0.0000 ( 14400 PWs)   bands (ev):

   -61.4791 -35.6992 -35.4329 -35.3616 -15.7483 -13.8871  -6.9464  -5.3658
    -4.6986  -4.5373  -3.3125  -2.5275  -2.0478  -1.4586  -1.4386  -1.1206
    -0.5996  -0.3126   1.4474   1.7116   2.0193   2.2830

          k = 0.0000 0.2887 0.0000 ( 14448 PWs)   bands (ev):

   -61.4695 -35.6821 -35.5244 -35.3831 -15.3750 -13.5744  -6.6163  -6.1963
    -4.7610  -4.6445  -3.7262  -2.5777  -2.2185  -1.6074  -1.4136  -1.2946
    -0.3628  -0.2038   1.0898   1.7728   1.7925   2.6969

          k = 0.0000 0.3849 0.0000 ( 14480 PWs)   bands (ev):

   -61.4600 -35.6651 -35.6145 -35.4045 -14.9517 -13.2192  -7.1058  -6.3188
    -5.0997  -4.7716  -3.8994  -2.6770  -2.3363  -1.6912  -1.4012  -1.1126
    -0.2689   0.0305   1.0872   1.6134   1.9932   2.7320

          k = 0.0000 0.4811 0.0000 ( 14494 PWs)   bands (ev):

   -61.4530 -35.6807 -35.6516 -35.4201 -14.5966 -12.9195  -7.7561  -6.3455
    -5.2971  -4.8729  -4.0506  -2.7629  -2.4047  -1.4486  -1.2502  -0.9333
    -0.4802   0.2966   1.2915   1.6601   1.9898   2.6681

          k = 0.0000-0.5774 0.0000 ( 14518 PWs)   bands (ev):

   -61.4504 -35.7042 -35.6473 -35.4258 -14.4536 -12.7979  -8.0071  -6.4251
    -5.3217  -4.9113  -4.1259  -2.7958  -2.4209  -1.1783  -1.1642  -0.8513
    -0.6986   0.3502   1.4103   1.7621   1.9099   2.6129

          k = 0.0833 0.1443 0.0000 ( 14400 PWs)   bands (ev):

   -61.4813 -35.7032 -35.4102 -35.3579 -15.8294 -13.9550  -7.0320  -5.1433
    -4.7443  -4.5235  -3.1554  -2.5652  -1.9628  -1.5049  -1.4296  -0.9721
    -0.6512  -0.3503   1.6288   1.7751   1.8985   2.1603

          k = 0.0833 0.2406 0.0000 ( 14456 PWs)   bands (ev):

   -61.4730 -35.6884 -35.4866 -35.3798 -15.5171 -13.6931  -6.7162  -5.8396
    -4.7521  -4.6222  -3.5913  -2.6314  -2.1239  -1.5545  -1.4494  -1.2100
    -0.5019  -0.1977   1.1761   1.6772   1.7981   2.5381

          k = 0.0833 0.3368 0.0000 ( 14475 PWs)   bands (ev):

   -61.4635 -35.6712 -35.5735 -35.4052 -15.1157 -13.3557  -6.7163  -6.3379
    -4.9615  -4.8538  -3.8103  -2.7340  -2.2521  -1.7165  -1.4839  -1.1440
    -0.2280  -0.1076   0.9589   1.6119   1.8970   2.7295

          k = 0.0833 0.4330 0.0000 ( 14478 PWs)   bands (ev):

   -61.4552 -35.6576 -35.6466 -35.4271 -14.7190 -13.0205  -7.4291  -6.2395
    -5.2964  -4.9777  -3.9411  -2.9106  -2.2850  -1.6229  -1.3988  -0.9486
    -0.3763   0.1714   1.0264   1.7037   2.0962   2.6048

          k = 0.0833 0.5292 0.0000 ( 14500 PWs)   bands (ev):

   -61.4504 -35.6909 -35.6472 -35.4397 -14.4610 -12.8006  -7.8774  -6.3413
    -5.3861  -5.0356  -4.0689  -3.0305  -2.2844  -1.3513  -1.2480  -0.7947
    -0.6117   0.2560   1.2935   1.7883   2.1219   2.4206

          k = 0.1667 0.2887 0.0000 ( 14482 PWs)   bands (ev):

   -61.4648 -35.6735 -35.5524 -35.4116 -15.1744 -13.4039  -6.5408  -6.2980
    -5.0342  -4.8471  -3.7671  -2.8024  -2.2113  -1.7377  -1.5011  -1.1329
    -0.2795  -0.0770   0.8750   1.6134   1.7689   2.7369

          k = 0.1667 0.3849 0.0000 ( 14494 PWs)   bands (ev):

   -61.4565 -35.6588 -35.6141 -35.4466 -14.7913 -13.0776  -7.0795  -6.1141
    -5.4653  -5.0776  -3.8692  -3.0588  -2.1904  -1.7669  -1.5251  -0.9271
    -0.3499   0.1401   0.7281   1.7763   1.9255   2.7327

          k = 0.1667 0.4811 0.0000 ( 14497 PWs)   bands (ev):

   -61.4504 -35.6589 -35.6468 -35.4734 -14.4757 -12.8057  -7.5559  -6.1511
    -5.6696  -5.1865  -4.0073  -3.3273  -2.1205  -1.5531  -1.4428  -0.7947
    -0.4809   0.1956   0.9459   1.7694   2.1543   2.6229

          k = 0.1667 0.5774 0.0000 ( 14512 PWs)   bands (ev):

   -61.4482 -35.6741 -35.6433 -35.4834 -14.3506 -12.6969  -7.7420  -6.2609
    -5.6793  -5.1975  -4.0813  -3.4340  -2.0993  -1.4122  -1.3347  -0.9049
    -0.3858   0.1382   1.3027   1.6084   2.0234   2.6774

          k = 0.2500 0.4330 0.0000 ( 14510 PWs)   bands (ev):

   -61.4504 -35.6482 -35.6357 -35.4958 -14.4830 -12.8083  -7.3323  -6.0936
    -5.8412  -5.2410  -4.0444  -3.3864  -2.0543  -1.6480  -1.5370  -0.8037
    -0.4508   0.2813   0.6996   1.6588   2.1637   2.8596

          k = 0.2500 0.5292 0.0000 ( 14528 PWs)   bands (ev):

   -61.4469 -35.6421 -35.6393 -35.5330 -14.2906 -12.6374  -7.4398  -6.4457
    -5.7709  -5.2884  -4.2471  -3.5689  -1.9747  -1.4816  -1.4385  -1.0154
    -0.1908   0.1950   1.0481   1.4106   1.9568   3.2001

          k = 0.3333 0.5774 0.0000 ( 14538 PWs)   bands (ev):

   -61.4456 -35.6387 -35.6078 -35.5808 -14.2213 -12.5733  -7.2209  -6.8122
    -5.6962  -5.3213  -4.4207  -3.6149  -1.9220  -1.4472  -1.3935  -1.1569
     0.0029   0.2204   1.1254   1.1837   1.8152   3.5445

 ------ SPIN DOWN ----------


          k = 0.0000 0.0000 0.0000 ( 14351 PWs)   bands (ev):

   -61.4886 -35.7163 -35.3400 -35.3400 -16.0853 -14.1695  -7.3254  -4.9026
    -4.4582  -4.4582  -2.5819  -2.5819  -1.7008  -1.5209  -1.5209  -0.5924
    -0.5924  -0.5415   1.3911   2.1599   2.1599   2.3629

          k = 0.0000 0.0962 0.0000 ( 14357 PWs)   bands (ev):

   -61.4860 -35.7117 -35.3650 -35.3458 -15.9980 -14.0963  -7.2225  -4.8642
    -4.6787  -4.4762  -2.8121  -2.5540  -1.8279  -1.5089  -1.4565  -0.7583
    -0.6214  -0.4722   1.6033   1.9913   2.0549   2.2073

          k = 0.0000 0.1925 0.0000 ( 14400 PWs)   bands (ev):

   -61.4790 -35.6992 -35.4329 -35.3616 -15.7483 -13.8871  -6.9464  -5.3659
    -4.6986  -4.5374  -3.3125  -2.5275  -2.0479  -1.4587  -1.4387  -1.1206
    -0.5997  -0.3127   1.4474   1.7116   2.0192   2.2830

          k = 0.0000 0.2887 0.0000 ( 14448 PWs)   bands (ev):

   -61.4695 -35.6821 -35.5244 -35.3831 -15.3751 -13.5745  -6.6163  -6.1963
    -4.7610  -4.6446  -3.7262  -2.5777  -2.2185  -1.6075  -1.4137  -1.2947
    -0.3628  -0.2039   1.0897   1.7727   1.7925   2.6969

          k = 0.0000 0.3849 0.0000 ( 14480 PWs)   bands (ev):

   -61.4600 -35.6651 -35.6145 -35.4045 -14.9518 -13.2192  -7.1059  -6.3188
    -5.0997  -4.7716  -3.8994  -2.6770  -2.3363  -1.6913  -1.4013  -1.1127
    -0.2690   0.0305   1.0871   1.6134   1.9932   2.7320

          k = 0.0000 0.4811 0.0000 ( 14494 PWs)   bands (ev):

   -61.4530 -35.6807 -35.6516 -35.4201 -14.5966 -12.9195  -7.7562  -6.3456
    -5.2971  -4.8730  -4.0506  -2.7629  -2.4048  -1.4487  -1.2503  -0.9334
    -0.4803   0.2965   1.2915   1.6601   1.9898   2.6681

          k = 0.0000-0.5774 0.0000 ( 14518 PWs)   bands (ev):

   -61.4504 -35.7042 -35.6473 -35.4258 -14.4536 -12.7979  -8.0071  -6.4251
    -5.3217  -4.9113  -4.1259  -2.7958  -2.4209  -1.1784  -1.1642  -0.8514
    -0.6987   0.3501   1.4103   1.7621   1.9099   2.6128

          k = 0.0833 0.1443 0.0000 ( 14400 PWs)   bands (ev):

   -61.4813 -35.7032 -35.4102 -35.3579 -15.8294 -13.9550  -7.0320  -5.1433
    -4.7443  -4.5235  -3.1554  -2.5653  -1.9628  -1.5050  -1.4297  -0.9721
    -0.6512  -0.3503   1.6287   1.7751   1.8985   2.1602

          k = 0.0833 0.2406 0.0000 ( 14456 PWs)   bands (ev):

   -61.4730 -35.6884 -35.4866 -35.3798 -15.5171 -13.6931  -6.7162  -5.8396
    -4.7522  -4.6223  -3.5913  -2.6314  -2.1240  -1.5546  -1.4495  -1.2101
    -0.5019  -0.1977   1.1760   1.6772   1.7981   2.5380

          k = 0.0833 0.3368 0.0000 ( 14475 PWs)   bands (ev):

   -61.4635 -35.6712 -35.5735 -35.4052 -15.1157 -13.3557  -6.7163  -6.3379
    -4.9615  -4.8538  -3.8103  -2.7340  -2.2522  -1.7165  -1.4840  -1.1441
    -0.2281  -0.1077   0.9588   1.6119   1.8970   2.7295

          k = 0.0833 0.4330 0.0000 ( 14478 PWs)   bands (ev):

   -61.4552 -35.6576 -35.6466 -35.4271 -14.7191 -13.0205  -7.4292  -6.2395
    -5.2964  -4.9778  -3.9411  -2.9106  -2.2851  -1.6229  -1.3989  -0.9487
    -0.3764   0.1713   1.0263   1.7037   2.0961   2.6048

          k = 0.0833 0.5292 0.0000 ( 14500 PWs)   bands (ev):

   -61.4504 -35.6909 -35.6472 -35.4397 -14.4611 -12.8006  -7.8774  -6.3413
    -5.3861  -5.0357  -4.0689  -3.0305  -2.2845  -1.3514  -1.2480  -0.7948
    -0.6118   0.2559   1.2934   1.7883   2.1219   2.4206

          k = 0.1667 0.2887 0.0000 ( 14482 PWs)   bands (ev):

   -61.4648 -35.6735 -35.5524 -35.4115 -15.1745 -13.4039  -6.5409  -6.2981
    -5.0342  -4.8471  -3.7671  -2.8024  -2.2113  -1.7377  -1.5012  -1.1330
    -0.2796  -0.0771   0.8749   1.6133   1.7689   2.7370

          k = 0.1667 0.3849 0.0000 ( 14494 PWs)   bands (ev):

   -61.4565 -35.6588 -35.6141 -35.4466 -14.7913 -13.0776  -7.0796  -6.1141
    -5.4654  -5.0776  -3.8692  -3.0589  -2.1905  -1.7669  -1.5252  -0.9272
    -0.3501   0.1400   0.7280   1.7763   1.9255   2.7327

          k = 0.1667 0.4811 0.0000 ( 14497 PWs)   bands (ev):

   -61.4504 -35.6589 -35.6467 -35.4734 -14.4758 -12.8058  -7.5559  -6.1511
    -5.6697  -5.1865  -4.0073  -3.3273  -2.1206  -1.5531  -1.4429  -0.7948
    -0.4811   0.1955   0.9459   1.7694   2.1543   2.6229

          k = 0.1667 0.5774 0.0000 ( 14512 PWs)   bands (ev):

   -61.4482 -35.6741 -35.6433 -35.4833 -14.3506 -12.6969  -7.7420  -6.2609
    -5.6794  -5.1976  -4.0813  -3.4340  -2.0994  -1.4123  -1.3347  -0.9050
    -0.3859   0.1381   1.3027   1.6084   2.0234   2.6774

          k = 0.2500 0.4330 0.0000 ( 14510 PWs)   bands (ev):

   -61.4504 -35.6481 -35.6357 -35.4958 -14.4830 -12.8083  -7.3323  -6.0936
    -5.8412  -5.2410  -4.0444  -3.3864  -2.0544  -1.6480  -1.5371  -0.8038
    -0.4510   0.2812   0.6995   1.6587   2.1637   2.8596

          k = 0.2500 0.5292 0.0000 ( 14528 PWs)   bands (ev):

   -61.4469 -35.6421 -35.6393 -35.5330 -14.2906 -12.6374  -7.4398  -6.4457
    -5.7709  -5.2884  -4.2471  -3.5689  -1.9748  -1.4817  -1.4385  -1.0155
    -0.1909   0.1949   1.0480   1.4106   1.9568   3.2001

          k = 0.3333 0.5774 0.0000 ( 14538 PWs)   bands (ev):

   -61.4456 -35.6387 -35.6078 -35.5808 -14.2213 -12.5733  -7.2209  -6.8122
    -5.6963  -5.3213  -4.4207  -3.6150  -1.9221  -1.4473  -1.3936  -1.1570
     0.0028   0.2202   1.1254   1.1837   1.8152   3.5445

     the Fermi energy is     0.1115 ev

!    total energy              =    -658.68340576 Ry
     total all-electron energy =    -12481.857297 Ry
     estimated scf accuracy    <       0.00000004 Ry
     smearing contrib. (-TS)   =      -0.00125568 Ry
     internal energy E=F+TS    =    -658.68215008 Ry

     The total energy is F=E-TS. E is the sum of the following terms:
     one-electron contribution =   -2337.53199424 Ry
     hartree contribution      =    1179.84063682 Ry
     xc contribution           =     -62.41171154 Ry
     ewald contribution        =     967.62356587 Ry
     DFT-D3 Dispersion         =      -0.06594342 Ry
     one-center paw contrib.   =    -406.13670357 Ry

     total magnetization       =    -0.00 Bohr mag/cell
     absolute magnetization    =     0.00 Bohr mag/cell

     convergence has been achieved in  12 iterations

     negative rho (up, down):  4.882E-05 4.882E-05

     Forces acting on atoms (cartesian axes, Ry/au):

     atom    1 type  1   force =     0.00000000    0.00000000    0.01016863
     atom    2 type  2   force =     0.00000000    0.00000000   -0.02292902
     atom    3 type  2   force =     0.00000000    0.00000000    0.05527924
     atom    4 type  3   force =     0.00000000   -0.00000000   -0.04251885
     The non-local contrib.  to forces
     atom    1 type  1   force =     0.00000000   -0.00000000   -0.07791699
     atom    2 type  2   force =     0.00000000    0.00000000   -0.10577242
     atom    3 type  2   force =     0.00000000    0.00000000    0.28453218
     atom    4 type  3   force =     0.00000000    0.00000000    0.02488771
     The ionic contribution  to forces
     atom    1 type  1   force =     0.00000000    0.00000367  -39.86850855
     atom    2 type  2   force =    -0.00000000   -0.00000522   23.00278276
     atom    3 type  2   force =    -0.00000000   -0.00000230  -51.90620729
     atom    4 type  3   force =     0.00000000    0.00000385   68.77193308
     The local contribution  to forces
     atom    1 type  1   force =    -0.00000000   -0.00000227   39.94657544
     atom    2 type  2   force =    -0.00000000    0.00000372  -22.92447606
     atom    3 type  2   force =    -0.00000000    0.00000162   51.67697079
     atom    4 type  3   force =     0.00000000   -0.00000199  -68.79073144
     The core correction contribution to forces
     atom    1 type  1   force =     0.00000000   -0.00000000    0.00548704
     atom    2 type  2   force =     0.00000000    0.00000000    0.00503505
     atom    3 type  2   force =     0.00000000    0.00000000   -0.00304177
     atom    4 type  3   force =    -0.00000000   -0.00000002   -0.04315637
     The Hubbard contrib.    to forces
     atom    1 type  1   force =     0.00000000    0.00000000    0.00000000
     atom    2 type  2   force =     0.00000000    0.00000000    0.00000000
     atom    3 type  2   force =     0.00000000    0.00000000    0.00000000
     atom    4 type  3   force =     0.00000000    0.00000000    0.00000000
     The SCF correction term to forces
     atom    1 type  1   force =    -0.00000000    0.00000000    0.00063688
     atom    2 type  2   force =     0.00000000    0.00000000    0.00050213
     atom    3 type  2   force =     0.00000000   -0.00000000   -0.00009352
     atom    4 type  3   force =     0.00000000    0.00000000    0.00061429

     DFT-D3 dispersion contribution to forces:
     atom    1 type  1   force =     0.00000000   -0.00000000    0.00390804
     atom    2 type  2   force =    -0.00000000    0.00000000   -0.00098724
     atom    3 type  2   force =    -0.00000000    0.00000000    0.00313209
     atom    4 type  3   force =     0.00000000   -0.00000000   -0.00605289

     Total force =     0.074113     Total SCF correction =     0.001022


     Computing stress (Cartesian axis) and pressure


     negative rho (up, down):  4.882E-05 4.882E-05
          total   stress  (Ry/bohr**3)                   (kbar)     P=      -23.13
  -0.00006800  -0.00000000   0.00000000          -10.00       -0.00        0.00
  -0.00000000  -0.00006800   0.00000000           -0.00      -10.00        0.00
   0.00000000  -0.00000000  -0.00033562            0.00       -0.00      -49.37

     Energy error            =      1.1E-02 Ry
     Gradient error          =      5.5E-02 Ry/Bohr

     number of scf cycles    =  12
     number of bfgs steps    =  11

     energy             old  =    -658.6727879474 Ry
     energy             new  =    -658.6834057606 Ry

     CASE: energy            _new < energy            _old

     new trust radius        =       0.0611564357 bohr
     new conv_thr            =       0.0000005528 Ry


ATOMIC_POSITIONS (crystal)
Mo            0.0000000000        0.0000000000        0.3838359907
S             0.6666666667        0.3333333333        0.4602269931
S             0.6666666667        0.3333333333        0.3198807326
Co           -0.0000000000       -0.0000000000        0.4987187249



     Writing config-only to output data dir ./tmp/scf.save/
     NEW-OLD atomic charge density approx. for the potential

     negative rho (up, down):  4.971E-05 4.971E-05
     Generating pointlists ...

     total cpu time spent up to now is      825.6 secs

     Self-consistent Calculation

     iteration #  1     ecut=    70.00 Ry     beta= 0.70
     Davidson diagonalization with overlap
     ethr =  1.00E-06,  avg # of iterations =  8.4

     negative rho (up, down):  4.919E-05 4.919E-05

     total cpu time spent up to now is      832.0 secs

     total energy              =    -658.68539657 Ry
     estimated scf accuracy    <       0.00266380 Ry

     total magnetization       =    -0.00 Bohr mag/cell
     absolute magnetization    =     0.00 Bohr mag/cell

     iteration #  2     ecut=    70.00 Ry     beta= 0.70
     Davidson diagonalization with overlap
     ethr =  7.61E-06,  avg # of iterations =  9.3

     negative rho (up, down):  4.883E-05 4.883E-05

     total cpu time spent up to now is      837.3 secs

     total energy              =    -658.66694863 Ry
     estimated scf accuracy    <       0.49737437 Ry

     total magnetization       =    -0.00 Bohr mag/cell
     absolute magnetization    =     0.00 Bohr mag/cell

     iteration #  3     ecut=    70.00 Ry     beta= 0.70
     Davidson diagonalization with overlap
     ethr =  7.61E-06,  avg # of iterations =  8.3

     negative rho (up, down):  4.891E-05 4.892E-05

     total cpu time spent up to now is      842.7 secs

     total energy              =    -658.68658443 Ry
     estimated scf accuracy    <       0.00476000 Ry

     total magnetization       =    -0.00 Bohr mag/cell
     absolute magnetization    =     0.00 Bohr mag/cell

     iteration #  4     ecut=    70.00 Ry     beta= 0.70
     Davidson diagonalization with overlap
     ethr =  7.61E-06,  avg # of iterations =  2.3

     negative rho (up, down):  4.895E-05 4.896E-05

     total cpu time spent up to now is      846.7 secs

     total energy              =    -658.68703427 Ry
     estimated scf accuracy    <       0.00108714 Ry

     total magnetization       =    -0.00 Bohr mag/cell
     absolute magnetization    =     0.00 Bohr mag/cell

     iteration #  5     ecut=    70.00 Ry     beta= 0.70
     Davidson diagonalization with overlap
     ethr =  3.11E-06,  avg # of iterations =  2.1

     negative rho (up, down):  4.900E-05 4.901E-05

     total cpu time spent up to now is      850.8 secs

     total energy              =    -658.68717649 Ry
     estimated scf accuracy    <       0.00014181 Ry

     total magnetization       =    -0.00 Bohr mag/cell
     absolute magnetization    =     0.00 Bohr mag/cell

     iteration #  6     ecut=    70.00 Ry     beta= 0.70
     Davidson diagonalization with overlap
     ethr =  4.05E-07,  avg # of iterations =  2.0

     negative rho (up, down):  4.902E-05 4.903E-05

     total cpu time spent up to now is      854.7 secs

     total energy              =    -658.68719344 Ry
     estimated scf accuracy    <       0.00000673 Ry

     total magnetization       =    -0.00 Bohr mag/cell
     absolute magnetization    =     0.00 Bohr mag/cell

     iteration #  7     ecut=    70.00 Ry     beta= 0.70
     Davidson diagonalization with overlap
     ethr =  1.92E-08,  avg # of iterations =  4.7

     negative rho (up, down):  4.902E-05 4.902E-05

     total cpu time spent up to now is      859.1 secs

     total energy              =    -658.68719534 Ry
     estimated scf accuracy    <       0.00000185 Ry

     total magnetization       =    -0.00 Bohr mag/cell
     absolute magnetization    =     0.00 Bohr mag/cell

     iteration #  8     ecut=    70.00 Ry     beta= 0.70
     Davidson diagonalization with overlap
     ethr =  5.30E-09,  avg # of iterations =  2.3

     negative rho (up, down):  4.902E-05 4.902E-05
 
     Magnetic moment per site  (integrated on atomic sphere of radius R)
     atom   1 (R=0.314)  charge= 10.7147  magn= -0.0000
     atom   2 (R=0.259)  charge=  2.9041  magn= -0.0000
     atom   3 (R=0.259)  charge=  2.8296  magn= -0.0000
     atom   4 (R=0.259)  charge=  6.6298  magn= -0.0002

     total cpu time spent up to now is      863.6 secs

     End of self-consistent calculation

 ------ SPIN UP ------------


          k = 0.0000 0.0000 0.0000 ( 14351 PWs)   bands (ev):

   -61.4695 -35.7011 -35.3249 -35.3249 -16.1455 -14.1833  -7.3588  -4.9479
    -4.6489  -4.6489  -2.6503  -2.6503  -1.6586  -1.6191  -1.6191  -0.5925
    -0.5925  -0.5565   1.5434   2.2153   2.2153   2.4389

          k = 0.0000 0.0962 0.0000 ( 14357 PWs)   bands (ev):

   -61.4669 -35.6965 -35.3501 -35.3307 -16.0584 -14.1104  -7.2571  -4.9416
    -4.8225  -4.6615  -2.8761  -2.6229  -1.8577  -1.6081  -1.4904  -0.7501
    -0.6208  -0.4912   1.7404   2.0500   2.1208   2.2720

          k = 0.0000 0.1925 0.0000 ( 14400 PWs)   bands (ev):

   -61.4599 -35.6839 -35.4183 -35.3466 -15.8093 -13.9022  -6.9847  -5.5061
    -4.7456  -4.7071  -3.3647  -2.5974  -2.1054  -1.5428  -1.4872  -1.1008
    -0.5963  -0.3384   1.5047   1.7701   2.0730   2.3899

          k = 0.0000 0.2887 0.0000 ( 14448 PWs)   bands (ev):

   -61.4504 -35.6666 -35.5104 -35.3682 -15.4374 -13.5917  -6.6716  -6.2892
    -4.8074  -4.7928  -3.7545  -2.6468  -2.2912  -1.6256  -1.4166  -1.4066
    -0.3555  -0.2374   1.1268   1.8023   1.8429   2.7438

          k = 0.0000 0.3849 0.0000 ( 14480 PWs)   bands (ev):

   -61.4408 -35.6495 -35.6009 -35.3897 -15.0165 -13.2399  -7.1917  -6.3554
    -5.1329  -4.8999  -3.9143  -2.7434  -2.3949  -1.7334  -1.4191  -1.2296
    -0.3261   0.0414   1.1099   1.6177   2.0322   2.7708

          k = 0.0000 0.4811 0.0000 ( 14494 PWs)   bands (ev):

   -61.4337 -35.6676 -35.6357 -35.4054 -14.6642 -12.9442  -7.8205  -6.3851
    -5.3112  -4.9882  -4.0671  -2.8265  -2.4411  -1.5435  -1.2466  -1.0515
    -0.5723   0.3054   1.2990   1.6533   2.0196   2.6950

          k = 0.0000-0.5774 0.0000 ( 14518 PWs)   bands (ev):

   -61.4312 -35.6912 -35.6314 -35.4111 -14.5227 -12.8245  -8.0638  -6.4631
    -5.3293  -5.0222  -4.1454  -2.8583  -2.4497  -1.3019  -1.1374  -0.9692
    -0.8126   0.3537   1.4120   1.7588   1.9415   2.6314

          k = 0.0833 0.1443 0.0000 ( 14400 PWs)   bands (ev):

   -61.4621 -35.6879 -35.3955 -35.3429 -15.8902 -13.9697  -7.0690  -5.2938
    -4.8093  -4.6791  -3.2125  -2.6324  -2.0158  -1.6026  -1.4581  -0.9613
    -0.6478  -0.3733   1.6831   1.8421   1.9870   2.2337

          k = 0.0833 0.2406 0.0000 ( 14456 PWs)   bands (ev):

   -61.4539 -35.6729 -35.4723 -35.3649 -15.5789 -13.7094  -6.7593  -5.9592
    -4.8657  -4.7040  -3.6292  -2.6982  -2.1965  -1.6162  -1.4804  -1.2460
    -0.4928  -0.2260   1.2123   1.7305   1.8456   2.5959

          k = 0.0833 0.3368 0.0000 ( 14475 PWs)   bands (ev):

   -61.4443 -35.6557 -35.5597 -35.3904 -15.1794 -13.3749  -6.8155  -6.3730
    -5.0369  -4.9456  -3.8293  -2.7951  -2.3312  -1.7336  -1.5239  -1.2463
    -0.2673  -0.1011   0.9836   1.6264   1.9478   2.7669

          k = 0.0833 0.4330 0.0000 ( 14478 PWs)   bands (ev):

   -61.4360 -35.6426 -35.6325 -35.4124 -14.7856 -13.0436  -7.5027  -6.2786
    -5.3356  -5.0705  -3.9577  -2.9597  -2.3527  -1.6792  -1.4237  -1.0646
    -0.4592   0.1882   1.0414   1.7036   2.1348   2.6281

          k = 0.0833 0.5292 0.0000 ( 14500 PWs)   bands (ev):

   -61.4312 -35.6779 -35.6313 -35.4251 -14.5301 -12.8269  -7.9362  -6.3806
    -5.4145  -5.1179  -4.0895  -3.0727  -2.3403  -1.4567  -1.2342  -0.9207
    -0.7208   0.2634   1.2997   1.8006   2.1298   2.4469

          k = 0.1667 0.2887 0.0000 ( 14482 PWs)   bands (ev):

   -61.4456 -35.6580 -35.5385 -35.3968 -15.2378 -13.4225  -6.6362  -6.3459
    -5.1455  -4.8978  -3.7885  -2.8593  -2.2993  -1.7588  -1.5408  -1.2286
    -0.2919  -0.0907   0.8961   1.6335   1.8259   2.7724

          k = 0.1667 0.3849 0.0000 ( 14494 PWs)   bands (ev):

   -61.4373 -35.6431 -35.6005 -35.4320 -14.8573 -13.0997  -7.1639  -6.1520
    -5.5394  -5.1306  -3.8881  -3.0918  -2.2915  -1.7800  -1.5808  -1.0423
    -0.4256   0.1609   0.7446   1.7837   1.9758   2.7536

          k = 0.1667 0.4811 0.0000 ( 14497 PWs)   bands (ev):

   -61.4312 -35.6457 -35.6308 -35.4590 -14.5447 -12.8315  -7.6213  -6.1973
    -5.7198  -5.2302  -4.0314  -3.3447  -2.2180  -1.6124  -1.4648  -0.9205
    -0.5856   0.2075   0.9603   1.7836   2.1784   2.6356

          k = 0.1667 0.5774 0.0000 ( 14512 PWs)   bands (ev):

   -61.4289 -35.6610 -35.6274 -35.4690 -14.4211 -12.7244  -7.7999  -6.3076
    -5.7257  -5.2348  -4.1084  -3.4466  -2.1904  -1.5076  -1.3237  -1.0422
    -0.4966   0.1428   1.3185   1.6127   2.0292   2.7060

          k = 0.2500 0.4330 0.0000 ( 14510 PWs)   bands (ev):

   -61.4312 -35.6327 -35.6219 -35.4815 -14.5520 -12.8338  -7.4042  -6.1572
    -5.8695  -5.2840  -4.0689  -3.3914  -2.1768  -1.6587  -1.5982  -0.9285
    -0.5481   0.2912   0.7136   1.6822   2.1838   2.8783

          k = 0.2500 0.5292 0.0000 ( 14528 PWs)   bands (ev):

   -61.4277 -35.6278 -35.6243 -35.5189 -14.3619 -12.6654  -7.5033  -6.4996
    -5.7995  -5.3260  -4.2677  -3.5667  -2.1012  -1.5587  -1.4382  -1.1528
    -0.2801   0.1828   1.0556   1.4248   1.9556   3.2423

          k = 0.3333 0.5774 0.0000 ( 14538 PWs)   bands (ev):

   -61.4264 -35.6228 -35.5947 -35.5666 -14.2936 -12.6022  -7.2957  -6.8482
    -5.7237  -5.3635  -4.4290  -3.6124  -2.0594  -1.5173  -1.3933  -1.3037
    -0.0469   0.1633   1.1327   1.1937   1.8080   3.6076

 ------ SPIN DOWN ----------


          k = 0.0000 0.0000 0.0000 ( 14351 PWs)   bands (ev):

   -61.4695 -35.7012 -35.3250 -35.3249 -16.1455 -14.1833  -7.3588  -4.9479
    -4.6489  -4.6489  -2.6503  -2.6503  -1.6586  -1.6192  -1.6192  -0.5926
    -0.5926  -0.5565   1.5434   2.2153   2.2153   2.4388

          k = 0.0000 0.0962 0.0000 ( 14357 PWs)   bands (ev):

   -61.4669 -35.6965 -35.3501 -35.3308 -16.0584 -14.1104  -7.2571  -4.9416
    -4.8226  -4.6616  -2.8761  -2.6229  -1.8578  -1.6082  -1.4905  -0.7502
    -0.6209  -0.4913   1.7404   2.0500   2.1207   2.2720

          k = 0.0000 0.1925 0.0000 ( 14400 PWs)   bands (ev):

   -61.4599 -35.6839 -35.4183 -35.3466 -15.8093 -13.9022  -6.9847  -5.5061
    -4.7456  -4.7071  -3.3647  -2.5974  -2.1055  -1.5429  -1.4873  -1.1009
    -0.5964  -0.3385   1.5046   1.7701   2.0729   2.3899

          k = 0.0000 0.2887 0.0000 ( 14448 PWs)   bands (ev):

   -61.4504 -35.6666 -35.5104 -35.3682 -15.4374 -13.5917  -6.6717  -6.2892
    -4.8074  -4.7928  -3.7545  -2.6469  -2.2913  -1.6257  -1.4167  -1.4068
    -0.3555  -0.2375   1.1268   1.8022   1.8429   2.7437

          k = 0.0000 0.3849 0.0000 ( 14480 PWs)   bands (ev):

   -61.4408 -35.6495 -35.6009 -35.3897 -15.0165 -13.2399  -7.1917  -6.3554
    -5.1330  -4.8999  -3.9143  -2.7434  -2.3949  -1.7335  -1.4192  -1.2297
    -0.3263   0.0413   1.1099   1.6176   2.0322   2.7708

          k = 0.0000 0.4811 0.0000 ( 14494 PWs)   bands (ev):

   -61.4338 -35.6677 -35.6358 -35.4054 -14.6643 -12.9442  -7.8205  -6.3851
    -5.3112  -4.9883  -4.0671  -2.8265  -2.4412  -1.5436  -1.2467  -1.0517
    -0.5724   0.3053   1.2990   1.6532   2.0196   2.6950

          k = 0.0000-0.5774 0.0000 ( 14518 PWs)   bands (ev):

   -61.4312 -35.6913 -35.6314 -35.4111 -14.5227 -12.8245  -8.0638  -6.4631
    -5.3293  -5.0222  -4.1454  -2.8583  -2.4498  -1.3020  -1.1375  -0.9693
    -0.8127   0.3536   1.4119   1.7588   1.9415   2.6313

          k = 0.0833 0.1443 0.0000 ( 14400 PWs)   bands (ev):

   -61.4622 -35.6879 -35.3955 -35.3429 -15.8902 -13.9697  -7.0690  -5.2939
    -4.8093  -4.6792  -3.2126  -2.6324  -2.0158  -1.6027  -1.4582  -0.9613
    -0.6479  -0.3734   1.6830   1.8421   1.9870   2.2339

          k = 0.0833 0.2406 0.0000 ( 14456 PWs)   bands (ev):

   -61.4539 -35.6730 -35.4723 -35.3649 -15.5789 -13.7094  -6.7593  -5.9593
    -4.8658  -4.7040  -3.6293  -2.6982  -2.1966  -1.6163  -1.4805  -1.2461
    -0.4928  -0.2260   1.2122   1.7305   1.8455   2.5959

          k = 0.0833 0.3368 0.0000 ( 14475 PWs)   bands (ev):

   -61.4443 -35.6557 -35.5597 -35.3904 -15.1794 -13.3749  -6.8155  -6.3731
    -5.0369  -4.9457  -3.8293  -2.7952  -2.3313  -1.7337  -1.5240  -1.2464
    -0.2674  -0.1012   0.9835   1.6263   1.9478   2.7669

          k = 0.0833 0.4330 0.0000 ( 14478 PWs)   bands (ev):

   -61.4360 -35.6427 -35.6325 -35.4124 -14.7856 -13.0436  -7.5028  -6.2787
    -5.3356  -5.0706  -3.9577  -2.9598  -2.3528  -1.6793  -1.4238  -1.0647
    -0.4593   0.1881   1.0413   1.7036   2.1348   2.6281

          k = 0.0833 0.5292 0.0000 ( 14500 PWs)   bands (ev):

   -61.4312 -35.6779 -35.6313 -35.4251 -14.5301 -12.8269  -7.9362  -6.3806
    -5.4145  -5.1179  -4.0896  -3.0727  -2.3403  -1.4569  -1.2343  -0.9208
    -0.7209   0.2633   1.2996   1.8005   2.1298   2.4469

          k = 0.1667 0.2887 0.0000 ( 14482 PWs)   bands (ev):

   -61.4456 -35.6580 -35.5385 -35.3968 -15.2378 -13.4225  -6.6362  -6.3459
    -5.1456  -4.8978  -3.7885  -2.8593  -2.2994  -1.7588  -1.5409  -1.2287
    -0.2920  -0.0908   0.8960   1.6334   1.8259   2.7723

          k = 0.1667 0.3849 0.0000 ( 14494 PWs)   bands (ev):

   -61.4373 -35.6431 -35.6005 -35.4321 -14.8573 -13.0997  -7.1640  -6.1520
    -5.5394  -5.1306  -3.8881  -3.0918  -2.2916  -1.7801  -1.5809  -1.0425
    -0.4257   0.1608   0.7445   1.7837   1.9758   2.7535

          k = 0.1667 0.4811 0.0000 ( 14497 PWs)   bands (ev):

   -61.4312 -35.6457 -35.6309 -35.4590 -14.5448 -12.8315  -7.6213  -6.1973
    -5.7198  -5.2302  -4.0314  -3.3447  -2.2181  -1.6125  -1.4648  -0.9207
    -0.5858   0.2073   0.9602   1.7836   2.1784   2.6356

          k = 0.1667 0.5774 0.0000 ( 14512 PWs)   bands (ev):

   -61.4290 -35.6610 -35.6274 -35.4690 -14.4211 -12.7244  -7.7999  -6.3076
    -5.7257  -5.2348  -4.1084  -3.4466  -2.1905  -1.5077  -1.3237  -1.0423
    -0.4967   0.1427   1.3185   1.6126   2.0292   2.7060

          k = 0.2500 0.4330 0.0000 ( 14510 PWs)   bands (ev):

   -61.4312 -35.6327 -35.6219 -35.4816 -14.5520 -12.8338  -7.4042  -6.1572
    -5.8695  -5.2840  -4.0689  -3.3914  -2.1769  -1.6588  -1.5983  -0.9287
    -0.5483   0.2910   0.7136   1.6821   2.1837   2.8783

          k = 0.2500 0.5292 0.0000 ( 14528 PWs)   bands (ev):

   -61.4277 -35.6279 -35.6243 -35.5189 -14.3619 -12.6654  -7.5033  -6.4996
    -5.7995  -5.3261  -4.2677  -3.5667  -2.1013  -1.5589  -1.4382  -1.1529
    -0.2803   0.1826   1.0556   1.4248   1.9556   3.2423

          k = 0.3333 0.5774 0.0000 ( 14538 PWs)   bands (ev):

   -61.4264 -35.6228 -35.5947 -35.5666 -14.2936 -12.6022  -7.2957  -6.8482
    -5.7238  -5.3635  -4.4290  -3.6124  -2.0596  -1.5175  -1.3934  -1.3038
    -0.0470   0.1631   1.1327   1.1937   1.8080   3.6076

     the Fermi energy is     0.1191 ev

!    total energy              =    -658.68719560 Ry
     total all-electron energy =    -12481.861086 Ry
     estimated scf accuracy    <       0.00000014 Ry
     smearing contrib. (-TS)   =      -0.00126564 Ry
     internal energy E=F+TS    =    -658.68592996 Ry

     The total energy is F=E-TS. E is the sum of the following terms:
     one-electron contribution =   -2349.56182080 Ry
     hartree contribution      =    1185.82954909 Ry
     xc contribution           =     -62.44869966 Ry
     ewald contribution        =     973.70256619 Ry
     DFT-D3 Dispersion         =      -0.06644976 Ry
     one-center paw contrib.   =    -406.14107502 Ry

     total magnetization       =    -0.00 Bohr mag/cell
     absolute magnetization    =     0.00 Bohr mag/cell

     convergence has been achieved in   8 iterations

     negative rho (up, down):  4.902E-05 4.902E-05

     Forces acting on atoms (cartesian axes, Ry/au):

     atom    1 type  1   force =     0.00000000   -0.00000000    0.01676354
     atom    2 type  2   force =     0.00000000   -0.00000000   -0.03377763
     atom    3 type  2   force =     0.00000000   -0.00000000    0.04560387
     atom    4 type  3   force =     0.00000000   -0.00000000   -0.02858979
     The non-local contrib.  to forces
     atom    1 type  1   force =     0.00000000    0.00000000   -0.08310826
     atom    2 type  2   force =     0.00000000    0.00000000   -0.11846343
     atom    3 type  2   force =     0.00000000    0.00000000    0.27991626
     atom    4 type  3   force =     0.00000000    0.00000000    0.02327770
     The ionic contribution  to forces
     atom    1 type  1   force =     0.00000000    0.00000373  -40.08295324
     atom    2 type  2   force =    -0.00000000   -0.00000542   23.33958094
     atom    3 type  2   force =    -0.00000000   -0.00000237  -51.97534364
     atom    4 type  3   force =     0.00000000    0.00000407   68.71871594
     The local contribution  to forces
     atom    1 type  1   force =     0.00000000   -0.00000231   40.17129257
     atom    2 type  2   force =    -0.00000000    0.00000385  -23.25897527
     atom    3 type  2   force =    -0.00000000    0.00000167   51.74015313
     atom    4 type  3   force =     0.00000000   -0.00000208  -68.72047536
     The core correction contribution to forces
     atom    1 type  1   force =     0.00000000   -0.00000000    0.00574617
     atom    2 type  2   force =     0.00000000    0.00000000    0.00558315
     atom    3 type  2   force =     0.00000000    0.00000000   -0.00281118
     atom    4 type  3   force =    -0.00000000   -0.00000002   -0.04312183
     The Hubbard contrib.    to forces
     atom    1 type  1   force =     0.00000000    0.00000000    0.00000000
     atom    2 type  2   force =     0.00000000    0.00000000    0.00000000
     atom    3 type  2   force =     0.00000000    0.00000000    0.00000000
     atom    4 type  3   force =     0.00000000    0.00000000    0.00000000
     The SCF correction term to forces
     atom    1 type  1   force =    -0.00000000   -0.00000000    0.00150425
     atom    2 type  2   force =    -0.00000000   -0.00000000   -0.00062493
     atom    3 type  2   force =     0.00000000   -0.00000000    0.00041074
     atom    4 type  3   force =    -0.00000000   -0.00000000   -0.00078454

     DFT-D3 dispersion contribution to forces:
     atom    1 type  1   force =     0.00000000   -0.00000000    0.00416184
     atom    2 type  2   force =    -0.00000000    0.00000000   -0.00099829
     atom    3 type  2   force =    -0.00000000    0.00000000    0.00315836
     atom    4 type  3   force =     0.00000000   -0.00000000   -0.00632191

     Total force =     0.065719     Total SCF correction =     0.001854


     Computing stress (Cartesian axis) and pressure


     negative rho (up, down):  4.902E-05 4.902E-05
          total   stress  (Ry/bohr**3)                   (kbar)     P=      -17.21
  -0.00003354   0.00000000   0.00000000           -4.93        0.00        0.00
   0.00000000  -0.00003354  -0.00000000            0.00       -4.93       -0.00
   0.00000000   0.00000000  -0.00028398            0.00        0.00      -41.77

     Energy error            =      3.8E-03 Ry
     Gradient error          =      4.6E-02 Ry/Bohr

     number of scf cycles    =  13
     number of bfgs steps    =  12

     energy             old  =    -658.6834057606 Ry
     energy             new  =    -658.6871955984 Ry

     CASE: energy            _new < energy            _old

     new trust radius        =       0.0672720793 bohr
     new conv_thr            =       0.0000003790 Ry


ATOMIC_POSITIONS (crystal)
Mo            0.0000000000        0.0000000000        0.3840787693
S             0.6666666667        0.3333333333        0.4600771591
S             0.6666666667        0.3333333333        0.3212117420
Co           -0.0000000000       -0.0000000000        0.4972947708



     Writing config-only to output data dir ./tmp/scf.save/
     NEW-OLD atomic charge density approx. for the potential

     negative rho (up, down):  4.975E-05 4.975E-05
     Generating pointlists ...

     total cpu time spent up to now is      878.3 secs

     Self-consistent Calculation

     iteration #  1     ecut=    70.00 Ry     beta= 0.70
     Davidson diagonalization with overlap
     ethr =  1.00E-06,  avg # of iterations =  9.5

     negative rho (up, down):  4.951E-05 4.951E-05

     total cpu time spent up to now is      885.5 secs

     total energy              =    -658.68888280 Ry
     estimated scf accuracy    <       0.00381423 Ry

     total magnetization       =    -0.00 Bohr mag/cell
     absolute magnetization    =     0.00 Bohr mag/cell

     iteration #  2     ecut=    70.00 Ry     beta= 0.70
     Davidson diagonalization with overlap
     ethr =  1.09E-05,  avg # of iterations =  9.5

     negative rho (up, down):  4.920E-05 4.920E-05

     total cpu time spent up to now is      890.9 secs

     total energy              =    -658.66325460 Ry
     estimated scf accuracy    <       0.66620470 Ry

     total magnetization       =    -0.00 Bohr mag/cell
     absolute magnetization    =     0.00 Bohr mag/cell

     iteration #  3     ecut=    70.00 Ry     beta= 0.70
     Davidson diagonalization with overlap
     ethr =  1.09E-05,  avg # of iterations =  8.3

     negative rho (up, down):  4.933E-05 4.933E-05

     total cpu time spent up to now is      895.7 secs

     total energy              =    -658.69048981 Ry
     estimated scf accuracy    <       0.00939892 Ry

     total magnetization       =    -0.00 Bohr mag/cell
     absolute magnetization    =     0.00 Bohr mag/cell

     iteration #  4     ecut=    70.00 Ry     beta= 0.70
     Davidson diagonalization with overlap
     ethr =  1.09E-05,  avg # of iterations =  2.4

     negative rho (up, down):  4.936E-05 4.936E-05

     total cpu time spent up to now is      899.6 secs

     total energy              =    -658.69135897 Ry
     estimated scf accuracy    <       0.00101986 Ry

     total magnetization       =    -0.00 Bohr mag/cell
     absolute magnetization    =     0.00 Bohr mag/cell

     iteration #  5     ecut=    70.00 Ry     beta= 0.70
     Davidson diagonalization with overlap
     ethr =  2.91E-06,  avg # of iterations =  3.2

     negative rho (up, down):  4.946E-05 4.947E-05

     total cpu time spent up to now is      903.9 secs

     total energy              =    -658.69150451 Ry
     estimated scf accuracy    <       0.00016598 Ry

     total magnetization       =    -0.00 Bohr mag/cell
     absolute magnetization    =     0.00 Bohr mag/cell

     iteration #  6     ecut=    70.00 Ry     beta= 0.70
     Davidson diagonalization with overlap
     ethr =  4.74E-07,  avg # of iterations =  2.8

     negative rho (up, down):  4.946E-05 4.948E-05

     total cpu time spent up to now is      907.6 secs

     total energy              =    -658.69152177 Ry
     estimated scf accuracy    <       0.00001689 Ry

     total magnetization       =    -0.00 Bohr mag/cell
     absolute magnetization    =     0.00 Bohr mag/cell

     iteration #  7     ecut=    70.00 Ry     beta= 0.70
     Davidson diagonalization with overlap
     ethr =  4.83E-08,  avg # of iterations =  3.1

     negative rho (up, down):  4.948E-05 4.949E-05

     total cpu time spent up to now is      911.6 secs

     total energy              =    -658.69152524 Ry
     estimated scf accuracy    <       0.00000656 Ry

     total magnetization       =    -0.00 Bohr mag/cell
     absolute magnetization    =     0.00 Bohr mag/cell

     iteration #  8     ecut=    70.00 Ry     beta= 0.70
     Davidson diagonalization with overlap
     ethr =  1.87E-08,  avg # of iterations =  2.5

     negative rho (up, down):  4.948E-05 4.948E-05
 
     Magnetic moment per site  (integrated on atomic sphere of radius R)
     atom   1 (R=0.314)  charge= 10.7267  magn= -0.0000
     atom   2 (R=0.259)  charge=  2.9150  magn= -0.0000
     atom   3 (R=0.259)  charge=  2.8378  magn= -0.0000
     atom   4 (R=0.259)  charge=  6.6395  magn= -0.0001

     total cpu time spent up to now is      916.0 secs

     End of self-consistent calculation

 ------ SPIN UP ------------


          k = 0.0000 0.0000 0.0000 ( 14351 PWs)   bands (ev):

   -61.4559 -35.6942 -35.3194 -35.3194 -16.2178 -14.2096  -7.4059  -4.9952
    -4.8221  -4.8221  -2.7704  -2.7704  -1.7136  -1.7136  -1.6192  -0.6146
    -0.6146  -0.5506   1.6840   2.2741   2.2741   2.5111

          k = 0.0000 0.0962 0.0000 ( 14357 PWs)   bands (ev):

   -61.4533 -35.6895 -35.3449 -35.3253 -16.1306 -14.1375  -7.3054  -5.0690
    -4.9087  -4.8310  -2.9882  -2.7436  -1.9119  -1.7028  -1.4957  -0.7622
    -0.6416  -0.4913   1.8668   2.1073   2.1931   2.3481

          k = 0.0000 0.1925 0.0000 ( 14400 PWs)   bands (ev):

   -61.4463 -35.6766 -35.4139 -35.3413 -15.8816 -13.9319  -7.0366  -5.6470
    -4.8660  -4.8043  -3.4527  -2.7164  -2.1729  -1.6389  -1.4990  -1.0889
    -0.6159  -0.3540   1.5649   1.8402   2.1287   2.4884

          k = 0.0000 0.2887 0.0000 ( 14448 PWs)   bands (ev):

   -61.4366 -35.6590 -35.5070 -35.3631 -15.5106 -13.6260  -6.7393  -6.3956
    -4.9376  -4.8799  -3.7973  -2.7580  -2.3681  -1.6423  -1.5048  -1.4098
    -0.3767  -0.2655   1.1746   1.8313   1.9114   2.8092

          k = 0.0000 0.3849 0.0000 ( 14480 PWs)   bands (ev):

   -61.4269 -35.6417 -35.5984 -35.3848 -15.0918 -13.2809  -7.2865  -6.4202
    -5.1899  -5.0321  -3.9355  -2.8439  -2.4591  -1.7652  -1.4283  -1.3294
    -0.3779   0.0219   1.1455   1.6185   2.0954   2.8355

          k = 0.0000 0.4811 0.0000 ( 14494 PWs)   bands (ev):

   -61.4199 -35.6661 -35.6274 -35.4006 -14.7425 -12.9919  -7.8983  -6.4534
    -5.3423  -5.1124  -4.0928  -2.9188  -2.4773  -1.6234  -1.2352  -1.1517
    -0.6540   0.2897   1.3181   1.6354   2.0735   2.7511

          k = 0.0000-0.5774 0.0000 ( 14518 PWs)   bands (ev):

   -61.4173 -35.6900 -35.6229 -35.4064 -14.6026 -12.8752  -8.1351  -6.5282
    -5.3528  -5.1436  -4.1763  -2.9476  -2.4743  -1.4033  -1.1149  -1.0689
    -0.9060   0.3369   1.4268   1.7393   1.9911   2.6805

          k = 0.0833 0.1443 0.0000 ( 14400 PWs)   bands (ev):

   -61.4485 -35.6807 -35.3908 -35.3375 -15.9624 -13.9985  -7.1195  -5.4423
    -4.9125  -4.7924  -3.3108  -2.7484  -2.0813  -1.6957  -1.4669  -0.9586
    -0.6677  -0.3837   1.7365   1.9178   2.0763   2.3038

          k = 0.0833 0.2406 0.0000 ( 14456 PWs)   bands (ev):

   -61.4401 -35.6655 -35.4685 -35.3598 -15.6516 -13.7418  -6.8155  -6.0866
    -4.9986  -4.7846  -3.6915  -2.8051  -2.2739  -1.6877  -1.5020  -1.2589
    -0.5115  -0.2463   1.2563   1.7913   1.9008   2.6562

          k = 0.0833 0.3368 0.0000 ( 14475 PWs)   bands (ev):

   -61.4305 -35.6479 -35.5568 -35.3855 -15.2537 -13.4130  -6.9178  -6.4371
    -5.1501  -5.0322  -3.8577  -2.8880  -2.4122  -1.7569  -1.5509  -1.3257
    -0.3155  -0.1085   1.0202   1.6419   2.0154   2.8292

          k = 0.0833 0.4330 0.0000 ( 14478 PWs)   bands (ev):

   -61.4221 -35.6373 -35.6276 -35.4077 -14.8627 -13.0886  -7.5885  -6.3468
    -5.4055  -5.1629  -3.9838  -3.0329  -2.4221  -1.7270  -1.4411  -1.1594
    -0.5350   0.1842   1.0668   1.6998   2.1935   2.6796

          k = 0.0833 0.5292 0.0000 ( 14500 PWs)   bands (ev):

   -61.4173 -35.6765 -35.6229 -35.4205 -14.6099 -12.8771  -8.0097  -6.4474
    -5.4762  -5.1953  -4.1242  -3.1354  -2.3928  -1.5433  -1.2207  -1.0265
    -0.8147   0.2552   1.3117   1.8106   2.1541   2.4985

          k = 0.1667 0.2887 0.0000 ( 14482 PWs)   bands (ev):

   -61.4318 -35.6502 -35.5354 -35.3920 -15.3118 -13.4597  -6.7332  -6.4217
    -5.2631  -4.9786  -3.8238  -2.9432  -2.3853  -1.7980  -1.5563  -1.3032
    -0.3316  -0.0978   0.9288   1.6527   1.8990   2.8314

          k = 0.1667 0.3849 0.0000 ( 14494 PWs)   bands (ev):

   -61.4234 -35.6352 -35.5980 -35.4276 -14.9338 -13.1430  -7.2582  -6.2196
    -5.6330  -5.2019  -3.9215  -3.1378  -2.3880  -1.8031  -1.6184  -1.1372
    -0.5005   0.1703   0.7750   1.7877   2.0431   2.8030

          k = 0.1667 0.4811 0.0000 ( 14497 PWs)   bands (ev):

   -61.4173 -35.6439 -35.6225 -35.4548 -14.6243 -12.8808  -7.7013  -6.2719
    -5.7978  -5.2819  -4.0743  -3.3694  -2.3081  -1.6677  -1.4788  -1.0270
    -0.6792   0.2111   0.9847   1.8053   2.2195   2.6645

          k = 0.1667 0.5774 0.0000 ( 14512 PWs)   bands (ev):

   -61.4150 -35.6594 -35.6188 -35.4649 -14.5022 -12.7763  -7.8737  -6.3808
    -5.8030  -5.2764  -4.1567  -3.4657  -2.2731  -1.5819  -1.3198  -1.1584
    -0.5925   0.1396   1.3377   1.6275   2.0630   2.7395

          k = 0.2500 0.4330 0.0000 ( 14510 PWs)   bands (ev):

   -61.4173 -35.6260 -35.6182 -35.4776 -14.6315 -12.8826  -7.4902  -6.2471
    -5.9240  -5.3449  -4.1118  -3.3982  -2.2847  -1.6893  -1.6363  -1.0345
    -0.6380   0.2939   0.7441   1.7196   2.2114   2.9192

          k = 0.2500 0.5292 0.0000 ( 14528 PWs)   bands (ev):

   -61.4137 -35.6255 -35.6162 -35.5153 -14.4438 -12.7180  -7.5842  -6.5761
    -5.8587  -5.3814  -4.3023  -3.5673  -2.2111  -1.6194  -1.4487  -1.2680
    -0.3645   0.1694   1.0734   1.4527   1.9793   3.2989

          k = 0.3333 0.5774 0.0000 ( 14538 PWs)   bands (ev):

   -61.4124 -35.6141 -35.5932 -35.5628 -14.3764 -12.6560  -7.3902  -6.9042
    -5.7814  -5.4314  -4.4421  -3.6151  -2.1777  -1.5700  -1.4287  -1.4033
    -0.1049   0.1138   1.1728   1.1881   1.8395   4.2048

 ------ SPIN DOWN ----------


          k = 0.0000 0.0000 0.0000 ( 14351 PWs)   bands (ev):

   -61.4559 -35.6942 -35.3194 -35.3194 -16.2178 -14.2097  -7.4059  -4.9952
    -4.8222  -4.8222  -2.7704  -2.7704  -1.7137  -1.7137  -1.6192  -0.6146
    -0.6146  -0.5507   1.6840   2.2741   2.2741   2.5110

          k = 0.0000 0.0962 0.0000 ( 14357 PWs)   bands (ev):

   -61.4533 -35.6895 -35.3449 -35.3253 -16.1306 -14.1375  -7.3054  -5.0691
    -4.9087  -4.8310  -2.9882  -2.7436  -1.9120  -1.7029  -1.4958  -0.7622
    -0.6417  -0.4914   1.8668   2.1073   2.1931   2.3481

          k = 0.0000 0.1925 0.0000 ( 14400 PWs)   bands (ev):

   -61.4462 -35.6766 -35.4139 -35.3413 -15.8816 -13.9319  -7.0366  -5.6471
    -4.8661  -4.8043  -3.4527  -2.7164  -2.1730  -1.6390  -1.4991  -1.0889
    -0.6160  -0.3541   1.5648   1.8401   2.1286   2.4884

          k = 0.0000 0.2887 0.0000 ( 14448 PWs)   bands (ev):

   -61.4366 -35.6590 -35.5070 -35.3631 -15.5106 -13.6261  -6.7393  -6.3957
    -4.9377  -4.8800  -3.7973  -2.7580  -2.3682  -1.6424  -1.5049  -1.4098
    -0.3767  -0.2656   1.1745   1.8312   1.9114   2.8092

          k = 0.0000 0.3849 0.0000 ( 14480 PWs)   bands (ev):

   -61.4269 -35.6417 -35.5984 -35.3848 -15.0918 -13.2810  -7.2865  -6.4202
    -5.1899  -5.0322  -3.9355  -2.8439  -2.4591  -1.7653  -1.4284  -1.3295
    -0.3780   0.0218   1.1454   1.6185   2.0954   2.8355

          k = 0.0000 0.4811 0.0000 ( 14494 PWs)   bands (ev):

   -61.4198 -35.6661 -35.6274 -35.4006 -14.7426 -12.9919  -7.8984  -6.4534
    -5.3423  -5.1124  -4.0929  -2.9188  -2.4773  -1.6235  -1.2352  -1.1518
    -0.6542   0.2896   1.3181   1.6354   2.0735   2.7511

          k = 0.0000-0.5774 0.0000 ( 14518 PWs)   bands (ev):

   -61.4172 -35.6900 -35.6229 -35.4064 -14.6026 -12.8753  -8.1351  -6.5282
    -5.3528  -5.1436  -4.1763  -2.9476  -2.4743  -1.4035  -1.1150  -1.0691
    -0.9061   0.3368   1.4268   1.7393   1.9911   2.6805

          k = 0.0833 0.1443 0.0000 ( 14400 PWs)   bands (ev):

   -61.4485 -35.6807 -35.3908 -35.3375 -15.9624 -13.9985  -7.1196  -5.4424
    -4.9126  -4.7924  -3.3109  -2.7484  -2.0814  -1.6958  -1.4670  -0.9586
    -0.6677  -0.3838   1.7364   1.9178   2.0756   2.3024

          k = 0.0833 0.2406 0.0000 ( 14456 PWs)   bands (ev):

   -61.4401 -35.6654 -35.4685 -35.3598 -15.6516 -13.7419  -6.8155  -6.0866
    -4.9987  -4.7846  -3.6915  -2.8051  -2.2740  -1.6878  -1.5021  -1.2589
    -0.5116  -0.2464   1.2562   1.7913   1.9007   2.6561

          k = 0.0833 0.3368 0.0000 ( 14475 PWs)   bands (ev):

   -61.4305 -35.6478 -35.5568 -35.3855 -15.2537 -13.4130  -6.9179  -6.4371
    -5.1501  -5.0322  -3.8577  -2.8880  -2.4122  -1.7570  -1.5509  -1.3258
    -0.3156  -0.1085   1.0201   1.6419   2.0154   2.8292

          k = 0.0833 0.4330 0.0000 ( 14478 PWs)   bands (ev):

   -61.4221 -35.6373 -35.6276 -35.4077 -14.8627 -13.0886  -7.5885  -6.3468
    -5.4055  -5.1629  -3.9838  -3.0329  -2.4222  -1.7271  -1.4411  -1.1595
    -0.5352   0.1841   1.0668   1.6998   2.1935   2.6795

          k = 0.0833 0.5292 0.0000 ( 14500 PWs)   bands (ev):

   -61.4172 -35.6765 -35.6228 -35.4205 -14.6099 -12.8772  -8.0097  -6.4474
    -5.4763  -5.1954  -4.1242  -3.1354  -2.3928  -1.5435  -1.2208  -1.0266
    -0.8149   0.2550   1.3117   1.8106   2.1540   2.4985

          k = 0.1667 0.2887 0.0000 ( 14482 PWs)   bands (ev):

   -61.4318 -35.6502 -35.5354 -35.3920 -15.3118 -13.4597  -6.7332  -6.4217
    -5.2632  -4.9786  -3.8238  -2.9432  -2.3854  -1.7981  -1.5564  -1.3033
    -0.3317  -0.0979   0.9287   1.6527   1.8990   2.8315

          k = 0.1667 0.3849 0.0000 ( 14494 PWs)   bands (ev):

   -61.4234 -35.6351 -35.5980 -35.4276 -14.9338 -13.1431  -7.2583  -6.2196
    -5.6330  -5.2019  -3.9215  -3.1378  -2.3880  -1.8032  -1.6185  -1.1373
    -0.5006   0.1703   0.7749   1.7876   2.0431   2.8030

          k = 0.1667 0.4811 0.0000 ( 14497 PWs)   bands (ev):

   -61.4172 -35.6438 -35.6225 -35.4548 -14.6243 -12.8809  -7.7013  -6.2719
    -5.7978  -5.2819  -4.0743  -3.3695  -2.3082  -1.6678  -1.4788  -1.0271
    -0.6794   0.2110   0.9847   1.8052   2.2195   2.6645

          k = 0.1667 0.5774 0.0000 ( 14512 PWs)   bands (ev):

   -61.4150 -35.6594 -35.6188 -35.4649 -14.5022 -12.7763  -7.8737  -6.3808
    -5.8030  -5.2764  -4.1567  -3.4657  -2.2732  -1.5821  -1.3199  -1.1585
    -0.5926   0.1395   1.3377   1.6275   2.0630   2.7395

          k = 0.2500 0.4330 0.0000 ( 14510 PWs)   bands (ev):

   -61.4172 -35.6260 -35.6182 -35.4776 -14.6315 -12.8826  -7.4902  -6.2471
    -5.9240  -5.3449  -4.1118  -3.3982  -2.2848  -1.6894  -1.6364  -1.0346
    -0.6382   0.2937   0.7441   1.7196   2.2114   2.9192

          k = 0.2500 0.5292 0.0000 ( 14528 PWs)   bands (ev):

   -61.4137 -35.6255 -35.6162 -35.5153 -14.4438 -12.7180  -7.5843  -6.5761
    -5.8587  -5.3814  -4.3024  -3.5673  -2.2112  -1.6195  -1.4488  -1.2681
    -0.3646   0.1693   1.0734   1.4527   1.9793   3.2989

          k = 0.3333 0.5774 0.0000 ( 14538 PWs)   bands (ev):

   -61.4124 -35.6141 -35.5931 -35.5628 -14.3764 -12.6560  -7.3902  -6.9042
    -5.7814  -5.4314  -4.4422  -3.6151  -2.1779  -1.5702  -1.4288  -1.4033
    -0.1050   0.1136   1.1728   1.1881   1.8395   4.2047

     the Fermi energy is     0.1140 ev

!    total energy              =    -658.69152629 Ry
     total all-electron energy =    -12481.865417 Ry
     estimated scf accuracy    <       0.00000003 Ry
     smearing contrib. (-TS)   =      -0.00121197 Ry
     internal energy E=F+TS    =    -658.69031433 Ry

     The total energy is F=E-TS. E is the sum of the following terms:
     one-electron contribution =   -2366.46256111 Ry
     hartree contribution      =    1194.25312432 Ry
     xc contribution           =     -62.49476896 Ry
     ewald contribution        =     982.22688450 Ry
     DFT-D3 Dispersion         =      -0.06714176 Ry
     one-center paw contrib.   =    -406.14585131 Ry

     total magnetization       =    -0.00 Bohr mag/cell
     absolute magnetization    =     0.00 Bohr mag/cell

     convergence has been achieved in   8 iterations

     negative rho (up, down):  4.948E-05 4.948E-05

     Forces acting on atoms (cartesian axes, Ry/au):

     atom    1 type  1   force =     0.00000000   -0.00000000    0.02635445
     atom    2 type  2   force =     0.00000000   -0.00000000   -0.04136129
     atom    3 type  2   force =     0.00000000    0.00000000    0.02942876
     atom    4 type  3   force =     0.00000000   -0.00000000   -0.01442192
     The non-local contrib.  to forces
     atom    1 type  1   force =     0.00000000   -0.00000000   -0.08803763
     atom    2 type  2   force =     0.00000000   -0.00000000   -0.12632361
     atom    3 type  2   force =     0.00000000    0.00000000    0.27250123
     atom    4 type  3   force =     0.00000000    0.00000000    0.02236671
     The ionic contribution  to forces
     atom    1 type  1   force =     0.00000000    0.00000387  -40.36126577
     atom    2 type  2   force =    -0.00000000   -0.00000562   23.65315854
     atom    3 type  2   force =    -0.00000000   -0.00000248  -52.07754317
     atom    4 type  3   force =     0.00000000    0.00000424   68.78565039
     The local contribution  to forces
     atom    1 type  1   force =     0.00000000   -0.00000238   40.46446157
     atom    2 type  2   force =    -0.00000000    0.00000398  -23.57315009
     atom    3 type  2   force =    -0.00000000    0.00000174   51.83357366
     atom    4 type  3   force =    -0.00000000   -0.00000215  -68.77302228
     The core correction contribution to forces
     atom    1 type  1   force =     0.00000000   -0.00000000    0.00597852
     atom    2 type  2   force =     0.00000000    0.00000000    0.00585942
     atom    3 type  2   force =     0.00000000    0.00000000   -0.00244474
     atom    4 type  3   force =    -0.00000000   -0.00000003   -0.04293657
     The Hubbard contrib.    to forces
     atom    1 type  1   force =     0.00000000    0.00000000    0.00000000
     atom    2 type  2   force =     0.00000000    0.00000000    0.00000000
     atom    3 type  2   force =     0.00000000    0.00000000    0.00000000
     atom    4 type  3   force =     0.00000000    0.00000000    0.00000000
     The SCF correction term to forces
     atom    1 type  1   force =    -0.00000000   -0.00000000    0.00065288
     atom    2 type  2   force =     0.00000000    0.00000000   -0.00000817
     atom    3 type  2   force =     0.00000000   -0.00000000    0.00008908
     atom    4 type  3   force =     0.00000000    0.00000000    0.00009146

     DFT-D3 dispersion contribution to forces:
     atom    1 type  1   force =     0.00000000   -0.00000000    0.00447775
     atom    2 type  2   force =    -0.00000000    0.00000000   -0.00098452
     atom    3 type  2   force =    -0.00000000    0.00000000    0.00316555
     atom    4 type  3   force =     0.00000000   -0.00000000   -0.00665878

     Total force =     0.058986     Total SCF correction =     0.000665


     Computing stress (Cartesian axis) and pressure


     negative rho (up, down):  4.948E-05 4.948E-05
          total   stress  (Ry/bohr**3)                   (kbar)     P=      -10.74
  -0.00000103   0.00000000   0.00000000           -0.15        0.00        0.00
   0.00000000  -0.00000103   0.00000000            0.00       -0.15        0.00
   0.00000000   0.00000000  -0.00021705            0.00        0.00      -31.93

     Energy error            =      4.3E-03 Ry
     Gradient error          =      4.1E-02 Ry/Bohr

     number of scf cycles    =  14
     number of bfgs steps    =  13

     energy             old  =    -658.6871955984 Ry
     energy             new  =    -658.6915262946 Ry

     CASE: energy            _new < energy            _old

     new trust radius        =       0.1009081190 bohr
     new conv_thr            =       0.0000004136 Ry


ATOMIC_POSITIONS (crystal)
Mo            0.0000000000        0.0000000000        0.3847357896
S             0.6666666667        0.3333333333        0.4590966892
S             0.6666666667        0.3333333333        0.3233476731
Co           -0.0000000000       -0.0000000000        0.4954822893



     Writing config-only to output data dir ./tmp/scf.save/
     NEW-OLD atomic charge density approx. for the potential

     negative rho (up, down):  4.888E-05 4.888E-05
     Generating pointlists ...

     total cpu time spent up to now is      927.4 secs

     Self-consistent Calculation

     iteration #  1     ecut=    70.00 Ry     beta= 0.70
     Davidson diagonalization with overlap
     ethr =  1.00E-06,  avg # of iterations = 11.6

     negative rho (up, down):  4.975E-05 4.975E-05

     total cpu time spent up to now is      935.3 secs

     total energy              =    -658.69418085 Ry
     estimated scf accuracy    <       0.00429592 Ry

     total magnetization       =    -0.00 Bohr mag/cell
     absolute magnetization    =     0.00 Bohr mag/cell

     iteration #  2     ecut=    70.00 Ry     beta= 0.70
     Davidson diagonalization with overlap
     ethr =  1.23E-05,  avg # of iterations =  8.4

     negative rho (up, down):  4.987E-05 4.987E-05

     total cpu time spent up to now is      940.8 secs

     total energy              =    -658.67488755 Ry
     estimated scf accuracy    <       0.40783159 Ry

     total magnetization       =    -0.00 Bohr mag/cell
     absolute magnetization    =     0.00 Bohr mag/cell

     iteration #  3     ecut=    70.00 Ry     beta= 0.70
     Davidson diagonalization with overlap
     ethr =  1.23E-05,  avg # of iterations =  9.1

     negative rho (up, down):  5.016E-05 5.015E-05

     total cpu time spent up to now is      946.3 secs

     total energy              =    -658.69438468 Ry
     estimated scf accuracy    <       0.03312892 Ry

     total magnetization       =    -0.00 Bohr mag/cell
     absolute magnetization    =     0.00 Bohr mag/cell

     iteration #  4     ecut=    70.00 Ry     beta= 0.70
     Davidson diagonalization with overlap
     ethr =  1.23E-05,  avg # of iterations =  3.0

     negative rho (up, down):  5.016E-05 5.014E-05

     total cpu time spent up to now is      950.8 secs

     total energy              =    -658.69650728 Ry
     estimated scf accuracy    <       0.00150281 Ry

     total magnetization       =    -0.00 Bohr mag/cell
     absolute magnetization    =     0.00 Bohr mag/cell

     iteration #  5     ecut=    70.00 Ry     beta= 0.70
     Davidson diagonalization with overlap
     ethr =  4.29E-06,  avg # of iterations =  2.6

     negative rho (up, down):  5.028E-05 5.026E-05

     total cpu time spent up to now is      955.1 secs

     total energy              =    -658.69672577 Ry
     estimated scf accuracy    <       0.00032394 Ry

     total magnetization       =    -0.00 Bohr mag/cell
     absolute magnetization    =     0.00 Bohr mag/cell

     iteration #  6     ecut=    70.00 Ry     beta= 0.70
     Davidson diagonalization with overlap
     ethr =  9.26E-07,  avg # of iterations =  2.6

     negative rho (up, down):  5.029E-05 5.027E-05

     total cpu time spent up to now is      959.3 secs

     total energy              =    -658.69675710 Ry
     estimated scf accuracy    <       0.00006992 Ry

     total magnetization       =    -0.00 Bohr mag/cell
     absolute magnetization    =     0.00 Bohr mag/cell

     iteration #  7     ecut=    70.00 Ry     beta= 0.70
     Davidson diagonalization with overlap
     ethr =  2.00E-07,  avg # of iterations =  2.4

     negative rho (up, down):  5.032E-05 5.031E-05

     total cpu time spent up to now is      963.5 secs

     total energy              =    -658.69677030 Ry
     estimated scf accuracy    <       0.00000622 Ry

     total magnetization       =    -0.00 Bohr mag/cell
     absolute magnetization    =     0.00 Bohr mag/cell

     iteration #  8     ecut=    70.00 Ry     beta= 0.70
     Davidson diagonalization with overlap
     ethr =  1.78E-08,  avg # of iterations =  3.3

     negative rho (up, down):  5.035E-05 5.035E-05
 
     Magnetic moment per site  (integrated on atomic sphere of radius R)
     atom   1 (R=0.314)  charge= 10.7476  magn= -0.0000
     atom   2 (R=0.259)  charge=  2.9274  magn= -0.0000
     atom   3 (R=0.259)  charge=  2.8507  magn= -0.0000
     atom   4 (R=0.259)  charge=  6.6479  magn= -0.0001

     total cpu time spent up to now is      968.1 secs

     End of self-consistent calculation

 ------ SPIN UP ------------


          k = 0.0000 0.0000 0.0000 ( 14351 PWs)   bands (ev):

   -61.4670 -35.7174 -35.3446 -35.3446 -16.3229 -14.2610  -7.4881  -5.0472
    -4.9959  -4.9959  -2.9744  -2.9744  -1.8251  -1.8251  -1.6153  -0.6844
    -0.6844  -0.5143   1.8281   2.3116   2.3121   2.5856

          k = 0.0000 0.0962 0.0000 ( 14357 PWs)   bands (ev):

   -61.4644 -35.7125 -35.3706 -35.3506 -16.2353 -14.1906  -7.3885  -5.2303
    -5.0035  -4.9775  -3.1778  -2.9473  -2.0050  -1.8125  -1.5080  -0.8211
    -0.7097  -0.4614   1.9901   2.1487   2.2775   2.4211

          k = 0.0000 0.1925 0.0000 ( 14400 PWs)   bands (ev):

   -61.4573 -35.6991 -35.4411 -35.3669 -15.9859 -13.9902  -7.1230  -5.8117
    -5.0359  -4.8870  -3.5979  -2.9135  -2.2693  -1.7428  -1.5177  -1.1082
    -0.6861  -0.3515   1.6310   1.9167   2.1830   2.5827

          k = 0.0000 0.2887 0.0000 ( 14448 PWs)   bands (ev):

   -61.4475 -35.6808 -35.5361 -35.3890 -15.6154 -13.6933  -6.8338  -6.5501
    -5.1054  -4.9964  -3.8677  -2.9355  -2.4661  -1.6727  -1.6004  -1.4162
    -0.4574  -0.2844   1.2440   1.8574   1.9911   2.8874

          k = 0.0000 0.3849 0.0000 ( 14480 PWs)   bands (ev):

   -61.4377 -35.6630 -35.6292 -35.4111 -15.1993 -13.3596  -7.4150  -6.5419
    -5.2863  -5.1993  -3.9747  -2.9974  -2.5437  -1.7961  -1.4517  -1.4197
    -0.4231  -0.0601   1.2086   1.6118   2.1792   2.9239

          k = 0.0000 0.4811 0.0000 ( 14494 PWs)   bands (ev):

   -61.4305 -35.6985 -35.6479 -35.4271 -14.8542 -13.0811  -8.0151  -6.5776
    -5.4077  -5.2798  -4.1402  -3.0547  -2.5301  -1.6850  -1.2401  -1.2381
    -0.7274   0.2244   1.3632   1.5933   2.1494   2.8372

          k = 0.0000-0.5774 0.0000 ( 14518 PWs)   bands (ev):

   -61.4278 -35.7230 -35.6432 -35.4330 -14.7165 -12.9690  -8.2464  -6.6463
    -5.4109  -5.3111  -4.2315  -3.0773  -2.5115  -1.4821  -1.1566  -1.1133
    -0.9781   0.2803   1.4683   1.6825   2.0539   2.7636

          k = 0.0833 0.1443 0.0000 ( 14400 PWs)   bands (ev):

   -61.4595 -35.7033 -35.4176 -35.3631 -16.0668 -14.0551  -7.2047  -5.6095
    -5.0642  -4.8846  -3.4750  -2.9429  -2.1778  -1.8010  -1.4821  -0.9890
    -0.7367  -0.3736   1.7903   1.9917   2.1661   2.3712

          k = 0.0833 0.2406 0.0000 ( 14456 PWs)   bands (ev):

   -61.4511 -35.6875 -35.4969 -35.3857 -15.7560 -13.8055  -6.9040  -6.2493
    -5.1586  -4.8985  -3.7950  -2.9771  -2.3736  -1.7746  -1.5324  -1.2761
    -0.5867  -0.2557   1.3171   1.8483   1.9601   2.7273

          k = 0.0833 0.3368 0.0000 ( 14475 PWs)   bands (ev):

   -61.4413 -35.6692 -35.5870 -35.4119 -15.3599 -13.4868  -7.0475  -6.5580
    -5.3080  -5.1529  -3.9100  -3.0306  -2.5103  -1.8015  -1.5816  -1.3927
    -0.3768  -0.1545   1.0814   1.6550   2.0907   2.9173

          k = 0.0833 0.4330 0.0000 ( 14478 PWs)   bands (ev):

   -61.4328 -35.6667 -35.6507 -35.4345 -14.9726 -13.1736  -7.7120  -6.4726
    -5.5355  -5.2741  -4.0343  -3.1435  -2.5075  -1.7679  -1.4762  -1.2395
    -0.6053   0.1355   1.1137   1.6850   2.2675   2.7606

          k = 0.0833 0.5292 0.0000 ( 14500 PWs)   bands (ev):

   -61.4278 -35.7092 -35.6431 -35.4475 -14.7235 -12.9701  -8.1238  -6.5684
    -5.6084  -5.2832  -4.1894  -3.2295  -2.4569  -1.6105  -1.2262  -1.1157
    -0.8968   0.2142   1.3335   1.8075   2.1933   2.5737

          k = 0.1667 0.2887 0.0000 ( 14482 PWs)   bands (ev):

   -61.4426 -35.6716 -35.5652 -35.4185 -15.4176 -13.5317  -6.8520  -6.5565
    -5.4156  -5.1080  -3.8903  -3.0698  -2.4859  -1.8638  -1.5687  -1.3682
    -0.4056  -0.1192   0.9848   1.6674   1.9755   2.9182

          k = 0.1667 0.3849 0.0000 ( 14494 PWs)   bands (ev):

   -61.4341 -35.6563 -35.6287 -35.4547 -15.0427 -13.2253  -7.3890  -6.3471
    -5.7756  -5.3094  -3.9871  -3.2050  -2.4949  -1.8504  -1.6517  -1.2187
    -0.5760   0.1472   0.8317   1.7782   2.1175   2.8877

          k = 0.1667 0.4811 0.0000 ( 14497 PWs)   bands (ev):

   -61.4278 -35.6758 -35.6429 -35.4824 -14.7374 -12.9721  -7.8236  -6.4046
    -5.9377  -5.3563  -4.1541  -3.4075  -2.4027  -1.7153  -1.5134  -1.1195
    -0.7626   0.1928   1.0273   1.8188   2.2818   2.7037

          k = 0.1667 0.5774 0.0000 ( 14512 PWs)   bands (ev):

   -61.4256 -35.6918 -35.6389 -35.4927 -14.6174 -12.8713  -7.9916  -6.5095
    -5.9473  -5.3355  -4.2451  -3.4967  -2.3584  -1.6412  -1.3384  -1.2574
    -0.6753   0.1172   1.3578   1.6498   2.1315   2.7632

          k = 0.2500 0.4330 0.0000 ( 14510 PWs)   bands (ev):

   -61.4278 -35.6543 -35.6418 -35.5056 -14.7443 -12.9730  -7.6197  -6.3983
    -6.0335  -5.4384  -4.1877  -3.4138  -2.3897  -1.7396  -1.6775  -1.1270
    -0.7202   0.2751   0.8013   1.7561   2.2454   2.9820

          k = 0.2500 0.5292 0.0000 ( 14528 PWs)   bands (ev):

   -61.4242 -35.6572 -35.6363 -35.5439 -14.5597 -12.8137  -7.7147  -6.7081
    -5.9798  -5.4686  -4.3624  -3.5794  -2.3112  -1.6726  -1.4841  -1.3673
    -0.4424   0.1465   1.0955   1.4813   2.0452   3.3561

          k = 0.3333 0.5774 0.0000 ( 14538 PWs)   bands (ev):

   -61.4229 -35.6340 -35.6257 -35.5912 -14.4935 -12.7533  -7.5426  -7.0077
    -5.9004  -5.5404  -4.4671  -3.6341  -2.2809  -1.6115  -1.5408  -1.4372
    -0.1696   0.0701   1.1440   1.2335   1.9391   4.2028

 ------ SPIN DOWN ----------


          k = 0.0000 0.0000 0.0000 ( 14351 PWs)   bands (ev):

   -61.4671 -35.7174 -35.3447 -35.3447 -16.3229 -14.2610  -7.4881  -5.0472
    -4.9960  -4.9960  -2.9744  -2.9744  -1.8251  -1.8251  -1.6153  -0.6844
    -0.6844  -0.5143   1.8281   2.3116   2.3121   2.5856

          k = 0.0000 0.0962 0.0000 ( 14357 PWs)   bands (ev):

   -61.4645 -35.7125 -35.3707 -35.3507 -16.2354 -14.1906  -7.3885  -5.2304
    -5.0035  -4.9775  -3.1778  -2.9474  -2.0051  -1.8126  -1.5080  -0.8211
    -0.7097  -0.4615   1.9900   2.1487   2.2774   2.4168

          k = 0.0000 0.1925 0.0000 ( 14400 PWs)   bands (ev):

   -61.4573 -35.6991 -35.4412 -35.3669 -15.9859 -13.9902  -7.1230  -5.8117
    -5.0359  -4.8870  -3.5979  -2.9135  -2.2693  -1.7429  -1.5178  -1.1083
    -0.6862  -0.3516   1.6309   1.9167   2.1830   2.5826

          k = 0.0000 0.2887 0.0000 ( 14448 PWs)   bands (ev):

   -61.4475 -35.6808 -35.5362 -35.3891 -15.6154 -13.6933  -6.8338  -6.5501
    -5.1055  -4.9964  -3.8677  -2.9355  -2.4662  -1.6728  -1.6004  -1.4163
    -0.4575  -0.2845   1.2439   1.8573   1.9911   2.8874

          k = 0.0000 0.3849 0.0000 ( 14480 PWs)   bands (ev):

   -61.4377 -35.6631 -35.6292 -35.4111 -15.1993 -13.3596  -7.4150  -6.5420
    -5.2863  -5.1993  -3.9747  -2.9974  -2.5437  -1.7962  -1.4517  -1.4198
    -0.4232  -0.0601   1.2085   1.6117   2.1792   2.9239

          k = 0.0000 0.4811 0.0000 ( 14494 PWs)   bands (ev):

   -61.4305 -35.6986 -35.6479 -35.4272 -14.8542 -13.0811  -8.0151  -6.5776
    -5.4077  -5.2798  -4.1402  -3.0547  -2.5301  -1.6851  -1.2402  -1.2381
    -0.7275   0.2243   1.3632   1.5932   2.1494   2.8372

          k = 0.0000-0.5774 0.0000 ( 14518 PWs)   bands (ev):

   -61.4279 -35.7230 -35.6432 -35.4331 -14.7165 -12.9690  -8.2464  -6.6463
    -5.4109  -5.3112  -4.2315  -3.0773  -2.5115  -1.4823  -1.1567  -1.1133
    -0.9782   0.2801   1.4683   1.6824   2.0539   2.7636

          k = 0.0833 0.1443 0.0000 ( 14400 PWs)   bands (ev):

   -61.4596 -35.7034 -35.4176 -35.3631 -16.0668 -14.0551  -7.2047  -5.6095
    -5.0643  -4.8846  -3.4750  -2.9429  -2.1779  -1.8011  -1.4822  -0.9890
    -0.7368  -0.3736   1.7903   1.9916   2.1660   2.3711

          k = 0.0833 0.2406 0.0000 ( 14456 PWs)   bands (ev):

   -61.4511 -35.6875 -35.4969 -35.3857 -15.7561 -13.8055  -6.9040  -6.2493
    -5.1587  -4.8985  -3.7950  -2.9771  -2.3736  -1.7747  -1.5325  -1.2762
    -0.5867  -0.2558   1.3171   1.8483   1.9601   2.7273

          k = 0.0833 0.3368 0.0000 ( 14475 PWs)   bands (ev):

   -61.4413 -35.6693 -35.5870 -35.4119 -15.3599 -13.4868  -7.0476  -6.5580
    -5.3080  -5.1529  -3.9100  -3.0306  -2.5103  -1.8016  -1.5816  -1.3927
    -0.3769  -0.1545   1.0813   1.6550   2.0907   2.9173

          k = 0.0833 0.4330 0.0000 ( 14478 PWs)   bands (ev):

   -61.4328 -35.6668 -35.6507 -35.4345 -14.9726 -13.1736  -7.7121  -6.4726
    -5.5355  -5.2741  -4.0343  -3.1435  -2.5076  -1.7680  -1.4762  -1.2396
    -0.6054   0.1354   1.1136   1.6850   2.2675   2.7606

          k = 0.0833 0.5292 0.0000 ( 14500 PWs)   bands (ev):

   -61.4279 -35.7092 -35.6432 -35.4475 -14.7235 -12.9701  -8.1238  -6.5684
    -5.6084  -5.2832  -4.1894  -3.2295  -2.4570  -1.6106  -1.2262  -1.1158
    -0.8969   0.2141   1.3335   1.8074   2.1933   2.5737

          k = 0.1667 0.2887 0.0000 ( 14482 PWs)   bands (ev):

   -61.4426 -35.6717 -35.5652 -35.4185 -15.4176 -13.5317  -6.8520  -6.5565
    -5.4156  -5.1080  -3.8904  -3.0698  -2.4859  -1.8639  -1.5688  -1.3683
    -0.4057  -0.1193   0.9847   1.6673   1.9755   2.9182

          k = 0.1667 0.3849 0.0000 ( 14494 PWs)   bands (ev):

   -61.4341 -35.6564 -35.6288 -35.4547 -15.0427 -13.2253  -7.3890  -6.3471
    -5.7756  -5.3094  -3.9872  -3.2050  -2.4950  -1.8505  -1.6518  -1.2188
    -0.5761   0.1471   0.8317   1.7781   2.1175   2.8876

          k = 0.1667 0.4811 0.0000 ( 14497 PWs)   bands (ev):

   -61.4279 -35.6758 -35.6429 -35.4824 -14.7374 -12.9721  -7.8236  -6.4046
    -5.9377  -5.3563  -4.1541  -3.4075  -2.4027  -1.7154  -1.5135  -1.1196
    -0.7627   0.1927   1.0273   1.8188   2.2817   2.7037

          k = 0.1667 0.5774 0.0000 ( 14512 PWs)   bands (ev):

   -61.4256 -35.6919 -35.6389 -35.4927 -14.6174 -12.8713  -7.9916  -6.5095
    -5.9473  -5.3355  -4.2452  -3.4967  -2.3585  -1.6413  -1.3384  -1.2575
    -0.6754   0.1171   1.3578   1.6498   2.1315   2.7632

          k = 0.2500 0.4330 0.0000 ( 14510 PWs)   bands (ev):

   -61.4279 -35.6543 -35.6419 -35.5057 -14.7443 -12.9730  -7.6197  -6.3984
    -6.0336  -5.4384  -4.1877  -3.4138  -2.3897  -1.7397  -1.6775  -1.1271
    -0.7203   0.2750   0.8013   1.7560   2.2453   2.9820

          k = 0.2500 0.5292 0.0000 ( 14528 PWs)   bands (ev):

   -61.4243 -35.6573 -35.6364 -35.5440 -14.5597 -12.8137  -7.7148  -6.7081
    -5.9798  -5.4686  -4.3624  -3.5794  -2.3113  -1.6727  -1.4841  -1.3673
    -0.4425   0.1464   1.0955   1.4813   2.0452   3.3560

          k = 0.3333 0.5774 0.0000 ( 14538 PWs)   bands (ev):

   -61.4230 -35.6340 -35.6257 -35.5913 -14.4935 -12.7533  -7.5426  -7.0077
    -5.9005  -5.5405  -4.4671  -3.6341  -2.2811  -1.6116  -1.5409  -1.4372
    -0.1697   0.0700   1.1440   1.2335   1.9390   4.2028

     the Fermi energy is     0.0816 ev

!    total energy              =    -658.69677148 Ry
     total all-electron energy =    -12481.870662 Ry
     estimated scf accuracy    <       0.00000020 Ry
     smearing contrib. (-TS)   =      -0.00113588 Ry
     internal energy E=F+TS    =    -658.69563559 Ry

     The total energy is F=E-TS. E is the sum of the following terms:
     one-electron contribution =   -2393.30090116 Ry
     hartree contribution      =    1207.63026900 Ry
     xc contribution           =     -62.56049927 Ry
     ewald contribution        =     995.75536060 Ry
     DFT-D3 Dispersion         =      -0.06824444 Ry
     one-center paw contrib.   =    -406.15162033 Ry

     total magnetization       =    -0.00 Bohr mag/cell
     absolute magnetization    =     0.00 Bohr mag/cell

     convergence has been achieved in   8 iterations

     negative rho (up, down):  5.035E-05 5.035E-05

     Forces acting on atoms (cartesian axes, Ry/au):

     atom    1 type  1   force =     0.00000000    0.00000000    0.03690785
     atom    2 type  2   force =     0.00000000   -0.00000000   -0.04136386
     atom    3 type  2   force =     0.00000000    0.00000000    0.00369336
     atom    4 type  3   force =     0.00000000   -0.00000000    0.00076265
     The non-local contrib.  to forces
     atom    1 type  1   force =     0.00000000   -0.00000000   -0.09069430
     atom    2 type  2   force =     0.00000000    0.00000000   -0.12628409
     atom    3 type  2   force =     0.00000000    0.00000000    0.26094842
     atom    4 type  3   force =     0.00000000    0.00000000    0.01948362
     The ionic contribution  to forces
     atom    1 type  1   force =     0.00000000    0.00000413  -40.78267586
     atom    2 type  2   force =    -0.00000000   -0.00000584   23.93062220
     atom    3 type  2   force =    -0.00000000   -0.00000265  -52.24782412
     atom    4 type  3   force =     0.00000000    0.00000435   69.09987778
     The local contribution  to forces
     atom    1 type  1   force =    -0.00000000   -0.00000253   40.89900735
     atom    2 type  2   force =    -0.00000000    0.00000412  -23.85089580
     atom    3 type  2   force =    -0.00000000    0.00000184   51.98969345
     atom    4 type  3   force =     0.00000000   -0.00000220  -69.07025909
     The core correction contribution to forces
     atom    1 type  1   force =    -0.00000000   -0.00000000    0.00603096
     atom    2 type  2   force =     0.00000000    0.00000000    0.00571615
     atom    3 type  2   force =     0.00000000    0.00000000   -0.00190119
     atom    4 type  3   force =    -0.00000000   -0.00000003   -0.04283664
     The Hubbard contrib.    to forces
     atom    1 type  1   force =     0.00000000    0.00000000    0.00000000
     atom    2 type  2   force =     0.00000000    0.00000000    0.00000000
     atom    3 type  2   force =     0.00000000    0.00000000    0.00000000
     atom    4 type  3   force =     0.00000000    0.00000000    0.00000000
     The SCF correction term to forces
     atom    1 type  1   force =    -0.00000000   -0.00000000    0.00046455
     atom    2 type  2   force =     0.00000000    0.00000000    0.00060262
     atom    3 type  2   force =     0.00000000   -0.00000000   -0.00022791
     atom    4 type  3   force =     0.00000000    0.00000000    0.00183019

     DFT-D3 dispersion contribution to forces:
     atom    1 type  1   force =     0.00000000   -0.00000000    0.00494472
     atom    2 type  2   force =    -0.00000000    0.00000000   -0.00095537
     atom    3 type  2   force =    -0.00000000    0.00000000    0.00317429
     atom    4 type  3   force =     0.00000000   -0.00000000   -0.00716364

     Total force =     0.055564     Total SCF correction =     0.001995


     Computing stress (Cartesian axis) and pressure


     negative rho (up, down):  5.035E-05 5.035E-05
          total   stress  (Ry/bohr**3)                   (kbar)     P=       -1.29
   0.00004037   0.00000000   0.00000000            5.94        0.00        0.00
   0.00000000   0.00004037   0.00000000            0.00        5.94        0.00
   0.00000000   0.00000000  -0.00010706            0.00        0.00      -15.75

     Energy error            =      5.2E-03 Ry
     Gradient error          =      4.1E-02 Ry/Bohr

     number of scf cycles    =  15
     number of bfgs steps    =  14

     energy             old  =    -658.6915262946 Ry
     energy             new  =    -658.6967714774 Ry

     CASE: energy            _new < energy            _old

     new trust radius        =       0.1096140787 bohr
     new conv_thr            =       0.0000004136 Ry


ATOMIC_POSITIONS (crystal)
Mo            0.0000000000        0.0000000000        0.3860117948
S             0.6666666667        0.3333333333        0.4571515777
S             0.6666666667        0.3333333333        0.3256678840
Co           -0.0000000000       -0.0000000000        0.4938311847



     Writing config-only to output data dir ./tmp/scf.save/
     NEW-OLD atomic charge density approx. for the potential

     negative rho (up, down):  4.452E-05 4.452E-05
     Generating pointlists ...
     new r_m :   0.3088 (alat units)  1.8472 (a.u.) for type    1

     total cpu time spent up to now is      981.6 secs

     Self-consistent Calculation

     iteration #  1     ecut=    70.00 Ry     beta= 0.70
     Davidson diagonalization with overlap
     ethr =  1.00E-06,  avg # of iterations = 12.6

     negative rho (up, down):  4.821E-05 4.821E-05

     total cpu time spent up to now is      990.8 secs

     total energy              =    -658.69856263 Ry
     estimated scf accuracy    <       0.00392369 Ry

     total magnetization       =    -0.00 Bohr mag/cell
     absolute magnetization    =     0.00 Bohr mag/cell

     iteration #  2     ecut=    70.00 Ry     beta= 0.70
     Davidson diagonalization with overlap
     ethr =  1.12E-05,  avg # of iterations =  4.7

     negative rho (up, down):  4.958E-05 4.958E-05

     total cpu time spent up to now is      995.4 secs

     total energy              =    -658.69233220 Ry
     estimated scf accuracy    <       0.07786419 Ry

     total magnetization       =    -0.00 Bohr mag/cell
     absolute magnetization    =     0.00 Bohr mag/cell

     iteration #  3     ecut=    70.00 Ry     beta= 0.70
     Davidson diagonalization with overlap
     ethr =  1.12E-05,  avg # of iterations =  5.7

     negative rho (up, down):  5.034E-05 5.035E-05

     total cpu time spent up to now is     1000.5 secs

     total energy              =    -658.69664417 Ry
     estimated scf accuracy    <       0.08067653 Ry

     total magnetization       =    -0.00 Bohr mag/cell
     absolute magnetization    =     0.00 Bohr mag/cell

     iteration #  4     ecut=    70.00 Ry     beta= 0.70
     Davidson diagonalization with overlap
     ethr =  1.12E-05,  avg # of iterations =  3.6

     negative rho (up, down):  5.033E-05 5.033E-05

     total cpu time spent up to now is     1004.7 secs

     total energy              =    -658.70045190 Ry
     estimated scf accuracy    <       0.00148954 Ry

     total magnetization       =    -0.00 Bohr mag/cell
     absolute magnetization    =     0.00 Bohr mag/cell

     iteration #  5     ecut=    70.00 Ry     beta= 0.70
     Davidson diagonalization with overlap
     ethr =  4.26E-06,  avg # of iterations =  2.6

     negative rho (up, down):  5.047E-05 5.047E-05

     total cpu time spent up to now is     1008.8 secs

     total energy              =    -658.70069032 Ry
     estimated scf accuracy    <       0.00020459 Ry

     total magnetization       =    -0.00 Bohr mag/cell
     absolute magnetization    =     0.00 Bohr mag/cell

     iteration #  6     ecut=    70.00 Ry     beta= 0.70
     Davidson diagonalization with overlap
     ethr =  5.85E-07,  avg # of iterations =  2.3

     negative rho (up, down):  5.050E-05 5.050E-05

     total cpu time spent up to now is     1013.0 secs

     total energy              =    -658.70071697 Ry
     estimated scf accuracy    <       0.00003783 Ry

     total magnetization       =    -0.00 Bohr mag/cell
     absolute magnetization    =     0.00 Bohr mag/cell

     iteration #  7     ecut=    70.00 Ry     beta= 0.70
     Davidson diagonalization with overlap
     ethr =  1.08E-07,  avg # of iterations =  2.6

     negative rho (up, down):  5.053E-05 5.053E-05

     total cpu time spent up to now is     1017.1 secs

     total energy              =    -658.70072613 Ry
     estimated scf accuracy    <       0.00000706 Ry

     total magnetization       =    -0.00 Bohr mag/cell
     absolute magnetization    =     0.00 Bohr mag/cell

     iteration #  8     ecut=    70.00 Ry     beta= 0.70
     Davidson diagonalization with overlap
     ethr =  2.02E-08,  avg # of iterations =  2.6

     negative rho (up, down):  5.056E-05 5.056E-05
 
     Magnetic moment per site  (integrated on atomic sphere of radius R)
     atom   1 (R=0.309)  charge= 10.6507  magn= -0.0000
     atom   2 (R=0.259)  charge=  2.9380  magn= -0.0000
     atom   3 (R=0.259)  charge=  2.8616  magn= -0.0000
     atom   4 (R=0.259)  charge=  6.6493  magn= -0.0001

     total cpu time spent up to now is     1021.6 secs

     End of self-consistent calculation

 ------ SPIN UP ------------


          k = 0.0000 0.0000 0.0000 ( 14351 PWs)   bands (ev):

   -61.5210 -35.7894 -35.4143 -35.4143 -16.4427 -14.3200  -7.6033  -5.1120
    -5.1120  -5.0508  -3.1866  -3.1866  -1.9209  -1.9209  -1.7038  -0.7891
    -0.7891  -0.4580   1.9302   2.2678   2.2678   2.6399

          k = 0.0000 0.0962 0.0000 ( 14357 PWs)   bands (ev):

   -61.5183 -35.7842 -35.4410 -35.4204 -16.3547 -14.2523  -7.5036  -5.3514
    -5.1234  -4.9989  -3.3732  -3.1593  -2.1075  -1.9020  -1.5727  -0.9204
    -0.8136  -0.4075   2.0376   2.1645   2.3362   2.3980

          k = 0.0000 0.1925 0.0000 ( 14400 PWs)   bands (ev):

   -61.5111 -35.7701 -35.5134 -35.4370 -16.1043 -14.0596  -7.2385  -5.9562
    -5.1687  -4.9481  -3.7399  -3.1149  -2.3657  -1.8124  -1.5571  -1.1863
    -0.7988  -0.3140   1.6983   1.9310   2.2182   2.6962

          k = 0.0000 0.2887 0.0000 ( 14448 PWs)   bands (ev):

   -61.5011 -35.7508 -35.6109 -35.4596 -15.7344 -13.7741  -6.9402  -6.7251
    -5.2590  -5.1075  -3.9336  -3.1064  -2.5502  -1.7199  -1.6427  -1.4624
    -0.5939  -0.2645   1.3397   1.8773   2.0147   2.9242

          k = 0.0000 0.3849 0.0000 ( 14480 PWs)   bands (ev):

   -61.4911 -35.7322 -35.7062 -35.4820 -15.3221 -13.4532  -7.5569  -6.6983
    -5.3889  -5.3742  -4.0152  -3.1318  -2.6172  -1.8264  -1.4967  -1.4446
    -0.4201  -0.2056   1.3126   1.6066   2.2273   2.9887

          k = 0.0000 0.4811 0.0000 ( 14494 PWs)   bands (ev):

   -61.4838 -35.7771 -35.7164 -35.4984 -14.9832 -13.1850  -8.1538  -6.7296
    -5.5013  -5.4692  -4.1888  -3.1637  -2.5872  -1.6894  -1.2741  -1.2584
    -0.7396   0.1073   1.4558   1.5380   2.2063   2.9187

          k = 0.0000-0.5774 0.0000 ( 14518 PWs)   bands (ev):

   -61.4811 -35.8022 -35.7113 -35.5044 -14.8488 -13.0769  -8.3820  -6.7897
    -5.5079  -5.5056  -4.2858  -3.1776  -2.5597  -1.4825  -1.1733  -1.1241
    -1.0026   0.1860   1.5574   1.5928   2.0964   2.8543

          k = 0.0833 0.1443 0.0000 ( 14400 PWs)   bands (ev):

   -61.5134 -35.7746 -35.4892 -35.4331 -16.1853 -14.1220  -7.3198  -5.7474
    -5.1897  -4.9350  -3.6400  -3.1436  -2.2771  -1.8787  -1.5254  -1.0694
    -0.8462  -0.3328   1.8406   1.9850   2.2252   2.4292

          k = 0.0833 0.2406 0.0000 ( 14456 PWs)   bands (ev):

   -61.5047 -35.7578 -35.5706 -35.4562 -15.8745 -13.8819  -7.0182  -6.4086
    -5.3044  -5.0002  -3.8967  -3.1443  -2.4613  -1.8322  -1.5692  -1.3245
    -0.7146  -0.2324   1.4012   1.8606   1.9767   2.7766

          k = 0.0833 0.3368 0.0000 ( 14475 PWs)   bands (ev):

   -61.4948 -35.7386 -35.6631 -35.4829 -15.4807 -13.5752  -7.1846  -6.7147
    -5.4759  -5.2676  -3.9676  -3.1566  -2.5881  -1.8559  -1.6091  -1.4214
    -0.4497  -0.2084   1.1778   1.6680   2.1069   2.9889

          k = 0.0833 0.4330 0.0000 ( 14478 PWs)   bands (ev):

   -61.4861 -35.7436 -35.7203 -35.5060 -15.0989 -13.2735  -7.8555  -6.6306
    -5.7089  -5.3772  -4.0932  -3.2340  -2.5758  -1.7853  -1.5234  -1.2587
    -0.6205   0.0357   1.1945   1.6717   2.3021   2.8417

          k = 0.0833 0.5292 0.0000 ( 14500 PWs)   bands (ev):

   -61.4811 -35.7881 -35.7113 -35.5192 -14.8552 -13.0770  -8.2631  -6.7160
    -5.8028  -5.3680  -4.2638  -3.3021  -2.5119  -1.6137  -1.2567  -1.1344
    -0.9119   0.1395   1.3700   1.7966   2.2272   2.6425

          k = 0.1667 0.2887 0.0000 ( 14482 PWs)   bands (ev):

   -61.4961 -35.7411 -35.6407 -35.4897 -15.5378 -13.6181  -6.9742  -6.7268
    -5.5785  -5.2323  -3.9671  -3.1789  -2.5625  -1.9221  -1.5921  -1.3946
    -0.5059  -0.1368   1.0759   1.6756   1.9839   2.9967

          k = 0.1667 0.3849 0.0000 ( 14494 PWs)   bands (ev):

   -61.4874 -35.7252 -35.7057 -35.5267 -15.1673 -13.3222  -7.5378  -6.5147
    -5.9469  -5.4134  -4.0653  -3.2584  -2.5688  -1.9069  -1.6722  -1.2358
    -0.6076   0.0828   0.9275   1.7603   2.1299   2.9840

          k = 0.1667 0.4811 0.0000 ( 14497 PWs)   bands (ev):

   -61.4811 -35.7539 -35.7112 -35.5550 -14.8680 -13.0771  -7.9735  -6.5710
    -6.1284  -5.4271  -4.2471  -3.4377  -2.4573  -1.7273  -1.5670  -1.1388
    -0.7776   0.1487   1.0987   1.8023   2.3285   2.7454

          k = 0.1667 0.5774 0.0000 ( 14512 PWs)   bands (ev):

   -61.4788 -35.7704 -35.7069 -35.5655 -14.7509 -12.9794  -8.1402  -6.6693
    -6.1497  -5.3909  -4.3493  -3.5205  -2.4049  -1.6477  -1.3803  -1.2795
    -0.6849   0.0780   1.3691   1.6795   2.2243   2.7496

          k = 0.2500 0.4330 0.0000 ( 14510 PWs)   bands (ev):

   -61.4811 -35.7312 -35.7108 -35.5787 -14.8743 -13.0770  -7.7784  -6.5935
    -6.1847  -5.5269  -4.2709  -3.4337  -2.4418  -1.7878  -1.7071  -1.1469
    -0.7380   0.2339   0.8940   1.7513   2.2617   3.0516

          k = 0.2500 0.5292 0.0000 ( 14528 PWs)   bands (ev):

   -61.4774 -35.7352 -35.7042 -35.6177 -14.6939 -12.9217  -7.8843  -6.8823
    -6.1479  -5.5517  -4.4292  -3.6036  -2.3435  -1.6863  -1.5327  -1.3928
    -0.4579   0.1284   1.1115   1.4800   2.1665   3.3723

          k = 0.3333 0.5774 0.0000 ( 14538 PWs)   bands (ev):

   -61.4761 -35.7044 -35.7017 -35.6647 -14.6291 -12.8623  -7.7441  -7.1484
    -6.0665  -5.6457  -4.4961  -3.6732  -2.3031  -1.6136  -1.5789  -1.4812
    -0.1953   0.0723   1.0544   1.2716   2.1287   3.8274

 ------ SPIN DOWN ----------


          k = 0.0000 0.0000 0.0000 ( 14351 PWs)   bands (ev):

   -61.5210 -35.7894 -35.4143 -35.4143 -16.4427 -14.3200  -7.6033  -5.1121
    -5.1121  -5.0508  -3.1866  -3.1866  -1.9210  -1.9210  -1.7038  -0.7892
    -0.7892  -0.4580   1.9301   2.2678   2.2678   2.6398

          k = 0.0000 0.0962 0.0000 ( 14357 PWs)   bands (ev):

   -61.5184 -35.7842 -35.4410 -35.4204 -16.3547 -14.2523  -7.5036  -5.3514
    -5.1235  -4.9989  -3.3732  -3.1593  -2.1076  -1.9021  -1.5728  -0.9204
    -0.8136  -0.4076   2.0375   2.1645   2.3361   2.3980

          k = 0.0000 0.1925 0.0000 ( 14400 PWs)   bands (ev):

   -61.5111 -35.7701 -35.5134 -35.4370 -16.1043 -14.0596  -7.2385  -5.9562
    -5.1687  -4.9481  -3.7400  -3.1150  -2.3657  -1.8124  -1.5572  -1.1863
    -0.7988  -0.3141   1.6982   1.9310   2.2181   2.6962

          k = 0.0000 0.2887 0.0000 ( 14448 PWs)   bands (ev):

   -61.5011 -35.7508 -35.6109 -35.4596 -15.7344 -13.7741  -6.9402  -6.7251
    -5.2591  -5.1075  -3.9336  -3.1064  -2.5502  -1.7200  -1.6428  -1.4624
    -0.5939  -0.2646   1.3397   1.8772   2.0147   2.9242

          k = 0.0000 0.3849 0.0000 ( 14480 PWs)   bands (ev):

   -61.4911 -35.7322 -35.7062 -35.4821 -15.3222 -13.4532  -7.5569  -6.6983
    -5.3889  -5.3742  -4.0152  -3.1318  -2.6173  -1.8265  -1.4967  -1.4447
    -0.4201  -0.2057   1.3125   1.6066   2.2273   2.9886

          k = 0.0000 0.4811 0.0000 ( 14494 PWs)   bands (ev):

   -61.4838 -35.7771 -35.7164 -35.4985 -14.9832 -13.1850  -8.1538  -6.7296
    -5.5013  -5.4692  -4.1888  -3.1637  -2.5873  -1.6895  -1.2741  -1.2585
    -0.7397   0.1072   1.4558   1.5380   2.2063   2.9186

          k = 0.0000-0.5774 0.0000 ( 14518 PWs)   bands (ev):

   -61.4811 -35.8022 -35.7113 -35.5044 -14.8488 -13.0769  -8.3820  -6.7897
    -5.5079  -5.5056  -4.2858  -3.1776  -2.5598  -1.4826  -1.1733  -1.1241
    -1.0026   0.1859   1.5574   1.5927   2.0963   2.8542

          k = 0.0833 0.1443 0.0000 ( 14400 PWs)   bands (ev):

   -61.5134 -35.7746 -35.4892 -35.4331 -16.1853 -14.1220  -7.3198  -5.7474
    -5.1898  -4.9350  -3.6400  -3.1436  -2.2771  -1.8788  -1.5255  -1.0694
    -0.8462  -0.3328   1.8405   1.9850   2.2252   2.4291

          k = 0.0833 0.2406 0.0000 ( 14456 PWs)   bands (ev):

   -61.5048 -35.7579 -35.5706 -35.4562 -15.8745 -13.8819  -7.0182  -6.4086
    -5.3044  -5.0002  -3.8967  -3.1444  -2.4614  -1.8323  -1.5693  -1.3246
    -0.7147  -0.2325   1.4012   1.8606   1.9766   2.7766

          k = 0.0833 0.3368 0.0000 ( 14475 PWs)   bands (ev):

   -61.4948 -35.7386 -35.6631 -35.4829 -15.4807 -13.5752  -7.1846  -6.7147
    -5.4759  -5.2676  -3.9676  -3.1566  -2.5882  -1.8559  -1.6091  -1.4215
    -0.4498  -0.2085   1.1778   1.6680   2.1069   2.9889

          k = 0.0833 0.4330 0.0000 ( 14478 PWs)   bands (ev):

   -61.4861 -35.7436 -35.7203 -35.5060 -15.0989 -13.2735  -7.8555  -6.6307
    -5.7089  -5.3772  -4.0932  -3.2340  -2.5758  -1.7854  -1.5234  -1.2587
    -0.6206   0.0356   1.1944   1.6717   2.3021   2.8416

          k = 0.0833 0.5292 0.0000 ( 14500 PWs)   bands (ev):

   -61.4811 -35.7881 -35.7113 -35.5192 -14.8552 -13.0770  -8.2631  -6.7160
    -5.8028  -5.3680  -4.2638  -3.3021  -2.5120  -1.6138  -1.2567  -1.1345
    -0.9120   0.1394   1.3700   1.7966   2.2272   2.6424

          k = 0.1667 0.2887 0.0000 ( 14482 PWs)   bands (ev):

   -61.4961 -35.7411 -35.6407 -35.4897 -15.5378 -13.6181  -6.9743  -6.7268
    -5.5785  -5.2323  -3.9671  -3.1789  -2.5626  -1.9221  -1.5921  -1.3947
    -0.5060  -0.1369   1.0758   1.6756   1.9839   2.9966

          k = 0.1667 0.3849 0.0000 ( 14494 PWs)   bands (ev):

   -61.4875 -35.7252 -35.7057 -35.5267 -15.1673 -13.3222  -7.5379  -6.5147
    -5.9469  -5.4134  -4.0653  -3.2584  -2.5689  -1.9070  -1.6723  -1.2358
    -0.6077   0.0828   0.9274   1.7603   2.1299   2.9840

          k = 0.1667 0.4811 0.0000 ( 14497 PWs)   bands (ev):

   -61.4811 -35.7539 -35.7112 -35.5550 -14.8680 -13.0771  -7.9735  -6.5711
    -6.1284  -5.4271  -4.2471  -3.4377  -2.4574  -1.7274  -1.5670  -1.1389
    -0.7777   0.1486   1.0986   1.8023   2.3285   2.7454

          k = 0.1667 0.5774 0.0000 ( 14512 PWs)   bands (ev):

   -61.4788 -35.7705 -35.7069 -35.5655 -14.7509 -12.9794  -8.1402  -6.6693
    -6.1497  -5.3909  -4.3493  -3.5205  -2.4049  -1.6478  -1.3803  -1.2796
    -0.6850   0.0779   1.3691   1.6795   2.2243   2.7496

          k = 0.2500 0.4330 0.0000 ( 14510 PWs)   bands (ev):

   -61.4811 -35.7312 -35.7108 -35.5787 -14.8743 -13.0770  -7.7784  -6.5935
    -6.1847  -5.5269  -4.2709  -3.4337  -2.4419  -1.7879  -1.7071  -1.1470
    -0.7380   0.2338   0.8939   1.7513   2.2617   3.0515

          k = 0.2500 0.5292 0.0000 ( 14528 PWs)   bands (ev):

   -61.4774 -35.7352 -35.7042 -35.6178 -14.6939 -12.9217  -7.8843  -6.8823
    -6.1479  -5.5517  -4.4293  -3.6036  -2.3436  -1.6863  -1.5327  -1.3929
    -0.4580   0.1283   1.1115   1.4799   2.1664   3.3723

          k = 0.3333 0.5774 0.0000 ( 14538 PWs)   bands (ev):

   -61.4761 -35.7045 -35.7017 -35.6647 -14.6291 -12.8623  -7.7441  -7.1484
    -6.0665  -5.6457  -4.4961  -3.6732  -2.3032  -1.6137  -1.5789  -1.4812
    -0.1953   0.0722   1.0544   1.2716   2.1287   3.8274

     the Fermi energy is     0.0191 ev

!    total energy              =    -658.70072763 Ry
     total all-electron energy =    -12481.874618 Ry
     estimated scf accuracy    <       0.00000015 Ry
     smearing contrib. (-TS)   =      -0.00108834 Ry
     internal energy E=F+TS    =    -658.69963929 Ry

     The total energy is F=E-TS. E is the sum of the following terms:
     one-electron contribution =   -2424.68176141 Ry
     hartree contribution      =    1223.24985399 Ry
     xc contribution           =     -62.62486368 Ry
     ewald contribution        =    1011.58273391 Ry
     DFT-D3 Dispersion         =      -0.06957715 Ry
     one-center paw contrib.   =    -406.15602495 Ry

     total magnetization       =    -0.00 Bohr mag/cell
     absolute magnetization    =     0.00 Bohr mag/cell

     convergence has been achieved in   8 iterations

     negative rho (up, down):  5.056E-05 5.056E-05

     Forces acting on atoms (cartesian axes, Ry/au):

     atom    1 type  1   force =     0.00000000    0.00000000    0.03277763
     atom    2 type  2   force =     0.00000000    0.00000000   -0.02323617
     atom    3 type  2   force =     0.00000000    0.00000000   -0.01937757
     atom    4 type  3   force =     0.00000000    0.00000000    0.00983611
     The non-local contrib.  to forces
     atom    1 type  1   force =     0.00000000    0.00000000   -0.08480764
     atom    2 type  2   force =     0.00000000    0.00000000   -0.10923160
     atom    3 type  2   force =     0.00000000    0.00000000    0.25092407
     atom    4 type  3   force =     0.00000000    0.00000000    0.01041471
     The ionic contribution  to forces
     atom    1 type  1   force =     0.00000000    0.00000449  -41.22603246
     atom    2 type  2   force =    -0.00000000   -0.00000603   23.96503428
     atom    3 type  2   force =    -0.00000000   -0.00000277  -52.47681278
     atom    4 type  3   force =     0.00000000    0.00000431   69.73781096
     The local contribution  to forces
     atom    1 type  1   force =     0.00000000   -0.00000273   41.33206320
     atom    2 type  2   force =    -0.00000000    0.00000425  -23.88252388
     atom    3 type  2   force =    -0.00000000    0.00000192   52.20423398
     atom    4 type  3   force =    -0.00000000   -0.00000218  -69.68755767
     The core correction contribution to forces
     atom    1 type  1   force =    -0.00000000   -0.00000000    0.00552501
     atom    2 type  2   force =     0.00000000    0.00000000    0.00479047
     atom    3 type  2   force =     0.00000000    0.00000000   -0.00146405
     atom    4 type  3   force =    -0.00000000   -0.00000003   -0.04326852
     The Hubbard contrib.    to forces
     atom    1 type  1   force =     0.00000000    0.00000000    0.00000000
     atom    2 type  2   force =     0.00000000    0.00000000    0.00000000
     atom    3 type  2   force =     0.00000000    0.00000000    0.00000000
     atom    4 type  3   force =     0.00000000    0.00000000    0.00000000
     The SCF correction term to forces
     atom    1 type  1   force =    -0.00000000   -0.00000000    0.00054065
     atom    2 type  2   force =     0.00000000    0.00000000   -0.00040311
     atom    3 type  2   force =     0.00000000   -0.00000000    0.00046343
     atom    4 type  3   force =     0.00000000    0.00000000    0.00013830

     DFT-D3 dispersion contribution to forces:
     atom    1 type  1   force =     0.00000000   -0.00000000    0.00544820
     atom    2 type  2   force =    -0.00000000    0.00000000   -0.00094298
     atom    3 type  2   force =    -0.00000000    0.00000000    0.00323712
     atom    4 type  3   force =     0.00000000   -0.00000000   -0.00774234

     Total force =     0.045679     Total SCF correction =     0.000830


     Computing stress (Cartesian axis) and pressure


     negative rho (up, down):  5.056E-05 5.056E-05
          total   stress  (Ry/bohr**3)                   (kbar)     P=        7.49
   0.00006827   0.00000000   0.00000000           10.04        0.00        0.00
   0.00000000   0.00006827   0.00000000            0.00       10.04        0.00
   0.00000000  -0.00000000   0.00001612            0.00       -0.00        2.37

     Energy error            =      4.0E-03 Ry
     Gradient error          =      3.3E-02 Ry/Bohr

     number of scf cycles    =  16
     number of bfgs steps    =  15

     energy             old  =    -658.6967714774 Ry
     energy             new  =    -658.7007276327 Ry

     CASE: energy            _new < energy            _old

     new trust radius        =       0.0436600747 bohr
     new conv_thr            =       0.0000003278 Ry


ATOMIC_POSITIONS (crystal)
Mo            0.0000000000        0.0000000000        0.3867317521
S             0.6666666667        0.3333333333        0.4562274211
S             0.6666666667        0.3333333333        0.3259151202
Co           -0.0000000000       -0.0000000000        0.4937881478



     Writing config-only to output data dir ./tmp/scf.save/
     NEW-OLD atomic charge density approx. for the potential

     negative rho (up, down):  4.792E-05 4.792E-05
     Generating pointlists ...

     total cpu time spent up to now is     1034.9 secs

     Self-consistent Calculation

     iteration #  1     ecut=    70.00 Ry     beta= 0.70
     Davidson diagonalization with overlap
     ethr =  1.00E-06,  avg # of iterations =  7.4

     negative rho (up, down):  4.976E-05 4.976E-05

     total cpu time spent up to now is     1041.6 secs

     total energy              =    -658.70137432 Ry
     estimated scf accuracy    <       0.00089462 Ry

     total magnetization       =    -0.00 Bohr mag/cell
     absolute magnetization    =     0.00 Bohr mag/cell

     iteration #  2     ecut=    70.00 Ry     beta= 0.70
     Davidson diagonalization with overlap
     ethr =  2.56E-06,  avg # of iterations =  7.8

     negative rho (up, down):  5.057E-05 5.057E-05

     total cpu time spent up to now is     1046.9 secs

     total energy              =    -658.69627129 Ry
     estimated scf accuracy    <       0.12063099 Ry

     total magnetization       =    -0.00 Bohr mag/cell
     absolute magnetization    =     0.00 Bohr mag/cell

     iteration #  3     ecut=    70.00 Ry     beta= 0.70
     Davidson diagonalization with overlap
     ethr =  2.56E-06,  avg # of iterations =  8.1

     negative rho (up, down):  5.065E-05 5.065E-05

     total cpu time spent up to now is     1052.2 secs

     total energy              =    -658.70159388 Ry
     estimated scf accuracy    <       0.00451038 Ry

     total magnetization       =    -0.00 Bohr mag/cell
     absolute magnetization    =     0.00 Bohr mag/cell

     iteration #  4     ecut=    70.00 Ry     beta= 0.70
     Davidson diagonalization with overlap
     ethr =  2.56E-06,  avg # of iterations =  2.1

     negative rho (up, down):  5.073E-05 5.073E-05

     total cpu time spent up to now is     1056.4 secs

     total energy              =    -658.70200406 Ry
     estimated scf accuracy    <       0.00009106 Ry

     total magnetization       =    -0.00 Bohr mag/cell
     absolute magnetization    =     0.00 Bohr mag/cell

     iteration #  5     ecut=    70.00 Ry     beta= 0.70
     Davidson diagonalization with overlap
     ethr =  2.60E-07,  avg # of iterations =  2.3

     negative rho (up, down):  5.077E-05 5.077E-05

     total cpu time spent up to now is     1060.7 secs

     total energy              =    -658.70202624 Ry
     estimated scf accuracy    <       0.00001856 Ry

     total magnetization       =    -0.00 Bohr mag/cell
     absolute magnetization    =     0.00 Bohr mag/cell

     iteration #  6     ecut=    70.00 Ry     beta= 0.70
     Davidson diagonalization with overlap
     ethr =  5.30E-08,  avg # of iterations =  3.0

     negative rho (up, down):  5.080E-05 5.080E-05

     total cpu time spent up to now is     1064.9 secs

     total energy              =    -658.70203010 Ry
     estimated scf accuracy    <       0.00000340 Ry

     total magnetization       =    -0.00 Bohr mag/cell
     absolute magnetization    =     0.00 Bohr mag/cell

     iteration #  7     ecut=    70.00 Ry     beta= 0.70
     Davidson diagonalization with overlap
     ethr =  9.73E-09,  avg # of iterations =  3.9

     negative rho (up, down):  5.081E-05 5.081E-05

     total cpu time spent up to now is     1069.2 secs

     total energy              =    -658.70203109 Ry
     estimated scf accuracy    <       0.00000233 Ry

     total magnetization       =    -0.00 Bohr mag/cell
     absolute magnetization    =     0.00 Bohr mag/cell

     iteration #  8     ecut=    70.00 Ry     beta= 0.70
     Davidson diagonalization with overlap
     ethr =  6.65E-09,  avg # of iterations =  2.2

     negative rho (up, down):  5.082E-05 5.082E-05
 
     Magnetic moment per site  (integrated on atomic sphere of radius R)
     atom   1 (R=0.309)  charge= 10.6536  magn= -0.0000
     atom   2 (R=0.259)  charge=  2.9387  magn= -0.0000
     atom   3 (R=0.259)  charge=  2.8588  magn= -0.0000
     atom   4 (R=0.259)  charge=  6.6441  magn= -0.0001

     total cpu time spent up to now is     1073.4 secs

     End of self-consistent calculation

 ------ SPIN UP ------------


          k = 0.0000 0.0000 0.0000 ( 14351 PWs)   bands (ev):

   -61.5615 -35.8352 -35.4556 -35.4556 -16.4630 -14.3270  -7.6404  -5.0854
    -5.0854  -4.9949  -3.1851  -3.1851  -1.9126  -1.9126  -1.8028  -0.8180
    -0.8180  -0.4449   1.9200   2.1928   2.1929   2.6323

          k = 0.0000 0.0962 0.0000 ( 14357 PWs)   bands (ev):

   -61.5589 -35.8299 -35.4824 -35.4617 -16.3748 -14.2600  -7.5395  -5.3327
    -5.1011  -4.9518  -3.3702  -3.1584  -2.1260  -1.8890  -1.6293  -0.9532
    -0.8431  -0.3913   1.9879   2.1410   2.3133   2.3297

          k = 0.0000 0.1925 0.0000 ( 14400 PWs)   bands (ev):

   -61.5516 -35.8156 -35.5551 -35.4783 -16.1244 -14.0692  -7.2718  -5.9586
    -5.1594  -4.9196  -3.7311  -3.1113  -2.3754  -1.7850  -1.5794  -1.2402
    -0.8349  -0.2858   1.7102   1.8746   2.1992   2.6535

          k = 0.0000 0.2887 0.0000 ( 14448 PWs)   bands (ev):

   -61.5416 -35.7960 -35.6530 -35.5010 -15.7553 -13.7856  -6.9672  -6.7499
    -5.2685  -5.0993  -3.9224  -3.0925  -2.5490  -1.7429  -1.5971  -1.4966
    -0.6440  -0.2279   1.3757   1.8722   1.9593   2.8895

          k = 0.0000 0.3849 0.0000 ( 14480 PWs)   bands (ev):

   -61.5315 -35.7767 -35.7491 -35.5235 -15.3450 -13.4651  -7.5844  -6.7306
    -5.4011  -5.3970  -4.0099  -3.1069  -2.6214  -1.8342  -1.5100  -1.3878
    -0.3762  -0.2635   1.3600   1.6071   2.1921   2.9686

          k = 0.0000 0.4811 0.0000 ( 14494 PWs)   bands (ev):

   -61.5242 -35.8197 -35.7615 -35.5400 -15.0088 -13.1958  -8.1852  -6.7556
    -5.5330  -5.5072  -4.1851  -3.1324  -2.6029  -1.6450  -1.3006  -1.1975
    -0.6872   0.0586   1.5098   1.5249   2.1924   2.9162

          k = 0.0000-0.5774 0.0000 ( 14518 PWs)   bands (ev):

   -61.5215 -35.8449 -35.7563 -35.5460 -14.8759 -13.0868  -8.4142  -6.8127
    -5.5518  -5.5473  -4.2800  -3.1444  -2.5802  -1.4188  -1.1409  -1.1114
    -0.9570   0.1483   1.5631   1.6117   2.0890   2.8632

          k = 0.0833 0.1443 0.0000 ( 14400 PWs)   bands (ev):

   -61.5539 -35.8202 -35.5308 -35.4744 -16.2054 -14.1311  -7.3539  -5.7426
    -5.1791  -4.8993  -3.6343  -3.1412  -2.2895  -1.8583  -1.5554  -1.1129
    -0.8811  -0.3092   1.8475   1.9143   2.1991   2.4344

          k = 0.0833 0.2406 0.0000 ( 14456 PWs)   bands (ev):

   -61.5452 -35.8032 -35.6126 -35.4976 -15.8949 -13.8928  -7.0500  -6.4218
    -5.3127  -4.9832  -3.8898  -3.1317  -2.4608  -1.8110  -1.5765  -1.3553
    -0.7636  -0.2006   1.4383   1.8013   1.9504   2.7653

          k = 0.0833 0.3368 0.0000 ( 14475 PWs)   bands (ev):

   -61.5352 -35.7836 -35.7055 -35.5244 -15.5026 -13.5872  -7.2084  -6.7492
    -5.5020  -5.2646  -3.9649  -3.1342  -2.5829  -1.8715  -1.6078  -1.3858
    -0.4779  -0.1961   1.2209   1.6689   2.0468   2.9778

          k = 0.0833 0.4330 0.0000 ( 14478 PWs)   bands (ev):

   -61.5265 -35.7858 -35.7656 -35.5475 -15.1233 -13.2847  -7.8865  -6.6610
    -5.7520  -5.3868  -4.0948  -3.2120  -2.5729  -1.7727  -1.5297  -1.2040
    -0.5757  -0.0076   1.2350   1.6750   2.2616   2.8462

          k = 0.0833 0.5292 0.0000 ( 14500 PWs)   bands (ev):

   -61.5215 -35.8308 -35.7563 -35.5608 -14.8820 -13.0869  -8.2964  -6.7406
    -5.8627  -5.3847  -4.2666  -3.2798  -2.5139  -1.5611  -1.2805  -1.0725
    -0.8546   0.1079   1.3906   1.7978   2.2278   2.6377

          k = 0.1667 0.2887 0.0000 ( 14482 PWs)   bands (ev):

   -61.5366 -35.7862 -35.6830 -35.5312 -15.5592 -13.6299  -6.9951  -6.7623
    -5.6074  -5.2250  -3.9694  -3.1551  -2.5526  -1.9237  -1.6031  -1.3598
    -0.5436  -0.1168   1.1201   1.6649   1.9205   2.9945

          k = 0.1667 0.3849 0.0000 ( 14494 PWs)   bands (ev):

   -61.5279 -35.7696 -35.7487 -35.5683 -15.1910 -13.3335  -7.5686  -6.5533
    -5.9869  -5.4124  -4.0709  -3.2451  -2.5492  -1.9187  -1.6619  -1.1790
    -0.5784   0.0564   0.9745   1.7579   2.0627   2.9998

          k = 0.1667 0.4811 0.0000 ( 14497 PWs)   bands (ev):

   -61.5215 -35.7963 -35.7562 -35.5967 -14.8941 -13.0868  -8.0098  -6.6046
    -6.1862  -5.4265  -4.2576  -3.4328  -2.4297  -1.7014  -1.5773  -1.0781
    -0.7224   0.1283   1.1360   1.7895   2.2933   2.7645

          k = 0.1667 0.5774 0.0000 ( 14512 PWs)   bands (ev):

   -61.5192 -35.8131 -35.7517 -35.6073 -14.7782 -12.9881  -8.1783  -6.7012
    -6.2136  -5.3899  -4.3641  -3.5157  -2.3778  -1.6024  -1.3989  -1.2169
    -0.6223   0.0641   1.3672   1.6978   2.2479   2.7229

          k = 0.2500 0.4330 0.0000 ( 14510 PWs)   bands (ev):

   -61.5215 -35.7735 -35.7560 -35.6205 -14.9001 -13.0866  -7.8169  -6.6438
    -6.2265  -5.5226  -4.2789  -3.4409  -2.4008  -1.7928  -1.6888  -1.0878
    -0.6876   0.2161   0.9424   1.7298   2.2237   3.0700

          k = 0.2500 0.5292 0.0000 ( 14528 PWs)   bands (ev):

   -61.5178 -35.7777 -35.7491 -35.6596 -14.7213 -12.9296  -7.9302  -6.9306
    -6.1945  -5.5461  -4.4403  -3.6193  -2.2895  -1.6515  -1.5387  -1.3357
    -0.4081   0.1354   1.1196   1.4606   2.2147   3.3438

          k = 0.3333 0.5774 0.0000 ( 14538 PWs)   bands (ev):

   -61.5165 -35.7471 -35.7465 -35.7065 -14.6570 -12.8695  -7.8012  -7.1901
    -6.1130  -5.6405  -4.5036  -3.6981  -2.2366  -1.5805  -1.5233  -1.4805
    -0.1694   0.1187   1.0245   1.2530   2.2215   3.7745

 ------ SPIN DOWN ----------


          k = 0.0000 0.0000 0.0000 ( 14351 PWs)   bands (ev):

   -61.5615 -35.8352 -35.4556 -35.4556 -16.4630 -14.3270  -7.6404  -5.0855
    -5.0855  -4.9950  -3.1851  -3.1851  -1.9127  -1.9127  -1.8028  -0.8181
    -0.8181  -0.4449   1.9200   2.1928   2.1929   2.6323

          k = 0.0000 0.0962 0.0000 ( 14357 PWs)   bands (ev):

   -61.5589 -35.8299 -35.4824 -35.4617 -16.3748 -14.2601  -7.5395  -5.3328
    -5.1012  -4.9519  -3.3702  -3.1584  -2.1261  -1.8890  -1.6293  -0.9533
    -0.8432  -0.3913   1.9879   2.1410   2.3134   2.3297

          k = 0.0000 0.1925 0.0000 ( 14400 PWs)   bands (ev):

   -61.5516 -35.8156 -35.5551 -35.4783 -16.1244 -14.0693  -7.2719  -5.9586
    -5.1595  -4.9196  -3.7311  -3.1113  -2.3755  -1.7851  -1.5794  -1.2402
    -0.8350  -0.2858   1.7102   1.8745   2.1992   2.6288

          k = 0.0000 0.2887 0.0000 ( 14448 PWs)   bands (ev):

   -61.5416 -35.7960 -35.6530 -35.5010 -15.7553 -13.7856  -6.9672  -6.7499
    -5.2686  -5.0993  -3.9224  -3.0925  -2.5490  -1.7429  -1.5972  -1.4966
    -0.6440  -0.2279   1.3756   1.8722   1.9593   2.8895

          k = 0.0000 0.3849 0.0000 ( 14480 PWs)   bands (ev):

   -61.5315 -35.7767 -35.7491 -35.5235 -15.3450 -13.4651  -7.5844  -6.7306
    -5.4011  -5.3970  -4.0099  -3.1070  -2.6215  -1.8342  -1.5101  -1.3879
    -0.3763  -0.2635   1.3600   1.6070   2.1920   2.9686

          k = 0.0000 0.4811 0.0000 ( 14494 PWs)   bands (ev):

   -61.5242 -35.8197 -35.7615 -35.5400 -15.0088 -13.1959  -8.1852  -6.7556
    -5.5330  -5.5073  -4.1851  -3.1324  -2.6029  -1.6450  -1.3007  -1.1975
    -0.6873   0.0585   1.5098   1.5249   2.1924   2.9162

          k = 0.0000-0.5774 0.0000 ( 14518 PWs)   bands (ev):

   -61.5215 -35.8449 -35.7563 -35.5460 -14.8759 -13.0868  -8.4142  -6.8127
    -5.5518  -5.5474  -4.2800  -3.1444  -2.5802  -1.4189  -1.1409  -1.1114
    -0.9571   0.1482   1.5630   1.6117   2.0890   2.8631

          k = 0.0833 0.1443 0.0000 ( 14400 PWs)   bands (ev):

   -61.5539 -35.8202 -35.5308 -35.4744 -16.2054 -14.1311  -7.3539  -5.7426
    -5.1791  -4.8993  -3.6343  -3.1412  -2.2896  -1.8583  -1.5554  -1.1130
    -0.8811  -0.3093   1.8474   1.9142   2.1991   2.4344

          k = 0.0833 0.2406 0.0000 ( 14456 PWs)   bands (ev):

   -61.5452 -35.8032 -35.6126 -35.4976 -15.8949 -13.8928  -7.0500  -6.4218
    -5.3127  -4.9833  -3.8898  -3.1317  -2.4608  -1.8110  -1.5766  -1.3553
    -0.7637  -0.2006   1.4383   1.8013   1.9504   2.7653

          k = 0.0833 0.3368 0.0000 ( 14475 PWs)   bands (ev):

   -61.5352 -35.7836 -35.7055 -35.5244 -15.5026 -13.5872  -7.2085  -6.7492
    -5.5020  -5.2647  -3.9649  -3.1342  -2.5830  -1.8716  -1.6078  -1.3859
    -0.4779  -0.1961   1.2209   1.6688   2.0468   2.9778

          k = 0.0833 0.4330 0.0000 ( 14478 PWs)   bands (ev):

   -61.5265 -35.7858 -35.7656 -35.5475 -15.1234 -13.2848  -7.8865  -6.6610
    -5.7521  -5.3868  -4.0948  -3.2120  -2.5729  -1.7727  -1.5298  -1.2040
    -0.5757  -0.0077   1.2349   1.6750   2.2616   2.8462

          k = 0.0833 0.5292 0.0000 ( 14500 PWs)   bands (ev):

   -61.5215 -35.8308 -35.7563 -35.5608 -14.8820 -13.0869  -8.2964  -6.7406
    -5.8628  -5.3847  -4.2667  -3.2798  -2.5140  -1.5612  -1.2806  -1.0725
    -0.8547   0.1079   1.3906   1.7978   2.2278   2.6377

          k = 0.1667 0.2887 0.0000 ( 14482 PWs)   bands (ev):

   -61.5366 -35.7862 -35.6830 -35.5312 -15.5593 -13.6299  -6.9952  -6.7623
    -5.6074  -5.2250  -3.9694  -3.1551  -2.5526  -1.9238  -1.6032  -1.3598
    -0.5437  -0.1168   1.1200   1.6649   1.9205   2.9945

          k = 0.1667 0.3849 0.0000 ( 14494 PWs)   bands (ev):

   -61.5279 -35.7696 -35.7487 -35.5683 -15.1910 -13.3335  -7.5687  -6.5533
    -5.9869  -5.4124  -4.0709  -3.2451  -2.5492  -1.9187  -1.6620  -1.1790
    -0.5785   0.0563   0.9745   1.7579   2.0627   2.9998

          k = 0.1667 0.4811 0.0000 ( 14497 PWs)   bands (ev):

   -61.5215 -35.7963 -35.7562 -35.5967 -14.8941 -13.0868  -8.0098  -6.6046
    -6.1863  -5.4265  -4.2576  -3.4328  -2.4298  -1.7014  -1.5774  -1.0781
    -0.7225   0.1283   1.1360   1.7895   2.2932   2.7645

          k = 0.1667 0.5774 0.0000 ( 14512 PWs)   bands (ev):

   -61.5192 -35.8131 -35.7517 -35.6073 -14.7782 -12.9881  -8.1783  -6.7012
    -6.2136  -5.3900  -4.3641  -3.5157  -2.3778  -1.6024  -1.3989  -1.2170
    -0.6224   0.0640   1.3672   1.6978   2.2479   2.7229

          k = 0.2500 0.4330 0.0000 ( 14510 PWs)   bands (ev):

   -61.5215 -35.7735 -35.7559 -35.6205 -14.9001 -13.0866  -7.8169  -6.6438
    -6.2265  -5.5226  -4.2789  -3.4409  -2.4008  -1.7928  -1.6888  -1.0878
    -0.6877   0.2161   0.9423   1.7298   2.2237   3.0700

          k = 0.2500 0.5292 0.0000 ( 14528 PWs)   bands (ev):

   -61.5178 -35.7777 -35.7491 -35.6596 -14.7213 -12.9297  -7.9302  -6.9306
    -6.1945  -5.5461  -4.4403  -3.6193  -2.2896  -1.6516  -1.5387  -1.3358
    -0.4082   0.1354   1.1196   1.4605   2.2147   3.3438

          k = 0.3333 0.5774 0.0000 ( 14538 PWs)   bands (ev):

   -61.5165 -35.7471 -35.7465 -35.7065 -14.6570 -12.8695  -7.8012  -7.1901
    -6.1130  -5.6405  -4.5037  -3.6981  -2.2367  -1.5805  -1.5234  -1.4805
    -0.1694   0.1186   1.0245   1.2530   2.2214   3.7745

     the Fermi energy is    -0.0077 ev

!    total energy              =    -658.70203134 Ry
     total all-electron energy =    -12481.875922 Ry
     estimated scf accuracy    <       0.00000007 Ry
     smearing contrib. (-TS)   =      -0.00107650 Ry
     internal energy E=F+TS    =    -658.70095483 Ry

     The total energy is F=E-TS. E is the sum of the following terms:
     one-electron contribution =   -2431.05759084 Ry
     hartree contribution      =    1226.42483365 Ry
     xc contribution           =     -62.62674297 Ry
     ewald contribution        =    1014.78335836 Ry
     DFT-D3 Dispersion         =      -0.06985890 Ry
     one-center paw contrib.   =    -406.15495413 Ry

     total magnetization       =    -0.00 Bohr mag/cell
     absolute magnetization    =     0.00 Bohr mag/cell

     convergence has been achieved in   8 iterations

     negative rho (up, down):  5.082E-05 5.082E-05

     Forces acting on atoms (cartesian axes, Ry/au):

     atom    1 type  1   force =     0.00000000   -0.00000000    0.01626025
     atom    2 type  2   force =     0.00000000   -0.00000000   -0.00792281
     atom    3 type  2   force =     0.00000000    0.00000000   -0.01421438
     atom    4 type  3   force =     0.00000000   -0.00000000    0.00587694
     The non-local contrib.  to forces
     atom    1 type  1   force =     0.00000000   -0.00000000   -0.07608713
     atom    2 type  2   force =     0.00000000    0.00000000   -0.09544139
     atom    3 type  2   force =     0.00000000    0.00000000    0.25373481
     atom    4 type  3   force =     0.00000000    0.00000000    0.00519047
     The ionic contribution  to forces
     atom    1 type  1   force =     0.00000000    0.00000456  -41.26130986
     atom    2 type  2   force =    -0.00000000   -0.00000604   23.77656726
     atom    3 type  2   force =    -0.00000000   -0.00000271  -52.56360261
     atom    4 type  3   force =     0.00000000    0.00000419   70.04834521
     The local contribution  to forces
     atom    1 type  1   force =     0.00000000   -0.00000278   41.34300961
     atom    2 type  2   force =    -0.00000000    0.00000426  -23.69287941
     atom    3 type  2   force =    -0.00000000    0.00000188   52.29412573
     atom    4 type  3   force =    -0.00000000   -0.00000213  -69.99674820
     The core correction contribution to forces
     atom    1 type  1   force =     0.00000000   -0.00000000    0.00494683
     atom    2 type  2   force =     0.00000000    0.00000000    0.00409587
     atom    3 type  2   force =     0.00000000    0.00000000   -0.00160086
     atom    4 type  3   force =    -0.00000000   -0.00000002   -0.04360450
     The Hubbard contrib.    to forces
     atom    1 type  1   force =     0.00000000    0.00000000    0.00000000
     atom    2 type  2   force =     0.00000000    0.00000000    0.00000000
     atom    3 type  2   force =     0.00000000    0.00000000    0.00000000
     atom    4 type  3   force =     0.00000000    0.00000000    0.00000000
     The SCF correction term to forces
     atom    1 type  1   force =    -0.00000000   -0.00000000    0.00016244
     atom    2 type  2   force =     0.00000000    0.00000000    0.00067406
     atom    3 type  2   force =    -0.00000000   -0.00000000   -0.00012319
     atom    4 type  3   force =     0.00000000    0.00000000    0.00058887

     DFT-D3 dispersion contribution to forces:
     atom    1 type  1   force =     0.00000000   -0.00000000    0.00554937
     atom    2 type  2   force =    -0.00000000    0.00000000   -0.00092819
     atom    3 type  2   force =    -0.00000000    0.00000000    0.00326273
     atom    4 type  3   force =     0.00000000   -0.00000000   -0.00788390

     Total force =     0.023744     Total SCF correction =     0.000918


     Computing stress (Cartesian axis) and pressure


     negative rho (up, down):  5.082E-05 5.082E-05
          total   stress  (Ry/bohr**3)                   (kbar)     P=        6.74
   0.00005570   0.00000000   0.00000000            8.19        0.00        0.00
   0.00000000   0.00005570  -0.00000000            0.00        8.19       -0.00
   0.00000000   0.00000000   0.00002612            0.00        0.00        3.84

     Energy error            =      1.3E-03 Ry
     Gradient error          =      1.6E-02 Ry/Bohr

     number of scf cycles    =  17
     number of bfgs steps    =  16

     energy             old  =    -658.7007276327 Ry
     energy             new  =    -658.7020313356 Ry

     CASE: energy            _new < energy            _old

     new trust radius        =       0.0201113759 bohr
     new conv_thr            =       0.0000001304 Ry


ATOMIC_POSITIONS (crystal)
Mo            0.0000000000        0.0000000000        0.3871143096
S             0.6666666667        0.3333333333        0.4558863267
S             0.6666666667        0.3333333333        0.3254894209
Co           -0.0000000000       -0.0000000000        0.4941723840



     Writing config-only to output data dir ./tmp/scf.save/
     NEW-OLD atomic charge density approx. for the potential

     negative rho (up, down):  4.979E-05 4.979E-05
     Generating pointlists ...

     total cpu time spent up to now is     1086.5 secs

     Self-consistent Calculation

     iteration #  1     ecut=    70.00 Ry     beta= 0.70
     Davidson diagonalization with overlap
     ethr =  1.00E-06,  avg # of iterations =  8.0

     negative rho (up, down):  5.051E-05 5.051E-05

     total cpu time spent up to now is     1093.0 secs

     total energy              =    -658.70111344 Ry
     estimated scf accuracy    <       0.00164501 Ry

     total magnetization       =    -0.00 Bohr mag/cell
     absolute magnetization    =     0.00 Bohr mag/cell

     iteration #  2     ecut=    70.00 Ry     beta= 0.70
     Davidson diagonalization with overlap
     ethr =  4.70E-06,  avg # of iterations =  8.3

     negative rho (up, down):  5.121E-05 5.121E-05

     total cpu time spent up to now is     1098.7 secs

     total energy              =    -658.68236144 Ry
     estimated scf accuracy    <       0.55222731 Ry

     total magnetization       =    -0.00 Bohr mag/cell
     absolute magnetization    =     0.00 Bohr mag/cell

     iteration #  3     ecut=    70.00 Ry     beta= 0.70
     Davidson diagonalization with overlap
     ethr =  4.70E-06,  avg # of iterations =  7.6

     negative rho (up, down):  5.095E-05 5.095E-05

     total cpu time spent up to now is     1103.8 secs

     total energy              =    -658.70241822 Ry
     estimated scf accuracy    <       0.00013878 Ry

     total magnetization       =    -0.00 Bohr mag/cell
     absolute magnetization    =     0.00 Bohr mag/cell

     iteration #  4     ecut=    70.00 Ry     beta= 0.70
     Davidson diagonalization with overlap
     ethr =  3.97E-07,  avg # of iterations =  3.3

     negative rho (up, down):  5.094E-05 5.094E-05

     total cpu time spent up to now is     1107.4 secs

     total energy              =    -658.70244427 Ry
     estimated scf accuracy    <       0.00017679 Ry

     total magnetization       =    -0.00 Bohr mag/cell
     absolute magnetization    =     0.00 Bohr mag/cell

     iteration #  5     ecut=    70.00 Ry     beta= 0.70
     Davidson diagonalization with overlap
     ethr =  3.97E-07,  avg # of iterations =  2.0

     negative rho (up, down):  5.094E-05 5.094E-05

     total cpu time spent up to now is     1110.9 secs

     total energy              =    -658.70245978 Ry
     estimated scf accuracy    <       0.00004017 Ry

     total magnetization       =    -0.00 Bohr mag/cell
     absolute magnetization    =     0.00 Bohr mag/cell

     iteration #  6     ecut=    70.00 Ry     beta= 0.70
     Davidson diagonalization with overlap
     ethr =  1.15E-07,  avg # of iterations =  2.1

     negative rho (up, down):  5.094E-05 5.094E-05

     total cpu time spent up to now is     1114.4 secs

     total energy              =    -658.70246470 Ry
     estimated scf accuracy    <       0.00000357 Ry

     total magnetization       =    -0.00 Bohr mag/cell
     absolute magnetization    =     0.00 Bohr mag/cell

     iteration #  7     ecut=    70.00 Ry     beta= 0.70
     Davidson diagonalization with overlap
     ethr =  1.02E-08,  avg # of iterations =  2.9

     negative rho (up, down):  5.093E-05 5.093E-05

     total cpu time spent up to now is     1118.4 secs

     total energy              =    -658.70246512 Ry
     estimated scf accuracy    <       0.00000055 Ry

     total magnetization       =    -0.00 Bohr mag/cell
     absolute magnetization    =     0.00 Bohr mag/cell

     iteration #  8     ecut=    70.00 Ry     beta= 0.70
     Davidson diagonalization with overlap
     ethr =  1.57E-09,  avg # of iterations =  2.7

     negative rho (up, down):  5.092E-05 5.092E-05
 
     Magnetic moment per site  (integrated on atomic sphere of radius R)
     atom   1 (R=0.309)  charge= 10.6487  magn= -0.0000
     atom   2 (R=0.259)  charge=  2.9367  magn= -0.0000
     atom   3 (R=0.259)  charge=  2.8526  magn= -0.0000
     atom   4 (R=0.259)  charge=  6.6396  magn= -0.0000

     total cpu time spent up to now is     1122.0 secs

     End of self-consistent calculation

 ------ SPIN UP ------------


          k = 0.0000 0.0000 0.0000 ( 14351 PWs)   bands (ev):

   -61.5793 -35.8527 -35.4693 -35.4693 -16.4470 -14.3111  -7.6398  -5.0286
    -5.0286  -4.9355  -3.1132  -3.1131  -1.8784  -1.8756  -1.8756  -0.8128
    -0.8127  -0.4442   1.8878   2.1344   2.1345   2.6182

          k = 0.0000 0.0962 0.0000 ( 14357 PWs)   bands (ev):

   -61.5766 -35.8475 -35.4960 -35.4754 -16.3590 -14.2440  -7.5379  -5.2815
    -5.0473  -4.8961  -3.3021  -3.0867  -2.1244  -1.8494  -1.6591  -0.9534
    -0.8389  -0.3869   1.9355   2.1080   2.2431   2.3192

          k = 0.0000 0.1925 0.0000 ( 14400 PWs)   bands (ev):

   -61.5693 -35.8332 -35.5684 -35.4920 -16.1089 -14.0523  -7.2675  -5.9217
    -5.1141  -4.8682  -3.6741  -3.0394  -2.3627  -1.7378  -1.5904  -1.2618
    -0.8350  -0.2679   1.6842   1.8445   2.1638   2.6278

          k = 0.0000 0.2887 0.0000 ( 14448 PWs)   bands (ev):

   -61.5593 -35.8136 -35.6660 -35.5146 -15.7406 -13.7664  -6.9586  -6.7267
    -5.2344  -5.0521  -3.8861  -3.0200  -2.5293  -1.7542  -1.5407  -1.5049
    -0.6507  -0.1985   1.3808   1.8595   1.9100   2.8546

          k = 0.0000 0.3849 0.0000 ( 14480 PWs)   bands (ev):

   -61.5494 -35.7942 -35.7620 -35.5370 -15.3314 -13.4420  -7.5705  -6.7154
    -5.3766  -5.3684  -3.9878  -3.0351  -2.6109  -1.8304  -1.5018  -1.3265
    -0.3361  -0.2748   1.3766   1.6089   2.1517   2.9364

          k = 0.0000 0.4811 0.0000 ( 14494 PWs)   bands (ev):

   -61.5420 -35.8319 -35.7793 -35.5534 -14.9963 -13.1681  -8.1764  -6.7337
    -5.5309  -5.4887  -4.1634  -3.0623  -2.6048  -1.6013  -1.3078  -1.1343
    -0.6352   0.0470   1.5308   1.5386   2.1689   2.8937

          k = 0.0000-0.5774 0.0000 ( 14518 PWs)   bands (ev):

   -61.5394 -35.8571 -35.7741 -35.5594 -14.8639 -13.0568  -8.4071  -6.7896
    -5.5611  -5.5307  -4.2551  -3.0751  -2.5868  -1.3589  -1.1552  -1.0478
    -0.9005   0.1394   1.5647   1.6430   2.0774   2.8481

          k = 0.0833 0.1443 0.0000 ( 14400 PWs)   bands (ev):

   -61.5716 -35.8377 -35.5442 -35.4881 -16.1898 -14.1145  -7.3505  -5.7005
    -5.1339  -4.8455  -3.5729  -3.0715  -2.2789  -1.8159  -1.5704  -1.1256
    -0.8809  -0.2959   1.8023   1.8955   2.1550   2.4261

          k = 0.0833 0.2406 0.0000 ( 14456 PWs)   bands (ev):

   -61.5630 -35.8208 -35.6257 -35.5112 -15.8799 -13.8746  -7.0440  -6.3917
    -5.2802  -4.9304  -3.8469  -3.0619  -2.4395  -1.7788  -1.5741  -1.3575
    -0.7720  -0.1759   1.4484   1.7447   1.9252   2.7480

          k = 0.0833 0.3368 0.0000 ( 14475 PWs)   bands (ev):

   -61.5530 -35.8012 -35.7183 -35.5379 -15.4885 -13.5658  -7.1913  -6.7373
    -5.4788  -5.2222  -3.9390  -3.0676  -2.5611  -1.8732  -1.5938  -1.3373
    -0.4797  -0.1708   1.2348   1.6668   1.9921   2.9520

          k = 0.0833 0.4330 0.0000 ( 14478 PWs)   bands (ev):

   -61.5444 -35.7981 -35.7836 -35.5609 -15.1104 -13.2589  -7.8757  -6.6426
    -5.7402  -5.3637  -4.0736  -3.1588  -2.5533  -1.7547  -1.5159  -1.1443
    -0.5309  -0.0171   1.2538   1.6838   2.2185   2.8310

          k = 0.0833 0.5292 0.0000 ( 14500 PWs)   bands (ev):

   -61.5394 -35.8430 -35.7741 -35.5742 -14.8698 -13.0572  -8.2892  -6.7179
    -5.8624  -5.3738  -4.2428  -3.2320  -2.4999  -1.5094  -1.2894  -1.0079
    -0.7967   0.1001   1.4082   1.8040   2.2233   2.6169

          k = 0.1667 0.2887 0.0000 ( 14482 PWs)   bands (ev):

   -61.5544 -35.8038 -35.6959 -35.5447 -15.5450 -13.6092  -6.9774  -6.7495
    -5.5891  -5.1747  -3.9423  -3.0919  -2.5254  -1.9131  -1.6007  -1.3137
    -0.5500  -0.0911   1.1377   1.6495   1.8683   2.9748

          k = 0.1667 0.3849 0.0000 ( 14494 PWs)   bands (ev):

   -61.5457 -35.7870 -35.7616 -35.5817 -15.1777 -13.3087  -7.5554  -6.5411
    -5.9756  -5.3757  -4.0470  -3.2118  -2.5103  -1.9120  -1.6414  -1.1190
    -0.5455   0.0549   0.9948   1.7646   2.0003   2.9900

          k = 0.1667 0.4811 0.0000 ( 14497 PWs)   bands (ev):

   -61.5394 -35.8086 -35.7741 -35.6099 -14.8817 -13.0576  -8.0019  -6.5853
    -6.1874  -5.4012  -4.2341  -3.4155  -2.3881  -1.6735  -1.5635  -1.0155
    -0.6682   0.1235   1.1565   1.7900   2.2490   2.7733

          k = 0.1667 0.5774 0.0000 ( 14512 PWs)   bands (ev):

   -61.5370 -35.8253 -35.7696 -35.6205 -14.7661 -12.9569  -8.1725  -6.6819
    -6.2172  -5.3697  -4.3413  -3.5000  -2.3390  -1.5557  -1.3978  -1.1528
    -0.5615   0.0625   1.3709   1.7125   2.2431   2.7081

          k = 0.2500 0.4330 0.0000 ( 14510 PWs)   bands (ev):

   -61.5394 -35.7858 -35.7739 -35.6337 -14.8876 -13.0577  -7.8082  -6.6346
    -6.2231  -5.4869  -4.2556  -3.4389  -2.3458  -1.7784  -1.6611  -1.0266
    -0.6379   0.2122   0.9687   1.7187   2.1853   3.0704

          k = 0.2500 0.5292 0.0000 ( 14528 PWs)   bands (ev):

   -61.5357 -35.7901 -35.7669 -35.6727 -14.7092 -12.8977  -7.9251  -6.9258
    -6.1907  -5.5102  -4.4252  -3.6240  -2.2295  -1.6133  -1.5239  -1.2749
    -0.3597   0.1476   1.1324   1.4483   2.2283   3.3162

          k = 0.3333 0.5774 0.0000 ( 14538 PWs)   bands (ev):

   -61.5344 -35.7643 -35.7594 -35.7196 -14.6449 -12.8364  -7.7972  -7.1895
    -6.1103  -5.5965  -4.4970  -3.7073  -2.1682  -1.5462  -1.4609  -1.4605
    -0.1429   0.1632   1.0306   1.2294   2.2614   3.7175

 ------ SPIN DOWN ----------


          k = 0.0000 0.0000 0.0000 ( 14351 PWs)   bands (ev):

   -61.5793 -35.8527 -35.4693 -35.4693 -16.4471 -14.3111  -7.6398  -5.0287
    -5.0287  -4.9355  -3.1132  -3.1132  -1.8784  -1.8756  -1.8756  -0.8128
    -0.8128  -0.4442   1.8877   2.1344   2.1345   2.6181

          k = 0.0000 0.0962 0.0000 ( 14357 PWs)   bands (ev):

   -61.5766 -35.8475 -35.4960 -35.4754 -16.3590 -14.2440  -7.5379  -5.2815
    -5.0473  -4.8961  -3.3022  -3.0867  -2.1244  -1.8494  -1.6591  -0.9534
    -0.8389  -0.3869   1.9355   2.1080   2.2430   2.3191

          k = 0.0000 0.1925 0.0000 ( 14400 PWs)   bands (ev):

   -61.5693 -35.8332 -35.5684 -35.4920 -16.1089 -14.0523  -7.2675  -5.9218
    -5.1141  -4.8682  -3.6741  -3.0394  -2.3627  -1.7378  -1.5905  -1.2618
    -0.8350  -0.2680   1.6842   1.8445   2.1638   2.6280

          k = 0.0000 0.2887 0.0000 ( 14448 PWs)   bands (ev):

   -61.5594 -35.8136 -35.6660 -35.5146 -15.7406 -13.7664  -6.9586  -6.7268
    -5.2344  -5.0521  -3.8861  -3.0200  -2.5293  -1.7542  -1.5407  -1.5050
    -0.6507  -0.1986   1.3808   1.8595   1.9100   2.8546

          k = 0.0000 0.3849 0.0000 ( 14480 PWs)   bands (ev):

   -61.5494 -35.7942 -35.7620 -35.5370 -15.3314 -13.4420  -7.5705  -6.7154
    -5.3766  -5.3684  -3.9878  -3.0351  -2.6109  -1.8304  -1.5018  -1.3265
    -0.3362  -0.2748   1.3766   1.6089   2.1516   2.9363

          k = 0.0000 0.4811 0.0000 ( 14494 PWs)   bands (ev):

   -61.5420 -35.8319 -35.7793 -35.5534 -14.9963 -13.1681  -8.1764  -6.7337
    -5.5309  -5.4887  -4.1634  -3.0623  -2.6048  -1.6013  -1.3078  -1.1343
    -0.6352   0.0469   1.5308   1.5386   2.1689   2.8937

          k = 0.0000-0.5774 0.0000 ( 14518 PWs)   bands (ev):

   -61.5394 -35.8571 -35.7741 -35.5594 -14.8639 -13.0569  -8.4071  -6.7896
    -5.5611  -5.5307  -4.2552  -3.0751  -2.5869  -1.3590  -1.1552  -1.0478
    -0.9005   0.1394   1.5647   1.6430   2.0773   2.8481

          k = 0.0833 0.1443 0.0000 ( 14400 PWs)   bands (ev):

   -61.5716 -35.8377 -35.5442 -35.4881 -16.1899 -14.1145  -7.3505  -5.7005
    -5.1340  -4.8455  -3.5729  -3.0715  -2.2789  -1.8160  -1.5704  -1.1256
    -0.8809  -0.2959   1.8023   1.8955   2.1550   2.4261

          k = 0.0833 0.2406 0.0000 ( 14456 PWs)   bands (ev):

   -61.5630 -35.8208 -35.6257 -35.5112 -15.8799 -13.8746  -7.0441  -6.3917
    -5.2802  -4.9304  -3.8469  -3.0619  -2.4395  -1.7788  -1.5742  -1.3575
    -0.7720  -0.1759   1.4484   1.7447   1.9252   2.7480

          k = 0.0833 0.3368 0.0000 ( 14475 PWs)   bands (ev):

   -61.5530 -35.8012 -35.7183 -35.5379 -15.4885 -13.5658  -7.1913  -6.7373
    -5.4788  -5.2222  -3.9390  -3.0676  -2.5611  -1.8732  -1.5938  -1.3373
    -0.4797  -0.1709   1.2347   1.6668   1.9921   2.9520

          k = 0.0833 0.4330 0.0000 ( 14478 PWs)   bands (ev):

   -61.5444 -35.7981 -35.7836 -35.5609 -15.1104 -13.2589  -7.8757  -6.6427
    -5.7402  -5.3637  -4.0736  -3.1588  -2.5533  -1.7548  -1.5159  -1.1444
    -0.5309  -0.0172   1.2538   1.6838   2.2185   2.8310

          k = 0.0833 0.5292 0.0000 ( 14500 PWs)   bands (ev):

   -61.5394 -35.8430 -35.7741 -35.5742 -14.8698 -13.0572  -8.2892  -6.7179
    -5.8624  -5.3738  -4.2428  -3.2320  -2.4999  -1.5095  -1.2895  -1.0080
    -0.7968   0.1001   1.4082   1.8040   2.2233   2.6169

          k = 0.1667 0.2887 0.0000 ( 14482 PWs)   bands (ev):

   -61.5544 -35.8038 -35.6959 -35.5447 -15.5450 -13.6092  -6.9774  -6.7495
    -5.5892  -5.1747  -3.9423  -3.0919  -2.5254  -1.9131  -1.6007  -1.3138
    -0.5500  -0.0911   1.1376   1.6494   1.8683   2.9748

          k = 0.1667 0.3849 0.0000 ( 14494 PWs)   bands (ev):

   -61.5457 -35.7870 -35.7617 -35.5817 -15.1777 -13.3087  -7.5554  -6.5411
    -5.9756  -5.3758  -4.0470  -3.2118  -2.5103  -1.9121  -1.6414  -1.1190
    -0.5456   0.0549   0.9948   1.7645   2.0003   2.9900

          k = 0.1667 0.4811 0.0000 ( 14497 PWs)   bands (ev):

   -61.5394 -35.8086 -35.7741 -35.6099 -14.8817 -13.0576  -8.0019  -6.5853
    -6.1874  -5.4012  -4.2341  -3.4155  -2.3881  -1.6735  -1.5635  -1.0156
    -0.6682   0.1235   1.1565   1.7900   2.2490   2.7733

          k = 0.1667 0.5774 0.0000 ( 14512 PWs)   bands (ev):

   -61.5370 -35.8253 -35.7696 -35.6205 -14.7661 -12.9569  -8.1725  -6.6819
    -6.2172  -5.3697  -4.3413  -3.5000  -2.3391  -1.5558  -1.3978  -1.1528
    -0.5615   0.0625   1.3709   1.7125   2.2431   2.7081

          k = 0.2500 0.4330 0.0000 ( 14510 PWs)   bands (ev):

   -61.5394 -35.7858 -35.7739 -35.6337 -14.8876 -13.0577  -7.8082  -6.6346
    -6.2231  -5.4869  -4.2556  -3.4389  -2.3458  -1.7784  -1.6611  -1.0267
    -0.6379   0.2121   0.9686   1.7187   2.1853   3.0703

          k = 0.2500 0.5292 0.0000 ( 14528 PWs)   bands (ev):

   -61.5357 -35.7901 -35.7669 -35.6727 -14.7092 -12.8977  -7.9251  -6.9258
    -6.1907  -5.5102  -4.4252  -3.6240  -2.2295  -1.6134  -1.5239  -1.2749
    -0.3598   0.1475   1.1323   1.4483   2.2283   3.3162

          k = 0.3333 0.5774 0.0000 ( 14538 PWs)   bands (ev):

   -61.5344 -35.7643 -35.7594 -35.7196 -14.6449 -12.8364  -7.7973  -7.1895
    -6.1103  -5.5965  -4.4970  -3.7073  -2.1682  -1.5463  -1.4609  -1.4605
    -0.1429   0.1632   1.0306   1.2294   2.2614   3.7175

     the Fermi energy is    -0.0101 ev

!    total energy              =    -658.70246517 Ry
     total all-electron energy =    -12481.876356 Ry
     estimated scf accuracy    <       0.00000006 Ry
     smearing contrib. (-TS)   =      -0.00115298 Ry
     internal energy E=F+TS    =    -658.70131219 Ry

     The total energy is F=E-TS. E is the sum of the following terms:
     one-electron contribution =   -2428.69734721 Ry
     hartree contribution      =    1225.24882820 Ry
     xc contribution           =     -62.61060953 Ry
     ewald contribution        =    1013.58014904 Ry
     DFT-D3 Dispersion         =      -0.06976519 Ry
     one-center paw contrib.   =    -406.15256750 Ry

     total magnetization       =    -0.00 Bohr mag/cell
     absolute magnetization    =     0.00 Bohr mag/cell

     convergence has been achieved in   8 iterations

     negative rho (up, down):  5.092E-05 5.092E-05

     Forces acting on atoms (cartesian axes, Ry/au):

     atom    1 type  1   force =     0.00000000    0.00000000    0.00165839
     atom    2 type  2   force =     0.00000000    0.00000000    0.00035443
     atom    3 type  2   force =     0.00000000    0.00000000   -0.00191562
     atom    4 type  3   force =     0.00000000    0.00000000   -0.00009720
     The non-local contrib.  to forces
     atom    1 type  1   force =     0.00000000    0.00000000   -0.06820507
     atom    2 type  2   force =     0.00000000   -0.00000000   -0.08748703
     atom    3 type  2   force =     0.00000000    0.00000000    0.25936545
     atom    4 type  3   force =     0.00000000    0.00000000    0.00315174
     The ionic contribution  to forces
     atom    1 type  1   force =     0.00000000    0.00000453  -41.18251124
     atom    2 type  2   force =    -0.00000000   -0.00000601   23.60286454
     atom    3 type  2   force =    -0.00000000   -0.00000262  -52.58467324
     atom    4 type  3   force =     0.00000000    0.00000410   70.16431993
     The local contribution  to forces
     atom    1 type  1   force =    -0.00000000   -0.00000276   41.24275022
     atom    2 type  2   force =    -0.00000000    0.00000424  -23.51750965
     atom    3 type  2   force =    -0.00000000    0.00000182   52.32205782
     atom    4 type  3   force =    -0.00000000   -0.00000209  -70.11549591
     The core correction contribution to forces
     atom    1 type  1   force =     0.00000000   -0.00000000    0.00447515
     atom    2 type  2   force =     0.00000000    0.00000000    0.00370417
     atom    3 type  2   force =     0.00000000    0.00000000   -0.00186937
     atom    4 type  3   force =    -0.00000000   -0.00000002   -0.04363798
     The Hubbard contrib.    to forces
     atom    1 type  1   force =     0.00000000    0.00000000    0.00000000
     atom    2 type  2   force =     0.00000000    0.00000000    0.00000000
     atom    3 type  2   force =     0.00000000    0.00000000    0.00000000
     atom    4 type  3   force =     0.00000000    0.00000000    0.00000000
     The SCF correction term to forces
     atom    1 type  1   force =     0.00000000    0.00000000   -0.00045356
     atom    2 type  2   force =     0.00000000    0.00000000   -0.00038285
     atom    3 type  2   force =    -0.00000000   -0.00000000   -0.00012768
     atom    4 type  3   force =     0.00000000    0.00000000   -0.00063100

     DFT-D3 dispersion contribution to forces:
     atom    1 type  1   force =     0.00000000   -0.00000000    0.00552899
     atom    2 type  2   force =    -0.00000000    0.00000000   -0.00090863
     atom    3 type  2   force =    -0.00000000    0.00000000    0.00325751
     atom    4 type  3   force =     0.00000000   -0.00000000   -0.00787787

     Total force =     0.002560     Total SCF correction =     0.000876
     SCF correction compared to forces is large: reduce conv_thr to get better values


     Computing stress (Cartesian axis) and pressure


     negative rho (up, down):  5.092E-05 5.092E-05
          total   stress  (Ry/bohr**3)                   (kbar)     P=        4.07
   0.00004059   0.00000000   0.00000000            5.97        0.00        0.00
   0.00000000   0.00004059  -0.00000000            0.00        5.97       -0.00
   0.00000000  -0.00000000   0.00000192            0.00       -0.00        0.28

     Energy error            =      4.3E-04 Ry
     Gradient error          =      1.9E-03 Ry/Bohr

     number of scf cycles    =  18
     number of bfgs steps    =  17

     energy             old  =    -658.7020313356 Ry
     energy             new  =    -658.7024651704 Ry

     CASE: energy            _new < energy            _old

     new trust radius        =       0.0037976080 bohr
     new conv_thr            =       0.0000000192 Ry


ATOMIC_POSITIONS (crystal)
Mo            0.0000000000        0.0000000000        0.3871394487
S             0.6666666667        0.3333333333        0.4559139791
S             0.6666666667        0.3333333333        0.3254090366
Co           -0.0000000000       -0.0000000000        0.4941999768



     Writing config-only to output data dir ./tmp/scf.save/
     NEW-OLD atomic charge density approx. for the potential

     negative rho (up, down):  5.086E-05 5.086E-05
     Generating pointlists ...

     total cpu time spent up to now is     1135.1 secs

     Self-consistent Calculation

     iteration #  1     ecut=    70.00 Ry     beta= 0.70
     Davidson diagonalization with overlap
     ethr =  1.00E-06,  avg # of iterations =  2.9

     Threshold (ethr) on eigenvalues was too large:
     Diagonalizing with lowered threshold

     Davidson diagonalization with overlap
     ethr =  7.98E-09,  avg # of iterations =  5.3

     negative rho (up, down):  5.090E-05 5.090E-05

     total cpu time spent up to now is     1143.2 secs

     total energy              =    -658.70246831 Ry
     estimated scf accuracy    <       0.00000365 Ry

     total magnetization       =    -0.00 Bohr mag/cell
     absolute magnetization    =     0.00 Bohr mag/cell

     iteration #  2     ecut=    70.00 Ry     beta= 0.70
     Davidson diagonalization with overlap
     ethr =  1.04E-08,  avg # of iterations =  4.6

     negative rho (up, down):  5.092E-05 5.092E-05

     total cpu time spent up to now is     1148.0 secs

     total energy              =    -658.70244821 Ry
     estimated scf accuracy    <       0.00047672 Ry

     total magnetization       =    -0.00 Bohr mag/cell
     absolute magnetization    =     0.00 Bohr mag/cell

     iteration #  3     ecut=    70.00 Ry     beta= 0.70
     Davidson diagonalization with overlap
     ethr =  1.04E-08,  avg # of iterations =  4.7

     negative rho (up, down):  5.091E-05 5.091E-05

     total cpu time spent up to now is     1152.3 secs

     total energy              =    -658.70246952 Ry
     estimated scf accuracy    <       0.00001228 Ry

     total magnetization       =    -0.00 Bohr mag/cell
     absolute magnetization    =     0.00 Bohr mag/cell

     iteration #  4     ecut=    70.00 Ry     beta= 0.70
     Davidson diagonalization with overlap
     ethr =  1.04E-08,  avg # of iterations =  2.1

     negative rho (up, down):  5.091E-05 5.091E-05

     total cpu time spent up to now is     1156.7 secs

     total energy              =    -658.70247068 Ry
     estimated scf accuracy    <       0.00000066 Ry

     total magnetization       =    -0.00 Bohr mag/cell
     absolute magnetization    =     0.00 Bohr mag/cell

     iteration #  5     ecut=    70.00 Ry     beta= 0.70
     Davidson diagonalization with overlap
     ethr =  1.87E-09,  avg # of iterations =  3.1

     negative rho (up, down):  5.091E-05 5.091E-05

     total cpu time spent up to now is     1161.0 secs

     total energy              =    -658.70247080 Ry
     estimated scf accuracy    <       0.00000044 Ry

     total magnetization       =    -0.00 Bohr mag/cell
     absolute magnetization    =     0.00 Bohr mag/cell

     iteration #  6     ecut=    70.00 Ry     beta= 0.70
     Davidson diagonalization with overlap
     ethr =  1.26E-09,  avg # of iterations =  2.1

     negative rho (up, down):  5.091E-05 5.091E-05

     total cpu time spent up to now is     1165.1 secs

     total energy              =    -658.70247085 Ry
     estimated scf accuracy    <       0.00000003 Ry

     total magnetization       =    -0.00 Bohr mag/cell
     absolute magnetization    =     0.00 Bohr mag/cell

     iteration #  7     ecut=    70.00 Ry     beta= 0.70
     Davidson diagonalization with overlap
     ethr =  7.68E-11,  avg # of iterations =  4.2

     negative rho (up, down):  5.091E-05 5.091E-05
 
     Magnetic moment per site  (integrated on atomic sphere of radius R)
     atom   1 (R=0.309)  charge= 10.6477  magn= -0.0000
     atom   2 (R=0.259)  charge=  2.9366  magn= -0.0000
     atom   3 (R=0.259)  charge=  2.8518  magn= -0.0000
     atom   4 (R=0.259)  charge=  6.6398  magn= -0.0000

     total cpu time spent up to now is     1169.8 secs

     End of self-consistent calculation

 ------ SPIN UP ------------


          k = 0.0000 0.0000 0.0000 ( 14351 PWs)   bands (ev):

   -61.5801 -35.8531 -35.4694 -35.4694 -16.4448 -14.3087  -7.6380  -5.0271
    -5.0271  -4.9315  -3.1018  -3.1018  -1.8857  -1.8742  -1.8742  -0.8108
    -0.8108  -0.4460   1.8890   2.1296   2.1296   2.6177

          k = 0.0000 0.0962 0.0000 ( 14357 PWs)   bands (ev):

   -61.5774 -35.8479 -35.4961 -35.4754 -16.3568 -14.2415  -7.5360  -5.2797
    -5.0458  -4.8921  -3.2915  -3.0753  -2.1262  -1.8480  -1.6629  -0.9519
    -0.8371  -0.3884   1.9316   2.1082   2.2364   2.3187

          k = 0.0000 0.1925 0.0000 ( 14400 PWs)   bands (ev):

   -61.5701 -35.8336 -35.5684 -35.4920 -16.1069 -14.0496  -7.2654  -5.9199
    -5.1126  -4.8633  -3.6658  -3.0282  -2.3638  -1.7363  -1.5932  -1.2625
    -0.8334  -0.2681   1.6797   1.8432   2.1594   2.6261

          k = 0.0000 0.2887 0.0000 ( 14448 PWs)   bands (ev):

   -61.5602 -35.8141 -35.6659 -35.5146 -15.7387 -13.7631  -6.9560  -6.7250
    -5.2328  -5.0458  -3.8819  -3.0096  -2.5301  -1.7559  -1.5393  -1.5059
    -0.6489  -0.1977   1.3792   1.8575   1.9052   2.8502

          k = 0.0000 0.3849 0.0000 ( 14480 PWs)   bands (ev):

   -61.5502 -35.7946 -35.7618 -35.5370 -15.3296 -13.4379  -7.5689  -6.7119
    -5.3747  -5.3636  -3.9859  -3.0258  -2.6122  -1.8317  -1.5013  -1.3254
    -0.3352  -0.2729   1.3761   1.6085   2.1464   2.9308

          k = 0.0000 0.4811 0.0000 ( 14494 PWs)   bands (ev):

   -61.5429 -35.8316 -35.7799 -35.5534 -14.9946 -13.1632  -8.1749  -6.7294
    -5.5288  -5.4866  -4.1615  -3.0538  -2.6065  -1.6015  -1.3077  -1.1333
    -0.6343   0.0481   1.5318   1.5396   2.1651   2.8880

          k = 0.0000-0.5774 0.0000 ( 14518 PWs)   bands (ev):

   -61.5402 -35.8567 -35.7746 -35.5594 -14.8621 -13.0517  -8.4057  -6.7853
    -5.5599  -5.5285  -4.2530  -3.0669  -2.5888  -1.3582  -1.1563  -1.0468
    -0.8996   0.1400   1.5662   1.6443   2.0753   2.8427

          k = 0.0833 0.1443 0.0000 ( 14400 PWs)   bands (ev):

   -61.5725 -35.8382 -35.5442 -35.4881 -16.1877 -14.1118  -7.3485  -5.6986
    -5.1324  -4.8411  -3.5636  -3.0605  -2.2800  -1.8145  -1.5735  -1.1256
    -0.8794  -0.2964   1.7961   1.8959   2.1505   2.4273

          k = 0.0833 0.2406 0.0000 ( 14456 PWs)   bands (ev):

   -61.5638 -35.8213 -35.6256 -35.5112 -15.8780 -13.8715  -7.0417  -6.3898
    -5.2788  -4.9241  -3.8410  -3.0519  -2.4401  -1.7781  -1.5759  -1.3581
    -0.7706  -0.1753   1.4475   1.7397   1.9222   2.7466

          k = 0.0833 0.3368 0.0000 ( 14475 PWs)   bands (ev):

   -61.5539 -35.8017 -35.7181 -35.5379 -15.4867 -13.5621  -7.1895  -6.7344
    -5.4767  -5.2164  -3.9361  -3.0589  -2.5618  -1.8740  -1.5941  -1.3364
    -0.4782  -0.1698   1.2339   1.6659   1.9866   2.9472

          k = 0.0833 0.4330 0.0000 ( 14478 PWs)   bands (ev):

   -61.5452 -35.7978 -35.7841 -35.5609 -15.1086 -13.2543  -7.8741  -6.6387
    -5.7375  -5.3609  -4.0713  -3.1524  -2.5535  -1.7555  -1.5150  -1.1434
    -0.5299  -0.0161   1.2538   1.6845   2.2132   2.8262

          k = 0.0833 0.5292 0.0000 ( 14500 PWs)   bands (ev):

   -61.5402 -35.8426 -35.7746 -35.5742 -14.8681 -13.0520  -8.2877  -6.7135
    -5.8601  -5.3724  -4.2401  -3.2264  -2.5003  -1.5091  -1.2895  -1.0071
    -0.7958   0.1006   1.4097   1.8045   2.2215   2.6116

          k = 0.1667 0.2887 0.0000 ( 14482 PWs)   bands (ev):

   -61.5552 -35.8043 -35.6958 -35.5447 -15.5432 -13.6055  -6.9754  -6.7471
    -5.5876  -5.1678  -3.9387  -3.0839  -2.5260  -1.9129  -1.6021  -1.3129
    -0.5487  -0.0901   1.1372   1.6474   1.8634   2.9708

          k = 0.1667 0.3849 0.0000 ( 14494 PWs)   bands (ev):

   -61.5466 -35.7875 -35.7614 -35.5816 -15.1759 -13.3043  -7.5536  -6.5379
    -5.9732  -5.3709  -4.0435  -3.2084  -2.5092  -1.9116  -1.6416  -1.1181
    -0.5447   0.0558   0.9944   1.7654   1.9938   2.9855

          k = 0.1667 0.4811 0.0000 ( 14497 PWs)   bands (ev):

   -61.5402 -35.8083 -35.7746 -35.6099 -14.8800 -13.0525  -8.0003  -6.5812
    -6.1852  -5.3983  -4.2305  -3.4139  -2.3871  -1.6735  -1.5621  -1.0147
    -0.6673   0.1235   1.1570   1.7902   2.2433   2.7714

          k = 0.1667 0.5774 0.0000 ( 14512 PWs)   bands (ev):

   -61.5379 -35.8250 -35.7701 -35.6204 -14.7644 -12.9516  -8.1710  -6.6779
    -6.2147  -5.3677  -4.3377  -3.4986  -2.3384  -1.5552  -1.3967  -1.1520
    -0.5605   0.0624   1.3719   1.7123   2.2393   2.7062

          k = 0.2500 0.4330 0.0000 ( 14510 PWs)   bands (ev):

   -61.5402 -35.7856 -35.7744 -35.6336 -14.8858 -13.0527  -7.8064  -6.6315
    -6.2207  -5.4823  -4.2520  -3.4394  -2.3441  -1.7766  -1.6610  -1.0258
    -0.6371   0.2119   0.9691   1.7175   2.1811   3.0673

          k = 0.2500 0.5292 0.0000 ( 14528 PWs)   bands (ev):

   -61.5366 -35.7898 -35.7675 -35.6726 -14.7075 -12.8923  -7.9233  -6.9233
    -6.1878  -5.5055  -4.4227  -3.6248  -2.2284  -1.6130  -1.5215  -1.2742
    -0.3589   0.1473   1.1336   1.4459   2.2264   3.3122

          k = 0.3333 0.5774 0.0000 ( 14538 PWs)   bands (ev):

   -61.5352 -35.7649 -35.7591 -35.7195 -14.6432 -12.8309  -7.7951  -7.1878
    -6.1077  -5.5901  -4.4962  -3.7082  -2.1670  -1.5459  -1.4598  -1.4582
    -0.1426   0.1641   1.0340   1.2242   2.2608   3.7103

 ------ SPIN DOWN ----------


          k = 0.0000 0.0000 0.0000 ( 14351 PWs)   bands (ev):

   -61.5801 -35.8531 -35.4694 -35.4694 -16.4448 -14.3087  -7.6380  -5.0271
    -5.0271  -4.9315  -3.1018  -3.1018  -1.8857  -1.8742  -1.8742  -0.8108
    -0.8108  -0.4460   1.8890   2.1296   2.1296   2.6177

          k = 0.0000 0.0962 0.0000 ( 14357 PWs)   bands (ev):

   -61.5774 -35.8479 -35.4961 -35.4755 -16.3568 -14.2415  -7.5360  -5.2797
    -5.0458  -4.8921  -3.2915  -3.0753  -2.1262  -1.8480  -1.6629  -0.9519
    -0.8371  -0.3884   1.9316   2.1082   2.2364   2.3187

          k = 0.0000 0.1925 0.0000 ( 14400 PWs)   bands (ev):

   -61.5701 -35.8336 -35.5684 -35.4920 -16.1069 -14.0496  -7.2654  -5.9199
    -5.1126  -4.8633  -3.6658  -3.0282  -2.3638  -1.7363  -1.5932  -1.2625
    -0.8334  -0.2681   1.6797   1.8432   2.1594   2.6264

          k = 0.0000 0.2887 0.0000 ( 14448 PWs)   bands (ev):

   -61.5602 -35.8141 -35.6659 -35.5146 -15.7387 -13.7631  -6.9560  -6.7250
    -5.2328  -5.0458  -3.8819  -3.0096  -2.5302  -1.7559  -1.5393  -1.5059
    -0.6489  -0.1978   1.3792   1.8575   1.9052   2.8502

          k = 0.0000 0.3849 0.0000 ( 14480 PWs)   bands (ev):

   -61.5502 -35.7946 -35.7618 -35.5370 -15.3296 -13.4379  -7.5689  -6.7119
    -5.3747  -5.3636  -3.9859  -3.0258  -2.6122  -1.8317  -1.5013  -1.3254
    -0.3352  -0.2729   1.3761   1.6085   2.1464   2.9308

          k = 0.0000 0.4811 0.0000 ( 14494 PWs)   bands (ev):

   -61.5429 -35.8316 -35.7799 -35.5534 -14.9946 -13.1632  -8.1749  -6.7294
    -5.5288  -5.4866  -4.1616  -3.0538  -2.6065  -1.6015  -1.3077  -1.1333
    -0.6344   0.0481   1.5318   1.5396   2.1650   2.8880

          k = 0.0000-0.5774 0.0000 ( 14518 PWs)   bands (ev):

   -61.5402 -35.8568 -35.7746 -35.5594 -14.8621 -13.0517  -8.4057  -6.7853
    -5.5599  -5.5285  -4.2530  -3.0669  -2.5888  -1.3582  -1.1563  -1.0468
    -0.8996   0.1400   1.5662   1.6443   2.0753   2.8427

          k = 0.0833 0.1443 0.0000 ( 14400 PWs)   bands (ev):

   -61.5725 -35.8382 -35.5442 -35.4882 -16.1877 -14.1118  -7.3485  -5.6986
    -5.1324  -4.8411  -3.5636  -3.0605  -2.2800  -1.8145  -1.5735  -1.1256
    -0.8794  -0.2964   1.7961   1.8958   2.1505   2.4273

          k = 0.0833 0.2406 0.0000 ( 14456 PWs)   bands (ev):

   -61.5638 -35.8213 -35.6256 -35.5112 -15.8780 -13.8715  -7.0417  -6.3899
    -5.2788  -4.9241  -3.8410  -3.0519  -2.4401  -1.7781  -1.5759  -1.3581
    -0.7706  -0.1753   1.4475   1.7397   1.9222   2.7466

          k = 0.0833 0.3368 0.0000 ( 14475 PWs)   bands (ev):

   -61.5539 -35.8017 -35.7181 -35.5379 -15.4867 -13.5621  -7.1895  -6.7344
    -5.4767  -5.2164  -3.9361  -3.0589  -2.5618  -1.8740  -1.5941  -1.3364
    -0.4782  -0.1698   1.2339   1.6659   1.9866   2.9472

          k = 0.0833 0.4330 0.0000 ( 14478 PWs)   bands (ev):

   -61.5452 -35.7978 -35.7841 -35.5609 -15.1086 -13.2543  -7.8741  -6.6387
    -5.7375  -5.3609  -4.0713  -3.1524  -2.5535  -1.7555  -1.5150  -1.1434
    -0.5300  -0.0161   1.2538   1.6845   2.2132   2.8262

          k = 0.0833 0.5292 0.0000 ( 14500 PWs)   bands (ev):

   -61.5402 -35.8426 -35.7746 -35.5742 -14.8681 -13.0520  -8.2877  -6.7135
    -5.8601  -5.3724  -4.2401  -3.2264  -2.5003  -1.5091  -1.2895  -1.0071
    -0.7959   0.1005   1.4097   1.8045   2.2215   2.6116

          k = 0.1667 0.2887 0.0000 ( 14482 PWs)   bands (ev):

   -61.5552 -35.8043 -35.6958 -35.5447 -15.5432 -13.6055  -6.9754  -6.7471
    -5.5876  -5.1678  -3.9387  -3.0839  -2.5260  -1.9130  -1.6022  -1.3129
    -0.5488  -0.0901   1.1372   1.6474   1.8634   2.9708

          k = 0.1667 0.3849 0.0000 ( 14494 PWs)   bands (ev):

   -61.5466 -35.7875 -35.7614 -35.5816 -15.1759 -13.3044  -7.5536  -6.5379
    -5.9733  -5.3709  -4.0435  -3.2084  -2.5093  -1.9116  -1.6416  -1.1181
    -0.5448   0.0558   0.9944   1.7654   1.9938   2.9855

          k = 0.1667 0.4811 0.0000 ( 14497 PWs)   bands (ev):

   -61.5402 -35.8083 -35.7746 -35.6099 -14.8800 -13.0525  -8.0003  -6.5812
    -6.1852  -5.3983  -4.2305  -3.4139  -2.3871  -1.6735  -1.5621  -1.0147
    -0.6673   0.1234   1.1570   1.7902   2.2433   2.7714

          k = 0.1667 0.5774 0.0000 ( 14512 PWs)   bands (ev):

   -61.5379 -35.8250 -35.7701 -35.6204 -14.7644 -12.9516  -8.1710  -6.6779
    -6.2148  -5.3677  -4.3377  -3.4986  -2.3385  -1.5553  -1.3967  -1.1521
    -0.5605   0.0623   1.3719   1.7123   2.2392   2.7062

          k = 0.2500 0.4330 0.0000 ( 14510 PWs)   bands (ev):

   -61.5402 -35.7856 -35.7744 -35.6336 -14.8858 -13.0527  -7.8064  -6.6315
    -6.2207  -5.4823  -4.2520  -3.4394  -2.3441  -1.7766  -1.6610  -1.0258
    -0.6372   0.2119   0.9691   1.7175   2.1811   3.0673

          k = 0.2500 0.5292 0.0000 ( 14528 PWs)   bands (ev):

   -61.5366 -35.7898 -35.7675 -35.6726 -14.7075 -12.8923  -7.9233  -6.9233
    -6.1878  -5.5055  -4.4227  -3.6248  -2.2284  -1.6130  -1.5215  -1.2742
    -0.3589   0.1473   1.1336   1.4459   2.2264   3.3122

          k = 0.3333 0.5774 0.0000 ( 14538 PWs)   bands (ev):

   -61.5352 -35.7649 -35.7591 -35.7195 -14.6432 -12.8309  -7.7951  -7.1878
    -6.1077  -5.5901  -4.4962  -3.7082  -2.1671  -1.5459  -1.4598  -1.4582
    -0.1427   0.1640   1.0340   1.2242   2.2608   3.7103

     the Fermi energy is    -0.0093 ev

!    total energy              =    -658.70247086 Ry
     total all-electron energy =    -12481.876362 Ry
     estimated scf accuracy    <          4.1E-09 Ry
     smearing contrib. (-TS)   =      -0.00115688 Ry
     internal energy E=F+TS    =    -658.70131398 Ry

     The total energy is F=E-TS. E is the sum of the following terms:
     one-electron contribution =   -2428.16101870 Ry
     hartree contribution      =    1224.98366288 Ry
     xc contribution           =     -62.60889696 Ry
     ewald contribution        =    1013.30706715 Ry
     DFT-D3 Dispersion         =      -0.06974793 Ry
     one-center paw contrib.   =    -406.15238042 Ry

     total magnetization       =    -0.00 Bohr mag/cell
     absolute magnetization    =     0.00 Bohr mag/cell

     convergence has been achieved in   7 iterations

     negative rho (up, down):  5.091E-05 5.091E-05

     Forces acting on atoms (cartesian axes, Ry/au):

     atom    1 type  1   force =     0.00000000    0.00000000    0.00009904
     atom    2 type  2   force =     0.00000000   -0.00000000    0.00002152
     atom    3 type  2   force =     0.00000000   -0.00000000   -0.00023536
     atom    4 type  3   force =     0.00000000   -0.00000000    0.00011479
     The non-local contrib.  to forces
     atom    1 type  1   force =     0.00000000   -0.00000000   -0.06762478
     atom    2 type  2   force =     0.00000000   -0.00000000   -0.08771759
     atom    3 type  2   force =     0.00000000    0.00000000    0.26010685
     atom    4 type  3   force =     0.00000000    0.00000000    0.00345888
     The ionic contribution  to forces
     atom    1 type  1   force =     0.00000000    0.00000452  -41.17485542
     atom    2 type  2   force =    -0.00000000   -0.00000601   23.59948385
     atom    3 type  2   force =    -0.00000000   -0.00000261  -52.58388536
     atom    4 type  3   force =     0.00000000    0.00000410   70.15925693
     The local contribution  to forces
     atom    1 type  1   force =     0.00000000   -0.00000275   41.23231292
     atom    2 type  2   force =    -0.00000000    0.00000424  -23.51463061
     atom    3 type  2   force =    -0.00000000    0.00000182   52.32216065
     atom    4 type  3   force =     0.00000000   -0.00000209  -70.11102172
     The core correction contribution to forces
     atom    1 type  1   force =    -0.00000000   -0.00000000    0.00443802
     atom    2 type  2   force =     0.00000000    0.00000000    0.00370816
     atom    3 type  2   force =     0.00000000    0.00000000   -0.00190568
     atom    4 type  3   force =    -0.00000000   -0.00000002   -0.04363677
     The Hubbard contrib.    to forces
     atom    1 type  1   force =     0.00000000    0.00000000    0.00000000
     atom    2 type  2   force =     0.00000000    0.00000000    0.00000000
     atom    3 type  2   force =     0.00000000    0.00000000    0.00000000
     atom    4 type  3   force =     0.00000000    0.00000000    0.00000000
     The SCF correction term to forces
     atom    1 type  1   force =     0.00000000    0.00000000    0.00028120
     atom    2 type  2   force =    -0.00000000   -0.00000000    0.00006493
     atom    3 type  2   force =    -0.00000000   -0.00000000    0.00001197
     atom    4 type  3   force =    -0.00000000   -0.00000000   -0.00008801

     DFT-D3 dispersion contribution to forces:
     atom    1 type  1   force =     0.00000000   -0.00000000    0.00552670
     atom    2 type  2   force =    -0.00000000    0.00000000   -0.00090762
     atom    3 type  2   force =    -0.00000000    0.00000000    0.00325582
     atom    4 type  3   force =     0.00000000   -0.00000000   -0.00787490

     Total force =     0.000281     Total SCF correction =     0.000302
     SCF correction compared to forces is large: reduce conv_thr to get better values


     Computing stress (Cartesian axis) and pressure


     negative rho (up, down):  5.091E-05 5.091E-05
          total   stress  (Ry/bohr**3)                   (kbar)     P=        3.84
   0.00003982  -0.00000000   0.00000000            5.86       -0.00        0.00
  -0.00000000   0.00003982   0.00000000           -0.00        5.86        0.00
   0.00000000  -0.00000000  -0.00000140            0.00       -0.00       -0.21

     Energy error            =      5.7E-06 Ry
     Gradient error          =      2.4E-04 Ry/Bohr

     bfgs converged in  19 scf cycles and  18 bfgs steps
     (criteria: energy <  1.0E-04 Ry, force <  1.0E-03 Ry/Bohr)

     End of BFGS Geometry Optimization

     Final energy             =    -658.7024708581 Ry

     File ./tmp/scf.bfgs deleted, as requested
Begin final coordinates

ATOMIC_POSITIONS (crystal)
Mo            0.0000000000        0.0000000000        0.3871394487
S             0.6666666667        0.3333333333        0.4559139791
S             0.6666666667        0.3333333333        0.3254090366
Co           -0.0000000000       -0.0000000000        0.4941999768
End final coordinates



     Writing all to output data dir ./tmp/scf.save/
 
     init_run     :      2.88s CPU      3.36s WALL (       1 calls)
     electrons    :    784.50s CPU    930.23s WALL (      19 calls)
     update_pot   :     31.58s CPU     40.41s WALL (      18 calls)
     forces       :     35.74s CPU     39.83s WALL (      19 calls)
     force_dftd3  :      0.35s CPU      0.36s WALL (      19 calls)
     stress       :    134.76s CPU    149.31s WALL (      19 calls)
     stres_dftd3  :      0.34s CPU      0.35s WALL (      19 calls)

     Called by init_run:
     wfcinit      :      0.61s CPU      0.67s WALL (       1 calls)
     potinit      :      0.71s CPU      0.78s WALL (       1 calls)
     hinit0       :      0.99s CPU      1.06s WALL (       1 calls)

     Called by electrons:
     c_bands      :    438.98s CPU    479.41s WALL (     195 calls)
     sum_band     :    199.43s CPU    262.65s WALL (     195 calls)
     v_of_rho     :     23.72s CPU     27.94s WALL (     213 calls)
     newd         :     89.52s CPU    130.08s WALL (     213 calls)
     PAW_pot      :     42.78s CPU     43.78s WALL (     231 calls)
     mix_rho      :      3.25s CPU      3.47s WALL (     195 calls)
     energy_dftd3 :      0.24s CPU      0.24s WALL (      19 calls)

     Called by c_bands:
     init_us_2    :      8.98s CPU      9.45s WALL (   16986 calls)
     init_us_2:cp :      8.92s CPU      9.41s WALL (   16986 calls)
     cegterg      :    350.75s CPU    390.55s WALL (    7437 calls)

     Called by *egterg:
     cdiaghg      :     19.14s CPU     19.94s WALL (   40002 calls)
     h_psi        :    253.25s CPU    288.54s WALL (   40789 calls)
     s_psi        :      7.85s CPU      8.47s WALL (   40789 calls)
     g_psi        :      0.90s CPU      0.93s WALL (   33314 calls)

     Called by h_psi:
     h_psi:calbec :     24.73s CPU     27.67s WALL (   40789 calls)
     vloc_psi     :    213.39s CPU    244.44s WALL (   40789 calls)
     add_vuspsi   :     13.01s CPU     14.26s WALL (   40789 calls)

     General routines
     calbec       :     60.32s CPU     64.18s WALL (   52493 calls)
     fft          :     31.54s CPU     44.85s WALL (    6067 calls)
     ffts         :      0.30s CPU      0.34s WALL (     816 calls)
     fftw         :    177.57s CPU    206.23s WALL ( 1196346 calls)
     interpolate  :      1.29s CPU      1.48s WALL (     426 calls)
 
     Parallel routines
 
     PWSCF        :  16m42.51s CPU  19m40.36s WALL

 
   This run was terminated on:  13:49:41  17Jul2025            

=------------------------------------------------------------------------------=
   JOB DONE.
=------------------------------------------------------------------------------=
