
     Program PWSCF v.7.2 starts on 30May2025 at 14:10:27 

     This program is part of the open-source Quantum ESPRESSO suite
     for quantum simulation of materials; please cite
         "P. Giannozzi et al., J. Phys.:Condens. Matter 21 395502 (2009);
         "P. Giannozzi et al., J. Phys.:Condens. Matter 29 465901 (2017);
         "P. Giannozzi et al., J. Chem. Phys. 152 154105 (2020);
          URL http://www.quantum-espresso.org", 
     in publications or presentations arising from this work. More details at
     http://www.quantum-espresso.org/quote

     Parallel version (MPI), running on    16 processors

     MPI processes distributed on     1 nodes
     25071 MiB available memory on the printing compute node when the environment starts
 
     Waiting for input...
     Reading input from standard input

     Current dimensions of program PWSCF are:
     Max number of different atomic species (ntypx) = 10
     Max number of k-points (npk) =  40000
     Max angular momentum in pseudopotentials (lmaxx) =  4
     file Co.pbe-n-kjpaw_psl.1.0.0.UPF: wavefunction(s)  4S 3D renormalized
     Message from routine setup:
     using ibrav=0 with symmetry is DISCOURAGED, use correct ibrav instead
 
     R & G space division:  proc/nbgrp/npool/nimage =      16
     Subspace diagonalization in iterative solution of the eigenvalue problem:
     a serial algorithm will be used

 
     Parallelization info
     --------------------
     sticks:   dense  smooth     PW     G-vecs:    dense   smooth      PW
     Min          23      23      7                  627      627     107
     Max          24      24      8                  636      636     114
     Sum         379     379    121                10137    10137    1785
 
     Using Slab Decomposition
 


     bravais-lattice index     =            0
     lattice parameter (alat)  =       4.6676  a.u.
     unit-cell volume          =     143.3333 (a.u.)^3
     number of atoms/cell      =            2
     number of atomic types    =            1
     number of electrons       =        18.00
     number of Kohn-Sham states=           13
     kinetic-energy cutoff     =      65.0000  Ry
     charge density cutoff     =     260.0000  Ry
     scf convergence threshold =      1.0E-06
     mixing beta               =       0.7000
     number of iterations used =            8  plain     mixing
     Exchange-correlation= SLA  PW   PBX  PBC
                           (   1   4   3   4   0   0   0)

     celldm(1)=   4.667624  celldm(2)=   0.000000  celldm(3)=   0.000000
     celldm(4)=   0.000000  celldm(5)=   0.000000  celldm(6)=   0.000000

     crystal axes: (cart. coord. in units of alat)
               a(1) = (   1.000000   0.000000   0.000000 )  
               a(2) = (  -0.500000   0.866025   0.000000 )  
               a(3) = (   0.000000   0.000000   1.627530 )  

     reciprocal axes: (cart. coord. in units 2 pi/alat)
               b(1) = (  1.000000  0.577350  0.000000 )  
               b(2) = (  0.000000  1.154701  0.000000 )  
               b(3) = (  0.000000  0.000000  0.614428 )  


     PseudoPot. # 1 for Co read from file:
     /shared/ESPRESSO/PSLIBRARY/1.0.0/pbe/PSEUDOPOTENTIALS/Co.pbe-n-kjpaw_psl.1.0.0.UPF
     MD5 check sum: 17e7ab8db721b244d1352252ea6cb8e7
     Pseudo is Projector augmented-wave + core cor, Zval =  9.0
     Generated using "atomic" code by A. Dal Corso  (Quantum ESPRESSO distribution)
     Shape of augmentation charge: PSQ
     Using radial grid of 1193 points,  6 beta functions with: 
                l(1) =   0
                l(2) =   0
                l(3) =   1
                l(4) =   1
                l(5) =   2
                l(6) =   2
     Q(r) pseudized with 0 coefficients 


     atomic species   valence    mass     pseudopotential
        Co             9.00    58.93320     Co( 1.00)

     24 Sym. Ops., with inversion, found (12 have fractional translation)



   Cartesian axes

     site n.     atom                  positions (alat units)
         1           Co  tau(   1) = (   0.0000000   0.0000000   0.0000000  )
         2           Co  tau(   2) = (  -0.0000000   0.5773503   0.8137652  )

     number of k points=   370  Fermi-Dirac smearing, width (Ry)=  0.0070

     Number of k-points >= 100: set verbosity='high' to print them.

     Dense  grid:    10137 G-vectors     FFT dimensions: (  24,  24,  40)

     Estimated max dynamical RAM per process >       9.46 MB

     Estimated total dynamical RAM >     151.38 MB

     Initial potential from superposition of free atoms

     starting charge      17.9994, renormalised to      18.0000
     Starting wfcs are   18 randomized atomic wfcs
     Checking if some PAW data can be deallocated... 

     total cpu time spent up to now is        0.7 secs

     Self-consistent Calculation

     iteration #  1     ecut=    65.00 Ry     beta= 0.70
     Davidson diagonalization with overlap
     ethr =  1.00E-02,  avg # of iterations =  2.4

     Threshold (ethr) on eigenvalues was too large:
     Diagonalizing with lowered threshold

     Davidson diagonalization with overlap
     c_bands:  1 eigenvalues not converged
     c_bands:  1 eigenvalues not converged
     ethr =  3.41E-05,  avg # of iterations =  7.4

     total cpu time spent up to now is        3.8 secs

     total energy              =    -324.07997186 Ry
     estimated scf accuracy    <       0.02417858 Ry

     iteration #  2     ecut=    65.00 Ry     beta= 0.70
     Davidson diagonalization with overlap
     ethr =  1.34E-04,  avg # of iterations =  2.2

     total cpu time spent up to now is        5.0 secs

     total energy              =    -324.08071707 Ry
     estimated scf accuracy    <       0.06391061 Ry

     iteration #  3     ecut=    65.00 Ry     beta= 0.70
     Davidson diagonalization with overlap
     ethr =  1.34E-04,  avg # of iterations =  2.0

     total cpu time spent up to now is        6.2 secs

     total energy              =    -324.09196150 Ry
     estimated scf accuracy    <       0.00007000 Ry

     iteration #  4     ecut=    65.00 Ry     beta= 0.70
     Davidson diagonalization with overlap
     c_bands:  1 eigenvalues not converged
     c_bands:  1 eigenvalues not converged
     c_bands:  1 eigenvalues not converged
     c_bands:  1 eigenvalues not converged
     c_bands:  1 eigenvalues not converged
     ethr =  3.89E-07,  avg # of iterations =  5.5

     total cpu time spent up to now is        7.8 secs

     total energy              =    -324.09201246 Ry
     estimated scf accuracy    <       0.00012609 Ry

     iteration #  5     ecut=    65.00 Ry     beta= 0.70
     Davidson diagonalization with overlap
     ethr =  3.89E-07,  avg # of iterations =  2.1

     total cpu time spent up to now is        9.0 secs

     total energy              =    -324.09204322 Ry
     estimated scf accuracy    <       0.00000865 Ry

     iteration #  6     ecut=    65.00 Ry     beta= 0.70
     Davidson diagonalization with overlap
     ethr =  4.81E-08,  avg # of iterations =  1.3

     total cpu time spent up to now is        9.9 secs

     End of self-consistent calculation

     Number of k-points >= 100: set verbosity='high' to print the bands.

     the Fermi energy is    14.2818 ev

!    total energy              =    -324.09204416 Ry
     total all-electron energy =     -5573.779397 Ry
     estimated scf accuracy    <       0.00000031 Ry
     smearing contrib. (-TS)   =      -0.01224367 Ry
     internal energy E=F+TS    =    -324.07980050 Ry

     The total energy is F=E-TS. E is the sum of the following terms:
     one-electron contribution =       0.92748627 Ry
     hartree contribution      =      25.94792948 Ry
     xc contribution           =     -65.20902573 Ry
     ewald contribution        =    -112.64113270 Ry
     one-center paw contrib.   =    -173.10505782 Ry

     convergence has been achieved in   6 iterations

     Forces acting on atoms (cartesian axes, Ry/au):

     atom    1 type  1   force =     0.00000000   -0.00000000    0.00000000
     atom    2 type  1   force =     0.00000000    0.00000000    0.00000000
     The non-local contrib.  to forces
     atom    1 type  1   force =     0.00000000   -0.00000000    0.00000000
     atom    2 type  1   force =     0.00000000    0.00000000    0.00000000
     The ionic contribution  to forces
     atom    1 type  1   force =    -0.00000000    0.00000000   -0.00000000
     atom    2 type  1   force =    -0.00000000    0.00000000    0.00000000
     The local contribution  to forces
     atom    1 type  1   force =    -0.00000000    0.00000000   -0.00000000
     atom    2 type  1   force =     0.00000000   -0.00000000    0.00000000
     The core correction contribution to forces
     atom    1 type  1   force =     0.00000000    0.00000000    0.00000000
     atom    2 type  1   force =     0.00000000   -0.00000000   -0.00000000
     The Hubbard contrib.    to forces
     atom    1 type  1   force =     0.00000000    0.00000000    0.00000000
     atom    2 type  1   force =     0.00000000    0.00000000    0.00000000
     The SCF correction term to forces
     atom    1 type  1   force =    -0.00000000   -0.00000000    0.00000000
     atom    2 type  1   force =     0.00000000    0.00000000    0.00000000

     Total force =     0.000000     Total SCF correction =     0.000000


     Computing stress (Cartesian axis) and pressure

          total   stress  (Ry/bohr**3)                   (kbar)     P=      -46.50
  -0.00024972   0.00000000   0.00000000          -36.73        0.00        0.00
   0.00000000  -0.00024972   0.00000000            0.00      -36.73        0.00
   0.00000000   0.00000000  -0.00044879            0.00        0.00      -66.02


     Writing all to output data dir ./tmp/scf.save/
 
     init_run     :      0.44s CPU      0.49s WALL (       1 calls)
     electrons    :      8.48s CPU      9.25s WALL (       1 calls)
     forces       :      0.06s CPU      0.06s WALL (       1 calls)
     stress       :      0.32s CPU      0.33s WALL (       1 calls)

     Called by init_run:
     wfcinit      :      0.34s CPU      0.37s WALL (       1 calls)
     potinit      :      0.04s CPU      0.05s WALL (       1 calls)
     hinit0       :      0.04s CPU      0.06s WALL (       1 calls)

     Called by electrons:
     c_bands      :      7.50s CPU      8.15s WALL (       7 calls)
     sum_band     :      0.76s CPU      0.84s WALL (       7 calls)
     v_of_rho     :      0.00s CPU      0.00s WALL (       7 calls)
     newd         :      0.01s CPU      0.01s WALL (       7 calls)
     PAW_pot      :      0.25s CPU      0.29s WALL (       7 calls)
     mix_rho      :      0.00s CPU      0.00s WALL (       7 calls)

     Called by c_bands:
     init_us_2    :      0.09s CPU      0.10s WALL (    6290 calls)
     init_us_2:cp :      0.09s CPU      0.09s WALL (    6290 calls)
     cegterg      :      6.12s CPU      6.66s WALL (    2590 calls)

     Called by *egterg:
     cdiaghg      :      1.41s CPU      1.53s WALL (   10700 calls)
     h_psi        :      4.44s CPU      4.82s WALL (   11440 calls)
     s_psi        :      0.08s CPU      0.09s WALL (   11440 calls)
     g_psi        :      0.02s CPU      0.02s WALL (    8480 calls)

     Called by h_psi:
     h_psi:calbec :      0.14s CPU      0.15s WALL (   11440 calls)
     vloc_psi     :      4.17s CPU      4.53s WALL (   11440 calls)
     add_vuspsi   :      0.09s CPU      0.10s WALL (   11440 calls)

     General routines
     calbec       :      0.21s CPU      0.23s WALL (   15880 calls)
     fft          :      0.03s CPU      0.04s WALL (     103 calls)
     ffts         :      0.00s CPU      0.00s WALL (       7 calls)
     fftw         :      4.40s CPU      4.79s WALL (  258934 calls)
 
     Parallel routines
 
     PWSCF        :      9.64s CPU     10.58s WALL

 
   This run was terminated on:  14:10:37  30May2025            

=------------------------------------------------------------------------------=
   JOB DONE.
=------------------------------------------------------------------------------=
