
     Program PWSCF v.7.2 starts on 22Jul2025 at 11:30:39 

     This program is part of the open-source Quantum ESPRESSO suite
     for quantum simulation of materials; please cite
         "P. Giannozzi et al., J. Phys.:Condens. Matter 21 395502 (2009);
         "P. Giannozzi et al., J. Phys.:Condens. Matter 29 465901 (2017);
         "P. Giannozzi et al., J. Chem. Phys. 152 154105 (2020);
          URL http://www.quantum-espresso.org", 
     in publications or presentations arising from this work. More details at
     http://www.quantum-espresso.org/quote

     Parallel version (MPI), running on    16 processors

     MPI processes distributed on     1 nodes
     15198 MiB available memory on the printing compute node when the environment starts
 
     Waiting for input...
     Reading input from standard input

     Current dimensions of program PWSCF are:
     Max number of different atomic species (ntypx) = 10
     Max number of k-points (npk) =  40000
     Max angular momentum in pseudopotentials (lmaxx) =  4
     file Mo.pbe-spn-kjpaw_psl.1.0.0.UPF: wavefunction(s)  4S 4D renormalized
     file S.pbe-n-kjpaw_psl.1.0.0.UPF: wavefunction(s)  3S 3P renormalized
     Message from routine setup:
     using ibrav=0 with symmetry is DISCOURAGED, use correct ibrav instead
 
     R & G space division:  proc/nbgrp/npool/nimage =      16
     Subspace diagonalization in iterative solution of the eigenvalue problem:
     a serial algorithm will be used

 
     Parallelization info
     --------------------
     sticks:   dense  smooth     PW     G-vecs:    dense   smooth      PW
     Min         108      42     12                21751     5486     866
     Max         110      43     13                21762     5513     891
     Sum        1735     685    199               348105    87947   14017
 
     Using Slab Decomposition
 


     bravais-lattice index     =            0
     lattice parameter (alat)  =       5.9812  a.u.
     unit-cell volume          =    1112.3952 (a.u.)^3
     number of atoms/cell      =            3
     number of atomic types    =            2
     number of electrons       =        26.00
     number of Kohn-Sham states=           17
     kinetic-energy cutoff     =      70.0000  Ry
     charge density cutoff     =     700.0000  Ry
     scf convergence threshold =      1.0E-06
     mixing beta               =       0.7000
     number of iterations used =            8  plain     mixing
     Exchange-correlation= SLA  PW   PBX  PBC
                           (   1   4   3   4   0   0   0)

     celldm(1)=   5.981197  celldm(2)=   0.000000  celldm(3)=   0.000000
     celldm(4)=   0.000000  celldm(5)=   0.000000  celldm(6)=   0.000000

     crystal axes: (cart. coord. in units of alat)
               a(1) = (   1.000000   0.000000   0.000000 )  
               a(2) = (  -0.500000   0.866025   0.000000 )  
               a(3) = (   0.000000   0.000000   6.002945 )  

     reciprocal axes: (cart. coord. in units 2 pi/alat)
               b(1) = (  1.000000  0.577351  0.000000 )  
               b(2) = (  0.000000  1.154701  0.000000 )  
               b(3) = (  0.000000  0.000000  0.166585 )  


     PseudoPot. # 1 for Mo read from file:
     /shared/ESPRESSO/PSLIBRARY/1.0.0/pbe/PSEUDOPOTENTIALS/Mo.pbe-spn-kjpaw_psl.1.0.0.UPF
     MD5 check sum: 4396e0c640fcce5c25f020efccf1ab12
     Pseudo is Projector augmented-wave + core cor, Zval = 14.0
     Generated using &quot;atomic&quot; code by A. Dal Corso  v.6.3
     Shape of augmentation charge: PSQ
     Using radial grid of 1229 points,  6 beta functions with: 
                l(1) =   0
                l(2) =   0
                l(3) =   1
                l(4) =   1
                l(5) =   2
                l(6) =   2
     Q(r) pseudized with 0 coefficients 


     PseudoPot. # 2 for S  read from file:
     /shared/ESPRESSO/PSLIBRARY/1.0.0/pbe/PSEUDOPOTENTIALS/S.pbe-n-kjpaw_psl.1.0.0.UPF
     MD5 check sum: c08f931834bcc19553f8bde8f1a3adc5
     Pseudo is Projector augmented-wave + core cor, Zval =  6.0
     Generated using "atomic" code by A. Dal Corso  (Quantum ESPRESSO distribution)
     Shape of augmentation charge: PSQ
     Using radial grid of 1151 points,  6 beta functions with: 
                l(1) =   0
                l(2) =   0
                l(3) =   1
                l(4) =   1
                l(5) =   2
                l(6) =   2
     Q(r) pseudized with 0 coefficients 


     atomic species   valence    mass     pseudopotential
        Mo            14.00    95.94000     Mo( 1.00)
        S              6.00    32.06500     S ( 1.00)

     12 Sym. Ops. (no inversion) found



   Cartesian axes

     site n.     atom                  positions (alat units)
         1           Mo  tau(   1) = (   0.0000000   0.0000000   3.0014725  )
         2           S   tau(   2) = (   0.5000000   0.2886750   3.4964188  )
         3           S   tau(   3) = (   0.5000000   0.2886750   2.5065262  )

     --------------------------------------------
     DFT-D3 Dispersion Correction (3-body terms):
     --------------------------------------------
       Reference C6 values for interpolation: 

         atom   Coordination number   C6
         S          0.000           268.01
         S          0.995           261.99
         S          1.990           251.62
         Mo         0.000          1691.79
         Mo         1.942          1004.01
         Mo        11.056           674.22

       Values used:

         atom   Coordination number  R0_AB[au]  C6      C8
         Mo        10.084            3.547    674.22  77634.20
         S          3.716            3.128    251.62  12327.25
         S          3.716            3.128    251.62  12327.25

         Molecular C6 ( Ry / a.u.^6 ) =      3323.66


     number of k points=    12  Gaussian smearing, width (Ry)=  0.0073
                       cart. coord. in units 2pi/alat
        k(    1) = (   0.0000000   0.0000000   0.0000000), wk =   0.0246914
        k(    2) = (   0.0000000   0.1283001   0.0000000), wk =   0.1481481
        k(    3) = (   0.0000000   0.2566002   0.0000000), wk =   0.1481481
        k(    4) = (   0.0000000   0.3849004   0.0000000), wk =   0.1481481
        k(    5) = (   0.0000000   0.5132005   0.0000000), wk =   0.1481481
        k(    6) = (   0.1111111   0.1924502   0.0000000), wk =   0.1481481
        k(    7) = (   0.1111111   0.3207503   0.0000000), wk =   0.2962963
        k(    8) = (   0.1111111   0.4490504   0.0000000), wk =   0.2962963
        k(    9) = (   0.1111111   0.5773505   0.0000000), wk =   0.1481481
        k(   10) = (   0.2222222   0.3849004   0.0000000), wk =   0.1481481
        k(   11) = (   0.2222222   0.5132005   0.0000000), wk =   0.2962963
        k(   12) = (   0.3333333   0.5773505   0.0000000), wk =   0.0493827

     Dense  grid:   348105 G-vectors     FFT dimensions: (  54,  54, 320)

     Smooth grid:    87947 G-vectors     FFT dimensions: (  32,  32, 192)

     Estimated max dynamical RAM per process >      87.45 MB

     Estimated total dynamical RAM >       1.37 GB

     Initial potential from superposition of free atoms

     starting charge      25.9991, renormalised to      26.0000

     negative rho (up, down):  6.194E-05 0.000E+00
     Starting wfcs are   18 randomized atomic wfcs
     Checking if some PAW data can be deallocated... 

     total cpu time spent up to now is        1.1 secs

     Self-consistent Calculation

     iteration #  1     ecut=    70.00 Ry     beta= 0.70
     Davidson diagonalization with overlap
     ethr =  1.00E-02,  avg # of iterations =  2.6

     Threshold (ethr) on eigenvalues was too large:
     Diagonalizing with lowered threshold

     Davidson diagonalization with overlap
     ethr =  3.00E-04,  avg # of iterations =  3.7

     negative rho (up, down):  7.228E-05 0.000E+00

     total cpu time spent up to now is        2.2 secs

     total energy              =    -496.68746428 Ry
     estimated scf accuracy    <       0.11727814 Ry

     iteration #  2     ecut=    70.00 Ry     beta= 0.70
     Davidson diagonalization with overlap
     ethr =  4.51E-04,  avg # of iterations =  3.0

     negative rho (up, down):  7.229E-05 0.000E+00

     total cpu time spent up to now is        2.9 secs

     total energy              =    -496.65671954 Ry
     estimated scf accuracy    <       0.32143898 Ry

     iteration #  3     ecut=    70.00 Ry     beta= 0.70
     Davidson diagonalization with overlap
     ethr =  4.51E-04,  avg # of iterations =  2.6

     negative rho (up, down):  7.438E-05 0.000E+00

     total cpu time spent up to now is        3.5 secs

     total energy              =    -496.71567893 Ry
     estimated scf accuracy    <       0.12208324 Ry

     iteration #  4     ecut=    70.00 Ry     beta= 0.70
     Davidson diagonalization with overlap
     ethr =  4.51E-04,  avg # of iterations =  1.5

     negative rho (up, down):  7.737E-05 0.000E+00

     total cpu time spent up to now is        4.1 secs

     total energy              =    -496.73227909 Ry
     estimated scf accuracy    <       0.00061353 Ry

     iteration #  5     ecut=    70.00 Ry     beta= 0.70
     Davidson diagonalization with overlap
     ethr =  2.36E-06,  avg # of iterations =  3.5

     negative rho (up, down):  7.914E-05 0.000E+00

     total cpu time spent up to now is        4.9 secs

     total energy              =    -496.73255140 Ry
     estimated scf accuracy    <       0.00010673 Ry

     iteration #  6     ecut=    70.00 Ry     beta= 0.70
     Davidson diagonalization with overlap
     ethr =  4.11E-07,  avg # of iterations =  2.1

     negative rho (up, down):  8.022E-05 0.000E+00

     total cpu time spent up to now is        5.5 secs

     total energy              =    -496.73256162 Ry
     estimated scf accuracy    <       0.00000889 Ry

     iteration #  7     ecut=    70.00 Ry     beta= 0.70
     Davidson diagonalization with overlap
     ethr =  3.42E-08,  avg # of iterations =  2.2

     negative rho (up, down):  8.043E-05 0.000E+00

     total cpu time spent up to now is        6.2 secs

     End of self-consistent calculation

          k = 0.0000 0.0000 0.0000 ( 10889 PWs)   bands (ev):

   -61.5186 -35.6677 -35.4406 -35.4406 -14.7840 -13.4805  -6.2974  -3.2309
    -3.2309  -2.4718  -2.1131  -2.1131  -0.7035   2.1628   2.1628   2.3984
     2.3984

          k = 0.0000 0.1283 0.0000 ( 10908 PWs)   bands (ev):

   -61.5140 -35.6585 -35.4876 -35.4513 -14.5999 -13.4038  -6.0910  -3.6239
    -3.1455  -3.0391  -2.3949  -1.7416  -0.7967   1.9432   1.9695   2.1996
     2.4669

          k = 0.0000 0.2566 0.0000 ( 10974 PWs)   bands (ev):

   -61.5021 -35.6350 -35.6051 -35.4782 -14.0990 -13.1962  -5.6931  -4.3402
    -4.0257  -2.9676  -2.5392  -1.8869  -1.2458   1.5182   1.8208   2.1466
     3.0465

          k = 0.0000 0.3849 0.0000 ( 11018 PWs)   bands (ev):

   -61.4885 -35.7362 -35.6082 -35.5087 -13.4448 -12.9307  -5.9115  -4.8623
    -4.5524  -3.4794  -2.2993  -1.9664  -1.6365   1.6064   1.6955   2.7758
     3.4809

          k = 0.0000 0.5132 0.0000 ( 11016 PWs)   bands (ev):

   -61.4796 -35.8204 -35.5907 -35.5285 -12.9407 -12.7350  -6.3854  -5.4063
    -4.6966  -3.7645  -2.5279  -1.6209  -1.3732   1.6378   2.0775   3.1954
     3.6717

          k = 0.1111 0.1925 0.0000 ( 10978 PWs)   bands (ev):

   -61.5057 -35.6421 -35.5657 -35.4743 -14.2567 -13.2609  -5.7659  -4.1580
    -3.6783  -3.0803  -2.7318  -1.5762  -1.0759   1.5306   1.8567   1.9116
     2.9950

          k = 0.1111 0.3208 0.0000 ( 10999 PWs)   bands (ev):

   -61.4929 -35.6802 -35.6170 -35.5127 -13.6731 -13.0189  -5.6443  -4.4826
    -4.4622  -3.7063  -2.4877  -1.8266  -1.4685   1.3329   1.8362   2.1984
     3.5337

          k = 0.1111 0.4491 0.0000 ( 11020 PWs)   bands (ev):

   -61.4817 -35.7788 -35.5948 -35.5468 -13.0746 -12.7755  -6.0581  -5.2890
    -4.5253  -3.8381  -2.4727  -2.3028  -1.2951   1.5818   1.9968   2.8073
     3.6861

          k = 0.1111 0.5774 0.0000 ( 11012 PWs)   bands (ev):

   -61.4773 -35.8173 -35.5860 -35.5602 -12.8052 -12.6691  -6.2806  -5.6174
    -4.6723  -3.8261  -2.5342  -2.3854  -1.0447   1.6505   2.2673   3.1950
     3.5325

          k = 0.2222 0.3849 0.0000 ( 11026 PWs)   bands (ev):

   -61.4826 -35.7435 -35.5964 -35.5734 -13.1300 -12.7874  -5.7828  -5.2244
    -4.2860  -3.9889  -3.1764  -2.0615  -1.3285   1.4998   2.0231   2.3698
     3.8818

          k = 0.2222 0.5132 0.0000 ( 11025 PWs)   bands (ev):

   -61.4758 -35.7739 -35.6236 -35.5830 -12.7299 -12.6130  -5.8393  -5.8038
    -4.4620  -3.7820  -3.5932  -2.5420  -0.9467   1.4436   2.5205   2.5612
     4.0320

          k = 0.3333 0.5774 0.0000 ( 11052 PWs)   bands (ev):

   -61.4734 -35.7353 -35.6908 -35.5783 -12.5896 -12.5401  -6.0950  -5.2698
    -4.7439  -4.1983  -3.5505  -2.8294  -0.6530   1.0886   2.3918   2.9319
     4.2964

     the Fermi energy is    -0.0016 ev

!    total energy              =    -496.73256449 Ry
     total all-electron energy =     -9695.062779 Ry
     estimated scf accuracy    <       0.00000047 Ry
     smearing contrib. (-TS)   =      -0.00000000 Ry
     internal energy E=F+TS    =    -496.73256449 Ry

     The total energy is F=E-TS. E is the sum of the following terms:
     one-electron contribution =   -1040.36709445 Ry
     hartree contribution      =     522.98360795 Ry
     xc contribution           =     -29.71304791 Ry
     ewald contribution        =     370.03541763 Ry
     DFT-D3 Dispersion         =      -0.03607836 Ry
     one-center paw contrib.   =    -319.63536936 Ry

     convergence has been achieved in   7 iterations

     negative rho (up, down):  8.043E-05 0.000E+00

     Forces acting on atoms (cartesian axes, Ry/au):

     atom    1 type  1   force =     0.00000000   -0.00000000    0.00000000
     atom    2 type  2   force =     0.00000000   -0.00000000    0.00072575
     atom    3 type  2   force =     0.00000000    0.00000000   -0.00072575
     The non-local contrib.  to forces
     atom    1 type  1   force =     0.00000000   -0.00000000    0.00000000
     atom    2 type  2   force =     0.00000000    0.00000000   -0.26657019
     atom    3 type  2   force =     0.00000000    0.00000000    0.26657019
     The ionic contribution  to forces
     atom    1 type  1   force =     0.00000000    0.00000500   -0.00000000
     atom    2 type  2   force =    -0.00000000   -0.00000250   35.80564742
     atom    3 type  2   force =    -0.00000000   -0.00000250  -35.80564742
     The local contribution  to forces
     atom    1 type  1   force =    -0.00000000   -0.00000302    0.00000000
     atom    2 type  2   force =    -0.00000000    0.00000174  -35.53830231
     atom    3 type  2   force =    -0.00000000    0.00000174   35.53830231
     The core correction contribution to forces
     atom    1 type  1   force =     0.00000000    0.00000000   -0.00000000
     atom    2 type  2   force =     0.00000000    0.00000000    0.00213094
     atom    3 type  2   force =     0.00000000    0.00000000   -0.00213094
     The Hubbard contrib.    to forces
     atom    1 type  1   force =     0.00000000    0.00000000    0.00000000
     atom    2 type  2   force =     0.00000000    0.00000000    0.00000000
     atom    3 type  2   force =     0.00000000    0.00000000    0.00000000
     The SCF correction term to forces
     atom    1 type  1   force =    -0.00000000   -0.00000000   -0.00000000
     atom    2 type  2   force =     0.00000000    0.00000000   -0.00039581
     atom    3 type  2   force =     0.00000000    0.00000000    0.00039581

     DFT-D3 dispersion contribution to forces:
     atom    1 type  1   force =     0.00000000   -0.00000001    0.00000000
     atom    2 type  2   force =    -0.00000000    0.00000000   -0.00178430
     atom    3 type  2   force =    -0.00000000    0.00000000    0.00178430

     Total force =     0.001026     Total SCF correction =     0.000560
     SCF correction compared to forces is large: reduce conv_thr to get better values


     Computing stress (Cartesian axis) and pressure


     negative rho (up, down):  8.043E-05 0.000E+00
          total   stress  (Ry/bohr**3)                   (kbar)     P=        0.91
   0.00000743   0.00000000   0.00000000            1.09        0.00        0.00
   0.00000000   0.00000743   0.00000000            0.00        1.09        0.00
  -0.00000000   0.00000000   0.00000368           -0.00        0.00        0.54


     Writing all to output data dir ./tmp/scf.save/
 
     init_run     :      0.70s CPU      0.82s WALL (       1 calls)
     electrons    :      4.00s CPU      5.15s WALL (       1 calls)
     forces       :      0.44s CPU      0.53s WALL (       1 calls)
     force_dftd3  :      0.02s CPU      0.02s WALL (       1 calls)
     stress       :      1.29s CPU      1.56s WALL (       1 calls)
     stres_dftd3  :      0.02s CPU      0.02s WALL (       1 calls)

     Called by init_run:
     wfcinit      :      0.06s CPU      0.06s WALL (       1 calls)
     potinit      :      0.17s CPU      0.19s WALL (       1 calls)
     hinit0       :      0.29s CPU      0.32s WALL (       1 calls)

     Called by electrons:
     c_bands      :      1.82s CPU      1.87s WALL (       8 calls)
     sum_band     :      0.95s CPU      1.53s WALL (       8 calls)
     v_of_rho     :      0.20s CPU      0.23s WALL (       8 calls)
     newd         :      0.81s CPU      1.31s WALL (       8 calls)
     PAW_pot      :      0.35s CPU      0.38s WALL (       8 calls)
     mix_rho      :      0.02s CPU      0.02s WALL (       8 calls)
     energy_dftd3 :      0.02s CPU      0.02s WALL (       1 calls)

     Called by c_bands:
     init_us_2    :      0.05s CPU      0.05s WALL (     228 calls)
     init_us_2:cp :      0.05s CPU      0.05s WALL (     228 calls)
     cegterg      :      1.19s CPU      1.24s WALL (      96 calls)

     Called by *egterg:
     cdiaghg      :      0.09s CPU      0.10s WALL (     338 calls)
     h_psi        :      0.95s CPU      1.00s WALL (     362 calls)
     s_psi        :      0.03s CPU      0.03s WALL (     362 calls)
     g_psi        :      0.00s CPU      0.00s WALL (     254 calls)

     Called by h_psi:
     h_psi:calbec :      0.10s CPU      0.11s WALL (     362 calls)
     vloc_psi     :      0.80s CPU      0.84s WALL (     362 calls)
     add_vuspsi   :      0.04s CPU      0.04s WALL (     362 calls)

     General routines
     calbec       :      0.19s CPU      0.20s WALL (     518 calls)
     fft          :      0.16s CPU      0.24s WALL (     128 calls)
     ffts         :      0.00s CPU      0.00s WALL (      16 calls)
     fftw         :      0.61s CPU      0.64s WALL (   10558 calls)
     interpolate  :      0.01s CPU      0.01s WALL (       8 calls)
 
     Parallel routines
 
     PWSCF        :      6.68s CPU      8.38s WALL

 
   This run was terminated on:  11:30:47  22Jul2025            

=------------------------------------------------------------------------------=
   JOB DONE.
=------------------------------------------------------------------------------=
