
     Program PWSCF v.7.2 starts on 15Jul2025 at 11: 6:51 

     This program is part of the open-source Quantum ESPRESSO suite
     for quantum simulation of materials; please cite
         "P. Giannozzi et al., J. Phys.:Condens. Matter 21 395502 (2009);
         "P. Giannozzi et al., J. Phys.:Condens. Matter 29 465901 (2017);
         "P. Giannozzi et al., J. Chem. Phys. 152 154105 (2020);
          URL http://www.quantum-espresso.org", 
     in publications or presentations arising from this work. More details at
     http://www.quantum-espresso.org/quote

     Parallel version (MPI), running on     4 processors

     MPI processes distributed on     1 nodes
     22563 MiB available memory on the printing compute node when the environment starts
 
     Waiting for input...
     Reading input from standard input

     Current dimensions of program PWSCF are:
     Max number of different atomic species (ntypx) = 10
     Max number of k-points (npk) =  40000
     Max angular momentum in pseudopotentials (lmaxx) =  4
     file Mo.pbe-spn-kjpaw_psl.1.0.0.UPF: wavefunction(s)  4S 4D renormalized
     file S.pbe-n-kjpaw_psl.1.0.0.UPF: wavefunction(s)  3S 3P renormalized
 
     R & G space division:  proc/nbgrp/npool/nimage =       4
     Subspace diagonalization in iterative solution of the eigenvalue problem:
     a serial algorithm will be used

 
     Parallelization info
     --------------------
     sticks:   dense  smooth     PW     G-vecs:    dense   smooth      PW
     Min         418     168     52                84998    21528    3702
     Max         419     169     54                85015    21551    3713
     Sum        1675     673    211               340029    86147   14825
 
     Using Slab Decomposition
 


     bravais-lattice index     =            0
     lattice parameter (alat)  =       5.9148  a.u.
     unit-cell volume          =    1087.8512 (a.u.)^3
     number of atoms/cell      =            3
     number of atomic types    =            2
     number of electrons       =        26.00
     number of Kohn-Sham states=           17
     kinetic-energy cutoff     =      70.0000  Ry
     charge density cutoff     =     700.0000  Ry
     scf convergence threshold =      1.0E-06
     mixing beta               =       0.7000
     number of iterations used =            8  plain     mixing
     energy convergence thresh.=      1.0E-04
     force convergence thresh. =      1.0E-03
     Exchange-correlation= SLA  PW   PBX  PBC
                           (   1   4   3   4   0   0   0)
     nstep                     =          100


     celldm(1)=   5.914843  celldm(2)=   0.000000  celldm(3)=   0.000000
     celldm(4)=   0.000000  celldm(5)=   0.000000  celldm(6)=   0.000000

     crystal axes: (cart. coord. in units of alat)
               a(1) = (   1.000000   0.000000   0.000000 )  
               a(2) = (  -0.500000   0.866025   0.000000 )  
               a(3) = (   0.000000   0.000000   6.070288 )  

     reciprocal axes: (cart. coord. in units 2 pi/alat)
               b(1) = (  1.000000  0.577350  0.000000 )  
               b(2) = (  0.000000  1.154701  0.000000 )  
               b(3) = (  0.000000  0.000000  0.164737 )  


     PseudoPot. # 1 for Mo read from file:
     /shared/ESPRESSO/PSLIBRARY/1.0.0/pbe/PSEUDOPOTENTIALS/Mo.pbe-spn-kjpaw_psl.1.0.0.UPF
     MD5 check sum: 4396e0c640fcce5c25f020efccf1ab12
     Pseudo is Projector augmented-wave + core cor, Zval = 14.0
     Generated using &quot;atomic&quot; code by A. Dal Corso  v.6.3
     Shape of augmentation charge: PSQ
     Using radial grid of 1229 points,  6 beta functions with: 
                l(1) =   0
                l(2) =   0
                l(3) =   1
                l(4) =   1
                l(5) =   2
                l(6) =   2
     Q(r) pseudized with 0 coefficients 


     PseudoPot. # 2 for S  read from file:
     /shared/ESPRESSO/PSLIBRARY/1.0.0/pbe/PSEUDOPOTENTIALS/S.pbe-n-kjpaw_psl.1.0.0.UPF
     MD5 check sum: c08f931834bcc19553f8bde8f1a3adc5
     Pseudo is Projector augmented-wave + core cor, Zval =  6.0
     Generated using "atomic" code by A. Dal Corso  (Quantum ESPRESSO distribution)
     Shape of augmentation charge: PSQ
     Using radial grid of 1151 points,  6 beta functions with: 
                l(1) =   0
                l(2) =   0
                l(3) =   1
                l(4) =   1
                l(5) =   2
                l(6) =   2
     Q(r) pseudized with 0 coefficients 


     atomic species   valence    mass     pseudopotential
        Mo            14.00    95.94000     Mo( 1.00)
        S              6.00    32.06500     S ( 1.00)

     No symmetry found



   Cartesian axes

     site n.     atom                  positions (alat units)
         1           Mo  tau(   1) = (   0.0000000   0.0000000   3.0351438  )
         2           S   tau(   2) = (   0.5000000   0.2886751   3.6741214  )
         3           S   tau(   3) = (   0.5000000   0.2886751   2.3961661  )

     --------------------------------------------
     DFT-D3 Dispersion Correction (3-body terms):
     --------------------------------------------
       Reference C6 values for interpolation: 

         atom   Coordination number   C6
         S          0.000           268.01
         S          0.995           261.99
         S          1.990           251.62
         Mo         0.000          1691.79
         Mo         1.942          1004.01
         Mo        11.056           674.22

       Values used:

         atom   Coordination number  R0_AB[au]  C6      C8
         Mo         9.593            3.547    674.22  77634.20
         S          3.325            3.128    251.62  12327.25
         S          3.325            3.128    251.62  12327.25

         Molecular C6 ( Ry / a.u.^6 ) =      3323.66


     number of k points=    41  Gaussian smearing, width (Ry)=  0.0073
                       cart. coord. in units 2pi/alat
        k(    1) = (   0.0000000   0.0000000   0.0000000), wk =   0.0246914
        k(    2) = (   0.0000000   0.1283001   0.0000000), wk =   0.0493827
        k(    3) = (   0.0000000   0.2566001   0.0000000), wk =   0.0493827
        k(    4) = (   0.0000000   0.3849002   0.0000000), wk =   0.0493827
        k(    5) = (   0.0000000   0.5132002   0.0000000), wk =   0.0493827
        k(    6) = (   0.1111111   0.0641500   0.0000000), wk =   0.0493827
        k(    7) = (   0.1111111   0.1924501   0.0000000), wk =   0.0493827
        k(    8) = (   0.1111111   0.3207501   0.0000000), wk =   0.0493827
        k(    9) = (   0.1111111   0.4490502   0.0000000), wk =   0.0493827
        k(   10) = (   0.1111111   0.5773503   0.0000000), wk =   0.0493827
        k(   11) = (   0.1111111  -0.4490502   0.0000000), wk =   0.0493827
        k(   12) = (   0.1111111  -0.3207501   0.0000000), wk =   0.0493827
        k(   13) = (   0.1111111  -0.1924501   0.0000000), wk =   0.0493827
        k(   14) = (   0.1111111  -0.0641500   0.0000000), wk =   0.0493827
        k(   15) = (   0.2222222   0.1283001   0.0000000), wk =   0.0493827
        k(   16) = (   0.2222222   0.2566001   0.0000000), wk =   0.0493827
        k(   17) = (   0.2222222   0.3849002   0.0000000), wk =   0.0493827
        k(   18) = (   0.2222222   0.5132002   0.0000000), wk =   0.0493827
        k(   19) = (   0.2222222   0.6415003   0.0000000), wk =   0.0493827
        k(   20) = (   0.2222222  -0.3849002   0.0000000), wk =   0.0493827
        k(   21) = (   0.2222222  -0.2566001   0.0000000), wk =   0.0493827
        k(   22) = (   0.2222222  -0.1283001   0.0000000), wk =   0.0493827
        k(   23) = (   0.2222222  -0.0000000   0.0000000), wk =   0.0493827
        k(   24) = (   0.3333333   0.1924501   0.0000000), wk =   0.0493827
        k(   25) = (   0.3333333   0.3207501   0.0000000), wk =   0.0493827
        k(   26) = (   0.3333333   0.4490502   0.0000000), wk =   0.0493827
        k(   27) = (   0.3333333   0.5773503   0.0000000), wk =   0.0493827
        k(   28) = (   0.3333333   0.7056503   0.0000000), wk =   0.0493827
        k(   29) = (   0.3333333  -0.3207501   0.0000000), wk =   0.0493827
        k(   30) = (   0.3333333  -0.1924501   0.0000000), wk =   0.0493827
        k(   31) = (   0.3333333  -0.0641500   0.0000000), wk =   0.0493827
        k(   32) = (   0.3333333   0.0641500   0.0000000), wk =   0.0493827
        k(   33) = (   0.4444444   0.2566001   0.0000000), wk =   0.0493827
        k(   34) = (   0.4444444   0.3849002   0.0000000), wk =   0.0493827
        k(   35) = (   0.4444444   0.5132002   0.0000000), wk =   0.0493827
        k(   36) = (   0.4444444   0.6415003   0.0000000), wk =   0.0493827
        k(   37) = (   0.4444444   0.7698004   0.0000000), wk =   0.0493827
        k(   38) = (   0.4444444  -0.2566001   0.0000000), wk =   0.0493827
        k(   39) = (   0.4444444  -0.1283001   0.0000000), wk =   0.0493827
        k(   40) = (   0.4444444   0.0000000   0.0000000), wk =   0.0493827
        k(   41) = (   0.4444444   0.1283001   0.0000000), wk =   0.0493827

     Dense  grid:   340029 G-vectors     FFT dimensions: (  50,  50, 320)

     Smooth grid:    86147 G-vectors     FFT dimensions: (  32,  32, 192)

     Estimated max dynamical RAM per process >     347.69 MB

     Estimated total dynamical RAM >       1.36 GB

     Initial potential from superposition of free atoms

     starting charge      25.9991, renormalised to      26.0000

     negative rho (up, down):  5.116E-05 0.000E+00
     Starting wfcs are   18 randomized atomic wfcs
     Checking if some PAW data can be deallocated... 

     total cpu time spent up to now is        9.8 secs

     Self-consistent Calculation

     iteration #  1     ecut=    70.00 Ry     beta= 0.70
     Davidson diagonalization with overlap
     ethr =  1.00E-02,  avg # of iterations =  2.0

     Threshold (ethr) on eigenvalues was too large:
     Diagonalizing with lowered threshold

     Davidson diagonalization with overlap
     ethr =  2.60E-04,  avg # of iterations =  3.3

     negative rho (up, down):  6.000E-05 0.000E+00

     total cpu time spent up to now is       45.9 secs

     total energy              =    -496.51027254 Ry
     estimated scf accuracy    <       0.10962465 Ry

     iteration #  2     ecut=    70.00 Ry     beta= 0.70
     Davidson diagonalization with overlap
     ethr =  4.22E-04,  avg # of iterations =  3.0

     negative rho (up, down):  6.050E-05 0.000E+00

     total cpu time spent up to now is       66.6 secs

     total energy              =    -496.36208522 Ry
     estimated scf accuracy    <       1.80570047 Ry

     iteration #  3     ecut=    70.00 Ry     beta= 0.70
     Davidson diagonalization with overlap
     ethr =  4.22E-04,  avg # of iterations =  3.1

     negative rho (up, down):  6.284E-05 0.000E+00

     total cpu time spent up to now is       76.2 secs

     total energy              =    -496.54264005 Ry
     estimated scf accuracy    <       0.21013436 Ry

     iteration #  4     ecut=    70.00 Ry     beta= 0.70
     Davidson diagonalization with overlap
     ethr =  4.22E-04,  avg # of iterations =  1.1

     negative rho (up, down):  6.664E-05 0.000E+00

     total cpu time spent up to now is       82.5 secs

     total energy              =    -496.56328068 Ry
     estimated scf accuracy    <       0.00275941 Ry

     iteration #  5     ecut=    70.00 Ry     beta= 0.70
     Davidson diagonalization with overlap
     ethr =  1.06E-05,  avg # of iterations =  2.1

     negative rho (up, down):  6.795E-05 0.000E+00

     total cpu time spent up to now is       88.9 secs

     total energy              =    -496.56364458 Ry
     estimated scf accuracy    <       0.00051953 Ry

     iteration #  6     ecut=    70.00 Ry     beta= 0.70
     Davidson diagonalization with overlap
     ethr =  2.00E-06,  avg # of iterations =  2.4

     negative rho (up, down):  6.905E-05 0.000E+00

     total cpu time spent up to now is       95.0 secs

     total energy              =    -496.56343556 Ry
     estimated scf accuracy    <       0.00714797 Ry

     iteration #  7     ecut=    70.00 Ry     beta= 0.70
     Davidson diagonalization with overlap
     ethr =  2.00E-06,  avg # of iterations =  2.0

     negative rho (up, down):  7.039E-05 0.000E+00

     total cpu time spent up to now is      102.0 secs

     total energy              =    -496.56383382 Ry
     estimated scf accuracy    <       0.00001432 Ry

     iteration #  8     ecut=    70.00 Ry     beta= 0.70
     Davidson diagonalization with overlap
     ethr =  5.51E-08,  avg # of iterations =  3.6

     negative rho (up, down):  7.051E-05 0.000E+00

     total cpu time spent up to now is      114.2 secs

     total energy              =    -496.56383962 Ry
     estimated scf accuracy    <       0.00000457 Ry

     iteration #  9     ecut=    70.00 Ry     beta= 0.70
     Davidson diagonalization with overlap
     ethr =  1.76E-08,  avg # of iterations =  1.0

     negative rho (up, down):  7.056E-05 0.000E+00

     total cpu time spent up to now is      124.5 secs

     End of self-consistent calculation

          k = 0.0000 0.0000 0.0000 ( 10733 PWs)   bands (ev):

   -61.4664 -35.5594 -35.2338 -35.2338 -13.6359 -13.2051  -5.3541  -2.9858
    -1.6996  -1.2484  -1.2484  -0.2092  -0.2092   1.8765   1.8765   2.1819
     2.1819

          k = 0.0000 0.1283 0.0000 ( 10711 PWs)   bands (ev):

   -61.4616 -35.5525 -35.2775 -35.2442 -13.4621 -13.0706  -5.1034  -3.0424
    -1.6831  -1.5784  -1.0517  -0.5937  -0.4713   1.2159   1.7181   1.8365
     2.2858

          k = 0.0000 0.2566 0.0000 ( 10736 PWs)   bands (ev):

   -61.4495 -35.5349 -35.3871 -35.2703 -12.9771 -12.6960  -4.4869  -3.2570
    -2.7406  -1.7256  -1.4768  -1.0043  -0.5890   0.5025   1.4741   1.6768
     2.4171

          k = 0.0000 0.3849 0.0000 ( 10762 PWs)   bands (ev):

   -61.4357 -35.5149 -35.5096 -35.2998 -12.3102 -12.1880  -4.3126  -3.9251
    -3.6573  -2.6056  -1.5504  -1.4850  -0.2804   0.8788   1.6343   1.9029
     2.4473

          k = 0.0000 0.5132 0.0000 ( 10772 PWs)   bands (ev):

   -61.4267 -35.5885 -35.5018 -35.3190 -11.7831 -11.7616  -5.1733  -4.7083
    -3.6165  -2.8260  -1.7551  -1.3323  -0.2730   1.5874   2.0941   2.1419
     2.4302

          k = 0.1111 0.0642 0.0000 ( 10711 PWs)   bands (ev):

   -61.4616 -35.5525 -35.2775 -35.2442 -13.4621 -13.0706  -5.1034  -3.0424
    -1.6831  -1.5784  -1.0517  -0.5937  -0.4713   1.2159   1.7181   1.8365
     2.2858

          k = 0.1111 0.1925 0.0000 ( 10724 PWs)   bands (ev):

   -61.4532 -35.5402 -35.3502 -35.2663 -13.1321 -12.8153  -4.6571  -3.1484
    -2.3872  -1.4773  -1.4619  -0.7795  -0.7706   0.5737   1.4817   1.6301
     2.3649

          k = 0.1111 0.3208 0.0000 ( 10750 PWs)   bands (ev):

   -61.4402 -35.5215 -35.4571 -35.3032 -12.5495 -12.3673  -4.0484  -3.4394
    -3.4346  -2.6169  -1.5835  -1.3273  -0.5394   0.3298   1.6662   1.7004
     2.3772

          k = 0.1111 0.4491 0.0000 ( 10759 PWs)   bands (ev):

   -61.4288 -35.5494 -35.5049 -35.3360 -11.9153 -11.8895  -4.6706  -4.2903
    -3.5321  -2.8988  -1.8860  -1.6842  -0.5682   0.9773   1.8622   2.1614
     2.4208

          k = 0.1111 0.5774 0.0000 ( 10772 PWs)   bands (ev):

   -61.4243 -35.5855 -35.4984 -35.3489 -11.6680 -11.6130  -5.1491  -4.7371
    -3.5096  -2.8492  -2.1591  -1.6229  -0.5559   1.6376   1.8984   2.1327
     2.4889

          k = 0.1111-0.4491 0.0000 ( 10759 PWs)   bands (ev):

   -61.4288 -35.5494 -35.5049 -35.3360 -11.9153 -11.8895  -4.6706  -4.2903
    -3.5321  -2.8988  -1.8860  -1.6842  -0.5682   0.9773   1.8622   2.1614
     2.4208

          k = 0.1111-0.3208 0.0000 ( 10750 PWs)   bands (ev):

   -61.4402 -35.5215 -35.4571 -35.3032 -12.5495 -12.3673  -4.0484  -3.4394
    -3.4346  -2.6169  -1.5835  -1.3273  -0.5394   0.3298   1.6662   1.7004
     2.3772

          k = 0.1111-0.1925 0.0000 ( 10724 PWs)   bands (ev):

   -61.4532 -35.5402 -35.3502 -35.2663 -13.1321 -12.8153  -4.6571  -3.1484
    -2.3872  -1.4773  -1.4619  -0.7795  -0.7706   0.5737   1.4817   1.6301
     2.3649

          k = 0.1111-0.0642 0.0000 ( 10711 PWs)   bands (ev):

   -61.4616 -35.5525 -35.2775 -35.2442 -13.4621 -13.0706  -5.1034  -3.0424
    -1.6831  -1.5784  -1.0517  -0.5937  -0.4713   1.2159   1.7181   1.8365
     2.2858

          k = 0.2222 0.1283 0.0000 ( 10736 PWs)   bands (ev):

   -61.4495 -35.5349 -35.3871 -35.2703 -12.9771 -12.6960  -4.4869  -3.2570
    -2.7406  -1.7256  -1.4768  -1.0043  -0.5890   0.5025   1.4741   1.6768
     2.4171

          k = 0.2222 0.2566 0.0000 ( 10750 PWs)   bands (ev):

   -61.4402 -35.5215 -35.4571 -35.3032 -12.5495 -12.3673  -4.0484  -3.4394
    -3.4346  -2.6169  -1.5835  -1.3273  -0.5394   0.3298   1.6662   1.7004
     2.3772

          k = 0.2222 0.3849 0.0000 ( 10752 PWs)   bands (ev):

   -61.4297 -35.5160 -35.5061 -35.3611 -11.9801 -11.9325  -4.1995  -3.7923
    -3.4659  -3.2927  -2.1346  -1.9207  -0.7146   0.5156   1.5198   2.2738
     2.5311

          k = 0.2222 0.5132 0.0000 ( 10803 PWs)   bands (ev):

   -61.4228 -35.5439 -35.4961 -35.4091 -11.5976 -11.5362  -4.6311  -4.4276
    -3.3122  -3.1120  -2.6624  -2.5609  -0.5690   1.2179   1.2793   2.2031
     2.8326

          k = 0.2222 0.6415 0.0000 ( 10803 PWs)   bands (ev):

   -61.4228 -35.5439 -35.4961 -35.4091 -11.5976 -11.5362  -4.6311  -4.4276
    -3.3122  -3.1120  -2.6624  -2.5609  -0.5690   1.2179   1.2793   2.2031
     2.8326

          k = 0.2222-0.3849 0.0000 ( 10752 PWs)   bands (ev):

   -61.4297 -35.5160 -35.5061 -35.3611 -11.9801 -11.9325  -4.1995  -3.7923
    -3.4659  -3.2927  -2.1346  -1.9207  -0.7146   0.5156   1.5198   2.2738
     2.5311

          k = 0.2222-0.2566 0.0000 ( 10750 PWs)   bands (ev):

   -61.4402 -35.5215 -35.4571 -35.3032 -12.5495 -12.3673  -4.0484  -3.4394
    -3.4346  -2.6169  -1.5835  -1.3273  -0.5394   0.3298   1.6662   1.7004
     2.3772

          k = 0.2222-0.1283 0.0000 ( 10736 PWs)   bands (ev):

   -61.4495 -35.5349 -35.3871 -35.2703 -12.9771 -12.6960  -4.4869  -3.2570
    -2.7406  -1.7256  -1.4768  -1.0043  -0.5890   0.5025   1.4741   1.6768
     2.4171

          k = 0.2222-0.0000 0.0000 ( 10724 PWs)   bands (ev):

   -61.4532 -35.5402 -35.3502 -35.2663 -13.1321 -12.8153  -4.6571  -3.1484
    -2.3872  -1.4773  -1.4619  -0.7795  -0.7706   0.5737   1.4817   1.6301
     2.3649

          k = 0.3333 0.1925 0.0000 ( 10762 PWs)   bands (ev):

   -61.4357 -35.5149 -35.5096 -35.2998 -12.3102 -12.1880  -4.3126  -3.9251
    -3.6573  -2.6056  -1.5504  -1.4850  -0.2804   0.8788   1.6343   1.9029
     2.4473

          k = 0.3333 0.3208 0.0000 ( 10759 PWs)   bands (ev):

   -61.4288 -35.5494 -35.5049 -35.3360 -11.9153 -11.8895  -4.6706  -4.2903
    -3.5321  -2.8988  -1.8860  -1.6842  -0.5682   0.9773   1.8622   2.1614
     2.4208

          k = 0.3333 0.4491 0.0000 ( 10803 PWs)   bands (ev):

   -61.4228 -35.5439 -35.4961 -35.4091 -11.5976 -11.5362  -4.6311  -4.4276
    -3.3122  -3.1120  -2.6624  -2.5609  -0.5690   1.2179   1.2793   2.2031
     2.8326

          k = 0.3333 0.5774 0.0000 ( 10818 PWs)   bands (ev):

   -61.4204 -35.4953 -35.4926 -35.4847 -11.4730 -11.3777  -4.4207  -4.2198
    -3.6643  -3.2048  -3.1052  -2.8848  -0.3899   0.9955   1.6049   1.7581
     3.0596

          k = 0.3333 0.7057 0.0000 ( 10803 PWs)   bands (ev):

   -61.4228 -35.5439 -35.4961 -35.4091 -11.5976 -11.5362  -4.6311  -4.4276
    -3.3122  -3.1120  -2.6624  -2.5609  -0.5690   1.2179   1.2793   2.2031
     2.8326

          k = 0.3333-0.3208 0.0000 ( 10759 PWs)   bands (ev):

   -61.4288 -35.5494 -35.5049 -35.3360 -11.9153 -11.8895  -4.6706  -4.2903
    -3.5321  -2.8988  -1.8860  -1.6842  -0.5682   0.9773   1.8622   2.1614
     2.4208

          k = 0.3333-0.1925 0.0000 ( 10762 PWs)   bands (ev):

   -61.4357 -35.5149 -35.5096 -35.2998 -12.3102 -12.1880  -4.3126  -3.9251
    -3.6573  -2.6056  -1.5504  -1.4850  -0.2804   0.8788   1.6343   1.9029
     2.4473

          k = 0.3333-0.0642 0.0000 ( 10750 PWs)   bands (ev):

   -61.4402 -35.5215 -35.4571 -35.3032 -12.5495 -12.3673  -4.0484  -3.4394
    -3.4346  -2.6169  -1.5835  -1.3273  -0.5394   0.3298   1.6662   1.7004
     2.3772

          k = 0.3333 0.0642 0.0000 ( 10750 PWs)   bands (ev):

   -61.4402 -35.5215 -35.4571 -35.3032 -12.5495 -12.3673  -4.0484  -3.4394
    -3.4346  -2.6169  -1.5835  -1.3273  -0.5394   0.3298   1.6662   1.7004
     2.3772

          k = 0.4444 0.2566 0.0000 ( 10772 PWs)   bands (ev):

   -61.4267 -35.5885 -35.5018 -35.3190 -11.7831 -11.7616  -5.1733  -4.7083
    -3.6165  -2.8260  -1.7550  -1.3323  -0.2730   1.5874   2.0941   2.1419
     2.4302

          k = 0.4444 0.3849 0.0000 ( 10772 PWs)   bands (ev):

   -61.4243 -35.5855 -35.4984 -35.3489 -11.6680 -11.6130  -5.1491  -4.7371
    -3.5096  -2.8492  -2.1591  -1.6229  -0.5559   1.6376   1.8984   2.1327
     2.4889

          k = 0.4444 0.5132 0.0000 ( 10803 PWs)   bands (ev):

   -61.4228 -35.5439 -35.4961 -35.4091 -11.5976 -11.5362  -4.6311  -4.4276
    -3.3122  -3.1120  -2.6624  -2.5609  -0.5690   1.2179   1.2793   2.2031
     2.8326

          k = 0.4444 0.6415 0.0000 ( 10803 PWs)   bands (ev):

   -61.4228 -35.5439 -35.4961 -35.4091 -11.5976 -11.5362  -4.6311  -4.4276
    -3.3122  -3.1120  -2.6624  -2.5609  -0.5690   1.2179   1.2793   2.2031
     2.8326

          k = 0.4444 0.7698 0.0000 ( 10772 PWs)   bands (ev):

   -61.4243 -35.5855 -35.4984 -35.3489 -11.6680 -11.6130  -5.1491  -4.7371
    -3.5096  -2.8492  -2.1591  -1.6229  -0.5559   1.6376   1.8984   2.1327
     2.4889

          k = 0.4444-0.2566 0.0000 ( 10772 PWs)   bands (ev):

   -61.4267 -35.5885 -35.5018 -35.3190 -11.7831 -11.7616  -5.1733  -4.7083
    -3.6165  -2.8260  -1.7550  -1.3323  -0.2730   1.5874   2.0941   2.1419
     2.4302

          k = 0.4444-0.1283 0.0000 ( 10759 PWs)   bands (ev):

   -61.4288 -35.5494 -35.5049 -35.3360 -11.9153 -11.8895  -4.6706  -4.2903
    -3.5321  -2.8988  -1.8860  -1.6842  -0.5682   0.9773   1.8622   2.1614
     2.4208

          k = 0.4444 0.0000 0.0000 ( 10752 PWs)   bands (ev):

   -61.4297 -35.5160 -35.5061 -35.3611 -11.9801 -11.9325  -4.1995  -3.7923
    -3.4659  -3.2927  -2.1346  -1.9207  -0.7146   0.5156   1.5198   2.2738
     2.5311

          k = 0.4444 0.1283 0.0000 ( 10759 PWs)   bands (ev):

   -61.4288 -35.5494 -35.5049 -35.3360 -11.9153 -11.8895  -4.6706  -4.2903
    -3.5321  -2.8988  -1.8860  -1.6842  -0.5682   0.9773   1.8622   2.1614
     2.4208

     the Fermi energy is     0.0455 ev

!    total energy              =    -496.56383917 Ry
     estimated scf accuracy    <       0.00000077 Ry
     smearing contrib. (-TS)   =      -0.00000037 Ry
     internal energy E=F+TS    =    -496.56383880 Ry

     convergence has been achieved in   9 iterations

     negative rho (up, down):  7.056E-05 0.000E+00

     Forces acting on atoms (cartesian axes, Ry/au):

     atom    1 type  1   force =    -0.00000292    0.00000034    0.00020236
     atom    2 type  2   force =     0.00000285   -0.00000199   -0.17004484
     atom    3 type  2   force =     0.00000007    0.00000165    0.16984248
     The non-local contrib.  to forces
     atom    1 type  1   force =    -0.00000128    0.00000070    0.00008794
     atom    2 type  2   force =    -0.00000379    0.00000572   -0.33069139
     atom    3 type  2   force =    -0.00000082    0.00000018    0.33074607
     The ionic contribution  to forces
     atom    1 type  1   force =     0.00000000   -0.00000000    0.00000000
     atom    2 type  2   force =    -0.00000000    0.00000000   35.20162375
     atom    3 type  2   force =    -0.00000000   -0.00000000  -35.20162375
     The local contribution  to forces
     atom    1 type  1   force =    -0.00000282   -0.00000275    0.00395141
     atom    2 type  2   force =     0.00001225   -0.00001426  -35.04287343
     atom    3 type  2   force =     0.00000272    0.00000030   35.04429368
     The core correction contribution to forces
     atom    1 type  1   force =    -0.00000001   -0.00000006    0.00001758
     atom    2 type  2   force =     0.00000027   -0.00000033    0.00622304
     atom    3 type  2   force =     0.00000006    0.00000001   -0.00621631
     The Hubbard contrib.    to forces
     atom    1 type  1   force =     0.00000000    0.00000000    0.00000000
     atom    2 type  2   force =     0.00000000    0.00000000    0.00000000
     atom    3 type  2   force =     0.00000000    0.00000000    0.00000000
     The SCF correction term to forces
     atom    1 type  1   force =     0.00000212    0.00000106   -0.00357665
     atom    2 type  2   force =    -0.00000494    0.00000550   -0.00159450
     atom    3 type  2   force =    -0.00000096   -0.00000021    0.00046632

     DFT-D3 dispersion contribution to forces:
     atom    1 type  1   force =    -0.00000000   -0.00000000   -0.00000000
     atom    2 type  2   force =     0.00000000    0.00000000   -0.00245440
     atom    3 type  2   force =     0.00000000    0.00000000    0.00245440

     Total force =     0.240337     Total SCF correction =     0.003944


     Computing stress (Cartesian axis) and pressure


     negative rho (up, down):  7.056E-05 0.000E+00
          total   stress  (Ry/bohr**3)                   (kbar)     P=      -79.25
  -0.00021627   0.00000000   0.00000000          -31.81        0.00        0.00
   0.00000000  -0.00021627  -0.00000000            0.00      -31.81       -0.00
   0.00000000  -0.00000000  -0.00118370            0.00       -0.00     -174.13


     Damped Dynamics Calculation

     Entering Dynamics:    iteration =     1

ATOMIC_POSITIONS (crystal)
Mo           -0.0000002018        0.0000000291        0.5000024734
S             0.6666667926        0.3333331626        0.6031847017
S             0.6666667426        0.3333334749        0.3968128249



     Writing config-only to output data dir ./tmp/scf.save/
     NEW-OLD atomic charge density approx. for the potential

     negative rho (up, down):  7.201E-05 0.000E+00

     total cpu time spent up to now is      157.8 secs

     Self-consistent Calculation

     iteration #  1     ecut=    70.00 Ry     beta= 0.70
     Davidson diagonalization with overlap
     ethr =  1.00E-06,  avg # of iterations =  7.0

     negative rho (up, down):  7.171E-05 0.000E+00

     total cpu time spent up to now is      192.0 secs

     total energy              =    -496.58803610 Ry
     estimated scf accuracy    <       0.00106056 Ry

     iteration #  2     ecut=    70.00 Ry     beta= 0.70
     Davidson diagonalization with overlap
     ethr =  4.08E-06,  avg # of iterations =  3.0

     negative rho (up, down):  7.135E-05 0.000E+00

     total cpu time spent up to now is      215.1 secs

     total energy              =    -496.58510865 Ry
     estimated scf accuracy    <       0.04741121 Ry

     iteration #  3     ecut=    70.00 Ry     beta= 0.70
     Davidson diagonalization with overlap
     ethr =  4.08E-06,  avg # of iterations =  3.1

     negative rho (up, down):  7.148E-05 0.000E+00

     total cpu time spent up to now is      238.8 secs

     total energy              =    -496.58865214 Ry
     estimated scf accuracy    <       0.00038146 Ry

     iteration #  4     ecut=    70.00 Ry     beta= 0.70
     Davidson diagonalization with overlap
     ethr =  1.47E-06,  avg # of iterations =  2.0

     negative rho (up, down):  7.136E-05 0.000E+00

     total cpu time spent up to now is      258.6 secs

     total energy              =    -496.58867643 Ry
     estimated scf accuracy    <       0.00150374 Ry

     iteration #  5     ecut=    70.00 Ry     beta= 0.70
     Davidson diagonalization with overlap
     ethr =  1.47E-06,  avg # of iterations =  1.0

     negative rho (up, down):  7.136E-05 0.000E+00

     total cpu time spent up to now is      276.1 secs

     total energy              =    -496.58876617 Ry
     estimated scf accuracy    <       0.00000689 Ry

     iteration #  6     ecut=    70.00 Ry     beta= 0.70
     Davidson diagonalization with overlap
     ethr =  2.65E-08,  avg # of iterations =  2.9

     negative rho (up, down):  7.132E-05 0.000E+00

     total cpu time spent up to now is      294.7 secs

     End of self-consistent calculation

          k = 0.0000 0.0000 0.0000 ( 10733 PWs)   bands (ev):

   -61.4502 -35.5431 -35.2257 -35.2257 -13.7105 -13.2322  -5.4034  -2.9546
    -1.6229  -1.3488  -1.3488  -0.3257  -0.3257   1.9178   1.9178   2.2140
     2.2140

          k = 0.0000 0.1283 0.0000 ( 10711 PWs)   bands (ev):

   -61.4454 -35.5360 -35.2698 -35.2361 -13.5355 -13.1006  -5.1544  -3.0292
    -1.7848  -1.5224  -1.1550  -0.6900  -0.5930   1.2770   1.7599   1.8847
     2.3342

          k = 0.0000 0.2566 0.0000 ( 10736 PWs)   bands (ev):

   -61.4333 -35.5179 -35.3803 -35.2624 -13.0471 -12.7344  -4.5455  -3.2936
    -2.8521  -1.7624  -1.4487  -1.1350  -0.6977   0.5927   1.5165   1.7561
     2.4971

          k = 0.0000 0.3849 0.0000 ( 10762 PWs)   bands (ev):

   -61.4194 -35.5040 -35.4973 -35.2921 -12.3767 -12.2391  -4.4145  -4.0029
    -3.7218  -2.5927  -1.6220  -1.5343  -0.3745   0.9598   1.6579   2.0160
     2.5515

          k = 0.0000 0.5132 0.0000 ( 10772 PWs)   bands (ev):

   -61.4103 -35.5835 -35.4838 -35.3114 -11.8458 -11.8258  -5.2661  -4.7719
    -3.6887  -2.8187  -1.8952  -1.3108  -0.3457   1.6646   2.0934   2.2710
     2.5458

          k = 0.1111 0.0642 0.0000 ( 10711 PWs)   bands (ev):

   -61.4454 -35.5360 -35.2698 -35.2361 -13.5355 -13.1006  -5.1544  -3.0292
    -1.7848  -1.5224  -1.1550  -0.6900  -0.5930   1.2770   1.7599   1.8847
     2.3342

          k = 0.1111 0.1925 0.0000 ( 10724 PWs)   bands (ev):

   -61.4369 -35.5234 -35.3432 -35.2585 -13.2031 -12.8509  -4.7122  -3.1639
    -2.5015  -1.5725  -1.4283  -0.8742  -0.8695   0.6554   1.5288   1.6866
     2.4484

          k = 0.1111 0.3208 0.0000 ( 10750 PWs)   bands (ev):

   -61.4239 -35.5040 -35.4510 -35.2956 -12.6170 -12.4136  -4.1279  -3.5281
    -3.5004  -2.6676  -1.5988  -1.4069  -0.6144   0.4238   1.7035   1.7776
     2.4980

          k = 0.1111 0.4491 0.0000 ( 10759 PWs)   bands (ev):

   -61.4125 -35.5441 -35.4870 -35.3286 -11.9800 -11.9484  -4.7690  -4.3667
    -3.6012  -2.9217  -1.9780  -1.7118  -0.5985   1.0484   1.9695   2.1911
     2.5518

          k = 0.1111 0.5774 0.0000 ( 10772 PWs)   bands (ev):

   -61.4079 -35.5805 -35.4802 -35.3416 -11.7335 -11.6767  -5.2391  -4.8052
    -3.5877  -2.8570  -2.2707  -1.6565  -0.5642   1.6969   2.0212   2.1791
     2.6155

          k = 0.1111-0.4491 0.0000 ( 10759 PWs)   bands (ev):

   -61.4125 -35.5441 -35.4870 -35.3286 -11.9800 -11.9484  -4.7690  -4.3667
    -3.6012  -2.9217  -1.9780  -1.7118  -0.5985   1.0484   1.9695   2.1911
     2.5518

          k = 0.1111-0.3208 0.0000 ( 10750 PWs)   bands (ev):

   -61.4239 -35.5040 -35.4510 -35.2956 -12.6170 -12.4136  -4.1279  -3.5281
    -3.5004  -2.6676  -1.5988  -1.4069  -0.6144   0.4238   1.7035   1.7776
     2.4980

          k = 0.1111-0.1925 0.0000 ( 10724 PWs)   bands (ev):

   -61.4369 -35.5234 -35.3432 -35.2585 -13.2031 -12.8509  -4.7122  -3.1639
    -2.5015  -1.5725  -1.4283  -0.8742  -0.8695   0.6554   1.5288   1.6866
     2.4484

          k = 0.1111-0.0642 0.0000 ( 10711 PWs)   bands (ev):

   -61.4454 -35.5360 -35.2698 -35.2361 -13.5355 -13.1006  -5.1544  -3.0292
    -1.7848  -1.5224  -1.1550  -0.6900  -0.5930   1.2770   1.7599   1.8847
     2.3342

          k = 0.2222 0.1283 0.0000 ( 10736 PWs)   bands (ev):

   -61.4333 -35.5179 -35.3803 -35.2624 -13.0471 -12.7344  -4.5455  -3.2936
    -2.8521  -1.7624  -1.4487  -1.1350  -0.6977   0.5927   1.5165   1.7561
     2.4971

          k = 0.2222 0.2566 0.0000 ( 10750 PWs)   bands (ev):

   -61.4239 -35.5040 -35.4510 -35.2956 -12.6170 -12.4136  -4.1279  -3.5281
    -3.5004  -2.6676  -1.5988  -1.4069  -0.6144   0.4238   1.7035   1.7776
     2.4980

          k = 0.2222 0.3849 0.0000 ( 10752 PWs)   bands (ev):

   -61.4133 -35.5104 -35.4882 -35.3539 -12.0451 -11.9896  -4.3095  -3.8887
    -3.5218  -3.3432  -2.2031  -1.9592  -0.7211   0.6085   1.6160   2.3084
     2.6722

          k = 0.2222 0.5132 0.0000 ( 10803 PWs)   bands (ev):

   -61.4064 -35.5385 -35.4779 -35.4024 -11.6636 -11.5997  -4.7218  -4.5245
    -3.3945  -3.1684  -2.7288  -2.5873  -0.5528   1.2971   1.3963   2.2717
     2.9770

          k = 0.2222 0.6415 0.0000 ( 10803 PWs)   bands (ev):

   -61.4064 -35.5385 -35.4779 -35.4024 -11.6636 -11.5997  -4.7218  -4.5245
    -3.3945  -3.1684  -2.7288  -2.5873  -0.5528   1.2971   1.3963   2.2717
     2.9770

          k = 0.2222-0.3849 0.0000 ( 10752 PWs)   bands (ev):

   -61.4133 -35.5104 -35.4882 -35.3539 -12.0451 -11.9896  -4.3095  -3.8887
    -3.5218  -3.3432  -2.2031  -1.9592  -0.7211   0.6085   1.6160   2.3084
     2.6722

          k = 0.2222-0.2566 0.0000 ( 10750 PWs)   bands (ev):

   -61.4239 -35.5040 -35.4510 -35.2956 -12.6170 -12.4136  -4.1279  -3.5281
    -3.5004  -2.6676  -1.5988  -1.4069  -0.6144   0.4238   1.7035   1.7776
     2.4980

          k = 0.2222-0.1283 0.0000 ( 10736 PWs)   bands (ev):

   -61.4333 -35.5179 -35.3803 -35.2624 -13.0471 -12.7344  -4.5455  -3.2936
    -2.8521  -1.7624  -1.4487  -1.1350  -0.6977   0.5927   1.5165   1.7561
     2.4971

          k = 0.2222-0.0000 0.0000 ( 10724 PWs)   bands (ev):

   -61.4369 -35.5234 -35.3432 -35.2585 -13.2031 -12.8509  -4.7122  -3.1639
    -2.5015  -1.5725  -1.4283  -0.8742  -0.8695   0.6554   1.5288   1.6866
     2.4484

          k = 0.3333 0.1925 0.0000 ( 10762 PWs)   bands (ev):

   -61.4194 -35.5040 -35.4973 -35.2921 -12.3767 -12.2391  -4.4145  -4.0029
    -3.7218  -2.5927  -1.6220  -1.5343  -0.3745   0.9598   1.6579   2.0160
     2.5515

          k = 0.3333 0.3208 0.0000 ( 10759 PWs)   bands (ev):

   -61.4125 -35.5441 -35.4870 -35.3286 -11.9800 -11.9484  -4.7690  -4.3667
    -3.6012  -2.9217  -1.9780  -1.7118  -0.5985   1.0484   1.9695   2.1911
     2.5518

          k = 0.3333 0.4491 0.0000 ( 10803 PWs)   bands (ev):

   -61.4064 -35.5385 -35.4779 -35.4024 -11.6636 -11.5997  -4.7218  -4.5245
    -3.3945  -3.1684  -2.7288  -2.5873  -0.5528   1.2971   1.3963   2.2717
     2.9770

          k = 0.3333 0.5774 0.0000 ( 10818 PWs)   bands (ev):

   -61.4040 -35.4902 -35.4779 -35.4743 -11.5418 -11.4409  -4.5472  -4.3093
    -3.7417  -3.2375  -3.1825  -2.9025  -0.3710   1.1165   1.6472   1.8826
     3.2130

          k = 0.3333 0.7057 0.0000 ( 10803 PWs)   bands (ev):

   -61.4064 -35.5385 -35.4779 -35.4024 -11.6636 -11.5997  -4.7218  -4.5245
    -3.3945  -3.1684  -2.7288  -2.5873  -0.5528   1.2971   1.3963   2.2717
     2.9770

          k = 0.3333-0.3208 0.0000 ( 10759 PWs)   bands (ev):

   -61.4125 -35.5441 -35.4870 -35.3286 -11.9800 -11.9484  -4.7690  -4.3667
    -3.6012  -2.9217  -1.9780  -1.7118  -0.5985   1.0484   1.9695   2.1911
     2.5518

          k = 0.3333-0.1925 0.0000 ( 10762 PWs)   bands (ev):

   -61.4194 -35.5040 -35.4973 -35.2921 -12.3767 -12.2391  -4.4145  -4.0029
    -3.7218  -2.5927  -1.6220  -1.5343  -0.3745   0.9598   1.6579   2.0160
     2.5515

          k = 0.3333-0.0642 0.0000 ( 10750 PWs)   bands (ev):

   -61.4239 -35.5040 -35.4510 -35.2956 -12.6170 -12.4136  -4.1279  -3.5281
    -3.5004  -2.6676  -1.5988  -1.4069  -0.6144   0.4238   1.7035   1.7776
     2.4980

          k = 0.3333 0.0642 0.0000 ( 10750 PWs)   bands (ev):

   -61.4239 -35.5040 -35.4510 -35.2956 -12.6170 -12.4136  -4.1279  -3.5281
    -3.5004  -2.6676  -1.5988  -1.4069  -0.6144   0.4238   1.7035   1.7776
     2.4980

          k = 0.4444 0.2566 0.0000 ( 10772 PWs)   bands (ev):

   -61.4103 -35.5835 -35.4838 -35.3114 -11.8458 -11.8258  -5.2661  -4.7719
    -3.6887  -2.8187  -1.8952  -1.3108  -0.3457   1.6646   2.0934   2.2710
     2.5458

          k = 0.4444 0.3849 0.0000 ( 10772 PWs)   bands (ev):

   -61.4079 -35.5805 -35.4802 -35.3416 -11.7335 -11.6767  -5.2391  -4.8052
    -3.5877  -2.8570  -2.2707  -1.6565  -0.5642   1.6969   2.0212   2.1791
     2.6155

          k = 0.4444 0.5132 0.0000 ( 10803 PWs)   bands (ev):

   -61.4064 -35.5385 -35.4779 -35.4024 -11.6636 -11.5997  -4.7218  -4.5245
    -3.3945  -3.1684  -2.7288  -2.5873  -0.5528   1.2971   1.3963   2.2717
     2.9770

          k = 0.4444 0.6415 0.0000 ( 10803 PWs)   bands (ev):

   -61.4064 -35.5385 -35.4779 -35.4024 -11.6636 -11.5997  -4.7218  -4.5245
    -3.3945  -3.1684  -2.7288  -2.5873  -0.5528   1.2971   1.3963   2.2717
     2.9770

          k = 0.4444 0.7698 0.0000 ( 10772 PWs)   bands (ev):

   -61.4079 -35.5805 -35.4802 -35.3416 -11.7335 -11.6767  -5.2391  -4.8052
    -3.5877  -2.8570  -2.2707  -1.6565  -0.5642   1.6969   2.0212   2.1791
     2.6155

          k = 0.4444-0.2566 0.0000 ( 10772 PWs)   bands (ev):

   -61.4103 -35.5835 -35.4838 -35.3114 -11.8458 -11.8258  -5.2661  -4.7719
    -3.6887  -2.8187  -1.8952  -1.3108  -0.3457   1.6646   2.0934   2.2710
     2.5458

          k = 0.4444-0.1283 0.0000 ( 10759 PWs)   bands (ev):

   -61.4125 -35.5441 -35.4870 -35.3286 -11.9800 -11.9484  -4.7690  -4.3667
    -3.6012  -2.9217  -1.9780  -1.7118  -0.5985   1.0484   1.9695   2.1911
     2.5518

          k = 0.4444 0.0000 0.0000 ( 10752 PWs)   bands (ev):

   -61.4133 -35.5104 -35.4882 -35.3539 -12.0451 -11.9896  -4.3095  -3.8887
    -3.5218  -3.3432  -2.2031  -1.9592  -0.7211   0.6085   1.6160   2.3084
     2.6722

          k = 0.4444 0.1283 0.0000 ( 10759 PWs)   bands (ev):

   -61.4125 -35.5441 -35.4870 -35.3286 -11.9800 -11.9484  -4.7690  -4.3667
    -3.6012  -2.9217  -1.9780  -1.7118  -0.5985   1.0484   1.9695   2.1911
     2.5518

     the Fermi energy is     0.0409 ev

!    total energy              =    -496.58876733 Ry
     estimated scf accuracy    <       0.00000070 Ry
     smearing contrib. (-TS)   =      -0.00000000 Ry
     internal energy E=F+TS    =    -496.58876733 Ry

     convergence has been achieved in   6 iterations

     negative rho (up, down):  7.132E-05 0.000E+00

     Forces acting on atoms (cartesian axes, Ry/au):

     atom    1 type  1   force =     0.00000031   -0.00000005    0.00003718
     atom    2 type  2   force =    -0.00000020    0.00000007   -0.16413364
     atom    3 type  2   force =    -0.00000011   -0.00000002    0.16409645
     The non-local contrib.  to forces
     atom    1 type  1   force =    -0.00000010   -0.00000001    0.00015617
     atom    2 type  2   force =    -0.00000012    0.00000001   -0.32970260
     atom    3 type  2   force =    -0.00000009   -0.00000002    0.32967862
     The ionic contribution  to forces
     atom    1 type  1   force =     0.00000235   -0.00000027   -0.00019069
     atom    2 type  2   force =    -0.00000154    0.00000062   35.38462782
     atom    3 type  2   force =    -0.00000081   -0.00000034  -35.38443713
     The local contribution  to forces
     atom    1 type  1   force =    -0.00000178    0.00000020   -0.00122742
     atom    2 type  2   force =     0.00000137   -0.00000045  -35.22454089
     atom    3 type  2   force =     0.00000076    0.00000034   35.22357206
     The core correction contribution to forces
     atom    1 type  1   force =     0.00000001   -0.00000000   -0.00000987
     atom    2 type  2   force =     0.00000000    0.00000000    0.00596848
     atom    3 type  2   force =     0.00000000    0.00000000   -0.00597224
     The Hubbard contrib.    to forces
     atom    1 type  1   force =     0.00000000    0.00000000    0.00000000
     atom    2 type  2   force =     0.00000000    0.00000000    0.00000000
     atom    3 type  2   force =     0.00000000    0.00000000    0.00000000
     The SCF correction term to forces
     atom    1 type  1   force =    -0.00000016    0.00000004    0.00133880
     atom    2 type  2   force =     0.00000010   -0.00000011    0.00200145
     atom    3 type  2   force =     0.00000003    0.00000001   -0.00117301

     DFT-D3 dispersion contribution to forces:
     atom    1 type  1   force =     0.00000000   -0.00000000    0.00000005
     atom    2 type  2   force =    -0.00000000    0.00000000   -0.00245805
     atom    3 type  2   force =    -0.00000000   -0.00000000    0.00245800

     Total force =     0.232094     Total SCF correction =     0.002678


     Computing stress (Cartesian axis) and pressure


     negative rho (up, down):  7.132E-05 0.000E+00
          total   stress  (Ry/bohr**3)                   (kbar)     P=      -75.25
  -0.00020864   0.00000000  -0.00000000          -30.69        0.00       -0.00
   0.00000000  -0.00020864   0.00000000            0.00      -30.69        0.00
  -0.00000000   0.00000000  -0.00111729           -0.00        0.00     -164.36


     Entering Dynamics:    iteration =     3

     <vel(dt)|acc(dt)> =   0.76780423

ATOMIC_POSITIONS (crystal)
Mo           -0.0062947983       -0.0031475818        0.5000001905
S             0.6698146192        0.3349080597        0.5939803024
S             0.6698135125        0.3349061887        0.4060195071



     Writing config-only to output data dir ./tmp/scf.save/
     NEW-OLD atomic charge density approx. for the potential

     negative rho (up, down):  7.963E-05 0.000E+00

     total cpu time spent up to now is      308.6 secs

     Self-consistent Calculation

     iteration #  1     ecut=    70.00 Ry     beta= 0.70
     Davidson diagonalization with overlap
     ethr =  1.00E-06,  avg # of iterations = 10.6

     negative rho (up, down):  7.680E-05 0.000E+00

     total cpu time spent up to now is      317.6 secs

     total energy              =    -496.67370493 Ry
     estimated scf accuracy    <       0.01423881 Ry

     iteration #  2     ecut=    70.00 Ry     beta= 0.70
     Davidson diagonalization with overlap
     ethr =  5.48E-05,  avg # of iterations =  3.0

     negative rho (up, down):  7.527E-05 0.000E+00

     total cpu time spent up to now is      325.9 secs

     total energy              =    -496.65332712 Ry
     estimated scf accuracy    <       0.27658631 Ry

     iteration #  3     ecut=    70.00 Ry     beta= 0.70
     Davidson diagonalization with overlap
     ethr =  5.48E-05,  avg # of iterations =  3.0

     negative rho (up, down):  7.446E-05 0.000E+00

     total cpu time spent up to now is      339.0 secs

     total energy              =    -496.68229294 Ry
     estimated scf accuracy    <       0.00061194 Ry

     iteration #  4     ecut=    70.00 Ry     beta= 0.70
     Davidson diagonalization with overlap
     ethr =  2.35E-06,  avg # of iterations =  3.4

     negative rho (up, down):  7.460E-05 0.000E+00

     total cpu time spent up to now is      352.2 secs

     total energy              =    -496.68227172 Ry
     estimated scf accuracy    <       0.00089235 Ry

     iteration #  5     ecut=    70.00 Ry     beta= 0.70
     Davidson diagonalization with overlap
     ethr =  2.35E-06,  avg # of iterations =  1.5

     negative rho (up, down):  7.465E-05 0.000E+00

     total cpu time spent up to now is      363.9 secs

     total energy              =    -496.68237237 Ry
     estimated scf accuracy    <       0.00025020 Ry

     iteration #  6     ecut=    70.00 Ry     beta= 0.70
     Davidson diagonalization with overlap
     ethr =  9.62E-07,  avg # of iterations =  1.0

     negative rho (up, down):  7.473E-05 0.000E+00

     total cpu time spent up to now is      376.3 secs

     total energy              =    -496.68239492 Ry
     estimated scf accuracy    <       0.00000225 Ry

     iteration #  7     ecut=    70.00 Ry     beta= 0.70
     Davidson diagonalization with overlap
     ethr =  8.65E-09,  avg # of iterations =  3.7

     negative rho (up, down):  7.473E-05 0.000E+00

     total cpu time spent up to now is      398.7 secs

     total energy              =    -496.68239600 Ry
     estimated scf accuracy    <       0.00000160 Ry

     iteration #  8     ecut=    70.00 Ry     beta= 0.70
     Davidson diagonalization with overlap
     ethr =  6.17E-09,  avg # of iterations =  1.1

     negative rho (up, down):  7.473E-05 0.000E+00

     total cpu time spent up to now is      416.8 secs

     End of self-consistent calculation

          k = 0.0000 0.0000 0.0000 ( 10733 PWs)   bands (ev):

   -61.3778 -35.4900 -35.1983 -35.1966 -14.1034 -13.3497  -5.6905  -2.7792
    -1.9598  -1.9213  -1.2416  -1.0256  -0.8507   2.1288   2.2014   2.2416
     2.4326

          k = 0.0000 0.1283 0.0000 ( 10711 PWs)   bands (ev):

   -61.3728 -35.4816 -35.2447 -35.2079 -13.9211 -13.2357  -5.4503  -2.9876
    -2.3858  -1.7615  -1.2438  -1.2117  -1.1149   1.5891   2.0179   2.0917
     2.5144

          k = 0.0000 0.2566 0.0000 ( 10736 PWs)   bands (ev):

   -61.3601 -35.4603 -35.3618 -35.2354 -13.4157 -12.9212  -4.8919  -3.5383
    -3.3986  -1.8784  -1.7585  -1.3650  -1.2709   1.0322   1.7408   2.0970
     2.8449

          k = 0.0000 0.3849 0.0000 ( 10762 PWs)   bands (ev):

   -61.3456 -35.4926 -35.4361 -35.2664 -12.7293 -12.5033  -4.9651  -4.3693
    -4.0071  -2.5049  -2.2860  -1.5196  -0.8729   1.3553   1.7611   2.5191
     3.0429

          k = 0.0000 0.5132 0.0000 ( 10772 PWs)   bands (ev):

   -61.3362 -35.5767 -35.4202 -35.2866 -12.1798 -12.1718  -5.7259  -5.0474
    -4.0446  -2.7636  -2.5717  -1.2647  -0.7214   2.0040   2.0635   2.8399
     3.1232

          k = 0.1111 0.0642 0.0000 ( 10711 PWs)   bands (ev):

   -61.3728 -35.4817 -35.2432 -35.2092 -13.9223 -13.2338  -5.4533  -2.9614
    -2.4081  -1.7347  -1.2960  -1.2059  -1.1010   1.6332   1.9676   2.0030
     2.6142

          k = 0.1111 0.1925 0.0000 ( 10724 PWs)   bands (ev):

   -61.3639 -35.4669 -35.3212 -35.2322 -13.5789 -13.0170  -5.0394  -3.2639
    -3.0962  -2.1005  -1.5170  -1.2402  -1.1904   1.0673   1.7640   1.8921
     2.8449

          k = 0.1111 0.3208 0.0000 ( 10750 PWs)   bands (ev):

   -61.3504 -35.4442 -35.4357 -35.2708 -12.9771 -12.6433  -4.6328  -3.8874
    -3.8568  -2.9596  -1.7756  -1.6936  -0.9519   0.8683   1.8825   2.1278
     3.0345

          k = 0.1111 0.4491 0.0000 ( 10759 PWs)   bands (ev):

   -61.3384 -35.5345 -35.4240 -35.3051 -12.3294 -12.2552  -5.2703  -4.7354
    -3.9235  -3.1106  -2.3018  -1.9307  -0.7622   1.3816   2.3002   2.5092
     3.1091

          k = 0.1111 0.5774 0.0000 ( 10772 PWs)   bands (ev):

   -61.3337 -35.5735 -35.4160 -35.3184 -12.0821 -12.0224  -5.6785  -5.1179
    -3.9744  -3.0153  -2.6470  -1.8648  -0.6335   1.9059   2.3731   2.5979
     3.2057

          k = 0.1111-0.4491 0.0000 ( 10759 PWs)   bands (ev):

   -61.3384 -35.5355 -35.4239 -35.3045 -12.3261 -12.2613  -5.2700  -4.7171
    -3.9303  -3.1553  -2.2626  -1.9042  -0.7788   1.3927   2.2684   2.4076
     3.2354

          k = 0.1111-0.3208 0.0000 ( 10750 PWs)   bands (ev):

   -61.3503 -35.4439 -35.4374 -35.2697 -12.9729 -12.6508  -4.6312  -3.8773
    -3.8636  -2.9604  -1.7628  -1.6647  -0.9962   0.8979   1.8574   2.0824
     3.0952

          k = 0.1111-0.1925 0.0000 ( 10724 PWs)   bands (ev):

   -61.3639 -35.4667 -35.3232 -35.2307 -13.5756 -13.0224  -5.0328  -3.3153
    -3.0751  -2.0383  -1.5179  -1.2437  -1.2273   1.0731   1.7772   1.9349
     2.7946

          k = 0.1111-0.0642 0.0000 ( 10711 PWs)   bands (ev):

   -61.3728 -35.4816 -35.2447 -35.2079 -13.9211 -13.2357  -5.4503  -2.9876
    -2.3859  -1.7615  -1.2438  -1.2117  -1.1149   1.5891   2.0179   2.0917
     2.5144

          k = 0.2222 0.1283 0.0000 ( 10736 PWs)   bands (ev):

   -61.3601 -35.4606 -35.3599 -35.2366 -13.4207 -12.9134  -4.9057  -3.4902
    -3.4059  -1.8680  -1.8500  -1.3013  -1.2817   1.0369   1.7083   2.0410
     2.9110

          k = 0.2222 0.2566 0.0000 ( 10750 PWs)   bands (ev):

   -61.3504 -35.4444 -35.4346 -35.2714 -12.9814 -12.6369  -4.6396  -3.8917
    -3.8298  -2.9966  -1.7391  -1.6945  -0.9602   0.8646   1.8694   2.0908
     3.0608

          k = 0.2222 0.3849 0.0000 ( 10752 PWs)   bands (ev):

   -61.3393 -35.4977 -35.4258 -35.3326 -12.3999 -12.2776  -4.8701  -4.4008
    -3.7787  -3.5849  -2.5546  -2.0610  -0.8206   1.0572   2.0694   2.4168
     3.2827

          k = 0.2222 0.5132 0.0000 ( 10803 PWs)   bands (ev):

   -61.3321 -35.5285 -35.4135 -35.3829 -12.0083 -11.9493  -5.1641  -5.0275
    -3.7833  -3.4164  -3.0523  -2.6412  -0.5514   1.6174   1.9632   2.5390
     3.6102

          k = 0.2222 0.6415 0.0000 ( 10803 PWs)   bands (ev):

   -61.3321 -35.5298 -35.4133 -35.3819 -12.0152 -11.9453  -5.1683  -5.0070
    -3.7979  -3.4401  -3.0291  -2.6320  -0.5469   1.6156   1.9436   2.5170
     3.6589

          k = 0.2222-0.3849 0.0000 ( 10752 PWs)   bands (ev):

   -61.3393 -35.5005 -35.4253 -35.3307 -12.3911 -12.2924  -4.8768  -4.3588
    -3.7725  -3.6211  -2.5476  -2.0486  -0.8233   1.0563   2.0200   2.3881
     3.3872

          k = 0.2222-0.2566 0.0000 ( 10750 PWs)   bands (ev):

   -61.3503 -35.4439 -35.4374 -35.2697 -12.9729 -12.6508  -4.6312  -3.8773
    -3.8636  -2.9604  -1.7628  -1.6647  -0.9962   0.8979   1.8574   2.0824
     3.0952

          k = 0.2222-0.1283 0.0000 ( 10736 PWs)   bands (ev):

   -61.3601 -35.4603 -35.3618 -35.2354 -13.4157 -12.9212  -4.8919  -3.5383
    -3.3986  -1.8785  -1.7585  -1.3650  -1.2709   1.0322   1.7408   2.0970
     2.8449

          k = 0.2222-0.0000 0.0000 ( 10724 PWs)   bands (ev):

   -61.3639 -35.4669 -35.3212 -35.2322 -13.5789 -13.0170  -5.0394  -3.2639
    -3.0962  -2.1005  -1.5170  -1.2402  -1.1904   1.0673   1.7640   1.8921
     2.8449

          k = 0.3333 0.1925 0.0000 ( 10762 PWs)   bands (ev):

   -61.3457 -35.4902 -35.4366 -35.2675 -12.7410 -12.4858  -4.9620  -4.3654
    -4.0279  -2.4721  -2.3493  -1.4571  -0.8810   1.3343   1.7534   2.4446
     3.0784

          k = 0.3333 0.3208 0.0000 ( 10759 PWs)   bands (ev):

   -61.3385 -35.5324 -35.4245 -35.3060 -12.3411 -12.2383  -5.2510  -4.7481
    -3.9562  -3.1414  -2.2660  -1.8942  -0.7636   1.3772   2.2925   2.4434
     3.1153

          k = 0.3333 0.4491 0.0000 ( 10803 PWs)   bands (ev):

   -61.3321 -35.5267 -35.4137 -35.3841 -11.9980 -11.9564  -5.1445  -5.0434
    -3.8044  -3.4428  -3.0536  -2.5991  -0.5404   1.6114   1.9541   2.5508
     3.5715

          k = 0.3333 0.5774 0.0000 ( 10818 PWs)   bands (ev):

   -61.3296 -35.4816 -35.4583 -35.4093 -11.9013 -11.7920  -5.1723  -4.7214
    -4.1258  -3.5486  -3.3739  -2.9208  -0.3356   1.6982   1.7188   2.4639
     3.8886

          k = 0.3333 0.7057 0.0000 ( 10803 PWs)   bands (ev):

   -61.3321 -35.5298 -35.4133 -35.3819 -12.0152 -11.9453  -5.1683  -5.0070
    -3.7979  -3.4401  -3.0291  -2.6320  -0.5469   1.6156   1.9436   2.5170
     3.6589

          k = 0.3333-0.3208 0.0000 ( 10759 PWs)   bands (ev):

   -61.3384 -35.5355 -35.4239 -35.3045 -12.3261 -12.2613  -5.2700  -4.7171
    -3.9303  -3.1553  -2.2626  -1.9042  -0.7788   1.3927   2.2683   2.4076
     3.2354

          k = 0.3333-0.1925 0.0000 ( 10762 PWs)   bands (ev):

   -61.3456 -35.4926 -35.4361 -35.2664 -12.7293 -12.5033  -4.9651  -4.3693
    -4.0071  -2.5049  -2.2860  -1.5196  -0.8729   1.3553   1.7611   2.5191
     3.0429

          k = 0.3333-0.0642 0.0000 ( 10750 PWs)   bands (ev):

   -61.3504 -35.4442 -35.4357 -35.2708 -12.9771 -12.6433  -4.6328  -3.8874
    -3.8568  -2.9596  -1.7756  -1.6936  -0.9519   0.8683   1.8825   2.1278
     3.0345

          k = 0.3333 0.0642 0.0000 ( 10750 PWs)   bands (ev):

   -61.3504 -35.4444 -35.4346 -35.2714 -12.9814 -12.6369  -4.6396  -3.8917
    -3.8298  -2.9966  -1.7391  -1.6945  -0.9602   0.8646   1.8694   2.0908
     3.0608

          k = 0.4444 0.2566 0.0000 ( 10772 PWs)   bands (ev):

   -61.3363 -35.5739 -35.4209 -35.2876 -12.1909 -12.1526  -5.6977  -5.0838
    -4.0801  -2.6891  -2.6292  -1.2066  -0.7468   1.9994   2.0703   2.7455
     3.1280

          k = 0.4444 0.3849 0.0000 ( 10772 PWs)   bands (ev):

   -61.3338 -35.5707 -35.4167 -35.3197 -12.0569 -12.0401  -5.6480  -5.1567
    -4.0067  -3.0426  -2.5918  -1.8597  -0.6186   1.8954   2.4007   2.6031
     3.1002

          k = 0.4444 0.5132 0.0000 ( 10803 PWs)   bands (ev):

   -61.3321 -35.5267 -35.4137 -35.3841 -11.9980 -11.9564  -5.1445  -5.0434
    -3.8044  -3.4428  -3.0536  -2.5991  -0.5404   1.6114   1.9541   2.5508
     3.5715

          k = 0.4444 0.6415 0.0000 ( 10803 PWs)   bands (ev):

   -61.3321 -35.5285 -35.4135 -35.3829 -12.0083 -11.9493  -5.1641  -5.0275
    -3.7833  -3.4164  -3.0523  -2.6412  -0.5514   1.6174   1.9632   2.5390
     3.6102

          k = 0.4444 0.7698 0.0000 ( 10772 PWs)   bands (ev):

   -61.3337 -35.5735 -35.4160 -35.3184 -12.0821 -12.0224  -5.6785  -5.1179
    -3.9744  -3.0153  -2.6470  -1.8648  -0.6335   1.9059   2.3731   2.5979
     3.2057

          k = 0.4444-0.2566 0.0000 ( 10772 PWs)   bands (ev):

   -61.3362 -35.5767 -35.4202 -35.2866 -12.1798 -12.1718  -5.7259  -5.0474
    -4.0446  -2.7636  -2.5717  -1.2647  -0.7214   2.0040   2.0635   2.8399
     3.1232

          k = 0.4444-0.1283 0.0000 ( 10759 PWs)   bands (ev):

   -61.3384 -35.5345 -35.4240 -35.3051 -12.3294 -12.2552  -5.2703  -4.7354
    -3.9235  -3.1106  -2.3018  -1.9307  -0.7622   1.3816   2.3002   2.5092
     3.1091

          k = 0.4444 0.0000 0.0000 ( 10752 PWs)   bands (ev):

   -61.3393 -35.4976 -35.4258 -35.3326 -12.3999 -12.2776  -4.8701  -4.4008
    -3.7787  -3.5849  -2.5546  -2.0610  -0.8206   1.0572   2.0694   2.4168
     3.2827

          k = 0.4444 0.1283 0.0000 ( 10759 PWs)   bands (ev):

   -61.3385 -35.5324 -35.4245 -35.3060 -12.3411 -12.2383  -5.2510  -4.7481
    -3.9562  -3.1414  -2.2660  -1.8942  -0.7636   1.3772   2.2925   2.4434
     3.1152

     the Fermi energy is     0.1589 ev

!    total energy              =    -496.68239603 Ry
     estimated scf accuracy    <       0.00000009 Ry
     smearing contrib. (-TS)   =      -0.00000000 Ry
     internal energy E=F+TS    =    -496.68239603 Ry

     convergence has been achieved in   8 iterations

     negative rho (up, down):  7.473E-05 0.000E+00

     Forces acting on atoms (cartesian axes, Ry/au):

     atom    1 type  1   force =     0.01064097    0.00614404   -0.00000343
     atom    2 type  2   force =    -0.00532007   -0.00307229   -0.11382157
     atom    3 type  2   force =    -0.00532090   -0.00307175    0.11382500
     The non-local contrib.  to forces
     atom    1 type  1   force =    -0.00309835   -0.00178896   -0.00000749
     atom    2 type  2   force =    -0.00457506   -0.00264207   -0.31288223
     atom    3 type  2   force =    -0.00457403   -0.00264057    0.31289037
     The ionic contribution  to forces
     atom    1 type  1   force =     0.07225263    0.04171858   -0.00000368
     atom    2 type  2   force =    -0.03612694   -0.02086374   36.09901750
     atom    3 type  2   force =    -0.03612569   -0.02085484  -36.09901382
     The local contribution  to forces
     atom    1 type  1   force =    -0.05883698   -0.03397246   -0.00000453
     atom    2 type  2   force =     0.03524072    0.02035197  -35.90175727
     atom    3 type  2   force =     0.03523723    0.02034192   35.90181234
     The core correction contribution to forces
     atom    1 type  1   force =     0.00025150    0.00014521    0.00000009
     atom    2 type  2   force =     0.00016300    0.00009414    0.00454326
     atom    3 type  2   force =     0.00016294    0.00009406   -0.00454344
     The Hubbard contrib.    to forces
     atom    1 type  1   force =     0.00000000    0.00000000    0.00000000
     atom    2 type  2   force =     0.00000000    0.00000000    0.00000000
     atom    3 type  2   force =     0.00000000    0.00000000    0.00000000
     The SCF correction term to forces
     atom    1 type  1   force =     0.00001237    0.00000714    0.00000685
     atom    2 type  2   force =     0.00000051    0.00000029   -0.00075205
     atom    3 type  2   force =     0.00000094    0.00000054    0.00067807

     DFT-D3 dispersion contribution to forces:
     atom    1 type  1   force =     0.00005474    0.00003160   -0.00000000
     atom    2 type  2   force =    -0.00002737   -0.00001580   -0.00199613
     atom    3 type  2   force =    -0.00002737   -0.00001580    0.00199613

     Total force =     0.161672     Total SCF correction =     0.001013


     Computing stress (Cartesian axis) and pressure


     negative rho (up, down):  7.473E-05 0.000E+00
          total   stress  (Ry/bohr**3)                   (kbar)     P=      -47.49
  -0.00012972  -0.00000044  -0.00000000          -19.08       -0.07       -0.00
  -0.00000044  -0.00012921  -0.00000000           -0.07      -19.01       -0.00
  -0.00000000  -0.00000000  -0.00070958           -0.00       -0.00     -104.38


     Entering Dynamics:    iteration =     6

     <vel(dt)|acc(dt)> =   0.80333539

ATOMIC_POSITIONS (crystal)
Mo           -0.0135702341       -0.0067853054        0.4999810890
S             0.6734545541        0.3367286627        0.5844919904
S             0.6734490133        0.3367233094        0.4155269206



     Writing config-only to output data dir ./tmp/scf.save/
     NEW-OLD atomic charge density approx. for the potential

     negative rho (up, down):  8.201E-05 0.000E+00

     total cpu time spent up to now is      453.9 secs

     Self-consistent Calculation

     iteration #  1     ecut=    70.00 Ry     beta= 0.70
     Davidson diagonalization with overlap
     ethr =  1.00E-06,  avg # of iterations = 11.0

     negative rho (up, down):  8.037E-05 0.000E+00

     total cpu time spent up to now is      495.6 secs

     total energy              =    -496.72027271 Ry
     estimated scf accuracy    <       0.01474025 Ry

     iteration #  2     ecut=    70.00 Ry     beta= 0.70
     Davidson diagonalization with overlap
     ethr =  5.67E-05,  avg # of iterations =  3.0

     negative rho (up, down):  7.916E-05 0.000E+00

     total cpu time spent up to now is      512.4 secs

     total energy              =    -496.70858754 Ry
     estimated scf accuracy    <       0.14863059 Ry

     iteration #  3     ecut=    70.00 Ry     beta= 0.70
     Davidson diagonalization with overlap
     ethr =  5.67E-05,  avg # of iterations =  3.0

     negative rho (up, down):  7.850E-05 0.000E+00

     total cpu time spent up to now is      522.5 secs

     total energy              =    -496.72843981 Ry
     estimated scf accuracy    <       0.00068209 Ry

     iteration #  4     ecut=    70.00 Ry     beta= 0.70
     Davidson diagonalization with overlap
     ethr =  2.62E-06,  avg # of iterations =  2.8

     negative rho (up, down):  7.851E-05 0.000E+00

     total cpu time spent up to now is      531.5 secs

     total energy              =    -496.72850444 Ry
     estimated scf accuracy    <       0.00010934 Ry

     iteration #  5     ecut=    70.00 Ry     beta= 0.70
     Davidson diagonalization with overlap
     ethr =  4.21E-07,  avg # of iterations =  2.0

     negative rho (up, down):  7.853E-05 0.000E+00

     total cpu time spent up to now is      538.8 secs

     total energy              =    -496.72848143 Ry
     estimated scf accuracy    <       0.00052044 Ry

     iteration #  6     ecut=    70.00 Ry     beta= 0.70
     Davidson diagonalization with overlap
     ethr =  4.21E-07,  avg # of iterations =  2.0

     negative rho (up, down):  7.875E-05 0.000E+00

     total cpu time spent up to now is      545.0 secs

     End of self-consistent calculation

          k = 0.0000 0.0000 0.0000 ( 10733 PWs)   bands (ev):

   -61.3392 -35.5044 -35.2349 -35.2210 -14.6454 -13.4438  -6.1600  -2.9053
    -2.7951  -2.5153  -1.9845  -1.4940  -0.7710   2.1203   2.4201   2.6252
     2.6665

          k = 0.0000 0.1283 0.0000 ( 10711 PWs)   bands (ev):

   -61.3338 -35.4942 -35.2841 -35.2353 -14.4528 -13.3585  -5.9363  -3.2510
    -3.0998  -2.6741  -1.9761  -1.5430  -0.8395   1.9706   2.1603   2.3914
     2.6986

          k = 0.0000 0.2566 0.0000 ( 10736 PWs)   bands (ev):

   -61.3202 -35.4683 -35.4131 -35.2655 -13.9252 -13.1270  -5.4846  -4.0543
    -3.9479  -2.5517  -2.1701  -1.8068  -1.2337   1.5305   2.0123   2.3436
     3.1951

          k = 0.0000 0.3849 0.0000 ( 10762 PWs)   bands (ev):

   -61.3047 -35.5573 -35.4387 -35.2991 -13.2250 -12.8292  -5.7063  -4.7675
    -4.3456  -3.0998  -2.3017  -1.7509  -1.4327   1.7477   1.8684   2.9309
     3.6098

          k = 0.0000 0.5132 0.0000 ( 10772 PWs)   bands (ev):

   -61.2945 -35.6497 -35.4193 -35.3209 -12.6723 -12.6083  -6.2759  -5.3132
    -4.4994  -3.4073  -2.5750  -1.4612  -1.0978   1.9160   2.2894   3.2756
     3.8515

          k = 0.1111 0.0642 0.0000 ( 10711 PWs)   bands (ev):

   -61.3339 -35.4945 -35.2720 -35.2466 -14.4573 -13.3512  -5.9452  -3.3198
    -2.9430  -2.6022  -2.2435  -1.4697  -0.8088   1.9824   2.1029   2.2388
     2.9141

          k = 0.1111 0.1925 0.0000 ( 10724 PWs)   bands (ev):

   -61.3244 -35.4767 -35.3611 -35.2682 -14.1005 -13.1851  -5.5895  -3.8854
    -3.5060  -2.8499  -2.3269  -1.4356  -1.0051   1.5435   1.9856   2.0545
     3.2607

          k = 0.1111 0.3208 0.0000 ( 10750 PWs)   bands (ev):

   -61.3098 -35.4900 -35.4490 -35.3075 -13.4820 -12.9105  -5.4151  -4.3614
    -4.2805  -3.4248  -2.2482  -1.7582  -1.2473   1.3381   2.0663   2.4024
     3.6074

          k = 0.1111 0.4491 0.0000 ( 10759 PWs)   bands (ev):

   -61.2970 -35.6012 -35.4244 -35.3428 -12.8311 -12.6396  -5.9072  -5.1859
    -4.3119  -3.5488  -2.3311  -2.3231  -1.0266   1.6907   2.3211   3.0503
     3.6650

          k = 0.1111 0.5774 0.0000 ( 10772 PWs)   bands (ev):

   -61.2919 -35.6463 -35.4143 -35.3555 -12.5301 -12.5268  -6.1869  -5.4828
    -4.4691  -3.5644  -2.5752  -2.1866  -0.8253   1.9227   2.5045   3.1625
     3.8239

          k = 0.1111-0.4491 0.0000 ( 10759 PWs)   bands (ev):

   -61.2969 -35.6066 -35.4238 -35.3389 -12.8202 -12.6612  -5.8978  -5.1082
    -4.3309  -3.6598  -2.2475  -2.2413  -1.1027   1.7354   2.2197   2.7859
     4.0116

          k = 0.1111-0.3208 0.0000 ( 10750 PWs)   bands (ev):

   -61.3097 -35.4999 -35.4481 -35.3001 -13.4673 -12.9382  -5.4076  -4.3156
    -4.2288  -3.4648  -2.2092  -1.6966  -1.3988   1.4394   1.9672   2.3153
     3.7364

          k = 0.1111-0.1925 0.0000 ( 10724 PWs)   bands (ev):

   -61.3243 -35.4759 -35.3741 -35.2574 -14.0886 -13.2056  -5.5730  -3.8016
    -3.6704  -2.6241  -2.3901  -1.4268  -1.1186   1.5837   2.0620   2.1121
     3.1028

          k = 0.1111-0.0642 0.0000 ( 10711 PWs)   bands (ev):

   -61.3338 -35.4942 -35.2841 -35.2353 -14.4528 -13.3585  -5.9363  -3.2510
    -3.0998  -2.6740  -1.9761  -1.5430  -0.8395   1.9706   2.1603   2.3914
     2.6986

          k = 0.2222 0.1283 0.0000 ( 10736 PWs)   bands (ev):

   -61.3204 -35.4694 -35.3995 -35.2760 -13.9434 -13.0974  -5.5184  -4.1061
    -3.7992  -2.7855  -2.1113  -1.8314  -1.1133   1.5488   1.9156   2.2188
     3.3745

          k = 0.2222 0.2566 0.0000 ( 10750 PWs)   bands (ev):

   -61.3100 -35.4822 -35.4498 -35.3131 -13.4973 -12.8868  -5.4268  -4.3187
    -4.2801  -3.5689  -2.1635  -1.7457  -1.2349   1.3363   2.0252   2.3317
     3.6747

          k = 0.2222 0.3849 0.0000 ( 10752 PWs)   bands (ev):

   -61.2980 -35.5542 -35.4270 -35.3779 -12.9117 -12.6249  -5.5907  -5.0857
    -4.1064  -3.8567  -2.9951  -2.0020  -1.0816   1.5434   2.3792   2.5153
     3.9029

          k = 0.2222 0.5132 0.0000 ( 10803 PWs)   bands (ev):

   -61.2902 -35.5941 -35.4280 -35.4117 -12.4631 -12.4427  -5.6887  -5.6842
    -4.2441  -3.6404  -3.4414  -2.5499  -0.7302   1.7239   2.5935   2.7479
     4.1968

          k = 0.2222 0.6415 0.0000 ( 10803 PWs)   bands (ev):

   -61.2901 -35.6017 -35.4219 -35.4111 -12.4668 -12.4500  -5.6830  -5.6225
    -4.2959  -3.6927  -3.3741  -2.5310  -0.7268   1.7093   2.5148   2.6832
     4.3564

          k = 0.2222-0.3849 0.0000 ( 10752 PWs)   bands (ev):

   -61.2978 -35.5710 -35.4255 -35.3652 -12.8821 -12.6784  -5.5856  -4.9419
    -4.0738  -3.9501  -2.9871  -1.9738  -1.1262   1.5486   2.2862   2.3736
     4.1912

          k = 0.2222-0.2566 0.0000 ( 10750 PWs)   bands (ev):

   -61.3097 -35.4999 -35.4481 -35.3001 -13.4673 -12.9382  -5.4076  -4.3156
    -4.2288  -3.4648  -2.2092  -1.6966  -1.3988   1.4394   1.9672   2.3153
     3.7364

          k = 0.2222-0.1283 0.0000 ( 10736 PWs)   bands (ev):

   -61.3202 -35.4683 -35.4131 -35.2655 -13.9252 -13.1269  -5.4846  -4.0543
    -3.9479  -2.5517  -2.1701  -1.8068  -1.2337   1.5305   2.0123   2.3436
     3.1951

          k = 0.2222-0.0000 0.0000 ( 10724 PWs)   bands (ev):

   -61.3244 -35.4767 -35.3611 -35.2682 -14.1005 -13.1851  -5.5895  -3.8854
    -3.5060  -2.8499  -2.3269  -1.4356  -1.0051   1.5435   1.9856   2.0545
     3.2607

          k = 0.3333 0.1925 0.0000 ( 10762 PWs)   bands (ev):

   -61.3050 -35.5416 -35.4407 -35.3092 -13.2659 -12.7652  -5.7091  -4.7594
    -4.4273  -3.2812  -2.2451  -1.5871  -1.4115   1.7348   1.8130   2.7900
     3.6960

          k = 0.3333 0.3208 0.0000 ( 10759 PWs)   bands (ev):

   -61.2972 -35.5879 -35.4261 -35.3513 -12.8712 -12.5796  -5.8734  -5.2188
    -4.4096  -3.6999  -2.2183  -2.2015  -1.0263   1.7126   2.2873   2.8887
     3.7125

          k = 0.3333 0.4491 0.0000 ( 10803 PWs)   bands (ev):

   -61.2903 -35.5829 -35.4367 -35.4126 -12.4866 -12.4067  -5.7299  -5.6516
    -4.3072  -3.7186  -3.4221  -2.4482  -0.7138   1.7366   2.5864   2.7729
     4.0889

          k = 0.3333 0.5774 0.0000 ( 10818 PWs)   bands (ev):

   -61.2875 -35.5505 -35.5026 -35.4067 -12.3547 -12.3132  -5.9273  -5.1619
    -4.6019  -3.9814  -3.4781  -2.8077  -0.4485   1.4646   2.3568   3.0538
     4.5139

          k = 0.3333 0.7057 0.0000 ( 10803 PWs)   bands (ev):

   -61.2901 -35.6017 -35.4219 -35.4111 -12.4668 -12.4500  -5.6830  -5.6225
    -4.2959  -3.6927  -3.3741  -2.5310  -0.7268   1.7093   2.5148   2.6832
     4.3564

          k = 0.3333-0.3208 0.0000 ( 10759 PWs)   bands (ev):

   -61.2969 -35.6066 -35.4238 -35.3389 -12.8202 -12.6612  -5.8978  -5.1082
    -4.3309  -3.6599  -2.2475  -2.2413  -1.1027   1.7354   2.2197   2.7859
     4.0116

          k = 0.3333-0.1925 0.0000 ( 10762 PWs)   bands (ev):

   -61.3047 -35.5573 -35.4387 -35.2991 -13.2250 -12.8292  -5.7063  -4.7675
    -4.3456  -3.0998  -2.3017  -1.7509  -1.4327   1.7477   1.8684   2.9309
     3.6098

          k = 0.3333-0.0642 0.0000 ( 10750 PWs)   bands (ev):

   -61.3098 -35.4900 -35.4490 -35.3075 -13.4820 -12.9105  -5.4151  -4.3614
    -4.2805  -3.4248  -2.2482  -1.7582  -1.2473   1.3381   2.0663   2.4024
     3.6074

          k = 0.3333 0.0642 0.0000 ( 10750 PWs)   bands (ev):

   -61.3100 -35.4822 -35.4498 -35.3131 -13.4973 -12.8868  -5.4268  -4.3187
    -4.2801  -3.5689  -2.1635  -1.7457  -1.2349   1.3363   2.0252   2.3317
     3.6747

          k = 0.4444 0.2566 0.0000 ( 10772 PWs)   bands (ev):

   -61.2949 -35.6327 -35.4220 -35.3308 -12.7368 -12.5132  -6.2212  -5.4164
    -4.5976  -3.5606  -2.4287  -1.3096  -1.1461   1.9683   2.2652   3.1306
     3.8244

          k = 0.4444 0.3849 0.0000 ( 10772 PWs)   bands (ev):

   -61.2922 -35.6293 -35.4167 -35.3662 -12.5859 -12.4421  -6.1259  -5.5964
    -4.5578  -3.6950  -2.4121  -2.1667  -0.7849   1.9507   2.5564   3.2857
     3.4788

          k = 0.4444 0.5132 0.0000 ( 10803 PWs)   bands (ev):

   -61.2903 -35.5829 -35.4367 -35.4126 -12.4866 -12.4067  -5.7299  -5.6516
    -4.3072  -3.7186  -3.4221  -2.4482  -0.7138   1.7366   2.5864   2.7729
     4.0889

          k = 0.4444 0.6415 0.0000 ( 10803 PWs)   bands (ev):

   -61.2902 -35.5941 -35.4280 -35.4117 -12.4631 -12.4427  -5.6887  -5.6842
    -4.2441  -3.6404  -3.4414  -2.5499  -0.7302   1.7239   2.5935   2.7479
     4.1968

          k = 0.4444 0.7698 0.0000 ( 10772 PWs)   bands (ev):

   -61.2919 -35.6463 -35.4143 -35.3555 -12.5301 -12.5268  -6.1869  -5.4828
    -4.4691  -3.5644  -2.5752  -2.1866  -0.8253   1.9227   2.5045   3.1625
     3.8239

          k = 0.4444-0.2566 0.0000 ( 10772 PWs)   bands (ev):

   -61.2945 -35.6497 -35.4193 -35.3209 -12.6723 -12.6083  -6.2759  -5.3132
    -4.4994  -3.4073  -2.5750  -1.4612  -1.0978   1.9160   2.2894   3.2756
     3.8515

          k = 0.4444-0.1283 0.0000 ( 10759 PWs)   bands (ev):

   -61.2970 -35.6012 -35.4244 -35.3428 -12.8311 -12.6396  -5.9072  -5.1859
    -4.3119  -3.5488  -2.3311  -2.3231  -1.0266   1.6907   2.3211   3.0503
     3.6650

          k = 0.4444 0.0000 0.0000 ( 10752 PWs)   bands (ev):

   -61.2980 -35.5542 -35.4270 -35.3779 -12.9117 -12.6249  -5.5907  -5.0857
    -4.1064  -3.8567  -2.9951  -2.0020  -1.0816   1.5434   2.3792   2.5153
     3.9028

          k = 0.4444 0.1283 0.0000 ( 10759 PWs)   bands (ev):

   -61.2972 -35.5879 -35.4261 -35.3513 -12.8712 -12.5796  -5.8734  -5.2188
    -4.4096  -3.6999  -2.2183  -2.2015  -1.0263   1.7126   2.2873   2.8887
     3.7125

     the Fermi energy is     0.2129 ev

!    total energy              =    -496.72853457 Ry
     estimated scf accuracy    <       0.00000084 Ry
     smearing contrib. (-TS)   =      -0.00000000 Ry
     internal energy E=F+TS    =    -496.72853457 Ry

     convergence has been achieved in   6 iterations

     negative rho (up, down):  7.875E-05 0.000E+00

     Forces acting on atoms (cartesian axes, Ry/au):

     atom    1 type  1   force =     0.03597361    0.02077017   -0.00004841
     atom    2 type  2   force =    -0.01795903   -0.01037078   -0.01659424
     atom    3 type  2   force =    -0.01801459   -0.01039939    0.01664265
     The non-local contrib.  to forces
     atom    1 type  1   force =    -0.01170573   -0.00675853   -0.00015540
     atom    2 type  2   force =    -0.01399774   -0.00808323   -0.26988981
     atom    3 type  2   force =    -0.01403863   -0.00810421    0.27014609
     The ionic contribution  to forces
     atom    1 type  1   force =     0.21782693    0.12576798   -0.00127936
     atom    2 type  2   force =    -0.10880300   -0.06283236   36.63082703
     atom    3 type  2   force =    -0.10902392   -0.06293561  -36.62954767
     The local contribution  to forces
     atom    1 type  1   force =    -0.17111328   -0.09879684    0.00413484
     atom    2 type  2   force =     0.10450190    0.06034857  -36.37730225
     atom    3 type  2   force =     0.10469938    0.06043921   36.37637111
     The core correction contribution to forces
     atom    1 type  1   force =     0.00077812    0.00044927    0.00000905
     atom    2 type  2   force =     0.00049999    0.00028873    0.00223807
     atom    3 type  2   force =     0.00050121    0.00028934   -0.00224106
     The Hubbard contrib.    to forces
     atom    1 type  1   force =     0.00000000    0.00000000    0.00000000
     atom    2 type  2   force =     0.00000000    0.00000000    0.00000000
     atom    3 type  2   force =     0.00000000    0.00000000    0.00000000
     The SCF correction term to forces
     atom    1 type  1   force =    -0.00001933   -0.00001117   -0.00321706
     atom    2 type  2   force =    -0.00002171   -0.00001254   -0.00119437
     atom    3 type  2   force =    -0.00001390   -0.00000802   -0.00027508

     DFT-D3 dispersion contribution to forces:
     atom    1 type  1   force =     0.00023033    0.00013299    0.00000090
     atom    2 type  2   force =    -0.00011504   -0.00006642   -0.00173153
     atom    3 type  2   force =    -0.00011530   -0.00006656    0.00173063

     Total force =     0.056041     Total SCF correction =     0.003443


     Computing stress (Cartesian axis) and pressure


     negative rho (up, down):  7.875E-05 0.000E+00
          total   stress  (Ry/bohr**3)                   (kbar)     P=       -0.21
   0.00003415  -0.00001764   0.00000005            5.02       -2.59        0.01
  -0.00001764   0.00005452   0.00000002           -2.59        8.02        0.00
   0.00000005   0.00000002  -0.00009302            0.01        0.00      -13.68


     Entering Dynamics:    iteration =     7

     <vel(dt)|acc(dt)> =   0.77933444

ATOMIC_POSITIONS (crystal)
Mo            0.0230287121        0.0115146163        0.4999634339
S             0.6551867936        0.3275938381        0.5776114570
S             0.6551178276        0.3275582123        0.4224251091



     Writing config-only to output data dir ./tmp/scf.save/
     NEW-OLD atomic charge density approx. for the potential

     negative rho (up, down):  6.378E-05 0.000E+00

     total cpu time spent up to now is      560.3 secs

     Self-consistent Calculation

     iteration #  1     ecut=    70.00 Ry     beta= 0.70
     Davidson diagonalization with overlap
     ethr =  1.00E-06,  avg # of iterations = 11.2

     negative rho (up, down):  7.529E-05 0.000E+00

     total cpu time spent up to now is      583.4 secs

     total energy              =    -496.70104340 Ry
     estimated scf accuracy    <       0.00973019 Ry

     iteration #  2     ecut=    70.00 Ry     beta= 0.70
     Davidson diagonalization with overlap
     ethr =  3.74E-05,  avg # of iterations =  3.0

     negative rho (up, down):  7.945E-05 0.000E+00

     total cpu time spent up to now is      594.9 secs

     total energy              =    -496.69709661 Ry
     estimated scf accuracy    <       0.05035403 Ry

     iteration #  3     ecut=    70.00 Ry     beta= 0.70
     Davidson diagonalization with overlap
     ethr =  3.74E-05,  avg # of iterations =  2.9

     negative rho (up, down):  8.050E-05 0.000E+00

     total cpu time spent up to now is      605.4 secs

     total energy              =    -496.70563463 Ry
     estimated scf accuracy    <       0.00107227 Ry

     iteration #  4     ecut=    70.00 Ry     beta= 0.70
     Davidson diagonalization with overlap
     ethr =  4.12E-06,  avg # of iterations =  2.0

     negative rho (up, down):  8.100E-05 0.000E+00

     total cpu time spent up to now is      621.5 secs

     total energy              =    -496.70562775 Ry
     estimated scf accuracy    <       0.00098860 Ry

     iteration #  5     ecut=    70.00 Ry     beta= 0.70
     Davidson diagonalization with overlap
     ethr =  3.80E-06,  avg # of iterations =  2.0

     negative rho (up, down):  8.116E-05 0.000E+00

     total cpu time spent up to now is      638.0 secs

     total energy              =    -496.70581080 Ry
     estimated scf accuracy    <       0.00016958 Ry

     iteration #  6     ecut=    70.00 Ry     beta= 0.70
     Davidson diagonalization with overlap
     ethr =  6.52E-07,  avg # of iterations =  1.1

     negative rho (up, down):  8.128E-05 0.000E+00

     total cpu time spent up to now is      653.8 secs

     total energy              =    -496.70583062 Ry
     estimated scf accuracy    <       0.00000129 Ry

     iteration #  7     ecut=    70.00 Ry     beta= 0.70
     Davidson diagonalization with overlap
     ethr =  4.98E-09,  avg # of iterations =  4.2

     negative rho (up, down):  8.135E-05 0.000E+00

     total cpu time spent up to now is      674.0 secs

     End of self-consistent calculation

          k = 0.0000 0.0000 0.0000 ( 10733 PWs)   bands (ev):

   -61.3693 -35.5928 -35.3557 -35.3093 -15.1708 -13.4741  -6.6536  -3.8511
    -3.6133  -2.9262  -2.1910  -1.9570  -0.3787   1.8082   2.5724   2.9037
     3.0777

          k = 0.0000 0.1283 0.0000 ( 10711 PWs)   bands (ev):

   -61.3636 -35.5814 -35.3905 -35.3435 -14.9742 -13.4079  -6.4597  -4.1709
    -3.4478  -3.3830  -2.7241  -1.5554  -0.4914   1.7934   2.2953   2.6515
     3.1266

          k = 0.0000 0.2566 0.0000 ( 10736 PWs)   bands (ev):

   -61.3491 -35.5525 -35.5222 -35.3843 -14.4448 -13.2292  -6.1444  -4.7227
    -4.2400  -3.3738  -2.9171  -1.6742  -0.9986   1.8526   2.1797   2.2056
     3.6817

          k = 0.0000 0.3849 0.0000 ( 10762 PWs)   bands (ev):

   -61.3326 -35.6771 -35.5194 -35.4217 -13.7671 -13.0019  -6.3731  -5.0737
    -4.8002  -3.9376  -2.3336  -2.0182  -1.3984   1.7625   2.0860   2.9028
     4.1792

          k = 0.0000 0.5132 0.0000 ( 10772 PWs)   bands (ev):

   -61.3218 -35.7768 -35.4976 -35.4453 -13.2583 -12.8355  -6.6956  -5.6085
    -5.0260  -4.2487  -2.1924  -1.9477  -1.0778   1.7751   2.3408   3.2149
     4.4989

          k = 0.1111 0.0642 0.0000 ( 10711 PWs)   bands (ev):

   -61.3635 -35.5807 -35.4141 -35.3221 -14.9642 -13.4247  -6.4453  -3.9815
    -3.6279  -3.5940  -2.3376  -1.6946  -0.5778   2.1954   2.2756   2.6043
     2.8003

          k = 0.1111 0.1925 0.0000 ( 10724 PWs)   bands (ev):

   -61.3533 -35.5601 -35.5015 -35.3571 -14.5919 -13.3168  -6.1591  -4.4843
    -4.0607  -3.2010  -3.1904  -1.3885  -0.9820   1.9559   2.0970   2.2722
     3.3503

          k = 0.1111 0.3208 0.0000 ( 10750 PWs)   bands (ev):

   -61.3378 -35.6287 -35.5289 -35.4125 -13.9784 -13.1161  -6.1239  -4.6798
    -4.6329  -4.0952  -2.7324  -1.5495  -1.5167   1.7427   2.0324   2.3413
     4.2206

          k = 0.1111 0.4491 0.0000 ( 10759 PWs)   bands (ev):

   -61.3241 -35.7369 -35.5018 -35.4609 -13.3701 -12.8987  -6.4148  -5.5108
    -4.8146  -4.2341  -2.5307  -1.9583  -1.3638   1.8864   2.1101   2.8593
     4.5479

          k = 0.1111 0.5774 0.0000 ( 10772 PWs)   bands (ev):

   -61.3188 -35.7738 -35.4916 -35.4837 -13.1106 -12.7829  -6.5528  -5.9426
    -5.0198  -4.1335  -2.4993  -2.2061  -0.9963   1.8010   2.5309   3.3438
     4.1788

          k = 0.1111-0.4491 0.0000 ( 10759 PWs)   bands (ev):

   -61.3243 -35.7198 -35.5031 -35.4742 -13.3912 -12.8509  -6.4567  -5.7053
    -4.7790  -4.0053  -2.7082  -2.0898  -1.1890   1.8364   2.2900   3.3030
     3.9269

          k = 0.1111-0.3208 0.0000 ( 10750 PWs)   bands (ev):

   -61.3381 -35.5959 -35.5308 -35.4393 -14.0088 -13.0537  -6.1538  -4.8961
    -4.8025  -3.8347  -2.7728  -1.6848  -1.2212   1.5549   2.2510   2.4232
     4.0426

          k = 0.1111-0.1925 0.0000 ( 10724 PWs)   bands (ev):

   -61.3536 -35.5617 -35.4563 -35.3968 -14.6175 -13.2700  -6.1824  -4.6888
    -3.8678  -3.4713  -3.0613  -1.4042  -0.7278   1.7744   1.7962   2.3575
     3.7019

          k = 0.1111-0.0642 0.0000 ( 10711 PWs)   bands (ev):

   -61.3636 -35.5814 -35.3905 -35.3435 -14.9742 -13.4079  -6.4597  -4.1709
    -3.4478  -3.3830  -2.7241  -1.5554  -0.4914   1.7934   2.2953   2.6515
     3.1266

          k = 0.2222 0.1283 0.0000 ( 10736 PWs)   bands (ev):

   -61.3487 -35.5596 -35.5501 -35.3546 -14.4052 -13.2953  -6.0946  -4.5456
    -4.4134  -3.0492  -3.0258  -1.6449  -1.3117   1.9108   2.2481   2.6763
     3.1571

          k = 0.2222 0.2566 0.0000 ( 10750 PWs)   bands (ev):

   -61.3375 -35.6490 -35.5272 -35.3977 -13.9454 -13.1673  -6.1078  -4.7614
    -4.5538  -3.8379  -2.8334  -1.6537  -1.5878   1.7369   2.0969   2.5128
     4.0833

          k = 0.2222 0.3849 0.0000 ( 10752 PWs)   bands (ev):

   -61.3248 -35.7185 -35.5020 -35.4750 -13.3840 -12.9658  -6.1877  -5.4998
    -4.3938  -4.1575  -3.3639  -1.7963  -1.4774   1.8525   2.0812   2.5983
     4.6905

          k = 0.2222 0.5132 0.0000 ( 10803 PWs)   bands (ev):

   -61.3167 -35.7386 -35.5478 -35.4864 -12.9942 -12.7774  -6.2245  -6.0710
    -4.7953  -3.8979  -3.6434  -2.2500  -1.0124   1.4974   2.8156   2.8875
     4.6624

          k = 0.2222 0.6415 0.0000 ( 10803 PWs)   bands (ev):

   -61.3169 -35.7135 -35.5691 -35.4876 -13.0190 -12.7257  -6.3443  -6.1232
    -4.6909  -3.7915  -3.7593  -2.3072  -1.0000   1.5586   2.9439   3.0995
     4.2946

          k = 0.2222-0.3849 0.0000 ( 10752 PWs)   bands (ev):

   -61.3254 -35.6659 -35.5177 -35.5052 -13.4435 -12.8495  -6.2412  -5.7947
    -4.5058  -3.9438  -3.3595  -1.8965  -1.3178   1.8767   2.2801   2.8641
     4.1191

          k = 0.2222-0.2566 0.0000 ( 10750 PWs)   bands (ev):

   -61.3381 -35.5959 -35.5308 -35.4393 -14.0088 -13.0537  -6.1538  -4.8961
    -4.8025  -3.8347  -2.7728  -1.6848  -1.2212   1.5549   2.2510   2.4232
     4.0426

          k = 0.2222-0.1283 0.0000 ( 10736 PWs)   bands (ev):

   -61.3491 -35.5525 -35.5222 -35.3843 -14.4448 -13.2292  -6.1444  -4.7227
    -4.2400  -3.3738  -2.9171  -1.6742  -0.9986   1.8526   2.1797   2.2056
     3.6817

          k = 0.2222-0.0000 0.0000 ( 10724 PWs)   bands (ev):

   -61.3533 -35.5601 -35.5015 -35.3571 -14.5919 -13.3168  -6.1591  -4.4843
    -4.0607  -3.2010  -3.1904  -1.3885  -0.9820   1.9559   2.0970   2.2722
     3.3503

          k = 0.3333 0.1925 0.0000 ( 10762 PWs)   bands (ev):

   -61.3319 -35.7212 -35.5151 -35.3913 -13.6805 -13.1392  -6.3528  -5.0446
    -4.5683  -3.6471  -2.2710  -2.1161  -1.9163   1.8128   2.0983   3.4077
     3.8464

          k = 0.3333 0.3208 0.0000 ( 10759 PWs)   bands (ev):

   -61.3235 -35.7729 -35.4982 -35.4364 -13.2863 -13.0234  -6.4562  -5.4391
    -4.5671  -3.9684  -2.7131  -2.1729  -1.4803   1.7516   2.1985   3.2320
     4.4192

          k = 0.3333 0.4491 0.0000 ( 10803 PWs)   bands (ev):

   -61.3164 -35.7659 -35.5265 -35.4844 -12.9466 -12.8512  -6.1322  -6.1226
    -4.6150  -3.7762  -3.7402  -2.4122  -1.0479   1.4277   2.7670   2.9578
     4.8239

          k = 0.3333 0.5774 0.0000 ( 10818 PWs)   bands (ev):

   -61.3138 -35.7067 -35.6150 -35.4803 -12.8393 -12.7193  -6.5334  -5.5018
    -5.0192  -4.3330  -3.5115  -2.6316  -0.6807   0.9823   2.8417   3.3938
     4.8721

          k = 0.3333 0.7057 0.0000 ( 10803 PWs)   bands (ev):

   -61.3169 -35.7135 -35.5691 -35.4876 -13.0190 -12.7257  -6.3443  -6.1232
    -4.6909  -3.7915  -3.7593  -2.3072  -1.0000   1.5586   2.9438   3.0995
     4.2946

          k = 0.3333-0.3208 0.0000 ( 10759 PWs)   bands (ev):

   -61.3243 -35.7198 -35.5031 -35.4742 -13.3912 -12.8509  -6.4567  -5.7053
    -4.7790  -4.0053  -2.7082  -2.0898  -1.1890   1.8364   2.2900   3.3030
     3.9269

          k = 0.3333-0.1925 0.0000 ( 10762 PWs)   bands (ev):

   -61.3326 -35.6771 -35.5194 -35.4217 -13.7671 -13.0019  -6.3731  -5.0737
    -4.8002  -3.9376  -2.3336  -2.0182  -1.3984   1.7625   2.0861   2.9028
     4.1792

          k = 0.3333-0.0642 0.0000 ( 10750 PWs)   bands (ev):

   -61.3378 -35.6287 -35.5289 -35.4125 -13.9784 -13.1161  -6.1239  -4.6798
    -4.6329  -4.0952  -2.7324  -1.5495  -1.5167   1.7427   2.0324   2.3413
     4.2206

          k = 0.3333 0.0642 0.0000 ( 10750 PWs)   bands (ev):

   -61.3375 -35.6490 -35.5272 -35.3977 -13.9454 -13.1673  -6.1078  -4.7614
    -4.5538  -3.8379  -2.8334  -1.6537  -1.5878   1.7369   2.0969   2.5128
     4.0833

          k = 0.4444 0.2566 0.0000 ( 10772 PWs)   bands (ev):

   -61.3208 -35.8245 -35.4921 -35.4151 -13.1252 -13.0311  -6.7579  -5.3997
    -4.7952  -3.9715  -2.4618  -1.7393  -1.5768   1.6461   2.3130   3.9067
     4.1665

          k = 0.4444 0.3849 0.0000 ( 10772 PWs)   bands (ev):

   -61.3180 -35.8209 -35.4866 -35.4519 -12.9907 -12.9624  -6.6256  -5.7114
    -4.8057  -3.9127  -2.4994  -2.4887  -1.1850   1.6461   2.4322   3.6278
     4.3351

          k = 0.4444 0.5132 0.0000 ( 10803 PWs)   bands (ev):

   -61.3164 -35.7659 -35.5265 -35.4844 -12.9466 -12.8512  -6.1322  -6.1226
    -4.6150  -3.7762  -3.7402  -2.4122  -1.0479   1.4277   2.7670   2.9578
     4.8239

          k = 0.4444 0.6415 0.0000 ( 10803 PWs)   bands (ev):

   -61.3167 -35.7386 -35.5478 -35.4864 -12.9942 -12.7774  -6.2245  -6.0710
    -4.7953  -3.8979  -3.6434  -2.2500  -1.0124   1.4974   2.8156   2.8875
     4.6624

          k = 0.4444 0.7698 0.0000 ( 10772 PWs)   bands (ev):

   -61.3188 -35.7738 -35.4916 -35.4837 -13.1106 -12.7829  -6.5528  -5.9426
    -5.0198  -4.1335  -2.4993  -2.2061  -0.9963   1.8010   2.5309   3.3437
     4.1788

          k = 0.4444-0.2566 0.0000 ( 10772 PWs)   bands (ev):

   -61.3218 -35.7768 -35.4976 -35.4453 -13.2583 -12.8355  -6.6956  -5.6085
    -5.0260  -4.2487  -2.1924  -1.9477  -1.0778   1.7751   2.3408   3.2148
     4.4989

          k = 0.4444-0.1283 0.0000 ( 10759 PWs)   bands (ev):

   -61.3241 -35.7369 -35.5018 -35.4609 -13.3701 -12.8987  -6.4148  -5.5108
    -4.8146  -4.2341  -2.5307  -1.9583  -1.3638   1.8864   2.1101   2.8593
     4.5479

          k = 0.4444 0.0000 0.0000 ( 10752 PWs)   bands (ev):

   -61.3248 -35.7185 -35.5020 -35.4750 -13.3840 -12.9658  -6.1877  -5.4998
    -4.3938  -4.1575  -3.3639  -1.7963  -1.4774   1.8525   2.0812   2.5983
     4.6905

          k = 0.4444 0.1283 0.0000 ( 10759 PWs)   bands (ev):

   -61.3235 -35.7729 -35.4982 -35.4364 -13.2863 -13.0234  -6.4562  -5.4391
    -4.5671  -3.9684  -2.7131  -2.1729  -1.4803   1.7516   2.1985   3.2320
     4.4192

     the Fermi energy is     0.5407 ev

!    total energy              =    -496.70583099 Ry
     estimated scf accuracy    <       0.00000059 Ry
     smearing contrib. (-TS)   =      -0.00000000 Ry
     internal energy E=F+TS    =    -496.70583099 Ry

     convergence has been achieved in   7 iterations

     negative rho (up, down):  8.135E-05 0.000E+00

     Forces acting on atoms (cartesian axes, Ry/au):

     atom    1 type  1   force =    -0.08524732   -0.04921892    0.00204331
     atom    2 type  2   force =     0.04247094    0.02452047    0.09376457
     atom    3 type  2   force =     0.04277638    0.02469845   -0.09580787
     The non-local contrib.  to forces
     atom    1 type  1   force =     0.02408105    0.01390370   -0.00014906
     atom    2 type  2   force =     0.03210636    0.01853657   -0.22123308
     atom    3 type  2   force =     0.03230017    0.01864956    0.22069585
     The ionic contribution  to forces
     atom    1 type  1   force =    -0.56375501   -0.32549111   -0.00528482
     atom    2 type  2   force =     0.28101288    0.16224171   36.86288901
     atom    3 type  2   force =     0.28274212    0.16324940  -36.85760419
     The local contribution  to forces
     atom    1 type  1   force =     0.45634273    0.26347479    0.01259301
     atom    2 type  2   force =    -0.26958024   -0.15564117  -36.54409906
     atom    3 type  2   force =    -0.27115146   -0.15655705   36.53990178
     The core correction contribution to forces
     atom    1 type  1   force =    -0.00160725   -0.00092798    0.00004578
     atom    2 type  2   force =    -0.00123236   -0.00071150    0.00007827
     atom    3 type  2   force =    -0.00123970   -0.00071578   -0.00004112
     The Hubbard contrib.    to forces
     atom    1 type  1   force =     0.00000000    0.00000000    0.00000000
     atom    2 type  2   force =     0.00000000    0.00000000    0.00000000
     atom    3 type  2   force =     0.00000000    0.00000000    0.00000000
     The SCF correction term to forces
     atom    1 type  1   force =     0.00010882    0.00006282   -0.00486306
     atom    2 type  2   force =    -0.00005424   -0.00003132   -0.00168783
     atom    3 type  2   force =    -0.00009431   -0.00005445   -0.00033961

     DFT-D3 dispersion contribution to forces:
     atom    1 type  1   force =    -0.00042447   -0.00024508    0.00000207
     atom    2 type  2   force =     0.00021174    0.00012225   -0.00188212
     atom    3 type  2   force =     0.00021274    0.00012283    0.00188005

     Total force =     0.180304     Total SCF correction =     0.005162


     Computing stress (Cartesian axis) and pressure


     negative rho (up, down):  8.135E-05 0.000E+00
          total   stress  (Ry/bohr**3)                   (kbar)     P=       49.47
   0.00029920   0.00006193  -0.00000063           44.01        9.11       -0.09
   0.00006193   0.00022769  -0.00000037            9.11       33.49       -0.05
  -0.00000063  -0.00000037   0.00048199           -0.09       -0.05       70.90


     Entering Dynamics:    iteration =     9

     <vel(dt)|acc(dt)> =  -0.95938202

ATOMIC_POSITIONS (crystal)
Mo            0.0083211742        0.0041608864        0.4999338026
S             0.6625520030        0.3312759381        0.5811992488
S             0.6624601561        0.3312298422        0.4188669486



     Writing config-only to output data dir ./tmp/scf.save/
     NEW-OLD atomic charge density approx. for the potential

     negative rho (up, down):  7.137E-05 0.000E+00

     total cpu time spent up to now is      713.9 secs

     Self-consistent Calculation

     iteration #  1     ecut=    70.00 Ry     beta= 0.70
     Davidson diagonalization with overlap
     ethr =  1.00E-06,  avg # of iterations =  9.4

     negative rho (up, down):  7.633E-05 0.000E+00

     total cpu time spent up to now is      746.6 secs

     total energy              =    -496.72743137 Ry
     estimated scf accuracy    <       0.00233593 Ry

     iteration #  2     ecut=    70.00 Ry     beta= 0.70
     Davidson diagonalization with overlap
     ethr =  8.98E-06,  avg # of iterations =  3.0

     negative rho (up, down):  7.870E-05 0.000E+00

     total cpu time spent up to now is      757.4 secs

     total energy              =    -496.72600303 Ry
     estimated scf accuracy    <       0.01542505 Ry

     iteration #  3     ecut=    70.00 Ry     beta= 0.70
     Davidson diagonalization with overlap
     ethr =  8.98E-06,  avg # of iterations =  2.8

     negative rho (up, down):  7.945E-05 0.000E+00

     total cpu time spent up to now is      765.8 secs

     total energy              =    -496.72843217 Ry
     estimated scf accuracy    <       0.00048363 Ry

     iteration #  4     ecut=    70.00 Ry     beta= 0.70
     Davidson diagonalization with overlap
     ethr =  1.86E-06,  avg # of iterations =  2.0

     negative rho (up, down):  7.966E-05 0.000E+00

     total cpu time spent up to now is      772.3 secs

     total energy              =    -496.72839287 Ry
     estimated scf accuracy    <       0.00126337 Ry

     iteration #  5     ecut=    70.00 Ry     beta= 0.70
     Davidson diagonalization with overlap
     ethr =  1.86E-06,  avg # of iterations =  2.0

     negative rho (up, down):  7.968E-05 0.000E+00

     total cpu time spent up to now is      778.5 secs

     total energy              =    -496.72853762 Ry
     estimated scf accuracy    <       0.00001023 Ry

     iteration #  6     ecut=    70.00 Ry     beta= 0.70
     Davidson diagonalization with overlap
     ethr =  3.94E-08,  avg # of iterations =  3.8

     negative rho (up, down):  7.968E-05 0.000E+00

     total cpu time spent up to now is      784.5 secs

     End of self-consistent calculation

          k = 0.0000 0.0000 0.0000 ( 10733 PWs)   bands (ev):

   -61.3519 -35.5397 -35.2786 -35.2670 -14.8829 -13.4660  -6.3810  -3.2976
    -3.2222  -2.4043  -2.2120  -1.9151  -0.5860   2.2024   2.5659   2.6038
     2.7598

          k = 0.0000 0.1283 0.0000 ( 10711 PWs)   bands (ev):

   -61.3464 -35.5289 -35.3244 -35.2870 -14.6889 -13.3885  -6.1717  -3.6753
    -3.1041  -3.0361  -2.4283  -1.6057  -0.6713   2.0877   2.2059   2.4492
     2.8201

          k = 0.0000 0.2566 0.0000 ( 10736 PWs)   bands (ev):

   -61.3324 -35.5017 -35.4581 -35.3181 -14.1618 -13.1784  -5.7871  -4.3619
    -4.0261  -3.0065  -2.5090  -1.7639  -1.1182   1.7212   2.0479   2.3296
     3.3986

          k = 0.0000 0.3849 0.0000 ( 10762 PWs)   bands (ev):

   -61.3165 -35.6074 -35.4705 -35.3527 -13.4738 -12.9090  -6.0160  -4.9005
    -4.5514  -3.5313  -2.1726  -1.9222  -1.5052   1.8059   1.9151   2.9764
     3.8444

          k = 0.0000 0.5132 0.0000 ( 10772 PWs)   bands (ev):

   -61.3060 -35.7030 -35.4501 -35.3751 -12.9434 -12.7096  -6.4623  -5.4660
    -4.7466  -3.8249  -2.3928  -1.5684  -1.2083   1.8650   2.3174   3.3532
     4.0565

          k = 0.1111 0.0642 0.0000 ( 10711 PWs)   bands (ev):

   -61.3464 -35.5287 -35.3329 -35.2792 -14.6858 -13.3937  -6.1665  -3.6205
    -3.2127  -3.0898  -2.2359  -1.6726  -0.6962   2.1376   2.3280   2.5311
     2.5639

          k = 0.1111 0.1925 0.0000 ( 10724 PWs)   bands (ev):

   -61.3366 -35.5096 -35.4201 -35.3078 -14.3218 -13.2538  -5.8422  -4.1592
    -3.7378  -3.0179  -2.7370  -1.4422  -0.9967   1.7570   2.0976   2.1505
     3.2527

          k = 0.1111 0.3208 0.0000 ( 10750 PWs)   bands (ev):

   -61.3216 -35.5483 -35.4803 -35.3540 -13.7066 -13.0107  -5.7477  -4.4676
    -4.4510  -3.7667  -2.4293  -1.6734  -1.4171   1.5515   2.0307   2.3894
     3.9064

          k = 0.1111 0.4491 0.0000 ( 10759 PWs)   bands (ev):

   -61.3084 -35.6581 -35.4546 -35.3947 -13.0775 -12.7602  -6.1391  -5.3348
    -4.5466  -3.9056  -2.3766  -2.1456  -1.2231   1.8130   2.1995   2.9559
     4.1033

          k = 0.1111 0.5774 0.0000 ( 10772 PWs)   bands (ev):

   -61.3032 -35.6996 -35.4446 -35.4117 -12.7969 -12.6434  -6.3474  -5.7072
    -4.7256  -3.8597  -2.3952  -2.3086  -0.9308   1.8799   2.5331   3.4262
     3.8121

          k = 0.1111-0.4491 0.0000 ( 10759 PWs)   bands (ev):

   -61.3085 -35.6537 -35.4550 -35.3979 -13.0845 -12.7451  -6.1493  -5.3933
    -4.5341  -3.8308  -2.4387  -2.1921  -1.1660   1.7836   2.2692   3.1371
     3.8647

          k = 0.1111-0.3208 0.0000 ( 10750 PWs)   bands (ev):

   -61.3217 -35.5400 -35.4809 -35.3605 -13.7164 -12.9913  -5.7548  -4.5293
    -4.4897  -3.7058  -2.4509  -1.7166  -1.3163   1.4841   2.1033   2.4335
     3.8307

          k = 0.1111-0.1925 0.0000 ( 10724 PWs)   bands (ev):

   -61.3367 -35.5101 -35.4090 -35.3173 -14.3299 -13.2394  -5.8511  -4.2219
    -3.6131  -3.1786  -2.6931  -1.4447  -0.9167   1.7154   1.9906   2.1640
     3.3727

          k = 0.1111-0.0642 0.0000 ( 10711 PWs)   bands (ev):

   -61.3464 -35.5289 -35.3244 -35.2870 -14.6889 -13.3885  -6.1717  -3.6753
    -3.1041  -3.0361  -2.4283  -1.6057  -0.6713   2.0877   2.2059   2.4492
     2.8201

          k = 0.2222 0.1283 0.0000 ( 10736 PWs)   bands (ev):

   -61.3323 -35.5009 -35.4686 -35.3100 -14.1494 -13.1990  -5.7686  -4.3143
    -4.1087  -2.8694  -2.5428  -1.7540  -1.2140   1.7207   2.0957   2.4634
     3.2411

          k = 0.2222 0.2566 0.0000 ( 10750 PWs)   bands (ev):

   -61.3215 -35.5541 -35.4798 -35.3498 -13.6962 -13.0270  -5.7421  -4.5165
    -4.4172  -3.6745  -2.4715  -1.6852  -1.4466   1.5498   2.0567   2.4448
     3.8595

          k = 0.2222 0.3849 0.0000 ( 10752 PWs)   bands (ev):

   -61.3093 -35.6243 -35.4559 -35.4205 -13.1227 -12.7907  -5.8736  -5.2700
    -4.2263  -4.0108  -3.1620  -1.9191  -1.2717   1.7035   2.2401   2.5624
     4.2979

          k = 0.2222 0.5132 0.0000 ( 10803 PWs)   bands (ev):

   -61.3014 -35.6540 -35.4816 -35.4406 -12.7049 -12.5996  -5.9419  -5.8623
    -4.4984  -3.7836  -3.5352  -2.4051  -0.8599   1.6446   2.7569   2.7832
     4.4099

          k = 0.2222 0.6415 0.0000 ( 10803 PWs)   bands (ev):

   -61.3014 -35.6475 -35.4869 -35.4410 -12.7132 -12.5831  -5.9823  -5.8729
    -4.4629  -3.7478  -3.5776  -2.4216  -0.8591   1.6589   2.8192   2.8274
     4.2940

          k = 0.2222-0.3849 0.0000 ( 10752 PWs)   bands (ev):

   -61.3095 -35.6106 -35.4570 -35.4312 -13.1422 -12.7538  -5.8842  -5.3673
    -4.2558  -3.9422  -3.1638  -1.9462  -1.2308   1.7041   2.3059   2.6583
     4.1012

          k = 0.2222-0.2566 0.0000 ( 10750 PWs)   bands (ev):

   -61.3217 -35.5400 -35.4809 -35.3605 -13.7164 -12.9913  -5.7548  -4.5293
    -4.4897  -3.7058  -2.4509  -1.7166  -1.3163   1.4841   2.1033   2.4335
     3.8307

          k = 0.2222-0.1283 0.0000 ( 10736 PWs)   bands (ev):

   -61.3324 -35.5017 -35.4581 -35.3181 -14.1618 -13.1784  -5.7871  -4.3619
    -4.0261  -3.0064  -2.5090  -1.7639  -1.1182   1.7212   2.0479   2.3296
     3.3986

          k = 0.2222-0.0000 0.0000 ( 10724 PWs)   bands (ev):

   -61.3366 -35.5096 -35.4201 -35.3078 -14.3218 -13.2538  -5.8422  -4.1592
    -3.7378  -3.0179  -2.7370  -1.4422  -0.9967   1.7570   2.0976   2.1505
     3.2527

          k = 0.3333 0.1925 0.0000 ( 10762 PWs)   bands (ev):

   -61.3163 -35.6195 -35.4691 -35.3447 -13.4462 -12.9528  -6.0127  -4.8996
    -4.4856  -3.4223  -2.2088  -1.9014  -1.6624   1.8268   1.9280   3.1247
     3.7469

          k = 0.3333 0.3208 0.0000 ( 10759 PWs)   bands (ev):

   -61.3082 -35.6682 -35.4534 -35.3880 -13.0506 -12.8007  -6.1578  -5.3125
    -4.4734  -3.8116  -2.4419  -2.2220  -1.2441   1.7813   2.2282   3.0778
     4.0623

          k = 0.3333 0.4491 0.0000 ( 10803 PWs)   bands (ev):

   -61.3013 -35.6621 -35.4753 -35.4400 -12.6895 -12.6236  -5.9118  -5.8832
    -4.4465  -3.7383  -3.5581  -2.4653  -0.8714   1.6283   2.7660   2.7735
     4.4723

          k = 0.3333 0.5774 0.0000 ( 10818 PWs)   bands (ev):

   -61.2986 -35.6124 -35.5562 -35.4351 -12.5531 -12.5254  -6.2220  -5.3123
    -4.7861  -4.1618  -3.4999  -2.7307  -0.5555   1.2552   2.5976   3.2393
     4.6941

          k = 0.3333 0.7057 0.0000 ( 10803 PWs)   bands (ev):

   -61.3014 -35.6476 -35.4869 -35.4410 -12.7132 -12.5831  -5.9823  -5.8729
    -4.4629  -3.7478  -3.5776  -2.4216  -0.8591   1.6589   2.8192   2.8274
     4.2940

          k = 0.3333-0.3208 0.0000 ( 10759 PWs)   bands (ev):

   -61.3085 -35.6537 -35.4550 -35.3979 -13.0845 -12.7451  -6.1493  -5.3933
    -4.5341  -3.8307  -2.4387  -2.1921  -1.1660   1.7836   2.2692   3.1371
     3.8647

          k = 0.3333-0.1925 0.0000 ( 10762 PWs)   bands (ev):

   -61.3165 -35.6074 -35.4705 -35.3527 -13.4738 -12.9090  -6.0160  -4.9005
    -4.5514  -3.5313  -2.1726  -1.9222  -1.5052   1.8059   1.9151   2.9764
     3.8444

          k = 0.3333-0.0642 0.0000 ( 10750 PWs)   bands (ev):

   -61.3216 -35.5483 -35.4803 -35.3540 -13.7066 -13.0107  -5.7477  -4.4676
    -4.4509  -3.7667  -2.4293  -1.6734  -1.4171   1.5515   2.0307   2.3894
     3.9064

          k = 0.3333 0.0642 0.0000 ( 10750 PWs)   bands (ev):

   -61.3215 -35.5541 -35.4798 -35.3498 -13.6962 -13.0270  -5.7421  -4.5165
    -4.4172  -3.6745  -2.4715  -1.6852  -1.4466   1.5499   2.0567   2.4448
     3.8595

          k = 0.4444 0.2566 0.0000 ( 10772 PWs)   bands (ev):

   -61.3058 -35.7161 -35.4483 -35.3673 -12.9004 -12.7734  -6.4912  -5.3976
    -4.6761  -3.7272  -2.4882  -1.5011  -1.3583   1.8277   2.3221   3.5621
     3.9686

          k = 0.4444 0.3849 0.0000 ( 10772 PWs)   bands (ev):

   -61.3030 -35.7126 -35.4430 -35.4032 -12.7581 -12.7018  -6.3802  -5.6314
    -4.6608  -3.7798  -2.4971  -2.3118  -0.9789   1.8444   2.5017   3.4495
     3.9383

          k = 0.4444 0.5132 0.0000 ( 10803 PWs)   bands (ev):

   -61.3013 -35.6621 -35.4753 -35.4400 -12.6895 -12.6236  -5.9118  -5.8832
    -4.4465  -3.7383  -3.5581  -2.4653  -0.8714   1.6283   2.7660   2.7735
     4.4723

          k = 0.4444 0.6415 0.0000 ( 10803 PWs)   bands (ev):

   -61.3014 -35.6540 -35.4816 -35.4406 -12.7049 -12.5996  -5.9419  -5.8623
    -4.4984  -3.7836  -3.5352  -2.4051  -0.8599   1.6446   2.7569   2.7832
     4.4099

          k = 0.4444 0.7698 0.0000 ( 10772 PWs)   bands (ev):

   -61.3032 -35.6996 -35.4446 -35.4117 -12.7969 -12.6434  -6.3474  -5.7072
    -4.7256  -3.8597  -2.3952  -2.3086  -0.9308   1.8799   2.5331   3.4262
     3.8121

          k = 0.4444-0.2566 0.0000 ( 10772 PWs)   bands (ev):

   -61.3060 -35.7030 -35.4501 -35.3751 -12.9434 -12.7096  -6.4623  -5.4660
    -4.7466  -3.8249  -2.3928  -1.5684  -1.2083   1.8650   2.3174   3.3532
     4.0565

          k = 0.4444-0.1283 0.0000 ( 10759 PWs)   bands (ev):

   -61.3084 -35.6581 -35.4546 -35.3947 -13.0775 -12.7602  -6.1391  -5.3348
    -4.5466  -3.9056  -2.3766  -2.1456  -1.2231   1.8130   2.1995   2.9559
     4.1033

          k = 0.4444 0.0000 0.0000 ( 10752 PWs)   bands (ev):

   -61.3093 -35.6243 -35.4559 -35.4205 -13.1227 -12.7907  -5.8736  -5.2700
    -4.2263  -4.0108  -3.1620  -1.9191  -1.2717   1.7035   2.2401   2.5624
     4.2979

          k = 0.4444 0.1283 0.0000 ( 10759 PWs)   bands (ev):

   -61.3082 -35.6682 -35.4534 -35.3880 -13.0506 -12.8007  -6.1578  -5.3125
    -4.4734  -3.8117  -2.4419  -2.2220  -1.2441   1.7813   2.2282   3.0778
     4.0623

     the Fermi energy is     0.3780 ev

!    total energy              =    -496.72853986 Ry
     estimated scf accuracy    <       0.00000096 Ry
     smearing contrib. (-TS)   =      -0.00000000 Ry
     internal energy E=F+TS    =    -496.72853986 Ry

     convergence has been achieved in   6 iterations

     negative rho (up, down):  7.968E-05 0.000E+00

     Forces acting on atoms (cartesian axes, Ry/au):

     atom    1 type  1   force =    -0.02594777   -0.01498236    0.00194939
     atom    2 type  2   force =     0.01288056    0.00743718    0.02892162
     atom    3 type  2   force =     0.01306721    0.00754518   -0.03087101
     The non-local contrib.  to forces
     atom    1 type  1   force =     0.00805658    0.00465194   -0.00098093
     atom    2 type  2   force =     0.00993970    0.00573914   -0.25107579
     atom    3 type  2   force =     0.01005282    0.00580462    0.24980595
     The ionic contribution  to forces
     atom    1 type  1   force =    -0.16774837   -0.09685784   -0.00691599
     atom    2 type  2   force =     0.08325702    0.04807184   36.75014440
     atom    3 type  2   force =     0.08449135    0.04878600  -36.74322841
     The local contribution  to forces
     atom    1 type  1   force =     0.13463121    0.07773580    0.00272329
     atom    2 type  2   force =    -0.07990800   -0.04613814  -36.47108714
     atom    3 type  2   force =    -0.08104121   -0.04679383   36.46047217
     The core correction contribution to forces
     atom    1 type  1   force =    -0.00052682   -0.00030419    0.00001741
     atom    2 type  2   force =    -0.00036887   -0.00021298    0.00134461
     atom    3 type  2   force =    -0.00037354   -0.00021569   -0.00129380
     The Hubbard contrib.    to forces
     atom    1 type  1   force =     0.00000000    0.00000000    0.00000000
     atom    2 type  2   force =     0.00000000    0.00000000    0.00000000
     atom    3 type  2   force =     0.00000000    0.00000000    0.00000000
     The SCF correction term to forces
     atom    1 type  1   force =    -0.00014539   -0.00008394    0.00678190
     atom    2 type  2   force =    -0.00004366   -0.00002520    0.00107719
     atom    3 type  2   force =    -0.00006752   -0.00003899    0.00125476

     DFT-D3 dispersion contribution to forces:
     atom    1 type  1   force =    -0.00014654   -0.00008461    0.00000357
     atom    2 type  2   force =     0.00007280    0.00004204   -0.00180177
     atom    3 type  2   force =     0.00007374    0.00004258    0.00179820

     Total force =     0.056035     Total SCF correction =     0.006983
     SCF correction compared to forces is large: reduce conv_thr to get better values


     Computing stress (Cartesian axis) and pressure


     negative rho (up, down):  7.968E-05 0.000E+00
          total   stress  (Ry/bohr**3)                   (kbar)     P=       20.73
   0.00014165   0.00001566  -0.00000045           20.84        2.30       -0.07
   0.00001566   0.00012356  -0.00000026            2.30       18.18       -0.04
  -0.00000045  -0.00000026   0.00015755           -0.07       -0.04       23.18


     Entering Dynamics:    iteration =    11

     <vel(dt)|acc(dt)> =  -0.86100185

ATOMIC_POSITIONS (crystal)
Mo            0.0054509181        0.0027256395        0.4999575668
S             0.6639762699        0.3319882130        0.5820096740
S             0.6639061453        0.3319528141        0.4180327593



     Writing config-only to output data dir ./tmp/scf.save/
     NEW-OLD atomic charge density approx. for the potential

     negative rho (up, down):  7.864E-05 0.000E+00

     total cpu time spent up to now is      805.2 secs

     Self-consistent Calculation

     iteration #  1     ecut=    70.00 Ry     beta= 0.70
     Davidson diagonalization with overlap
     ethr =  1.00E-06,  avg # of iterations =  6.8

     negative rho (up, down):  7.893E-05 0.000E+00

     total cpu time spent up to now is      819.9 secs

     total energy              =    -496.73035518 Ry
     estimated scf accuracy    <       0.00018542 Ry

     iteration #  2     ecut=    70.00 Ry     beta= 0.70
     Davidson diagonalization with overlap
     ethr =  7.13E-07,  avg # of iterations =  3.0

     negative rho (up, down):  7.911E-05 0.000E+00

     total cpu time spent up to now is      831.0 secs

     total energy              =    -496.73015782 Ry
     estimated scf accuracy    <       0.00246022 Ry

     iteration #  3     ecut=    70.00 Ry     beta= 0.70
     Davidson diagonalization with overlap
     ethr =  7.13E-07,  avg # of iterations =  3.0

     negative rho (up, down):  7.913E-05 0.000E+00

     total cpu time spent up to now is      845.1 secs

     total energy              =    -496.73044431 Ry
     estimated scf accuracy    <       0.00007769 Ry

     iteration #  4     ecut=    70.00 Ry     beta= 0.70
     Davidson diagonalization with overlap
     ethr =  2.99E-07,  avg # of iterations =  2.0

     negative rho (up, down):  7.913E-05 0.000E+00

     total cpu time spent up to now is      859.1 secs

     total energy              =    -496.73045793 Ry
     estimated scf accuracy    <       0.00007440 Ry

     iteration #  5     ecut=    70.00 Ry     beta= 0.70
     Davidson diagonalization with overlap
     ethr =  2.86E-07,  avg # of iterations =  1.0

     negative rho (up, down):  7.911E-05 0.000E+00

     total cpu time spent up to now is      872.0 secs

     End of self-consistent calculation

          k = 0.0000 0.0000 0.0000 ( 10733 PWs)   bands (ev):

   -61.3475 -35.5287 -35.2639 -35.2569 -14.8239 -13.4639  -6.3254  -3.1819
    -3.1339  -2.4244  -2.0905  -1.8916  -0.6333   2.2701   2.5038   2.5948
     2.6936

          k = 0.0000 0.1283 0.0000 ( 10711 PWs)   bands (ev):

   -61.3421 -35.5181 -35.3122 -35.2739 -14.6305 -13.3839  -6.1130  -3.5723
    -3.0827  -2.9434  -2.3298  -1.6064  -0.7121   2.1283   2.1643   2.4185
     2.7696

          k = 0.0000 0.2566 0.0000 ( 10736 PWs)   bands (ev):

   -61.3282 -35.4912 -35.4449 -35.3044 -14.1042 -13.1668  -5.7131  -4.2882
    -3.9929  -2.9128  -2.4198  -1.7821  -1.1423   1.6781   2.0281   2.3391
     3.3464

          k = 0.0000 0.3849 0.0000 ( 10762 PWs)   bands (ev):

   -61.3123 -35.5927 -35.4605 -35.3387 -13.4145 -12.8879  -5.9396  -4.8667
    -4.5043  -3.4381  -2.2056  -1.8354  -1.5225   1.8111   1.8783   2.9731
     3.7778

          k = 0.0000 0.5132 0.0000 ( 10772 PWs)   bands (ev):

   -61.3020 -35.6875 -35.4404 -35.3609 -12.8798 -12.6811  -6.4132  -5.4365
    -4.6906  -3.7313  -2.4340  -1.4904  -1.2301   1.8828   2.3090   3.3593
     3.9714

          k = 0.1111 0.0642 0.0000 ( 10711 PWs)   bands (ev):

   -61.3420 -35.5180 -35.3175 -35.2690 -14.6286 -13.3871  -6.1095  -3.5381
    -3.1525  -2.9771  -2.2028  -1.6522  -0.7275   2.1165   2.2764   2.4750
     2.6106

          k = 0.1111 0.1925 0.0000 ( 10724 PWs)   bands (ev):

   -61.3323 -35.4991 -35.4045 -35.2965 -14.2663 -13.2408  -5.7772  -4.0873
    -3.6820  -2.9684  -2.6384  -1.4482  -1.0053   1.7080   2.0866   2.1243
     3.2358

          k = 0.1111 0.3208 0.0000 ( 10750 PWs)   bands (ev):

   -61.3175 -35.5324 -35.4703 -35.3413 -13.6510 -12.9885  -5.6660  -4.4313
    -4.4075  -3.6954  -2.3702  -1.6961  -1.3907   1.5038   2.0306   2.3896
     3.8391

          k = 0.1111 0.4491 0.0000 ( 10759 PWs)   bands (ev):

   -61.3044 -35.6421 -35.4449 -35.3808 -13.0181 -12.7301  -6.0796  -5.2963
    -4.4946  -3.8347  -2.3481  -2.1826  -1.1863   1.7872   2.2219   2.9616
     4.0115

          k = 0.1111 0.5774 0.0000 ( 10772 PWs)   bands (ev):

   -61.2992 -35.6840 -35.4350 -35.3970 -12.7333 -12.6121  -6.3044  -5.6593
    -4.6665  -3.7971  -2.4340  -2.2732  -0.9097   1.8940   2.5303   3.4044
     3.7590

          k = 0.1111-0.4491 0.0000 ( 10759 PWs)   bands (ev):

   -61.3044 -35.6394 -35.4452 -35.3828 -13.0226 -12.7205  -6.0856  -5.3328
    -4.4865  -3.7868  -2.3879  -2.2130  -1.1503   1.7680   2.2666   3.0802
     3.8564

          k = 0.1111-0.3208 0.0000 ( 10750 PWs)   bands (ev):

   -61.3175 -35.5274 -35.4707 -35.3451 -13.6572 -12.9762  -5.6702  -4.4669
    -4.4315  -3.6607  -2.3851  -1.7237  -1.3257   1.4607   2.0763   2.4203
     3.7882

          k = 0.1111-0.1925 0.0000 ( 10724 PWs)   bands (ev):

   -61.3324 -35.4995 -35.3979 -35.3021 -14.2714 -13.2317  -5.7830  -4.1267
    -3.6020  -3.0723  -2.6106  -1.4495  -0.9546   1.6835   2.0190   2.1304
     3.3121

          k = 0.1111-0.0642 0.0000 ( 10711 PWs)   bands (ev):

   -61.3421 -35.5181 -35.3122 -35.2739 -14.6305 -13.3839  -6.1130  -3.5723
    -3.0827  -2.9434  -2.3298  -1.6064  -0.7121   2.1283   2.1643   2.4185
     2.7696

          k = 0.2222 0.1283 0.0000 ( 10736 PWs)   bands (ev):

   -61.3281 -35.4907 -35.4512 -35.2995 -14.0963 -13.1798  -5.7008  -4.2592
    -4.0480  -2.8224  -2.4416  -1.7757  -1.2024   1.6761   2.0612   2.4214
     3.2482

          k = 0.2222 0.2566 0.0000 ( 10750 PWs)   bands (ev):

   -61.3174 -35.5359 -35.4700 -35.3387 -13.6444 -12.9988  -5.6623  -4.4637
    -4.3865  -3.6359  -2.3988  -1.7034  -1.4071   1.5031   2.0475   2.4250
     3.8089

          k = 0.2222 0.3849 0.0000 ( 10752 PWs)   bands (ev):

   -61.3053 -35.6061 -35.4464 -35.4082 -13.0688 -12.7546  -5.8043  -5.2169
    -4.1941  -3.9798  -3.1192  -1.9429  -1.2290   1.6637   2.2712   2.5459
     4.2141

          k = 0.2222 0.5132 0.0000 ( 10803 PWs)   bands (ev):

   -61.2974 -35.6373 -35.4673 -35.4312 -12.6455 -12.5618  -5.8787  -5.8174
    -4.4405  -3.7586  -3.5091  -2.4371  -0.8279   1.6683   2.7163   2.7722
     4.3562

          k = 0.2222 0.6415 0.0000 ( 10803 PWs)   bands (ev):

   -61.2974 -35.6334 -35.4705 -35.4315 -12.6509 -12.5513  -5.9047  -5.8232
    -4.4178  -3.7355  -3.5366  -2.4474  -0.8279   1.6766   2.7555   2.8002
     4.2830

          k = 0.2222-0.3849 0.0000 ( 10752 PWs)   bands (ev):

   -61.3054 -35.5978 -35.4471 -35.4147 -13.0812 -12.7312  -5.8101  -5.2790
    -4.2118  -3.9362  -3.1210  -1.9595  -1.2045   1.6637   2.3128   2.6080
     4.0875

          k = 0.2222-0.2566 0.0000 ( 10750 PWs)   bands (ev):

   -61.3175 -35.5274 -35.4707 -35.3451 -13.6572 -12.9762  -5.6702  -4.4669
    -4.4315  -3.6607  -2.3851  -1.7237  -1.3257   1.4607   2.0763   2.4203
     3.7882

          k = 0.2222-0.1283 0.0000 ( 10736 PWs)   bands (ev):

   -61.3282 -35.4912 -35.4449 -35.3044 -14.1042 -13.1668  -5.7131  -4.2882
    -3.9929  -2.9128  -2.4198  -1.7821  -1.1423   1.6781   2.0281   2.3391
     3.3464

          k = 0.2222-0.0000 0.0000 ( 10724 PWs)   bands (ev):

   -61.3323 -35.4991 -35.4045 -35.2965 -14.2663 -13.2408  -5.7772  -4.0873
    -3.6820  -2.9684  -2.6384  -1.4482  -1.0053   1.7080   2.0866   2.1243
     3.2358

          k = 0.3333 0.1925 0.0000 ( 10762 PWs)   bands (ev):

   -61.3122 -35.6001 -35.4596 -35.3339 -13.3969 -12.9157  -5.9379  -4.8670
    -4.4636  -3.3670  -2.2293  -1.8237  -1.6198   1.8258   1.8869   3.0651
     3.7179

          k = 0.3333 0.3208 0.0000 ( 10759 PWs)   bands (ev):

   -61.3043 -35.6482 -35.4442 -35.3768 -13.0009 -12.7559  -6.0922  -5.2821
    -4.4487  -3.7739  -2.3908  -2.2323  -1.1975   1.7695   2.2393   3.0395
     3.9858

          k = 0.3333 0.4491 0.0000 ( 10803 PWs)   bands (ev):

   -61.2973 -35.6423 -35.4635 -35.4308 -12.6356 -12.5772  -5.8592  -5.8316
    -4.4083  -3.7288  -3.5225  -2.4767  -0.8354   1.6589   2.7250   2.7622
     4.3973

          k = 0.3333 0.5774 0.0000 ( 10818 PWs)   bands (ev):

   -61.2946 -35.5946 -35.5426 -35.4258 -12.4934 -12.4850  -6.1514  -5.2743
    -4.7394  -4.1211  -3.4968  -2.7526  -0.5300   1.3098   2.5390   3.1967
     4.6492

          k = 0.3333 0.7057 0.0000 ( 10803 PWs)   bands (ev):

   -61.2974 -35.6334 -35.4705 -35.4315 -12.6509 -12.5513  -5.9047  -5.8232
    -4.4178  -3.7355  -3.5366  -2.4474  -0.8279   1.6766   2.7555   2.8002
     4.2830

          k = 0.3333-0.3208 0.0000 ( 10759 PWs)   bands (ev):

   -61.3044 -35.6394 -35.4452 -35.3828 -13.0226 -12.7205  -6.0856  -5.3328
    -4.4865  -3.7868  -2.3879  -2.2130  -1.1503   1.7680   2.2666   3.0802
     3.8564

          k = 0.3333-0.1925 0.0000 ( 10762 PWs)   bands (ev):

   -61.3123 -35.5927 -35.4605 -35.3387 -13.4145 -12.8879  -5.9396  -4.8667
    -4.5043  -3.4381  -2.2056  -1.8354  -1.5225   1.8111   1.8783   2.9731
     3.7778

          k = 0.3333-0.0642 0.0000 ( 10750 PWs)   bands (ev):

   -61.3175 -35.5324 -35.4703 -35.3413 -13.6510 -12.9885  -5.6660  -4.4314
    -4.4075  -3.6954  -2.3702  -1.6961  -1.3907   1.5038   2.0306   2.3896
     3.8391

          k = 0.3333 0.0642 0.0000 ( 10750 PWs)   bands (ev):

   -61.3174 -35.5359 -35.4700 -35.3387 -13.6444 -12.9988  -5.6623  -4.4637
    -4.3865  -3.6359  -2.3988  -1.7034  -1.4071   1.5031   2.0475   2.4250
     3.8089

          k = 0.4444 0.2566 0.0000 ( 10772 PWs)   bands (ev):

   -61.3018 -35.6955 -35.4392 -35.3562 -12.8523 -12.7218  -6.4329  -5.3926
    -4.6460  -3.6682  -2.4961  -1.4497  -1.3223   1.8595   2.3137   3.4882
     3.9206

          k = 0.4444 0.3849 0.0000 ( 10772 PWs)   bands (ev):

   -61.2991 -35.6920 -35.4340 -35.3919 -12.7084 -12.6496  -6.3266  -5.6108
    -4.6255  -3.7450  -2.5006  -2.2759  -0.9387   1.8736   2.5101   3.4053
     3.8547

          k = 0.4444 0.5132 0.0000 ( 10803 PWs)   bands (ev):

   -61.2973 -35.6423 -35.4635 -35.4308 -12.6356 -12.5772  -5.8592  -5.8316
    -4.4083  -3.7288  -3.5225  -2.4767  -0.8354   1.6589   2.7250   2.7622
     4.3973

          k = 0.4444 0.6415 0.0000 ( 10803 PWs)   bands (ev):

   -61.2974 -35.6373 -35.4673 -35.4312 -12.6455 -12.5618  -5.8787  -5.8174
    -4.4405  -3.7586  -3.5091  -2.4371  -0.8279   1.6683   2.7163   2.7722
     4.3562

          k = 0.4444 0.7698 0.0000 ( 10772 PWs)   bands (ev):

   -61.2992 -35.6840 -35.4350 -35.3970 -12.7333 -12.6121  -6.3044  -5.6593
    -4.6665  -3.7971  -2.4340  -2.2732  -0.9097   1.8940   2.5303   3.4044
     3.7590

          k = 0.4444-0.2566 0.0000 ( 10772 PWs)   bands (ev):

   -61.3020 -35.6875 -35.4404 -35.3609 -12.8798 -12.6811  -6.4132  -5.4365
    -4.6906  -3.7313  -2.4340  -1.4904  -1.2301   1.8828   2.3090   3.3593
     3.9714

          k = 0.4444-0.1283 0.0000 ( 10759 PWs)   bands (ev):

   -61.3044 -35.6421 -35.4449 -35.3808 -13.0181 -12.7301  -6.0796  -5.2963
    -4.4946  -3.8347  -2.3481  -2.1826  -1.1863   1.7872   2.2219   2.9616
     4.0115

          k = 0.4444 0.0000 0.0000 ( 10752 PWs)   bands (ev):

   -61.3053 -35.6061 -35.4464 -35.4082 -13.0688 -12.7546  -5.8043  -5.2169
    -4.1941  -3.9798  -3.1192  -1.9429  -1.2290   1.6637   2.2712   2.5459
     4.2142

          k = 0.4444 0.1283 0.0000 ( 10759 PWs)   bands (ev):

   -61.3043 -35.6482 -35.4442 -35.3768 -13.0009 -12.7559  -6.0922  -5.2821
    -4.4487  -3.7739  -2.3908  -2.2323  -1.1975   1.7695   2.2393   3.0395
     3.9858

     the Fermi energy is     0.3370 ev

!    total energy              =    -496.73046579 Ry
     estimated scf accuracy    <       0.00000061 Ry
     smearing contrib. (-TS)   =      -0.00000000 Ry
     internal energy E=F+TS    =    -496.73046579 Ry

     convergence has been achieved in   5 iterations

     negative rho (up, down):  7.911E-05 0.000E+00

     Forces acting on atoms (cartesian axes, Ry/au):

     atom    1 type  1   force =    -0.01630044   -0.00941188    0.00108877
     atom    2 type  2   force =     0.00809146    0.00467179    0.01692131
     atom    3 type  2   force =     0.00820898    0.00474010   -0.01801008
     The non-local contrib.  to forces
     atom    1 type  1   force =     0.00513970    0.00296768   -0.00073159
     atom    2 type  2   force =     0.00631784    0.00364776   -0.25641619
     atom    3 type  2   force =     0.00638706    0.00368805    0.25603864
     The ionic contribution  to forces
     atom    1 type  1   force =    -0.10519695   -0.06074047   -0.00403942
     atom    2 type  2   force =     0.05225351    0.03016961   36.72034108
     atom    3 type  2   force =     0.05294344    0.03057086  -36.71630166
     The local contribution  to forces
     atom    1 type  1   force =     0.08428211    0.04866421    0.00616775
     atom    2 type  2   force =    -0.05022868   -0.02900054  -36.44624594
     atom    3 type  2   force =    -0.05086472   -0.02937053   36.44132612
     The core correction contribution to forces
     atom    1 type  1   force =    -0.00033568   -0.00019382    0.00003321
     atom    2 type  2   force =    -0.00023412   -0.00013518    0.00159465
     atom    3 type  2   force =    -0.00023669   -0.00013667   -0.00156983
     The Hubbard contrib.    to forces
     atom    1 type  1   force =     0.00000000    0.00000000    0.00000000
     atom    2 type  2   force =     0.00000000    0.00000000    0.00000000
     atom    3 type  2   force =     0.00000000    0.00000000    0.00000000
     The SCF correction term to forces
     atom    1 type  1   force =    -0.00006845   -0.00003953   -0.00057918
     atom    2 type  2   force =    -0.00003712   -0.00002143   -0.00080497
     atom    3 type  2   force =    -0.00004066   -0.00002348    0.00048006

     DFT-D3 dispersion contribution to forces:
     atom    1 type  1   force =    -0.00009430   -0.00005445    0.00000225
     atom    2 type  2   force =     0.00004688    0.00002707   -0.00178307
     atom    3 type  2   force =     0.00004741    0.00002738    0.00178083

     Total force =     0.033813     Total SCF correction =     0.001106


     Computing stress (Cartesian axis) and pressure


     negative rho (up, down):  7.911E-05 0.000E+00
          total   stress  (Ry/bohr**3)                   (kbar)     P=       14.81
   0.00011199   0.00000939  -0.00000025           16.47        1.38       -0.04
   0.00000939   0.00010115  -0.00000015            1.38       14.88       -0.02
  -0.00000025  -0.00000015   0.00008896           -0.04       -0.02       13.09


     Entering Dynamics:    iteration =    13

     <vel(dt)|acc(dt)> =  -0.74405437

ATOMIC_POSITIONS (crystal)
Mo            0.0033894321        0.0016948048        0.4999737332
S             0.6649937822        0.3324972098        0.5825568510
S             0.6649501191        0.3324746521        0.4174694158



     Writing config-only to output data dir ./tmp/scf.save/
     NEW-OLD atomic charge density approx. for the potential

     negative rho (up, down):  7.837E-05 0.000E+00

     total cpu time spent up to now is      915.1 secs

     Self-consistent Calculation

     iteration #  1     ecut=    70.00 Ry     beta= 0.70
     Davidson diagonalization with overlap
     ethr =  1.00E-06,  avg # of iterations =  6.0

     Threshold (ethr) on eigenvalues was too large:
     Diagonalizing with lowered threshold

     Davidson diagonalization with overlap
     ethr =  9.85E-08,  avg # of iterations =  1.2

     negative rho (up, down):  7.854E-05 0.000E+00

     total cpu time spent up to now is      961.0 secs

     total energy              =    -496.73121634 Ry
     estimated scf accuracy    <       0.00002543 Ry

     iteration #  2     ecut=    70.00 Ry     beta= 0.70
     Davidson diagonalization with overlap
     ethr =  9.78E-08,  avg # of iterations =  2.0

     negative rho (up, down):  7.860E-05 0.000E+00

     total cpu time spent up to now is      980.8 secs

     total energy              =    -496.73120908 Ry
     estimated scf accuracy    <       0.00004594 Ry

     iteration #  3     ecut=    70.00 Ry     beta= 0.70
     Davidson diagonalization with overlap
     ethr =  9.78E-08,  avg # of iterations =  2.0

     negative rho (up, down):  7.862E-05 0.000E+00

     total cpu time spent up to now is      989.5 secs

     total energy              =    -496.73122001 Ry
     estimated scf accuracy    <       0.00003323 Ry

     iteration #  4     ecut=    70.00 Ry     beta= 0.70
     Davidson diagonalization with overlap
     ethr =  9.78E-08,  avg # of iterations =  1.8

     negative rho (up, down):  7.862E-05 0.000E+00

     total cpu time spent up to now is      994.5 secs

     total energy              =    -496.73122301 Ry
     estimated scf accuracy    <       0.00000569 Ry

     iteration #  5     ecut=    70.00 Ry     beta= 0.70
     Davidson diagonalization with overlap
     ethr =  2.19E-08,  avg # of iterations =  2.0

     negative rho (up, down):  7.864E-05 0.000E+00

     total cpu time spent up to now is      999.1 secs

     End of self-consistent calculation

          k = 0.0000 0.0000 0.0000 ( 10733 PWs)   bands (ev):

   -61.3472 -35.5239 -35.2562 -35.2522 -14.7827 -13.4599  -6.2872  -3.1037
    -3.0744  -2.4420  -2.0000  -1.8763  -0.6649   2.3176   2.4610   2.5901
     2.6501

          k = 0.0000 0.1283 0.0000 ( 10711 PWs)   bands (ev):

   -61.3417 -35.5135 -35.3061 -35.2671 -14.5898 -13.3782  -6.0727  -3.5028
    -3.0713  -2.8805  -2.2596  -1.6033  -0.7394   2.1336   2.1543   2.4017
     2.7385

          k = 0.0000 0.2566 0.0000 ( 10736 PWs)   bands (ev):

   -61.3279 -35.4869 -35.4380 -35.2973 -14.0639 -13.1565  -5.6626  -4.2377
    -3.9710  -2.8472  -2.3594  -1.7916  -1.1583   1.6485   2.0171   2.3439
     3.3129

          k = 0.0000 0.3849 0.0000 ( 10762 PWs)   bands (ev):

   -61.3122 -35.5849 -35.4565 -35.3314 -13.3730 -12.8713  -5.8872  -4.8427
    -4.4717  -3.3736  -2.2257  -1.7763  -1.5337   1.8149   1.8536   2.9693
     3.7346

          k = 0.0000 0.5132 0.0000 ( 10772 PWs)   bands (ev):

   -61.3019 -35.6791 -35.4365 -35.3535 -12.8356 -12.6595  -6.3790  -5.4146
    -4.6519  -3.6669  -2.4599  -1.4363  -1.2442   1.8938   2.3024   3.3611
     3.9173

          k = 0.1111 0.0642 0.0000 ( 10711 PWs)   bands (ev):

   -61.3417 -35.5134 -35.3093 -35.2642 -14.5886 -13.3802  -6.0706  -3.4822
    -3.1137  -2.9009  -2.1808  -1.6323  -0.7486   2.1036   2.2411   2.4376
     2.6440

          k = 0.1111 0.1925 0.0000 ( 10724 PWs)   bands (ev):

   -61.3321 -35.4948 -35.3962 -35.2909 -14.2274 -13.2296  -5.7329  -4.0380
    -3.6448  -2.9338  -2.5715  -1.4487  -1.0109   1.6755   2.0776   2.1078
     3.2262

          k = 0.1111 0.3208 0.0000 ( 10750 PWs)   bands (ev):

   -61.3173 -35.5238 -35.4662 -35.3348 -13.6121 -12.9711  -5.6099  -4.4065
    -4.3771  -3.6461  -2.3312  -1.7085  -1.3709   1.4716   2.0310   2.3894
     3.7939

          k = 0.1111 0.4491 0.0000 ( 10759 PWs)   bands (ev):

   -61.3042 -35.6334 -35.4411 -35.3736 -12.9766 -12.7075  -6.0384  -5.2690
    -4.4586  -3.7850  -2.3291  -2.2054  -1.1598   1.7691   2.2366   2.9656
     3.9498

          k = 0.1111 0.5774 0.0000 ( 10772 PWs)   bands (ev):

   -61.2991 -35.6756 -35.4312 -35.3893 -12.6891 -12.5887  -6.2742  -5.6256
    -4.6257  -3.7528  -2.4584  -2.2486  -0.8942   1.9021   2.5274   3.3810
     3.7327

          k = 0.1111-0.4491 0.0000 ( 10759 PWs)   bands (ev):

   -61.3043 -35.6318 -35.4413 -35.3748 -12.9794 -12.7017  -6.0419  -5.2910
    -4.4536  -3.7557  -2.3534  -2.2244  -1.1380   1.7572   2.2640   3.0390
     3.8542

          k = 0.1111-0.3208 0.0000 ( 10750 PWs)   bands (ev):

   -61.3173 -35.5209 -35.4665 -35.3370 -13.6159 -12.9637  -5.6123  -4.4265
    -4.3915  -3.6266  -2.3409  -1.7255  -1.3309   1.4452   2.0586   2.4092
     3.7618

          k = 0.1111-0.1925 0.0000 ( 10724 PWs)   bands (ev):

   -61.3321 -35.4950 -35.3923 -35.2941 -14.2305 -13.2241  -5.7366  -4.0618
    -3.5961  -2.9975  -2.5546  -1.4495  -0.9800   1.6614   2.0368   2.1104
     3.2727

          k = 0.1111-0.0642 0.0000 ( 10711 PWs)   bands (ev):

   -61.3417 -35.5135 -35.3061 -35.2671 -14.5898 -13.3782  -6.0727  -3.5028
    -3.0713  -2.8805  -2.2596  -1.6033  -0.7394   2.1336   2.1543   2.4017
     2.7385

          k = 0.2222 0.1283 0.0000 ( 10736 PWs)   bands (ev):

   -61.3279 -35.4866 -35.4418 -35.2944 -14.0591 -13.1644  -5.6549  -4.2206
    -4.0056  -2.7908  -2.3727  -1.7875  -1.1944   1.6466   2.0383   2.3927
     3.2540

          k = 0.2222 0.2566 0.0000 ( 10750 PWs)   bands (ev):

   -61.3173 -35.5259 -35.4660 -35.3333 -13.6081 -12.9774  -5.6076  -4.4267
    -4.3647  -3.6094  -2.3495  -1.7129  -1.3798   1.4713   2.0415   2.4110
     3.7753

          k = 0.2222 0.3849 0.0000 ( 10752 PWs)   bands (ev):

   -61.3052 -35.5961 -35.4427 -35.4020 -13.0310 -12.7279  -5.7563  -5.1800
    -4.1714  -3.9573  -3.0894  -1.9564  -1.2001   1.6369   2.2910   2.5344
     4.1577

          k = 0.2222 0.5132 0.0000 ( 10803 PWs)   bands (ev):

   -61.2973 -35.6282 -35.4598 -35.4276 -12.6042 -12.5339  -5.8349  -5.7857
    -4.4005  -3.7395  -3.4898  -2.4569  -0.8065   1.6820   2.6881   2.7649
     4.3206

          k = 0.2222 0.6415 0.0000 ( 10803 PWs)   bands (ev):

   -61.2973 -35.6259 -35.4616 -35.4278 -12.6075 -12.5275  -5.8509  -5.7889
    -4.3867  -3.7252  -3.5068  -2.4631  -0.8066   1.6868   2.7116   2.7820
     4.2762

          k = 0.2222-0.3849 0.0000 ( 10752 PWs)   bands (ev):

   -61.3052 -35.5912 -35.4431 -35.4057 -13.0386 -12.7137  -5.7594  -5.2180
    -4.1818  -3.9306  -3.0908  -1.9663  -1.1857   1.6368   2.3162   2.5726
     4.0800

          k = 0.2222-0.2566 0.0000 ( 10750 PWs)   bands (ev):

   -61.3173 -35.5209 -35.4665 -35.3370 -13.6159 -12.9637  -5.6123  -4.4265
    -4.3915  -3.6266  -2.3409  -1.7255  -1.3309   1.4452   2.0586   2.4092
     3.7618

          k = 0.2222-0.1283 0.0000 ( 10736 PWs)   bands (ev):

   -61.3279 -35.4869 -35.4380 -35.2973 -14.0639 -13.1565  -5.6626  -4.2377
    -3.9710  -2.8472  -2.3594  -1.7916  -1.1583   1.6485   2.0171   2.3439
     3.3129

          k = 0.2222-0.0000 0.0000 ( 10724 PWs)   bands (ev):

   -61.3321 -35.4948 -35.3962 -35.2909 -14.2274 -13.2296  -5.7329  -4.0380
    -3.6448  -2.9338  -2.5715  -1.4487  -1.0109   1.6755   2.0776   2.1078
     3.2262

          k = 0.3333 0.1925 0.0000 ( 10762 PWs)   bands (ev):

   -61.3121 -35.5893 -35.4559 -35.3285 -13.3624 -12.8883  -5.8863  -4.8432
    -4.4473  -3.3295  -2.2404  -1.7706  -1.5910   1.8248   1.8586   3.0242
     3.6991

          k = 0.3333 0.3208 0.0000 ( 10759 PWs)   bands (ev):

   -61.3042 -35.6370 -35.4406 -35.3712 -12.9661 -12.7232  -6.0464  -5.2604
    -4.4309  -3.7475  -2.3555  -2.2362  -1.1658   1.7593   2.2469   3.0132
     3.9344

          k = 0.3333 0.4491 0.0000 ( 10803 PWs)   bands (ev):

   -61.2973 -35.6312 -35.4575 -35.4274 -12.5982 -12.5432  -5.8230  -5.7946
    -4.3812  -3.7209  -3.4974  -2.4816  -0.8111   1.6766   2.6931   2.7587
     4.3463

          k = 0.3333 0.5774 0.0000 ( 10818 PWs)   bands (ev):

   -61.2945 -35.5849 -35.5353 -35.4223 -12.4573 -12.4498  -6.1024  -5.2475
    -4.7066  -4.0919  -3.4926  -2.7656  -0.5130   1.3447   2.4996   3.1671
     4.6186

          k = 0.3333 0.7057 0.0000 ( 10803 PWs)   bands (ev):

   -61.2973 -35.6259 -35.4616 -35.4278 -12.6075 -12.5275  -5.8509  -5.7889
    -4.3867  -3.7252  -3.5068  -2.4631  -0.8066   1.6868   2.7116   2.7820
     4.2762

          k = 0.3333-0.3208 0.0000 ( 10759 PWs)   bands (ev):

   -61.3043 -35.6318 -35.4413 -35.3748 -12.9794 -12.7017  -6.0419  -5.2910
    -4.4536  -3.7557  -2.3534  -2.2244  -1.1380   1.7572   2.2640   3.0390
     3.8542

          k = 0.3333-0.1925 0.0000 ( 10762 PWs)   bands (ev):

   -61.3122 -35.5849 -35.4565 -35.3314 -13.3730 -12.8713  -5.8872  -4.8427
    -4.4717  -3.3736  -2.2257  -1.7763  -1.5337   1.8149   1.8536   2.9693
     3.7346

          k = 0.3333-0.0642 0.0000 ( 10750 PWs)   bands (ev):

   -61.3173 -35.5238 -35.4662 -35.3348 -13.6121 -12.9711  -5.6099  -4.4065
    -4.3771  -3.6461  -2.3312  -1.7085  -1.3709   1.4716   2.0310   2.3894
     3.7939

          k = 0.3333 0.0642 0.0000 ( 10750 PWs)   bands (ev):

   -61.3173 -35.5259 -35.4660 -35.3333 -13.6081 -12.9774  -5.6076  -4.4267
    -4.3647  -3.6094  -2.3495  -1.7129  -1.3798   1.4713   2.0415   2.4110
     3.7753

          k = 0.4444 0.2566 0.0000 ( 10772 PWs)   bands (ev):

   -61.3017 -35.6838 -35.4358 -35.3507 -12.8188 -12.6844  -6.3915  -5.3877
    -4.6248  -3.6280  -2.4984  -1.4137  -1.2975   1.8799   2.3058   3.4373
     3.8892

          k = 0.4444 0.3849 0.0000 ( 10772 PWs)   bands (ev):

   -61.2990 -35.6803 -35.4306 -35.3862 -12.6739 -12.6116  -6.2883  -5.5959
    -4.6009  -3.7206  -2.4997  -2.2506  -0.9111   1.8907   2.5148   3.3756
     3.7976

          k = 0.4444 0.5132 0.0000 ( 10803 PWs)   bands (ev):

   -61.2973 -35.6312 -35.4575 -35.4274 -12.5982 -12.5432  -5.8230  -5.7946
    -4.3812  -3.7209  -3.4974  -2.4816  -0.8111   1.6766   2.6931   2.7587
     4.3463

          k = 0.4444 0.6415 0.0000 ( 10803 PWs)   bands (ev):

   -61.2973 -35.6282 -35.4598 -35.4276 -12.6042 -12.5339  -5.8349  -5.7857
    -4.4005  -3.7395  -3.4898  -2.4569  -0.8065   1.6820   2.6881   2.7649
     4.3206

          k = 0.4444 0.7698 0.0000 ( 10772 PWs)   bands (ev):

   -61.2991 -35.6756 -35.4312 -35.3893 -12.6891 -12.5887  -6.2742  -5.6256
    -4.6257  -3.7528  -2.4584  -2.2486  -0.8942   1.9021   2.5274   3.3810
     3.7327

          k = 0.4444-0.2566 0.0000 ( 10772 PWs)   bands (ev):

   -61.3019 -35.6791 -35.4365 -35.3535 -12.8356 -12.6595  -6.3790  -5.4146
    -4.6519  -3.6669  -2.4599  -1.4363  -1.2442   1.8938   2.3024   3.3611
     3.9173

          k = 0.4444-0.1283 0.0000 ( 10759 PWs)   bands (ev):

   -61.3042 -35.6334 -35.4411 -35.3736 -12.9766 -12.7075  -6.0384  -5.2690
    -4.4586  -3.7850  -2.3291  -2.2054  -1.1598   1.7691   2.2366   2.9656
     3.9498

          k = 0.4444 0.0000 0.0000 ( 10752 PWs)   bands (ev):

   -61.3052 -35.5961 -35.4427 -35.4020 -13.0310 -12.7279  -5.7563  -5.1800
    -4.1714  -3.9573  -3.0894  -1.9564  -1.2001   1.6369   2.2910   2.5344
     4.1577

          k = 0.4444 0.1283 0.0000 ( 10759 PWs)   bands (ev):

   -61.3042 -35.6370 -35.4406 -35.3712 -12.9661 -12.7232  -6.0464  -5.2604
    -4.4309  -3.7475  -2.3555  -2.2362  -1.1658   1.7593   2.2469   3.0132
     3.9344

     the Fermi energy is     0.3087 ev

!    total energy              =    -496.73122341 Ry
     estimated scf accuracy    <       0.00000091 Ry
     smearing contrib. (-TS)   =      -0.00000000 Ry
     internal energy E=F+TS    =    -496.73122341 Ry

     convergence has been achieved in   5 iterations

     negative rho (up, down):  7.864E-05 0.000E+00

     Forces acting on atoms (cartesian axes, Ry/au):

     atom    1 type  1   force =    -0.00987442   -0.00570139    0.00059365
     atom    2 type  2   force =     0.00491321    0.00283636    0.00852574
     atom    3 type  2   force =     0.00496121    0.00286504   -0.00911938
     The non-local contrib.  to forces
     atom    1 type  1   force =     0.00312522    0.00180447   -0.00074361
     atom    2 type  2   force =     0.00382974    0.00221090   -0.26008711
     atom    3 type  2   force =     0.00387197    0.00223599    0.25936577
     The ionic contribution  to forces
     atom    1 type  1   force =    -0.06346727   -0.03664530   -0.00234098
     atom    2 type  2   force =     0.03155653    0.01821726   36.69950021
     atom    3 type  2   force =     0.03191074    0.01842804  -36.69715924
     The local contribution  to forces
     atom    1 type  1   force =     0.05083444    0.02935123   -0.00278617
     atom    2 type  2   force =    -0.03030656   -0.01749568  -36.43304385
     atom    3 type  2   force =    -0.03065505   -0.01770287   36.42757847
     The core correction contribution to forces
     atom    1 type  1   force =    -0.00020461   -0.00011814    0.00000610
     atom    2 type  2   force =    -0.00014074   -0.00008125    0.00174556
     atom    3 type  2   force =    -0.00014255   -0.00008232   -0.00172594
     The Hubbard contrib.    to forces
     atom    1 type  1   force =     0.00000000    0.00000000    0.00000000
     atom    2 type  2   force =     0.00000000    0.00000000    0.00000000
     atom    3 type  2   force =     0.00000000    0.00000000    0.00000000
     The SCF correction term to forces
     atom    1 type  1   force =    -0.00007181   -0.00004146    0.00614523
     atom    2 type  2   force =    -0.00002210   -0.00001277    0.00187057
     atom    3 type  2   force =    -0.00002053   -0.00001185    0.00073986

     DFT-D3 dispersion contribution to forces:
     atom    1 type  1   force =    -0.00005792   -0.00003344    0.00000137
     atom    2 type  2   force =     0.00002882    0.00001664   -0.00177135
     atom    3 type  2   force =     0.00002910    0.00001680    0.00176999

     Total force =     0.018741     Total SCF correction =     0.006467
     SCF correction compared to forces is large: reduce conv_thr to get better values


     Computing stress (Cartesian axis) and pressure


     negative rho (up, down):  7.864E-05 0.000E+00
          total   stress  (Ry/bohr**3)                   (kbar)     P=       11.12
   0.00009363   0.00000547  -0.00000014           13.77        0.80       -0.02
   0.00000547   0.00008732  -0.00000008            0.80       12.84       -0.01
  -0.00000014  -0.00000008   0.00004585           -0.02       -0.01        6.75


     Entering Dynamics:    iteration =    15

     <vel(dt)|acc(dt)> =  -0.56931883

ATOMIC_POSITIONS (crystal)
Mo            0.0023473661        0.0011737165        0.4999848087
S             0.6655051573        0.3327530857        0.5828827494
S             0.6654808100        0.3327398645        0.4171324419



     Writing config-only to output data dir ./tmp/scf.save/
     NEW-OLD atomic charge density approx. for the potential

     negative rho (up, down):  7.825E-05 0.000E+00

     total cpu time spent up to now is     1013.4 secs

     Self-consistent Calculation

     iteration #  1     ecut=    70.00 Ry     beta= 0.70
     Davidson diagonalization with overlap
     ethr =  1.00E-06,  avg # of iterations =  5.3

     negative rho (up, down):  7.831E-05 0.000E+00

     total cpu time spent up to now is     1027.1 secs

     total energy              =    -496.73139808 Ry
     estimated scf accuracy    <       0.00007732 Ry

     iteration #  2     ecut=    70.00 Ry     beta= 0.70
     Davidson diagonalization with overlap
     ethr =  2.97E-07,  avg # of iterations =  3.0

     negative rho (up, down):  7.835E-05 0.000E+00

     total cpu time spent up to now is     1038.5 secs

     total energy              =    -496.73127620 Ry
     estimated scf accuracy    <       0.00172774 Ry

     iteration #  3     ecut=    70.00 Ry     beta= 0.70
     Davidson diagonalization with overlap
     ethr =  2.97E-07,  avg # of iterations =  3.0

     negative rho (up, down):  7.834E-05 0.000E+00

     total cpu time spent up to now is     1049.7 secs

     total energy              =    -496.73145100 Ry
     estimated scf accuracy    <       0.00001245 Ry

     iteration #  4     ecut=    70.00 Ry     beta= 0.70
     Davidson diagonalization with overlap
     ethr =  4.79E-08,  avg # of iterations =  2.0

     negative rho (up, down):  7.834E-05 0.000E+00

     total cpu time spent up to now is     1069.2 secs

     total energy              =    -496.73145380 Ry
     estimated scf accuracy    <       0.00000873 Ry

     iteration #  5     ecut=    70.00 Ry     beta= 0.70
     Davidson diagonalization with overlap
     ethr =  3.36E-08,  avg # of iterations =  1.0

     negative rho (up, down):  7.833E-05 0.000E+00

     total cpu time spent up to now is     1087.1 secs

     End of self-consistent calculation

          k = 0.0000 0.0000 0.0000 ( 10733 PWs)   bands (ev):

   -61.3453 -35.5197 -35.2505 -35.2478 -14.7589 -13.4577  -6.2649  -3.0581
    -3.0381  -2.4536  -1.9485  -1.8631  -0.6831   2.3412   2.4397   2.5852
     2.6260

          k = 0.0000 0.1283 0.0000 ( 10711 PWs)   bands (ev):

   -61.3399 -35.5093 -35.3011 -35.2617 -14.5662 -13.3751  -6.0492  -3.4620
    -3.0651  -2.8425  -2.2187  -1.5998  -0.7549   2.1154   2.1653   2.3918
     2.7239

          k = 0.0000 0.2566 0.0000 ( 10736 PWs)   bands (ev):

   -61.3261 -35.4829 -35.4325 -35.2918 -14.0407 -13.1506  -5.6331  -4.2084
    -3.9580  -2.8086  -2.3233  -1.7973  -1.1664   1.6307   2.0108   2.3450
     3.2951

          k = 0.0000 0.3849 0.0000 ( 10762 PWs)   bands (ev):

   -61.3104 -35.5788 -35.4527 -35.3258 -13.3493 -12.8615  -5.8562  -4.8287
    -4.4533  -3.3357  -2.2374  -1.7425  -1.5376   1.8165   1.8402   2.9649
     3.7107

          k = 0.0000 0.5132 0.0000 ( 10772 PWs)   bands (ev):

   -61.3001 -35.6727 -35.4328 -35.3478 -12.8102 -12.6467  -6.3587  -5.4022
    -4.6296  -3.6293  -2.4745  -1.4066  -1.2496   1.9013   2.2989   3.3583
     3.8881

          k = 0.1111 0.0642 0.0000 ( 10711 PWs)   bands (ev):

   -61.3399 -35.5093 -35.3033 -35.2597 -14.5654 -13.3765  -6.0478  -3.4481
    -3.0940  -2.8565  -2.1644  -1.6202  -0.7612   2.0944   2.2237   2.4169
     2.6602

          k = 0.1111 0.1925 0.0000 ( 10724 PWs)   bands (ev):

   -61.3303 -35.4908 -35.3901 -35.2860 -14.2048 -13.2233  -5.7070  -4.0082
    -3.6246  -2.9114  -2.5322  -1.4486  -1.0145   1.6565   2.0727   2.0981
     3.2204

          k = 0.1111 0.3208 0.0000 ( 10750 PWs)   bands (ev):

   -61.3155 -35.5175 -35.4624 -35.3295 -13.5896 -12.9612  -5.5766  -4.3912
    -4.3596  -3.6178  -2.3085  -1.7153  -1.3585   1.4532   2.0310   2.3883
     3.7684

          k = 0.1111 0.4491 0.0000 ( 10759 PWs)   bands (ev):

   -61.3025 -35.6269 -35.4374 -35.3680 -12.9527 -12.6943  -6.0138  -5.2527
    -4.4381  -3.7567  -2.3174  -2.2179  -1.1437   1.7590   2.2453   2.9653
     3.9159

          k = 0.1111 0.5774 0.0000 ( 10772 PWs)   bands (ev):

   -61.2974 -35.6692 -35.4276 -35.3834 -12.6637 -12.5749  -6.2563  -5.6064
    -4.6021  -3.7269  -2.4720  -2.2347  -0.8840   1.9077   2.5264   3.3630
     3.7202

          k = 0.1111-0.4491 0.0000 ( 10759 PWs)   bands (ev):

   -61.3025 -35.6258 -35.4375 -35.3688 -12.9546 -12.6903  -6.0162  -5.2676
    -4.4347  -3.7365  -2.3341  -2.2311  -1.1289   1.7509   2.2641   3.0159
     3.8502

          k = 0.1111-0.3208 0.0000 ( 10750 PWs)   bands (ev):

   -61.3155 -35.5155 -35.4626 -35.3310 -13.5922 -12.9561  -5.5783  -4.4042
    -4.3693  -3.6052  -2.3152  -1.7270  -1.3311   1.4351   2.0498   2.4022
     3.7461

          k = 0.1111-0.1925 0.0000 ( 10724 PWs)   bands (ev):

   -61.3303 -35.4909 -35.3875 -35.2883 -14.2070 -13.2196  -5.7095  -4.0244
    -3.5913  -2.9550  -2.5207  -1.4492  -0.9934   1.6471   2.0449   2.0995
     3.2520

          k = 0.1111-0.0642 0.0000 ( 10711 PWs)   bands (ev):

   -61.3399 -35.5093 -35.3011 -35.2617 -14.5662 -13.3751  -6.0492  -3.4620
    -3.0651  -2.8425  -2.2186  -1.5998  -0.7549   2.1154   2.1653   2.3918
     2.7239

          k = 0.2222 0.1283 0.0000 ( 10736 PWs)   bands (ev):

   -61.3261 -35.4827 -35.4351 -35.2898 -14.0374 -13.1560  -5.6278  -4.1969
    -3.9820  -2.7695  -2.3325  -1.7944  -1.1910   1.6292   2.0256   2.3779
     3.2552

          k = 0.2222 0.2566 0.0000 ( 10750 PWs)   bands (ev):

   -61.3155 -35.5189 -35.4623 -35.3285 -13.5868 -12.9655  -5.5750  -4.4051
    -4.3512  -3.5926  -2.3213  -1.7183  -1.3642   1.4531   2.0382   2.4031
     3.7557

          k = 0.2222 0.3849 0.0000 ( 10752 PWs)   bands (ev):

   -61.3035 -35.5889 -35.4391 -35.3968 -13.0090 -12.7128  -5.7277  -5.1574
    -4.1582  -3.9444  -3.0719  -1.9642  -1.1829   1.6213   2.3026   2.5268
     4.1262

          k = 0.2222 0.5132 0.0000 ( 10803 PWs)   bands (ev):

   -61.2956 -35.6215 -35.4539 -35.4241 -12.5802 -12.5178  -5.8088  -5.7670
    -4.3778  -3.7287  -3.4779  -2.4680  -0.7934   1.6901   2.6705   2.7609
     4.3005

          k = 0.2222 0.6415 0.0000 ( 10803 PWs)   bands (ev):

   -61.2956 -35.6199 -35.4552 -35.4242 -12.5825 -12.5134  -5.8197  -5.7690
    -4.3683  -3.7189  -3.4897  -2.4722  -0.7936   1.6933   2.6864   2.7726
     4.2702

          k = 0.2222-0.3849 0.0000 ( 10752 PWs)   bands (ev):

   -61.3035 -35.5856 -35.4394 -35.3993 -13.0142 -12.7030  -5.7296  -5.1835
    -4.1651  -3.9261  -3.0729  -1.9708  -1.1733   1.6211   2.3199   2.5531
     4.0728

          k = 0.2222-0.2566 0.0000 ( 10750 PWs)   bands (ev):

   -61.3155 -35.5155 -35.4626 -35.3310 -13.5922 -12.9561  -5.5783  -4.4042
    -4.3693  -3.6052  -2.3152  -1.7270  -1.3311   1.4351   2.0498   2.4022
     3.7461

          k = 0.2222-0.1283 0.0000 ( 10736 PWs)   bands (ev):

   -61.3261 -35.4829 -35.4325 -35.2918 -14.0407 -13.1506  -5.6331  -4.2084
    -3.9580  -2.8086  -2.3233  -1.7973  -1.1664   1.6307   2.0108   2.3450
     3.2951

          k = 0.2222-0.0000 0.0000 ( 10724 PWs)   bands (ev):

   -61.3303 -35.4908 -35.3901 -35.2860 -14.2048 -13.2233  -5.7070  -4.0082
    -3.6246  -2.9114  -2.5322  -1.4486  -1.0145   1.6565   2.0727   2.0981
     3.2204

          k = 0.3333 0.1925 0.0000 ( 10762 PWs)   bands (ev):

   -61.3104 -35.5818 -35.4523 -35.3238 -13.3419 -12.8731  -5.8557  -4.8292
    -4.4368  -3.3053  -2.2476  -1.7395  -1.5759   1.8246   1.8426   3.0021
     3.6869

          k = 0.3333 0.3208 0.0000 ( 10759 PWs)   bands (ev):

   -61.3025 -35.6293 -35.4371 -35.3664 -12.9456 -12.7050  -6.0195  -5.2468
    -4.4192  -3.7309  -2.3357  -2.2392  -1.1474   1.7527   2.2523   2.9979
     3.9055

          k = 0.3333 0.4491 0.0000 ( 10803 PWs)   bands (ev):

   -61.2956 -35.6235 -35.4524 -35.4239 -12.5761 -12.5243  -5.8006  -5.7733
    -4.3647  -3.7158  -3.4830  -2.4851  -0.7966   1.6866   2.6738   2.7566
     4.3183

          k = 0.3333 0.5774 0.0000 ( 10818 PWs)   bands (ev):

   -61.2929 -35.5780 -35.5296 -35.4188 -12.4382 -12.4277  -6.0732  -5.2318
    -4.6875  -4.0744  -3.4902  -2.7733  -0.5025   1.3657   2.4763   3.1496
     4.6007

          k = 0.3333 0.7057 0.0000 ( 10803 PWs)   bands (ev):

   -61.2956 -35.6199 -35.4552 -35.4242 -12.5825 -12.5134  -5.8197  -5.7690
    -4.3683  -3.7189  -3.4897  -2.4722  -0.7936   1.6933   2.6864   2.7726
     4.2702

          k = 0.3333-0.3208 0.0000 ( 10759 PWs)   bands (ev):

   -61.3025 -35.6258 -35.4375 -35.3688 -12.9546 -12.6903  -6.0162  -5.2676
    -4.4347  -3.7365  -2.3341  -2.2311  -1.1289   1.7509   2.2641   3.0159
     3.8502

          k = 0.3333-0.1925 0.0000 ( 10762 PWs)   bands (ev):

   -61.3104 -35.5788 -35.4527 -35.3258 -13.3493 -12.8615  -5.8562  -4.8287
    -4.4533  -3.3357  -2.2374  -1.7425  -1.5376   1.8165   1.8402   2.9649
     3.7107

          k = 0.3333-0.0642 0.0000 ( 10750 PWs)   bands (ev):

   -61.3155 -35.5175 -35.4624 -35.3295 -13.5896 -12.9612  -5.5766  -4.3912
    -4.3596  -3.6178  -2.3085  -1.7153  -1.3585   1.4532   2.0310   2.3883
     3.7684

          k = 0.3333 0.0642 0.0000 ( 10750 PWs)   bands (ev):

   -61.3155 -35.5189 -35.4623 -35.3285 -13.5868 -12.9655  -5.5750  -4.4051
    -4.3512  -3.5926  -2.3213  -1.7183  -1.3642   1.4531   2.0382   2.4031
     3.7557

          k = 0.4444 0.2566 0.0000 ( 10772 PWs)   bands (ev):

   -61.3001 -35.6759 -35.4324 -35.3459 -12.7987 -12.6637  -6.3675  -5.3837
    -4.6111  -3.6025  -2.5011  -1.3924  -1.2847   1.8918   2.3015   3.4096
     3.8700

          k = 0.4444 0.3849 0.0000 ( 10772 PWs)   bands (ev):

   -61.2973 -35.6724 -35.4271 -35.3814 -12.6532 -12.5906  -6.2662  -5.5860
    -4.5852  -3.7046  -2.5006  -2.2362  -0.8953   1.9003   2.5177   3.3574
     3.7669

          k = 0.4444 0.5132 0.0000 ( 10803 PWs)   bands (ev):

   -61.2956 -35.6235 -35.4524 -35.4239 -12.5761 -12.5243  -5.8006  -5.7733
    -4.3647  -3.7158  -3.4830  -2.4851  -0.7966   1.6866   2.6738   2.7566
     4.3183

          k = 0.4444 0.6415 0.0000 ( 10803 PWs)   bands (ev):

   -61.2956 -35.6215 -35.4539 -35.4241 -12.5802 -12.5178  -5.8088  -5.7670
    -4.3778  -3.7287  -3.4779  -2.4680  -0.7934   1.6901   2.6705   2.7609
     4.3005

          k = 0.4444 0.7698 0.0000 ( 10772 PWs)   bands (ev):

   -61.2974 -35.6692 -35.4276 -35.3834 -12.6637 -12.5749  -6.2563  -5.6064
    -4.6021  -3.7269  -2.4720  -2.2347  -0.8840   1.9077   2.5264   3.3630
     3.7202

          k = 0.4444-0.2566 0.0000 ( 10772 PWs)   bands (ev):

   -61.3001 -35.6727 -35.4328 -35.3478 -12.8102 -12.6467  -6.3587  -5.4022
    -4.6296  -3.6293  -2.4745  -1.4066  -1.2496   1.9013   2.2989   3.3583
     3.8881

          k = 0.4444-0.1283 0.0000 ( 10759 PWs)   bands (ev):

   -61.3025 -35.6269 -35.4374 -35.3680 -12.9527 -12.6943  -6.0138  -5.2527
    -4.4381  -3.7567  -2.3174  -2.2179  -1.1437   1.7590   2.2453   2.9653
     3.9159

          k = 0.4444 0.0000 0.0000 ( 10752 PWs)   bands (ev):

   -61.3035 -35.5889 -35.4391 -35.3968 -13.0090 -12.7128  -5.7277  -5.1574
    -4.1582  -3.9444  -3.0719  -1.9642  -1.1829   1.6213   2.3026   2.5268
     4.1262

          k = 0.4444 0.1283 0.0000 ( 10759 PWs)   bands (ev):

   -61.3025 -35.6293 -35.4371 -35.3664 -12.9456 -12.7050  -6.0195  -5.2468
    -4.4192  -3.7309  -2.3357  -2.2392  -1.1474   1.7527   2.2523   2.9979
     3.9055

     the Fermi energy is     0.2924 ev

!    total energy              =    -496.73145480 Ry
     estimated scf accuracy    <       0.00000015 Ry
     smearing contrib. (-TS)   =      -0.00000000 Ry
     internal energy E=F+TS    =    -496.73145480 Ry

     convergence has been achieved in   5 iterations

     negative rho (up, down):  7.833E-05 0.000E+00

     Forces acting on atoms (cartesian axes, Ry/au):

     atom    1 type  1   force =    -0.00675557   -0.00390048    0.00052533
     atom    2 type  2   force =     0.00336210    0.00194049    0.00392356
     atom    3 type  2   force =     0.00339347    0.00195999   -0.00444890
     The non-local contrib.  to forces
     atom    1 type  1   force =     0.00215224    0.00124265   -0.00019213
     atom    2 type  2   force =     0.00262465    0.00151489   -0.26198618
     atom    3 type  2   force =     0.00264624    0.00152837    0.26184446
     The ionic contribution  to forces
     atom    1 type  1   force =    -0.04320246   -0.02494388   -0.00129913
     atom    2 type  2   force =     0.02151300    0.01241647   36.68679119
     atom    3 type  2   force =     0.02168946    0.01252740  -36.68549207
     The local contribution  to forces
     atom    1 type  1   force =     0.03454852    0.01994733    0.00354778
     atom    2 type  2   force =    -0.02069624   -0.01194510  -36.42042718
     atom    3 type  2   force =    -0.02086057   -0.01204862   36.41960772
     The core correction contribution to forces
     atom    1 type  1   force =    -0.00014090   -0.00008135    0.00001810
     atom    2 type  2   force =    -0.00009672   -0.00005582    0.00184595
     atom    3 type  2   force =    -0.00009740   -0.00005625   -0.00183449
     The Hubbard contrib.    to forces
     atom    1 type  1   force =     0.00000000    0.00000000    0.00000000
     atom    2 type  2   force =     0.00000000    0.00000000    0.00000000
     atom    3 type  2   force =     0.00000000    0.00000000    0.00000000
     The SCF correction term to forces
     atom    1 type  1   force =    -0.00007128   -0.00004116   -0.00151007
     atom    2 type  2   force =    -0.00000048   -0.00000028   -0.00049556
     atom    3 type  2   force =    -0.00000230   -0.00000133   -0.00029842

     DFT-D3 dispersion contribution to forces:
     atom    1 type  1   force =    -0.00003976   -0.00002296    0.00000078
     atom    2 type  2   force =     0.00001981    0.00001144   -0.00176468
     atom    3 type  2   force =     0.00001995    0.00001152    0.00176389

     Total force =     0.011258     Total SCF correction =     0.001619
     SCF correction compared to forces is large: reduce conv_thr to get better values


     Computing stress (Cartesian axis) and pressure


     negative rho (up, down):  7.833E-05 0.000E+00
          total   stress  (Ry/bohr**3)                   (kbar)     P=        8.97
   0.00008382   0.00000361  -0.00000007           12.33        0.53       -0.01
   0.00000361   0.00007965  -0.00000004            0.53       11.72       -0.01
  -0.00000007  -0.00000004   0.00001950           -0.01       -0.01        2.87


     Entering Dynamics:    iteration =    17

     <vel(dt)|acc(dt)> =  -0.40395866

ATOMIC_POSITIONS (crystal)
Mo            0.0017074183        0.0008537140        0.4999919194
S             0.6658195542        0.3329103634        0.5830595027
S             0.6658063609        0.3329025893        0.4169485780



     Writing config-only to output data dir ./tmp/scf.save/
     NEW-OLD atomic charge density approx. for the potential

     negative rho (up, down):  7.813E-05 0.000E+00

     total cpu time spent up to now is     1131.2 secs

     Self-consistent Calculation

     iteration #  1     ecut=    70.00 Ry     beta= 0.70
     Davidson diagonalization with overlap
     ethr =  1.00E-06,  avg # of iterations =  4.1

     Threshold (ethr) on eigenvalues was too large:
     Diagonalizing with lowered threshold

     Davidson diagonalization with overlap
     ethr =  2.19E-08,  avg # of iterations =  3.0

     negative rho (up, down):  7.815E-05 0.000E+00

     total cpu time spent up to now is     1149.8 secs

     total energy              =    -496.73152090 Ry
     estimated scf accuracy    <       0.00000545 Ry

     iteration #  2     ecut=    70.00 Ry     beta= 0.70
     Davidson diagonalization with overlap
     ethr =  2.10E-08,  avg # of iterations =  3.0

     negative rho (up, down):  7.815E-05 0.000E+00

     total cpu time spent up to now is     1153.5 secs

     total energy              =    -496.73151403 Ry
     estimated scf accuracy    <       0.00008470 Ry

     iteration #  3     ecut=    70.00 Ry     beta= 0.70
     Davidson diagonalization with overlap
     ethr =  2.10E-08,  avg # of iterations =  3.0

     negative rho (up, down):  7.816E-05 0.000E+00

     total cpu time spent up to now is     1157.2 secs

     total energy              =    -496.73152364 Ry
     estimated scf accuracy    <       0.00000113 Ry

     iteration #  4     ecut=    70.00 Ry     beta= 0.70
     Davidson diagonalization with overlap
     ethr =  4.35E-09,  avg # of iterations =  2.0

     negative rho (up, down):  7.816E-05 0.000E+00

     total cpu time spent up to now is     1160.7 secs

     total energy              =    -496.73152364 Ry
     estimated scf accuracy    <       0.00000234 Ry

     iteration #  5     ecut=    70.00 Ry     beta= 0.70
     Davidson diagonalization with overlap
     ethr =  4.35E-09,  avg # of iterations =  2.0

     negative rho (up, down):  7.816E-05 0.000E+00

     total cpu time spent up to now is     1164.0 secs

     End of self-consistent calculation

          k = 0.0000 0.0000 0.0000 ( 10733 PWs)   bands (ev):

   -61.3450 -35.5180 -35.2479 -35.2460 -14.7453 -13.4559  -6.2525  -3.0330
    -3.0184  -2.4594  -1.9189  -1.8569  -0.6929   2.3558   2.4271   2.5834
     2.6129

          k = 0.0000 0.1283 0.0000 ( 10711 PWs)   bands (ev):

   -61.3396 -35.5077 -35.2990 -35.2593 -14.5528 -13.3727  -6.0361  -3.4396
    -3.0619  -2.8219  -2.1955  -1.5974  -0.7633   2.1056   2.1717   2.3872
     2.7160

          k = 0.0000 0.2566 0.0000 ( 10736 PWs)   bands (ev):

   -61.3258 -35.4813 -35.4301 -35.2893 -14.0275 -13.1467  -5.6167  -4.1919
    -3.9508  -2.7869  -2.3036  -1.7996  -1.1709   1.6211   2.0079   2.3458
     3.2854

          k = 0.0000 0.3849 0.0000 ( 10762 PWs)   bands (ev):

   -61.3101 -35.5761 -35.4512 -35.3232 -13.3357 -12.8556  -5.8390  -4.8206
    -4.4427  -3.3145  -2.2432  -1.7238  -1.5399   1.8174   1.8332   2.9628
     3.6979

          k = 0.0000 0.5132 0.0000 ( 10772 PWs)   bands (ev):

   -61.2999 -35.6697 -35.4315 -35.3452 -12.7958 -12.6391  -6.3473  -5.3947
    -4.6170  -3.6082  -2.4822  -1.3898  -1.2525   1.9051   2.2968   3.3572
     3.8726

          k = 0.1111 0.0642 0.0000 ( 10711 PWs)   bands (ev):

   -61.3396 -35.5076 -35.3006 -35.2579 -14.5522 -13.3737  -6.0350  -3.4295
    -3.0827  -2.8319  -2.1562  -1.6122  -0.7678   2.0902   2.2134   2.4055
     2.6705

          k = 0.1111 0.1925 0.0000 ( 10724 PWs)   bands (ev):

   -61.3300 -35.4892 -35.3873 -35.2840 -14.1920 -13.2192  -5.6926  -3.9918
    -3.6131  -2.8992  -2.5105  -1.4478  -1.0161   1.6463   2.0698   2.0931
     3.2177

          k = 0.1111 0.3208 0.0000 ( 10750 PWs)   bands (ev):

   -61.3152 -35.5145 -35.4610 -35.3272 -13.5768 -12.9551  -5.5582  -4.3827
    -4.3496  -3.6018  -2.2961  -1.7185  -1.3513   1.4431   2.0314   2.3880
     3.7544

          k = 0.1111 0.4491 0.0000 ( 10759 PWs)   bands (ev):

   -61.3023 -35.6239 -35.4360 -35.3655 -12.9391 -12.6865  -6.0002  -5.2435
    -4.4264  -3.7404  -2.3111  -2.2244  -1.1346   1.7534   2.2502   2.9660
     3.8971

          k = 0.1111 0.5774 0.0000 ( 10772 PWs)   bands (ev):

   -61.2971 -35.6663 -35.4262 -35.3807 -12.6492 -12.5667  -6.2462  -5.5953
    -4.5888  -3.7121  -2.4791  -2.2267  -0.8783   1.9105   2.5255   3.3526
     3.7148

          k = 0.1111-0.4491 0.0000 ( 10759 PWs)   bands (ev):

   -61.3023 -35.6231 -35.4361 -35.3660 -12.9405 -12.6836  -6.0018  -5.2542
    -4.4239  -3.7258  -2.3231  -2.2340  -1.1239   1.7475   2.2637   3.0027
     3.8494

          k = 0.1111-0.3208 0.0000 ( 10750 PWs)   bands (ev):

   -61.3153 -35.5131 -35.4611 -35.3283 -13.5786 -12.9515  -5.5594  -4.3918
    -4.3566  -3.5929  -2.3011  -1.7269  -1.3314   1.4301   2.0449   2.3983
     3.7381

          k = 0.1111-0.1925 0.0000 ( 10724 PWs)   bands (ev):

   -61.3300 -35.4893 -35.3854 -35.2856 -14.1936 -13.2165  -5.6944  -4.0035
    -3.5891  -2.9308  -2.5022  -1.4482  -1.0009   1.6396   2.0498   2.0940
     3.2406

          k = 0.1111-0.0642 0.0000 ( 10711 PWs)   bands (ev):

   -61.3396 -35.5077 -35.2990 -35.2593 -14.5528 -13.3727  -6.0361  -3.4396
    -3.0619  -2.8219  -2.1955  -1.5974  -0.7633   2.1056   2.1717   2.3872
     2.7160

          k = 0.2222 0.1283 0.0000 ( 10736 PWs)   bands (ev):

   -61.3258 -35.4812 -35.4319 -35.2879 -14.0251 -13.1506  -5.6129  -4.1838
    -3.9683  -2.7585  -2.3103  -1.7975  -1.1886   1.6200   2.0187   2.3693
     3.2567

          k = 0.2222 0.2566 0.0000 ( 10750 PWs)   bands (ev):

   -61.3152 -35.5156 -35.4609 -35.3265 -13.5748 -12.9582  -5.5571  -4.3928
    -4.3436  -3.5835  -2.3055  -1.7206  -1.3552   1.4431   2.0366   2.3987
     3.7452

          k = 0.2222 0.3849 0.0000 ( 10752 PWs)   bands (ev):

   -61.3032 -35.5856 -35.4378 -35.3945 -12.9966 -12.7037  -5.7117  -5.1450
    -4.1506  -3.9367  -3.0620  -1.9678  -1.1734   1.6128   2.3089   2.5230
     4.1087

          k = 0.2222 0.5132 0.0000 ( 10803 PWs)   bands (ev):

   -61.2954 -35.6184 -35.4513 -35.4227 -12.5666 -12.5083  -5.7942  -5.7563
    -4.3648  -3.7221  -3.4711  -2.4737  -0.7863   1.6942   2.6611   2.7587
     4.2895

          k = 0.2222 0.6415 0.0000 ( 10803 PWs)   bands (ev):

   -61.2954 -35.6173 -35.4522 -35.4228 -12.5683 -12.5052  -5.8022  -5.7577
    -4.3580  -3.7150  -3.4796  -2.4767  -0.7864   1.6965   2.6725   2.7672
     4.2677

          k = 0.2222-0.3849 0.0000 ( 10752 PWs)   bands (ev):

   -61.3032 -35.5832 -35.4380 -35.3964 -13.0003 -12.6967  -5.7131  -5.1638
    -4.1555  -3.9235  -3.0628  -1.9725  -1.1666   1.6127   2.3214   2.5421
     4.0700

          k = 0.2222-0.2566 0.0000 ( 10750 PWs)   bands (ev):

   -61.3153 -35.5131 -35.4611 -35.3283 -13.5786 -12.9515  -5.5594  -4.3918
    -4.3566  -3.5929  -2.3011  -1.7269  -1.3314   1.4301   2.0449   2.3983
     3.7381

          k = 0.2222-0.1283 0.0000 ( 10736 PWs)   bands (ev):

   -61.3258 -35.4813 -35.4301 -35.2893 -14.0275 -13.1467  -5.6167  -4.1919
    -3.9508  -2.7869  -2.3036  -1.7996  -1.1709   1.6211   2.0079   2.3458
     3.2854

          k = 0.2222-0.0000 0.0000 ( 10724 PWs)   bands (ev):

   -61.3300 -35.4892 -35.3873 -35.2840 -14.1920 -13.2192  -5.6926  -3.9918
    -3.6131  -2.8992  -2.5105  -1.4478  -1.0161   1.6463   2.0698   2.0931
     3.2177

          k = 0.3333 0.1925 0.0000 ( 10762 PWs)   bands (ev):

   -61.3101 -35.5782 -35.4509 -35.3219 -13.3304 -12.8639  -5.8386  -4.8210
    -4.4309  -3.2924  -2.2507  -1.7221  -1.5670   1.8245   1.8337   2.9894
     3.6809

          k = 0.3333 0.3208 0.0000 ( 10759 PWs)   bands (ev):

   -61.3022 -35.6256 -35.4358 -35.3644 -12.9340 -12.6942  -6.0043  -5.2392
    -4.4128  -3.7217  -2.3244  -2.2399  -1.1371   1.7490   2.2551   2.9895
     3.8896

          k = 0.3333 0.4491 0.0000 ( 10803 PWs)   bands (ev):

   -61.2953 -35.6199 -35.4502 -35.4226 -12.5636 -12.5130  -5.7883  -5.7609
    -4.3554  -3.7127  -3.4747  -2.4861  -0.7886   1.6918   2.6634   2.7556
     4.3025

          k = 0.3333 0.5774 0.0000 ( 10818 PWs)   bands (ev):

   -61.2926 -35.5747 -35.5270 -35.4175 -12.4281 -12.4141  -6.0568  -5.2228
    -4.6767  -4.0645  -3.4884  -2.7769  -0.4968   1.3769   2.4637   3.1401
     4.5910

          k = 0.3333 0.7057 0.0000 ( 10803 PWs)   bands (ev):

   -61.2954 -35.6173 -35.4522 -35.4228 -12.5683 -12.5052  -5.8022  -5.7577
    -4.3580  -3.7150  -3.4796  -2.4767  -0.7864   1.6965   2.6725   2.7672
     4.2677

          k = 0.3333-0.3208 0.0000 ( 10759 PWs)   bands (ev):

   -61.3023 -35.6231 -35.4361 -35.3660 -12.9405 -12.6836  -6.0018  -5.2542
    -4.4239  -3.7258  -2.3231  -2.2340  -1.1239   1.7475   2.2637   3.0027
     3.8494

          k = 0.3333-0.1925 0.0000 ( 10762 PWs)   bands (ev):

   -61.3101 -35.5761 -35.4512 -35.3232 -13.3357 -12.8556  -5.8390  -4.8206
    -4.4427  -3.3145  -2.2432  -1.7238  -1.5399   1.8174   1.8332   2.9628
     3.6979

          k = 0.3333-0.0642 0.0000 ( 10750 PWs)   bands (ev):

   -61.3152 -35.5145 -35.4610 -35.3272 -13.5768 -12.9551  -5.5582  -4.3827
    -4.3496  -3.6018  -2.2961  -1.7185  -1.3513   1.4431   2.0314   2.3880
     3.7544

          k = 0.3333 0.0642 0.0000 ( 10750 PWs)   bands (ev):

   -61.3152 -35.5156 -35.4609 -35.3265 -13.5748 -12.9582  -5.5571  -4.3928
    -4.3436  -3.5835  -2.3055  -1.7206  -1.3552   1.4431   2.0366   2.3987
     3.7452

          k = 0.4444 0.2566 0.0000 ( 10772 PWs)   bands (ev):

   -61.2998 -35.6720 -35.4311 -35.3439 -12.7875 -12.6514  -6.3538  -5.3814
    -4.6036  -3.5888  -2.5014  -1.3804  -1.2770   1.8983   2.2988   3.3938
     3.8601

          k = 0.4444 0.3849 0.0000 ( 10772 PWs)   bands (ev):

   -61.2971 -35.6686 -35.4259 -35.3793 -12.6417 -12.5781  -6.2534  -5.5806
    -4.5766  -3.6960  -2.4999  -2.2278  -0.8863   1.9052   2.5192   3.3477
     3.7494

          k = 0.4444 0.5132 0.0000 ( 10803 PWs)   bands (ev):

   -61.2953 -35.6199 -35.4502 -35.4226 -12.5636 -12.5130  -5.7883  -5.7609
    -4.3554  -3.7127  -3.4747  -2.4861  -0.7886   1.6918   2.6634   2.7556
     4.3025

          k = 0.4444 0.6415 0.0000 ( 10803 PWs)   bands (ev):

   -61.2954 -35.6184 -35.4513 -35.4227 -12.5666 -12.5083  -5.7942  -5.7563
    -4.3648  -3.7221  -3.4711  -2.4737  -0.7863   1.6942   2.6611   2.7587
     4.2895

          k = 0.4444 0.7698 0.0000 ( 10772 PWs)   bands (ev):

   -61.2971 -35.6663 -35.4262 -35.3807 -12.6492 -12.5667  -6.2462  -5.5953
    -4.5888  -3.7121  -2.4791  -2.2267  -0.8783   1.9105   2.5255   3.3526
     3.7148

          k = 0.4444-0.2566 0.0000 ( 10772 PWs)   bands (ev):

   -61.2999 -35.6697 -35.4315 -35.3452 -12.7958 -12.6391  -6.3473  -5.3947
    -4.6170  -3.6082  -2.4822  -1.3898  -1.2525   1.9051   2.2968   3.3572
     3.8726

          k = 0.4444-0.1283 0.0000 ( 10759 PWs)   bands (ev):

   -61.3023 -35.6239 -35.4360 -35.3655 -12.9391 -12.6865  -6.0002  -5.2435
    -4.4264  -3.7404  -2.3111  -2.2244  -1.1346   1.7534   2.2502   2.9660
     3.8971

          k = 0.4444 0.0000 0.0000 ( 10752 PWs)   bands (ev):

   -61.3032 -35.5856 -35.4378 -35.3945 -12.9966 -12.7037  -5.7117  -5.1450
    -4.1506  -3.9367  -3.0620  -1.9678  -1.1734   1.6128   2.3089   2.5230
     4.1087

          k = 0.4444 0.1283 0.0000 ( 10759 PWs)   bands (ev):

   -61.3022 -35.6256 -35.4358 -35.3644 -12.9340 -12.6942  -6.0043  -5.2392
    -4.4128  -3.7217  -2.3244  -2.2399  -1.1371   1.7490   2.2551   2.9895
     3.8896

     the Fermi energy is     0.2835 ev

!    total energy              =    -496.73152394 Ry
     estimated scf accuracy    <       0.00000002 Ry
     smearing contrib. (-TS)   =      -0.00000000 Ry
     internal energy E=F+TS    =    -496.73152394 Ry

     convergence has been achieved in   5 iterations

     negative rho (up, down):  7.816E-05 0.000E+00

     Forces acting on atoms (cartesian axes, Ry/au):

     atom    1 type  1   force =    -0.00486411   -0.00280831    0.00025534
     atom    2 type  2   force =     0.00242670    0.00140029    0.00137121
     atom    3 type  2   force =     0.00243741    0.00140802   -0.00162655
     The non-local contrib.  to forces
     atom    1 type  1   force =     0.00153463    0.00088603   -0.00014260
     atom    2 type  2   force =     0.00189624    0.00109424   -0.26303595
     atom    3 type  2   force =     0.00190486    0.00110035    0.26288956
     The ionic contribution  to forces
     atom    1 type  1   force =    -0.03112007   -0.01796732   -0.00067528
     atom    2 type  2   force =     0.01551681    0.00895362   36.67972866
     atom    3 type  2   force =     0.01560326    0.00901370  -36.67905338
     The local contribution  to forces
     atom    1 type  1   force =     0.02490658    0.01437994    0.00040552
     atom    2 type  2   force =    -0.01491158   -0.00860441  -36.41585168
     atom    3 type  2   force =    -0.01499581   -0.00866276   36.41460857
     The core correction contribution to forces
     atom    1 type  1   force =    -0.00010141   -0.00005855    0.00000466
     atom    2 type  2   force =    -0.00006943   -0.00004007    0.00189011
     atom    3 type  2   force =    -0.00006983   -0.00004034   -0.00188538
     The Hubbard contrib.    to forces
     atom    1 type  1   force =     0.00000000    0.00000000    0.00000000
     atom    2 type  2   force =     0.00000000    0.00000000    0.00000000
     atom    3 type  2   force =     0.00000000    0.00000000    0.00000000
     The SCF correction term to forces
     atom    1 type  1   force =    -0.00004223   -0.00002438    0.00062573
     atom    2 type  2   force =    -0.00000688   -0.00000398    0.00036435
     atom    3 type  2   force =    -0.00000667   -0.00000385    0.00001642

     DFT-D3 dispersion contribution to forces:
     atom    1 type  1   force =    -0.00002879   -0.00001662    0.00000041
     atom    2 type  2   force =     0.00001436    0.00000829   -0.00176118
     atom    3 type  2   force =     0.00001443    0.00000834    0.00176077

     Total force =     0.007205     Total SCF correction =     0.000726
     SCF correction compared to forces is large: reduce conv_thr to get better values


     Computing stress (Cartesian axis) and pressure


     negative rho (up, down):  7.816E-05 0.000E+00
          total   stress  (Ry/bohr**3)                   (kbar)     P=        7.82
   0.00007830   0.00000259  -0.00000004           11.52        0.38       -0.01
   0.00000259   0.00007531  -0.00000003            0.38       11.08       -0.00
  -0.00000004  -0.00000003   0.00000580           -0.01       -0.00        0.85


     Entering Dynamics:    iteration =    19

     <vel(dt)|acc(dt)> =  -0.27090838

ATOMIC_POSITIONS (crystal)
Mo            0.0013823764        0.0006911865        0.4999947652
S             0.6659794102        0.3329902958        0.5831434021
S             0.6659715467        0.3329851844        0.4168618327



     Writing config-only to output data dir ./tmp/scf.save/
     NEW-OLD atomic charge density approx. for the potential

     negative rho (up, down):  7.807E-05 0.000E+00

     total cpu time spent up to now is     1172.4 secs

     Self-consistent Calculation

     iteration #  1     ecut=    70.00 Ry     beta= 0.70
     Davidson diagonalization with overlap
     ethr =  1.00E-06,  avg # of iterations =  3.0

     Threshold (ethr) on eigenvalues was too large:
     Diagonalizing with lowered threshold

     Davidson diagonalization with overlap
     ethr =  7.95E-09,  avg # of iterations =  3.8

     negative rho (up, down):  7.807E-05 0.000E+00

     total cpu time spent up to now is     1179.4 secs

     total energy              =    -496.73154070 Ry
     estimated scf accuracy    <       0.00000225 Ry

     iteration #  2     ecut=    70.00 Ry     beta= 0.70
     Davidson diagonalization with overlap
     ethr =  8.66E-09,  avg # of iterations =  3.0

     negative rho (up, down):  7.808E-05 0.000E+00

     total cpu time spent up to now is     1183.2 secs

     total energy              =    -496.73153801 Ry
     estimated scf accuracy    <       0.00003469 Ry

     iteration #  3     ecut=    70.00 Ry     beta= 0.70
     Davidson diagonalization with overlap
     ethr =  8.66E-09,  avg # of iterations =  3.0

     negative rho (up, down):  7.809E-05 0.000E+00

     total cpu time spent up to now is     1186.8 secs

     End of self-consistent calculation

          k = 0.0000 0.0000 0.0000 ( 10733 PWs)   bands (ev):

   -61.3459 -35.5182 -35.2478 -35.2461 -14.7392 -13.4552  -6.2469  -3.0215
    -3.0097  -2.4624  -1.9049  -1.8548  -0.6981   2.3626   2.4202   2.5823
     2.6061

          k = 0.0000 0.1283 0.0000 ( 10711 PWs)   bands (ev):

   -61.3405 -35.5079 -35.2990 -35.2592 -14.5467 -13.3718  -6.0302  -3.4294
    -3.0609  -2.8126  -2.1849  -1.5965  -0.7678   2.1004   2.1743   2.3847
     2.7117

          k = 0.0000 0.2566 0.0000 ( 10736 PWs)   bands (ev):

   -61.3268 -35.4816 -35.4300 -35.2892 -14.0214 -13.1451  -5.6093  -4.1845
    -3.9479  -2.7769  -2.2947  -1.8009  -1.1736   1.6161   2.0061   2.3457
     3.2803

          k = 0.0000 0.3849 0.0000 ( 10762 PWs)   bands (ev):

   -61.3111 -35.5758 -35.4515 -35.3231 -13.3295 -12.8530  -5.8312  -4.8171
    -4.4380  -3.3048  -2.2462  -1.7154  -1.5415   1.8170   1.8294   2.9614
     3.6913

          k = 0.0000 0.5132 0.0000 ( 10772 PWs)   bands (ev):

   -61.3009 -35.6693 -35.4318 -35.3450 -12.7892 -12.6358  -6.3423  -5.3914
    -4.6113  -3.5985  -2.4861  -1.3822  -1.2544   1.9061   2.2952   3.3562
     3.8648

          k = 0.1111 0.0642 0.0000 ( 10711 PWs)   bands (ev):

   -61.3405 -35.5078 -35.3003 -35.2580 -14.5462 -13.3726  -6.0294  -3.4213
    -3.0776  -2.8207  -2.1531  -1.6085  -0.7714   2.0879   2.2077   2.3996
     2.6752

          k = 0.1111 0.1925 0.0000 ( 10724 PWs)   bands (ev):

   -61.3309 -35.4895 -35.3870 -35.2840 -14.1862 -13.2175  -5.6861  -3.9845
    -3.6079  -2.8940  -2.5007  -1.4477  -1.0173   1.6410   2.0678   2.0903
     3.2161

          k = 0.1111 0.3208 0.0000 ( 10750 PWs)   bands (ev):

   -61.3162 -35.5142 -35.4613 -35.3271 -13.5710 -12.9525  -5.5499  -4.3791
    -4.3452  -3.5945  -2.2908  -1.7202  -1.3483   1.4378   2.0310   2.3874
     3.7472

          k = 0.1111 0.4491 0.0000 ( 10759 PWs)   bands (ev):

   -61.3032 -35.6234 -35.4364 -35.3653 -12.9330 -12.6830  -5.9940  -5.2394
    -4.4211  -3.7330  -2.3086  -2.2279  -1.1307   1.7501   2.2518   2.9660
     3.8874

          k = 0.1111 0.5774 0.0000 ( 10772 PWs)   bands (ev):

   -61.2981 -35.6659 -35.4265 -35.3805 -12.6427 -12.5631  -6.2418  -5.5904
    -4.5829  -3.7054  -2.4828  -2.2233  -0.8761   1.9110   2.5244   3.3470
     3.7121

          k = 0.1111-0.4491 0.0000 ( 10759 PWs)   bands (ev):

   -61.3033 -35.6228 -35.4364 -35.3658 -12.9341 -12.6807  -5.9954  -5.2481
    -4.4191  -3.7212  -2.3183  -2.2356  -1.1221   1.7454   2.2628   2.9956
     3.8489

          k = 0.1111-0.3208 0.0000 ( 10750 PWs)   bands (ev):

   -61.3162 -35.5130 -35.4614 -35.3280 -13.5725 -12.9495  -5.5508  -4.3864
    -4.3509  -3.5874  -2.2948  -1.7270  -1.3322   1.4273   2.0419   2.3957
     3.7340

          k = 0.1111-0.1925 0.0000 ( 10724 PWs)   bands (ev):

   -61.3309 -35.4896 -35.3854 -35.2853 -14.1875 -13.2153  -5.6876  -3.9940
    -3.5885  -2.9195  -2.4940  -1.4480  -1.0050   1.6357   2.0517   2.0909
     3.2346

          k = 0.1111-0.0642 0.0000 ( 10711 PWs)   bands (ev):

   -61.3405 -35.5079 -35.2990 -35.2592 -14.5467 -13.3718  -6.0302  -3.4294
    -3.0609  -2.8126  -2.1849  -1.5965  -0.7678   2.1004   2.1743   2.3847
     2.7117

          k = 0.2222 0.1283 0.0000 ( 10736 PWs)   bands (ev):

   -61.3268 -35.4814 -35.4315 -35.2880 -14.0195 -13.1482  -5.6062  -4.1779
    -3.9621  -2.7539  -2.3001  -1.7992  -1.1878   1.6152   2.0149   2.3646
     3.2572

          k = 0.2222 0.2566 0.0000 ( 10750 PWs)   bands (ev):

   -61.3162 -35.5150 -35.4612 -35.3265 -13.5694 -12.9549  -5.5489  -4.3873
    -4.3403  -3.5797  -2.2984  -1.7219  -1.3514   1.4378   2.0352   2.3961
     3.7398

          k = 0.2222 0.3849 0.0000 ( 10752 PWs)   bands (ev):

   -61.3042 -35.5850 -35.4381 -35.3945 -12.9909 -12.6997  -5.7045  -5.1395
    -4.1473  -3.9334  -3.0576  -1.9697  -1.1694   1.6083   2.3112   2.5207
     4.0997

          k = 0.2222 0.5132 0.0000 ( 10803 PWs)   bands (ev):

   -61.2963 -35.6179 -35.4511 -35.4231 -12.5605 -12.5041  -5.7877  -5.7516
    -4.3590  -3.7192  -3.4682  -2.4767  -0.7835   1.6955   2.6562   2.7571
     4.2838

          k = 0.2222 0.6415 0.0000 ( 10803 PWs)   bands (ev):

   -61.2964 -35.6170 -35.4518 -35.4231 -12.5618 -12.5015  -5.7941  -5.7527
    -4.3535  -3.7134  -3.4751  -2.4791  -0.7836   1.6973   2.6654   2.7640
     4.2662

          k = 0.2222-0.3849 0.0000 ( 10752 PWs)   bands (ev):

   -61.3042 -35.5831 -35.4383 -35.3960 -12.9940 -12.6940  -5.7056  -5.1547
    -4.1513  -3.9227  -3.0583  -1.9735  -1.1639   1.6081   2.3213   2.5361
     4.0685

          k = 0.2222-0.2566 0.0000 ( 10750 PWs)   bands (ev):

   -61.3162 -35.5130 -35.4614 -35.3280 -13.5725 -12.9495  -5.5508  -4.3864
    -4.3509  -3.5874  -2.2948  -1.7270  -1.3322   1.4273   2.0419   2.3957
     3.7340

          k = 0.2222-0.1283 0.0000 ( 10736 PWs)   bands (ev):

   -61.3268 -35.4816 -35.4300 -35.2892 -14.0214 -13.1451  -5.6093  -4.1845
    -3.9479  -2.7769  -2.2947  -1.8009  -1.1736   1.6161   2.0061   2.3457
     3.2803

          k = 0.2222-0.0000 0.0000 ( 10724 PWs)   bands (ev):

   -61.3309 -35.4895 -35.3870 -35.2840 -14.1862 -13.2175  -5.6861  -3.9845
    -3.6079  -2.8940  -2.5007  -1.4477  -1.0173   1.6410   2.0678   2.0903
     3.2161

          k = 0.3333 0.1925 0.0000 ( 10762 PWs)   bands (ev):

   -61.3111 -35.5776 -35.4513 -35.3219 -13.3252 -12.8598  -5.8309  -4.8174
    -4.4284  -3.2869  -2.2523  -1.7143  -1.5631   1.8238   1.8289   2.9827
     3.6776

          k = 0.3333 0.3208 0.0000 ( 10759 PWs)   bands (ev):

   -61.3032 -35.6249 -35.4362 -35.3644 -12.9288 -12.6893  -5.9974  -5.2360
    -4.4101  -3.7179  -2.3193  -2.2404  -1.1327   1.7466   2.2558   2.9850
     3.8814

          k = 0.3333 0.4491 0.0000 ( 10803 PWs)   bands (ev):

   -61.2963 -35.6191 -35.4501 -35.4230 -12.5581 -12.5078  -5.7829  -5.7553
    -4.3514  -3.7116  -3.4711  -2.4868  -0.7853   1.6935   2.6581   2.7546
     4.2943

          k = 0.3333 0.5774 0.0000 ( 10818 PWs)   bands (ev):

   -61.2936 -35.5742 -35.5268 -35.4178 -12.4236 -12.4079  -6.0494  -5.2189
    -4.6719  -4.0601  -3.4877  -2.7789  -0.4947   1.3814   2.4573   3.1349
     4.5858

          k = 0.3333 0.7057 0.0000 ( 10803 PWs)   bands (ev):

   -61.2964 -35.6170 -35.4518 -35.4231 -12.5618 -12.5015  -5.7941  -5.7527
    -4.3535  -3.7134  -3.4751  -2.4791  -0.7836   1.6973   2.6654   2.7640
     4.2662

          k = 0.3333-0.3208 0.0000 ( 10759 PWs)   bands (ev):

   -61.3033 -35.6228 -35.4364 -35.3658 -12.9341 -12.6807  -5.9954  -5.2481
    -4.4191  -3.7212  -2.3183  -2.2356  -1.1221   1.7454   2.2628   2.9956
     3.8489

          k = 0.3333-0.1925 0.0000 ( 10762 PWs)   bands (ev):

   -61.3111 -35.5758 -35.4515 -35.3231 -13.3295 -12.8530  -5.8312  -4.8171
    -4.4380  -3.3048  -2.2462  -1.7154  -1.5415   1.8170   1.8294   2.9614
     3.6913

          k = 0.3333-0.0642 0.0000 ( 10750 PWs)   bands (ev):

   -61.3162 -35.5142 -35.4613 -35.3271 -13.5710 -12.9525  -5.5499  -4.3791
    -4.3452  -3.5945  -2.2908  -1.7202  -1.3483   1.4378   2.0310   2.3874
     3.7472

          k = 0.3333 0.0642 0.0000 ( 10750 PWs)   bands (ev):

   -61.3162 -35.5150 -35.4612 -35.3265 -13.5694 -12.9549  -5.5489  -4.3873
    -4.3403  -3.5797  -2.2984  -1.7219  -1.3514   1.4378   2.0352   2.3961
     3.7398

          k = 0.4444 0.2566 0.0000 ( 10772 PWs)   bands (ev):

   -61.3008 -35.6712 -35.4315 -35.3439 -12.7825 -12.6457  -6.3475  -5.3806
    -4.6005  -3.5828  -2.5017  -1.3750  -1.2737   1.9007   2.2968   3.3855
     3.8550

          k = 0.4444 0.3849 0.0000 ( 10772 PWs)   bands (ev):

   -61.2981 -35.6678 -35.4263 -35.3793 -12.6366 -12.5723  -6.2476  -5.5784
    -4.5730  -3.6923  -2.4997  -2.2242  -0.8825   1.9069   2.5193   3.3427
     3.7404

          k = 0.4444 0.5132 0.0000 ( 10803 PWs)   bands (ev):

   -61.2963 -35.6191 -35.4501 -35.4230 -12.5581 -12.5078  -5.7829  -5.7553
    -4.3514  -3.7116  -3.4711  -2.4868  -0.7853   1.6935   2.6581   2.7546
     4.2943

          k = 0.4444 0.6415 0.0000 ( 10803 PWs)   bands (ev):

   -61.2963 -35.6179 -35.4511 -35.4231 -12.5605 -12.5041  -5.7877  -5.7516
    -4.3590  -3.7192  -3.4682  -2.4767  -0.7835   1.6955   2.6562   2.7571
     4.2838

          k = 0.4444 0.7698 0.0000 ( 10772 PWs)   bands (ev):

   -61.2981 -35.6659 -35.4265 -35.3805 -12.6427 -12.5631  -6.2418  -5.5904
    -4.5829  -3.7054  -2.4828  -2.2233  -0.8761   1.9110   2.5244   3.3470
     3.7121

          k = 0.4444-0.2566 0.0000 ( 10772 PWs)   bands (ev):

   -61.3009 -35.6693 -35.4318 -35.3450 -12.7892 -12.6358  -6.3423  -5.3914
    -4.6113  -3.5985  -2.4861  -1.3822  -1.2544   1.9061   2.2952   3.3562
     3.8648

          k = 0.4444-0.1283 0.0000 ( 10759 PWs)   bands (ev):

   -61.3032 -35.6234 -35.4364 -35.3653 -12.9330 -12.6830  -5.9940  -5.2394
    -4.4211  -3.7330  -2.3086  -2.2279  -1.1307   1.7501   2.2518   2.9660
     3.8874

          k = 0.4444 0.0000 0.0000 ( 10752 PWs)   bands (ev):

   -61.3042 -35.5850 -35.4381 -35.3945 -12.9909 -12.6997  -5.7045  -5.1395
    -4.1473  -3.9334  -3.0576  -1.9697  -1.1694   1.6083   2.3112   2.5207
     4.0997

          k = 0.4444 0.1283 0.0000 ( 10759 PWs)   bands (ev):

   -61.3032 -35.6249 -35.4362 -35.3644 -12.9288 -12.6893  -5.9974  -5.2360
    -4.4101  -3.7179  -2.3193  -2.2404  -1.1327   1.7466   2.2558   2.9850
     3.8814

     the Fermi energy is     0.2786 ev

!    total energy              =    -496.73154136 Ry
     estimated scf accuracy    <       0.00000089 Ry
     smearing contrib. (-TS)   =      -0.00000000 Ry
     internal energy E=F+TS    =    -496.73154136 Ry

     convergence has been achieved in   3 iterations

     negative rho (up, down):  7.809E-05 0.000E+00

     Forces acting on atoms (cartesian axes, Ry/au):

     atom    1 type  1   force =    -0.00392125   -0.00226393    0.00058348
     atom    2 type  2   force =     0.00195692    0.00112905   -0.00013836
     atom    3 type  2   force =     0.00196433    0.00113488   -0.00044512
     The non-local contrib.  to forces
     atom    1 type  1   force =     0.00126857    0.00073241    0.00025282
     atom    2 type  2   force =     0.00154727    0.00089275   -0.26339591
     atom    3 type  2   force =     0.00155523    0.00089848    0.26363728
     The ionic contribution  to forces
     atom    1 type  1   force =    -0.02507728   -0.01447833   -0.00043272
     atom    2 type  2   force =     0.01251444    0.00722010   36.67638608
     atom    3 type  2   force =     0.01256284    0.00725823  -36.67595336
     The local contribution  to forces
     atom    1 type  1   force =     0.01988901    0.01148289    0.00692632
     atom    2 type  2   force =    -0.01206754   -0.00696231  -36.41250373
     atom    3 type  2   force =    -0.01211726   -0.00700075   36.41409772
     The core correction contribution to forces
     atom    1 type  1   force =    -0.00008367   -0.00004831    0.00002099
     atom    2 type  2   force =    -0.00005694   -0.00003285    0.00191275
     atom    3 type  2   force =    -0.00005723   -0.00003306   -0.00190977
     The Hubbard contrib.    to forces
     atom    1 type  1   force =     0.00000000    0.00000000    0.00000000
     atom    2 type  2   force =     0.00000000    0.00000000    0.00000000
     atom    3 type  2   force =     0.00000000    0.00000000    0.00000000
     The SCF correction term to forces
     atom    1 type  1   force =     0.00010764    0.00006215   -0.00588728
     atom    2 type  2   force =     0.00001032    0.00000596   -0.00048104
     atom    3 type  2   force =     0.00001136    0.00000656   -0.00177937

     DFT-D3 dispersion contribution to forces:
     atom    1 type  1   force =    -0.00002327   -0.00001343    0.00000027
     atom    2 type  2   force =     0.00001161    0.00000670   -0.00175958
     atom    3 type  2   force =     0.00001165    0.00000673    0.00175931

     Total force =     0.005596     Total SCF correction =     0.006170
     SCF correction compared to forces is large: reduce conv_thr to get better values


     Computing stress (Cartesian axis) and pressure


     negative rho (up, down):  7.809E-05 0.000E+00
          total   stress  (Ry/bohr**3)                   (kbar)     P=        7.34
   0.00007595   0.00000204  -0.00000002           11.17        0.30       -0.00
   0.00000204   0.00007359  -0.00000002            0.30       10.83       -0.00
  -0.00000002  -0.00000002   0.00000021           -0.00       -0.00        0.03


     Entering Dynamics:    iteration =    21

     <vel(dt)|acc(dt)> =  -0.15239602

ATOMIC_POSITIONS (crystal)
Mo            0.0012381366        0.0006190731        0.4999963723
S             0.6660509332        0.3330260120        0.5831596414
S             0.6660442635        0.3330215816        0.4168439863



     Writing config-only to output data dir ./tmp/scf.save/
     NEW-OLD atomic charge density approx. for the potential

     negative rho (up, down):  7.807E-05 0.000E+00

     total cpu time spent up to now is     1195.1 secs

     Self-consistent Calculation

     iteration #  1     ecut=    70.00 Ry     beta= 0.70
     Davidson diagonalization with overlap
     ethr =  1.00E-06,  avg # of iterations =  2.0

     negative rho (up, down):  7.806E-05 0.000E+00

     total cpu time spent up to now is     1198.8 secs

     total energy              =    -496.73151060 Ry
     estimated scf accuracy    <       0.00004698 Ry

     iteration #  2     ecut=    70.00 Ry     beta= 0.70
     Davidson diagonalization with overlap
     ethr =  1.81E-07,  avg # of iterations =  3.3

     negative rho (up, down):  7.809E-05 0.000E+00

     total cpu time spent up to now is     1202.3 secs

     total energy              =    -496.73142536 Ry
     estimated scf accuracy    <       0.00123636 Ry

     iteration #  3     ecut=    70.00 Ry     beta= 0.70
     Davidson diagonalization with overlap
     ethr =  1.81E-07,  avg # of iterations =  3.0

     negative rho (up, down):  7.808E-05 0.000E+00

     total cpu time spent up to now is     1205.7 secs

     total energy              =    -496.73154635 Ry
     estimated scf accuracy    <       0.00000426 Ry

     iteration #  4     ecut=    70.00 Ry     beta= 0.70
     Davidson diagonalization with overlap
     ethr =  1.64E-08,  avg # of iterations =  2.0

     negative rho (up, down):  7.807E-05 0.000E+00

     total cpu time spent up to now is     1208.8 secs

     End of self-consistent calculation

          k = 0.0000 0.0000 0.0000 ( 10733 PWs)   bands (ev):

   -61.3426 -35.5149 -35.2441 -35.2428 -14.7362 -13.4536  -6.2439  -3.0162
    -3.0057  -2.4618  -1.8983  -1.8535  -0.6971   2.3677   2.4192   2.5847
     2.6058

          k = 0.0000 0.1283 0.0000 ( 10711 PWs)   bands (ev):

   -61.3371 -35.5045 -35.2956 -35.2557 -14.5437 -13.3702  -6.0272  -3.4247
    -3.0593  -2.8083  -2.1797  -1.5950  -0.7667   2.1010   2.1777   2.3864
     2.7121

          k = 0.0000 0.2566 0.0000 ( 10736 PWs)   bands (ev):

   -61.3234 -35.4782 -35.4265 -35.2857 -14.0185 -13.1433  -5.6058  -4.1808
    -3.9457  -2.7721  -2.2906  -1.7999  -1.1722   1.6171   2.0080   2.3483
     3.2808

          k = 0.0000 0.3849 0.0000 ( 10762 PWs)   bands (ev):

   -61.3077 -35.5724 -35.4482 -35.3195 -13.3264 -12.8511  -5.8275  -4.8147
    -4.4352  -3.3002  -2.2458  -1.7115  -1.5401   1.8198   1.8308   2.9637
     3.6917

          k = 0.0000 0.5132 0.0000 ( 10772 PWs)   bands (ev):

   -61.2975 -35.6659 -35.4285 -35.3415 -12.7859 -12.6337  -6.3395  -5.3889
    -4.6081  -3.5940  -2.4859  -1.3786  -1.2532   1.9093   2.2975   3.3588
     3.8650

          k = 0.1111 0.0642 0.0000 ( 10711 PWs)   bands (ev):

   -61.3371 -35.5045 -35.2967 -35.2547 -14.5433 -13.3709  -6.0264  -3.4174
    -3.0742  -2.8155  -2.1514  -1.6057  -0.7699   2.0898   2.2075   2.3997
     2.6796

          k = 0.1111 0.1925 0.0000 ( 10724 PWs)   bands (ev):

   -61.3275 -35.4862 -35.3834 -35.2806 -14.1834 -13.2156  -5.6830  -3.9810
    -3.6046  -2.8913  -2.4961  -1.4462  -1.0151   1.6418   2.0694   2.0919
     3.2182

          k = 0.1111 0.3208 0.0000 ( 10750 PWs)   bands (ev):

   -61.3128 -35.5106 -35.4580 -35.3237 -13.5680 -12.9503  -5.5461  -4.3768
    -4.3426  -3.5905  -2.2878  -1.7194  -1.3450   1.4387   2.0337   2.3899
     3.7475

          k = 0.1111 0.4491 0.0000 ( 10759 PWs)   bands (ev):

   -61.2999 -35.6199 -35.4331 -35.3618 -12.9299 -12.6807  -5.9910  -5.2369
    -4.4181  -3.7290  -2.3066  -2.2277  -1.1274   1.7518   2.2553   2.9691
     3.8868

          k = 0.1111 0.5774 0.0000 ( 10772 PWs)   bands (ev):

   -61.2948 -35.6624 -35.4232 -35.3770 -12.6394 -12.5610  -6.2392  -5.5873
    -4.5795  -3.7018  -2.4826  -2.2209  -0.8734   1.9140   2.5269   3.3479
     3.7142

          k = 0.1111-0.4491 0.0000 ( 10759 PWs)   bands (ev):

   -61.2999 -35.6194 -35.4331 -35.3622 -12.9309 -12.6787  -5.9921  -5.2446
    -4.4163  -3.7184  -2.3153  -2.2346  -1.1197   1.7475   2.2651   2.9956
     3.8523

          k = 0.1111-0.3208 0.0000 ( 10750 PWs)   bands (ev):

   -61.3129 -35.5096 -35.4580 -35.3244 -13.5694 -12.9477  -5.5469  -4.3832
    -4.3476  -3.5843  -2.2914  -1.7255  -1.3307   1.4293   2.0434   2.3974
     3.7356

          k = 0.1111-0.1925 0.0000 ( 10724 PWs)   bands (ev):

   -61.3276 -35.4862 -35.3821 -35.2817 -14.1844 -13.2136  -5.6843  -3.9894
    -3.5874  -2.9140  -2.4902  -1.4465  -1.0042   1.6371   2.0550   2.0924
     3.2346

          k = 0.1111-0.0642 0.0000 ( 10711 PWs)   bands (ev):

   -61.3371 -35.5045 -35.2956 -35.2557 -14.5437 -13.3702  -6.0272  -3.4247
    -3.0593  -2.8083  -2.1797  -1.5950  -0.7667   2.1010   2.1777   2.3864
     2.7121

          k = 0.2222 0.1283 0.0000 ( 10736 PWs)   bands (ev):

   -61.3234 -35.4781 -35.4278 -35.2847 -14.0168 -13.1461  -5.6030  -4.1749
    -3.9584  -2.7516  -2.2955  -1.7984  -1.1849   1.6163   2.0159   2.3652
     3.2602

          k = 0.2222 0.2566 0.0000 ( 10750 PWs)   bands (ev):

   -61.3128 -35.5114 -35.4579 -35.3231 -13.5666 -12.9526  -5.5452  -4.3841
    -4.3382  -3.5774  -2.2947  -1.7209  -1.3478   1.4387   2.0375   2.3977
     3.7408

          k = 0.2222 0.3849 0.0000 ( 10752 PWs)   bands (ev):

   -61.3008 -35.5814 -35.4348 -35.3910 -12.9881 -12.6971  -5.7010  -5.1367
    -4.1452  -3.9308  -3.0548  -1.9689  -1.1660   1.6096   2.3148   2.5227
     4.0996

          k = 0.2222 0.5132 0.0000 ( 10803 PWs)   bands (ev):

   -61.2930 -35.6144 -35.4475 -35.4198 -12.5574 -12.5016  -5.7844  -5.7490
    -4.3558  -3.7167  -3.4662  -2.4762  -0.7804   1.6985   2.6574   2.7596
     4.2850

          k = 0.2222 0.6415 0.0000 ( 10803 PWs)   bands (ev):

   -61.2930 -35.6136 -35.4482 -35.4198 -12.5586 -12.4993  -5.7901  -5.7500
    -4.3508  -3.7116  -3.4723  -2.4784  -0.7805   1.7001   2.6657   2.7657
     4.2692

          k = 0.2222-0.3849 0.0000 ( 10752 PWs)   bands (ev):

   -61.3008 -35.5797 -35.4350 -35.3923 -12.9908 -12.6921  -5.7020  -5.1503
    -4.1487  -3.9213  -3.0554  -1.9723  -1.1611   1.6095   2.3237   2.5365
     4.0716

          k = 0.2222-0.2566 0.0000 ( 10750 PWs)   bands (ev):

   -61.3129 -35.5096 -35.4580 -35.3244 -13.5694 -12.9477  -5.5469  -4.3832
    -4.3476  -3.5843  -2.2914  -1.7255  -1.3307   1.4293   2.0434   2.3974
     3.7356

          k = 0.2222-0.1283 0.0000 ( 10736 PWs)   bands (ev):

   -61.3234 -35.4782 -35.4265 -35.2857 -14.0185 -13.1433  -5.6058  -4.1808
    -3.9457  -2.7721  -2.2906  -1.7999  -1.1722   1.6171   2.0080   2.3483
     3.2808

          k = 0.2222-0.0000 0.0000 ( 10724 PWs)   bands (ev):

   -61.3275 -35.4862 -35.3834 -35.2806 -14.1834 -13.2156  -5.6830  -3.9810
    -3.6046  -2.8913  -2.4961  -1.4462  -1.0151   1.6418   2.0694   2.0919
     3.2182

          k = 0.3333 0.1925 0.0000 ( 10762 PWs)   bands (ev):

   -61.3077 -35.5739 -35.4480 -35.3185 -13.3227 -12.8571  -5.8273  -4.8150
    -4.4267  -3.2843  -2.2511  -1.7106  -1.5592   1.8262   1.8301   2.9828
     3.6795

          k = 0.3333 0.3208 0.0000 ( 10759 PWs)   bands (ev):

   -61.2999 -35.6212 -35.4329 -35.3610 -12.9262 -12.6863  -5.9939  -5.2339
    -4.4083  -3.7155  -2.3162  -2.2388  -1.1292   1.7487   2.2589   2.9861
     3.8814

          k = 0.3333 0.4491 0.0000 ( 10803 PWs)   bands (ev):

   -61.2930 -35.6154 -35.4467 -35.4197 -12.5553 -12.5049  -5.7801  -5.7522
    -4.3490  -3.7099  -3.4687  -2.4852  -0.7820   1.6968   2.6591   2.7574
     4.2944

          k = 0.3333 0.5774 0.0000 ( 10818 PWs)   bands (ev):

   -61.2902 -35.5706 -35.5233 -35.4145 -12.4209 -12.4050  -6.0459  -5.2164
    -4.6691  -4.0576  -3.4861  -2.7780  -0.4916   1.3853   2.4579   3.1364
     4.5873

          k = 0.3333 0.7057 0.0000 ( 10803 PWs)   bands (ev):

   -61.2930 -35.6136 -35.4482 -35.4198 -12.5586 -12.4993  -5.7901  -5.7500
    -4.3508  -3.7116  -3.4723  -2.4784  -0.7805   1.7001   2.6657   2.7657
     4.2692

          k = 0.3333-0.3208 0.0000 ( 10759 PWs)   bands (ev):

   -61.2999 -35.6194 -35.4331 -35.3622 -12.9309 -12.6787  -5.9921  -5.2446
    -4.4163  -3.7184  -2.3153  -2.2346  -1.1197   1.7475   2.2651   2.9956
     3.8523

          k = 0.3333-0.1925 0.0000 ( 10762 PWs)   bands (ev):

   -61.3077 -35.5724 -35.4482 -35.3195 -13.3264 -12.8511  -5.8275  -4.8147
    -4.4352  -3.3002  -2.2458  -1.7115  -1.5401   1.8198   1.8308   2.9637
     3.6917

          k = 0.3333-0.0642 0.0000 ( 10750 PWs)   bands (ev):

   -61.3128 -35.5106 -35.4580 -35.3237 -13.5680 -12.9503  -5.5461  -4.3768
    -4.3426  -3.5905  -2.2878  -1.7194  -1.3450   1.4387   2.0337   2.3899
     3.7475

          k = 0.3333 0.0642 0.0000 ( 10750 PWs)   bands (ev):

   -61.3128 -35.5114 -35.4579 -35.3231 -13.5666 -12.9526  -5.5452  -4.3841
    -4.3382  -3.5774  -2.2947  -1.7209  -1.3478   1.4387   2.0375   2.3977
     3.7408

          k = 0.4444 0.2566 0.0000 ( 10772 PWs)   bands (ev):

   -61.2974 -35.6675 -35.4282 -35.3405 -12.7800 -12.6425  -6.3441  -5.3793
    -4.5985  -3.5801  -2.4998  -1.3724  -1.2702   1.9044   2.2990   3.3850
     3.8563

          k = 0.4444 0.3849 0.0000 ( 10772 PWs)   bands (ev):

   -61.2947 -35.6640 -35.4230 -35.3759 -12.6340 -12.5691  -6.2444  -5.5767
    -4.5708  -3.6902  -2.4976  -2.2218  -0.8792   1.9103   2.5224   3.3439
     3.7396

          k = 0.4444 0.5132 0.0000 ( 10803 PWs)   bands (ev):

   -61.2930 -35.6154 -35.4467 -35.4197 -12.5553 -12.5049  -5.7801  -5.7522
    -4.3490  -3.7099  -3.4687  -2.4852  -0.7820   1.6968   2.6591   2.7574
     4.2944

          k = 0.4444 0.6415 0.0000 ( 10803 PWs)   bands (ev):

   -61.2930 -35.6144 -35.4475 -35.4198 -12.5574 -12.5016  -5.7844  -5.7490
    -4.3558  -3.7167  -3.4662  -2.4762  -0.7804   1.6985   2.6574   2.7596
     4.2850

          k = 0.4444 0.7698 0.0000 ( 10772 PWs)   bands (ev):

   -61.2948 -35.6624 -35.4232 -35.3770 -12.6394 -12.5610  -6.2392  -5.5873
    -4.5795  -3.7018  -2.4826  -2.2209  -0.8734   1.9140   2.5269   3.3479
     3.7142

          k = 0.4444-0.2566 0.0000 ( 10772 PWs)   bands (ev):

   -61.2975 -35.6659 -35.4285 -35.3415 -12.7859 -12.6337  -6.3395  -5.3889
    -4.6081  -3.5940  -2.4859  -1.3786  -1.2532   1.9093   2.2975   3.3588
     3.8650

          k = 0.4444-0.1283 0.0000 ( 10759 PWs)   bands (ev):

   -61.2999 -35.6199 -35.4331 -35.3618 -12.9299 -12.6807  -5.9910  -5.2369
    -4.4181  -3.7290  -2.3066  -2.2277  -1.1274   1.7518   2.2553   2.9691
     3.8868

          k = 0.4444 0.0000 0.0000 ( 10752 PWs)   bands (ev):

   -61.3008 -35.5814 -35.4348 -35.3910 -12.9881 -12.6971  -5.7010  -5.1367
    -4.1452  -3.9308  -3.0548  -1.9689  -1.1660   1.6096   2.3148   2.5227
     4.0996

          k = 0.4444 0.1283 0.0000 ( 10759 PWs)   bands (ev):

   -61.2999 -35.6212 -35.4329 -35.3610 -12.9262 -12.6863  -5.9939  -5.2339
    -4.4083  -3.7155  -2.3162  -2.2388  -1.1292   1.7487   2.2589   2.9861
     3.8814

     the Fermi energy is     0.2803 ev

!    total energy              =    -496.73154692 Ry
     estimated scf accuracy    <       0.00000025 Ry
     smearing contrib. (-TS)   =      -0.00000000 Ry
     internal energy E=F+TS    =    -496.73154692 Ry

     convergence has been achieved in   4 iterations

     negative rho (up, down):  7.807E-05 0.000E+00

     Forces acting on atoms (cartesian axes, Ry/au):

     atom    1 type  1   force =    -0.00375817   -0.00216979    0.00013991
     atom    2 type  2   force =     0.00187226    0.00108021    0.00003471
     atom    3 type  2   force =     0.00188591    0.00108958   -0.00017462
     The non-local contrib.  to forces
     atom    1 type  1   force =     0.00129388    0.00074702   -0.00002790
     atom    2 type  2   force =     0.00132310    0.00076342   -0.26363480
     atom    3 type  2   force =     0.00130938    0.00075645    0.26355863
     The ionic contribution  to forces
     atom    1 type  1   force =    -0.02243145   -0.01295094   -0.00029915
     atom    2 type  2   force =     0.01119627    0.00645950   36.67566551
     atom    3 type  2   force =     0.01123518    0.00649143  -36.67536636
     The local contribution  to forces
     atom    1 type  1   force =     0.01657451    0.00956946   -0.00038571
     atom    2 type  2   force =    -0.01061655   -0.00612515  -36.41145800
     atom    3 type  2   force =    -0.01060736   -0.00612860   36.41036026
     The core correction contribution to forces
     atom    1 type  1   force =    -0.00009257   -0.00005344   -0.00000115
     atom    2 type  2   force =    -0.00004757   -0.00002744    0.00192393
     atom    3 type  2   force =    -0.00004678   -0.00002703   -0.00192358
     The Hubbard contrib.    to forces
     atom    1 type  1   force =     0.00000000    0.00000000    0.00000000
     atom    2 type  2   force =     0.00000000    0.00000000    0.00000000
     atom    3 type  2   force =     0.00000000    0.00000000    0.00000000
     The SCF correction term to forces
     atom    1 type  1   force =     0.00083201    0.00048032    0.00083783
     atom    2 type  2   force =    -0.00007970   -0.00004594   -0.00071848
     atom    3 type  2   force =    -0.00010123   -0.00005852    0.00142157

     DFT-D3 dispersion contribution to forces:
     atom    1 type  1   force =    -0.00002084   -0.00001203    0.00000018
     atom    2 type  2   force =     0.00001040    0.00000600   -0.00175925
     atom    3 type  2   force =     0.00001043    0.00000603    0.00175906

     Total force =     0.005320     Total SCF correction =     0.002046
     SCF correction compared to forces is large: reduce conv_thr to get better values


     Computing stress (Cartesian axis) and pressure


     negative rho (up, down):  7.807E-05 0.000E+00
          total   stress  (Ry/bohr**3)                   (kbar)     P=        7.31
   0.00007667   0.00000199  -0.00000006           11.28        0.29       -0.01
   0.00000199   0.00007438  -0.00000004            0.29       10.94       -0.01
  -0.00000006  -0.00000004  -0.00000202           -0.01       -0.01       -0.30


     Entering Dynamics:    iteration =    22

     <vel(dt)|acc(dt)> =   0.52679622

ATOMIC_POSITIONS (crystal)
Mo           -0.0015043632       -0.0007520107        0.4999266322
S             0.6674141330        0.3337065848        0.5831766959
S             0.6674235635        0.3337120927        0.4168966719



     Writing config-only to output data dir ./tmp/scf.save/
     NEW-OLD atomic charge density approx. for the potential

     negative rho (up, down):  7.780E-05 0.000E+00

     total cpu time spent up to now is     1216.4 secs

     Self-consistent Calculation

     iteration #  1     ecut=    70.00 Ry     beta= 0.70
     Davidson diagonalization with overlap
     ethr =  1.00E-06,  avg # of iterations =  4.0

     Threshold (ethr) on eigenvalues was too large:
     Diagonalizing with lowered threshold

     Davidson diagonalization with overlap
     ethr =  4.99E-08,  avg # of iterations =  3.1

     negative rho (up, down):  7.800E-05 0.000E+00

     total cpu time spent up to now is     1223.0 secs

     total energy              =    -496.73152630 Ry
     estimated scf accuracy    <       0.00001369 Ry

     iteration #  2     ecut=    70.00 Ry     beta= 0.70
     Davidson diagonalization with overlap
     ethr =  5.26E-08,  avg # of iterations =  2.9

     negative rho (up, down):  7.805E-05 0.000E+00

     total cpu time spent up to now is     1226.3 secs

     total energy              =    -496.73152000 Ry
     estimated scf accuracy    <       0.00006238 Ry

     iteration #  3     ecut=    70.00 Ry     beta= 0.70
     Davidson diagonalization with overlap
     ethr =  5.26E-08,  avg # of iterations =  2.2

     negative rho (up, down):  7.807E-05 0.000E+00

     total cpu time spent up to now is     1229.4 secs

     total energy              =    -496.73153194 Ry
     estimated scf accuracy    <       0.00000515 Ry

     iteration #  4     ecut=    70.00 Ry     beta= 0.70
     Davidson diagonalization with overlap
     ethr =  1.98E-08,  avg # of iterations =  1.9

     negative rho (up, down):  7.808E-05 0.000E+00

     total cpu time spent up to now is     1232.3 secs

     total energy              =    -496.73153221 Ry
     estimated scf accuracy    <       0.00000283 Ry

     iteration #  5     ecut=    70.00 Ry     beta= 0.70
     Davidson diagonalization with overlap
     ethr =  1.09E-08,  avg # of iterations =  1.6

     negative rho (up, down):  7.809E-05 0.000E+00

     total cpu time spent up to now is     1235.2 secs

     End of self-consistent calculation

          k = 0.0000 0.0000 0.0000 ( 10733 PWs)   bands (ev):

   -61.3445 -35.5170 -35.2466 -35.2448 -14.7393 -13.4553  -6.2468  -3.0218
    -3.0090  -2.4624  -1.9070  -1.8520  -0.6973   2.3602   2.4228   2.5821
     2.6074

          k = 0.0000 0.1283 0.0000 ( 10711 PWs)   bands (ev):

   -61.3391 -35.5066 -35.2987 -35.2571 -14.5465 -13.3724  -6.0295  -3.4236
    -3.0725  -2.8180  -2.1625  -1.6044  -0.7696   2.0912   2.1976   2.3954
     2.6879

          k = 0.0000 0.2566 0.0000 ( 10736 PWs)   bands (ev):

   -61.3253 -35.4802 -35.4298 -35.2871 -14.0202 -13.1473  -5.6070  -4.1800
    -3.9576  -2.7606  -2.2982  -1.7997  -1.1828   1.6158   2.0127   2.3590
     3.2650

          k = 0.0000 0.3849 0.0000 ( 10762 PWs)   bands (ev):

   -61.3097 -35.5758 -35.4501 -35.3210 -13.3266 -12.8578  -5.8309  -4.8173
    -4.4312  -3.2920  -2.2503  -1.7160  -1.5544   1.8190   1.8330   2.9763
     3.6827

          k = 0.0000 0.5132 0.0000 ( 10772 PWs)   bands (ev):

   -61.2994 -35.6694 -35.4303 -35.3430 -12.7847 -12.6428  -6.3459  -5.3838
    -4.6036  -3.5874  -2.4967  -1.3800  -1.2645   1.9031   2.2971   3.3759
     3.8596

          k = 0.1111 0.0642 0.0000 ( 10711 PWs)   bands (ev):

   -61.3391 -35.5066 -35.2972 -35.2585 -14.5470 -13.3715  -6.0304  -3.4323
    -3.0538  -2.8093  -2.1969  -1.5921  -0.7657   2.1049   2.1643   2.3788
     2.7252

          k = 0.1111 0.1925 0.0000 ( 10724 PWs)   bands (ev):

   -61.3295 -35.4883 -35.3847 -35.2837 -14.1872 -13.2160  -5.6871  -3.9910
    -3.5943  -2.9115  -2.4956  -1.4479  -1.0081   1.6376   2.0572   2.0912
     3.2295

          k = 0.1111 0.3208 0.0000 ( 10750 PWs)   bands (ev):

   -61.3148 -35.5127 -35.4600 -35.3261 -13.5710 -12.9522  -5.5497  -4.3900
    -4.3454  -3.5791  -2.2987  -1.7261  -1.3385   1.4309   2.0421   2.3998
     3.7335

          k = 0.1111 0.4491 0.0000 ( 10759 PWs)   bands (ev):

   -61.3018 -35.6228 -35.4350 -35.3637 -12.9309 -12.6858  -5.9972  -5.2429
    -4.4120  -3.7140  -2.3228  -2.2418  -1.1255   1.7450   2.2630   3.0002
     3.8570

          k = 0.1111 0.5774 0.0000 ( 10772 PWs)   bands (ev):

   -61.2967 -35.6660 -35.4251 -35.3784 -12.6386 -12.5695  -6.2458  -5.5819
    -4.5758  -3.6961  -2.4943  -2.2239  -0.8799   1.9089   2.5216   3.3435
     3.7332

          k = 0.1111-0.4491 0.0000 ( 10759 PWs)   bands (ev):

   -61.3018 -35.6235 -35.4350 -35.3632 -12.9297 -12.6883  -5.9958  -5.2335
    -4.4142  -3.7268  -2.3122  -2.2334  -1.1349   1.7502   2.2510   2.9682
     3.8987

          k = 0.1111-0.3208 0.0000 ( 10750 PWs)   bands (ev):

   -61.3148 -35.5140 -35.4599 -35.3251 -13.5693 -12.9554  -5.5487  -4.3823
    -4.3392  -3.5865  -2.2944  -1.7188  -1.3561   1.4425   2.0302   2.3906
     3.7478

          k = 0.1111-0.1925 0.0000 ( 10724 PWs)   bands (ev):

   -61.3295 -35.4882 -35.3864 -35.2822 -14.1858 -13.2184  -5.6854  -3.9808
    -3.6150  -2.8840  -2.5030  -1.4475  -1.0214   1.6433   2.0745   2.0906
     3.2095

          k = 0.1111-0.0642 0.0000 ( 10711 PWs)   bands (ev):

   -61.3391 -35.5066 -35.2987 -35.2571 -14.5465 -13.3724  -6.0295  -3.4236
    -3.0725  -2.8180  -2.1625  -1.6044  -0.7696   2.0912   2.1976   2.3954
     2.6879

          k = 0.2222 0.1283 0.0000 ( 10736 PWs)   bands (ev):

   -61.3254 -35.4804 -35.4281 -35.2884 -14.0223 -13.1439  -5.6105  -4.1870
    -3.9418  -2.7861  -2.2921  -1.8017  -1.1675   1.6171   2.0028   2.3396
     3.2894

          k = 0.2222 0.2566 0.0000 ( 10750 PWs)   bands (ev):

   -61.3148 -35.5117 -35.4601 -35.3268 -13.5728 -12.9495  -5.5508  -4.3811
    -4.3504  -3.5954  -2.2902  -1.7243  -1.3354   1.4310   2.0375   2.3907
     3.7415

          k = 0.2222 0.3849 0.0000 ( 10752 PWs)   bands (ev):

   -61.3028 -35.5824 -35.4370 -35.3943 -12.9932 -12.6958  -5.7052  -5.1500
    -4.1500  -3.9258  -3.0579  -1.9722  -1.1651   1.6087   2.3190   2.5320
     4.0787

          k = 0.2222 0.5132 0.0000 ( 10803 PWs)   bands (ev):

   -61.2949 -35.6169 -35.4497 -35.4218 -12.5600 -12.5048  -5.7889  -5.7546
    -4.3497  -3.7098  -3.4749  -2.4852  -0.7843   1.6961   2.6643   2.7610
     4.2795

          k = 0.2222 0.6415 0.0000 ( 10803 PWs)   bands (ev):

   -61.2949 -35.6179 -35.4489 -35.4217 -12.5586 -12.5076  -5.7820  -5.7534
    -4.3558  -3.7160  -3.4673  -2.4826  -0.7841   1.6941   2.6544   2.7535
     4.2986

          k = 0.2222-0.3849 0.0000 ( 10752 PWs)   bands (ev):

   -61.3027 -35.5846 -35.4368 -35.3926 -12.9898 -12.7020  -5.7040  -5.1333
    -4.1457  -3.9372  -3.0572  -1.9682  -1.1710   1.6090   2.3080   2.5154
     4.1124

          k = 0.2222-0.2566 0.0000 ( 10750 PWs)   bands (ev):

   -61.3148 -35.5140 -35.4599 -35.3251 -13.5693 -12.9554  -5.5487  -4.3823
    -4.3392  -3.5865  -2.2944  -1.7188  -1.3561   1.4425   2.0302   2.3906
     3.7478

          k = 0.2222-0.1283 0.0000 ( 10736 PWs)   bands (ev):

   -61.3253 -35.4802 -35.4298 -35.2871 -14.0202 -13.1473  -5.6070  -4.1800
    -3.9576  -2.7606  -2.2982  -1.7997  -1.1828   1.6158   2.0127   2.3590
     3.2650

          k = 0.2222-0.0000 0.0000 ( 10724 PWs)   bands (ev):

   -61.3295 -35.4883 -35.3847 -35.2837 -14.1872 -13.2160  -5.6871  -3.9910
    -3.5943  -2.9115  -2.4956  -1.4479  -1.0081   1.6376   2.0572   2.0912
     3.2295

          k = 0.3333 0.1925 0.0000 ( 10762 PWs)   bands (ev):

   -61.3097 -35.5739 -35.4503 -35.3223 -13.3313 -12.8504  -5.8312  -4.8168
    -4.4415  -3.3118  -2.2438  -1.7135  -1.5347   1.8221   1.8230   2.9544
     3.6968

          k = 0.3333 0.3208 0.0000 ( 10759 PWs)   bands (ev):

   -61.3018 -35.6212 -35.4352 -35.3648 -12.9355 -12.6789  -5.9936  -5.2467
    -4.4238  -3.7307  -2.3108  -2.2282  -1.1237   1.7488   2.2587   2.9798
     3.8637

          k = 0.3333 0.4491 0.0000 ( 10803 PWs)   bands (ev):

   -61.2949 -35.6156 -35.4507 -35.4219 -12.5626 -12.5007  -5.7941  -5.7507
    -4.3578  -3.7182  -3.4718  -2.4741  -0.7823   1.6982   2.6625   2.7637
     4.2679

          k = 0.3333 0.5774 0.0000 ( 10818 PWs)   bands (ev):

   -61.2922 -35.5730 -35.5255 -35.4166 -12.4244 -12.4073  -6.0493  -5.2188
    -4.6718  -4.0599  -3.4877  -2.7787  -0.4941   1.3821   2.4579   3.1356
     4.5864

          k = 0.3333 0.7057 0.0000 ( 10803 PWs)   bands (ev):

   -61.2949 -35.6179 -35.4489 -35.4217 -12.5586 -12.5076  -5.7820  -5.7534
    -4.3558  -3.7160  -3.4673  -2.4827  -0.7841   1.6941   2.6544   2.7535
     4.2986

          k = 0.3333-0.3208 0.0000 ( 10759 PWs)   bands (ev):

   -61.3018 -35.6235 -35.4350 -35.3632 -12.9297 -12.6883  -5.9958  -5.2335
    -4.4142  -3.7268  -2.3122  -2.2334  -1.1349   1.7502   2.2510   2.9682
     3.8987

          k = 0.3333-0.1925 0.0000 ( 10762 PWs)   bands (ev):

   -61.3097 -35.5758 -35.4501 -35.3210 -13.3266 -12.8578  -5.8309  -4.8173
    -4.4312  -3.2920  -2.2503  -1.7160  -1.5544   1.8190   1.8330   2.9763
     3.6827

          k = 0.3333-0.0642 0.0000 ( 10750 PWs)   bands (ev):

   -61.3148 -35.5127 -35.4600 -35.3261 -13.5710 -12.9522  -5.5497  -4.3900
    -4.3454  -3.5791  -2.2987  -1.7261  -1.3385   1.4309   2.0421   2.3998
     3.7335

          k = 0.3333 0.0642 0.0000 ( 10750 PWs)   bands (ev):

   -61.3148 -35.5117 -35.4601 -35.3268 -13.5728 -12.9495  -5.5508  -4.3811
    -4.3504  -3.5954  -2.2902  -1.7243  -1.3354   1.4310   2.0375   2.3907
     3.7415

          k = 0.4444 0.2566 0.0000 ( 10772 PWs)   bands (ev):

   -61.2994 -35.6673 -35.4306 -35.3442 -12.7920 -12.6319  -6.3402  -5.3956
    -4.6153  -3.6046  -2.4799  -1.3811  -1.2503   1.9092   2.2952   3.3469
     3.8678

          k = 0.4444 0.3849 0.0000 ( 10772 PWs)   bands (ev):

   -61.2967 -35.6639 -35.4254 -35.3798 -12.6453 -12.5595  -6.2394  -5.5950
    -4.5865  -3.7105  -2.4760  -2.2226  -0.8734   1.9134   2.5273   3.3511
     3.6997

          k = 0.4444 0.5132 0.0000 ( 10803 PWs)   bands (ev):

   -61.2949 -35.6156 -35.4507 -35.4219 -12.5626 -12.5007  -5.7941  -5.7507
    -4.3578  -3.7182  -3.4718  -2.4741  -0.7823   1.6982   2.6625   2.7637
     4.2679

          k = 0.4444 0.6415 0.0000 ( 10803 PWs)   bands (ev):

   -61.2949 -35.6169 -35.4497 -35.4218 -12.5600 -12.5048  -5.7889  -5.7546
    -4.3497  -3.7098  -3.4749  -2.4852  -0.7843   1.6961   2.6643   2.7610
     4.2795

          k = 0.4444 0.7698 0.0000 ( 10772 PWs)   bands (ev):

   -61.2967 -35.6660 -35.4251 -35.3784 -12.6386 -12.5695  -6.2458  -5.5819
    -4.5758  -3.6961  -2.4943  -2.2239  -0.8799   1.9089   2.5216   3.3435
     3.7332

          k = 0.4444-0.2566 0.0000 ( 10772 PWs)   bands (ev):

   -61.2994 -35.6694 -35.4303 -35.3430 -12.7847 -12.6428  -6.3459  -5.3838
    -4.6036  -3.5874  -2.4967  -1.3800  -1.2645   1.9031   2.2971   3.3759
     3.8596

          k = 0.4444-0.1283 0.0000 ( 10759 PWs)   bands (ev):

   -61.3018 -35.6228 -35.4350 -35.3637 -12.9309 -12.6858  -5.9972  -5.2429
    -4.4120  -3.7140  -2.3228  -2.2418  -1.1255   1.7450   2.2630   3.0002
     3.8570

          k = 0.4444 0.0000 0.0000 ( 10752 PWs)   bands (ev):

   -61.3028 -35.5824 -35.4370 -35.3943 -12.9932 -12.6958  -5.7052  -5.1500
    -4.1500  -3.9258  -3.0579  -1.9722  -1.1651   1.6087   2.3190   2.5320
     4.0787

          k = 0.4444 0.1283 0.0000 ( 10759 PWs)   bands (ev):

   -61.3018 -35.6212 -35.4352 -35.3648 -12.9355 -12.6789  -5.9936  -5.2467
    -4.4238  -3.7307  -2.3108  -2.2282  -1.1237   1.7488   2.2587   2.9798
     3.8637

     the Fermi energy is     0.2793 ev

!    total energy              =    -496.73153247 Ry
     estimated scf accuracy    <       0.00000034 Ry
     smearing contrib. (-TS)   =      -0.00000000 Ry
     internal energy E=F+TS    =    -496.73153247 Ry

     convergence has been achieved in   5 iterations

     negative rho (up, down):  7.809E-05 0.000E+00

     Forces acting on atoms (cartesian axes, Ry/au):

     atom    1 type  1   force =     0.00438523    0.00253110    0.00268152
     atom    2 type  2   force =    -0.00217851   -0.00125688   -0.00107988
     atom    3 type  2   force =    -0.00220672   -0.00127421   -0.00160164
     The non-local contrib.  to forces
     atom    1 type  1   force =    -0.00130697   -0.00075437   -0.00076939
     atom    2 type  2   force =    -0.00164308   -0.00094799   -0.26384412
     atom    3 type  2   force =    -0.00165466   -0.00095542    0.26302638
     The ionic contribution  to forces
     atom    1 type  1   force =     0.02693823    0.01554802   -0.00607315
     atom    2 type  2   force =    -0.01338768   -0.00772348   36.67922697
     atom    3 type  2   force =    -0.01355055   -0.00782454  -36.67315382
     The local contribution  to forces
     atom    1 type  1   force =    -0.02108967   -0.01217223    0.01324965
     atom    2 type  2   force =     0.01286443    0.00742161  -36.41590207
     atom    3 type  2   force =     0.01301229    0.00751370   36.40988550
     The core correction contribution to forces
     atom    1 type  1   force =     0.00009460    0.00005460    0.00006638
     atom    2 type  2   force =     0.00005993    0.00003458    0.00193609
     atom    3 type  2   force =     0.00006039    0.00003487   -0.00188195
     The Hubbard contrib.    to forces
     atom    1 type  1   force =     0.00000000    0.00000000    0.00000000
     atom    2 type  2   force =     0.00000000    0.00000000    0.00000000
     atom    3 type  2   force =     0.00000000    0.00000000    0.00000000
     The SCF correction term to forces
     atom    1 type  1   force =    -0.00023238   -0.00013420   -0.00365476
     atom    2 type  2   force =    -0.00001509   -0.00000869   -0.00059451
     atom    3 type  2   force =    -0.00001700   -0.00000982   -0.00109440

     DFT-D3 dispersion contribution to forces:
     atom    1 type  1   force =     0.00002568    0.00001482    0.00000373
     atom    2 type  2   force =    -0.00001276   -0.00000736   -0.00176131
     atom    3 type  2   force =    -0.00001292   -0.00000746    0.00175758

     Total force =     0.007027     Total SCF correction =     0.003871
     SCF correction compared to forces is large: reduce conv_thr to get better values


     Computing stress (Cartesian axis) and pressure


     negative rho (up, down):  7.809E-05 0.000E+00
          total   stress  (Ry/bohr**3)                   (kbar)     P=        7.30
   0.00007335  -0.00000225   0.00000005           10.79       -0.33        0.01
  -0.00000225   0.00007595   0.00000003           -0.33       11.17        0.00
   0.00000005   0.00000003  -0.00000049            0.01        0.00       -0.07


     Entering Dynamics:    iteration =    23

     <vel(dt)|acc(dt)> =  -0.73776039

ATOMIC_POSITIONS (crystal)
Mo            0.0019480997        0.0009739456        0.5000279363
S             0.6656950797        0.3328483932        0.5832272647
S             0.6656901539        0.3328443279        0.4167447990



     Writing config-only to output data dir ./tmp/scf.save/
     NEW-OLD atomic charge density approx. for the potential

     negative rho (up, down):  7.754E-05 0.000E+00

     total cpu time spent up to now is     1243.4 secs

     Self-consistent Calculation

     iteration #  1     ecut=    70.00 Ry     beta= 0.70
     Davidson diagonalization with overlap
     ethr =  1.00E-06,  avg # of iterations =  4.8

     Threshold (ethr) on eigenvalues was too large:
     Diagonalizing with lowered threshold

     Davidson diagonalization with overlap
     ethr =  9.42E-08,  avg # of iterations =  2.2

     negative rho (up, down):  7.782E-05 0.000E+00

     total cpu time spent up to now is     1250.4 secs

     total energy              =    -496.73150234 Ry
     estimated scf accuracy    <       0.00002462 Ry

     iteration #  2     ecut=    70.00 Ry     beta= 0.70
     Davidson diagonalization with overlap
     ethr =  9.47E-08,  avg # of iterations =  3.0

     negative rho (up, down):  7.796E-05 0.000E+00

     total cpu time spent up to now is     1254.2 secs

     total energy              =    -496.73147913 Ry
     estimated scf accuracy    <       0.00024340 Ry

     iteration #  3     ecut=    70.00 Ry     beta= 0.70
     Davidson diagonalization with overlap
     ethr =  9.47E-08,  avg # of iterations =  2.9

     negative rho (up, down):  7.800E-05 0.000E+00

     total cpu time spent up to now is     1257.6 secs

     total energy              =    -496.73151259 Ry
     estimated scf accuracy    <       0.00001168 Ry

     iteration #  4     ecut=    70.00 Ry     beta= 0.70
     Davidson diagonalization with overlap
     ethr =  4.49E-08,  avg # of iterations =  2.0

     negative rho (up, down):  7.801E-05 0.000E+00

     total cpu time spent up to now is     1260.8 secs

     total energy              =    -496.73151294 Ry
     estimated scf accuracy    <       0.00001209 Ry

     iteration #  5     ecut=    70.00 Ry     beta= 0.70
     Davidson diagonalization with overlap
     ethr =  4.49E-08,  avg # of iterations =  1.1

     negative rho (up, down):  7.801E-05 0.000E+00

     total cpu time spent up to now is     1263.8 secs

     End of self-consistent calculation

          k = 0.0000 0.0000 0.0000 ( 10733 PWs)   bands (ev):

   -61.3448 -35.5165 -35.2461 -35.2438 -14.7321 -13.4545  -6.2403  -3.0115
    -2.9950  -2.4661  -1.9049  -1.8345  -0.7034   2.3513   2.4323   2.5730
     2.6064

          k = 0.0000 0.1283 0.0000 ( 10711 PWs)   bands (ev):

   -61.3394 -35.5062 -35.2968 -35.2574 -14.5398 -13.3707  -6.0234  -3.4189
    -3.0561  -2.7993  -2.1792  -1.5919  -0.7716   2.0969   2.1690   2.3791
     2.7169

          k = 0.0000 0.2566 0.0000 ( 10736 PWs)   bands (ev):

   -61.3256 -35.4800 -35.4276 -35.2873 -14.0150 -13.1426  -5.6012  -4.1772
    -3.9412  -2.7698  -2.2827  -1.8027  -1.1728   1.6109   2.0027   2.3414
     3.2806

          k = 0.0000 0.3849 0.0000 ( 10762 PWs)   bands (ev):

   -61.3100 -35.5732 -35.4500 -35.3212 -13.3233 -12.8486  -5.8219  -4.8129
    -4.4346  -3.2969  -2.2483  -1.7076  -1.5359   1.8121   1.8299   2.9547
     3.6879

          k = 0.0000 0.5132 0.0000 ( 10772 PWs)   bands (ev):

   -61.2997 -35.6666 -35.4303 -35.3431 -12.7831 -12.6298  -6.3351  -5.3899
    -4.6069  -3.5904  -2.4870  -1.3784  -1.2481   1.9097   2.2940   3.3472
     3.8601

          k = 0.1111 0.0642 0.0000 ( 10711 PWs)   bands (ev):

   -61.3394 -35.5062 -35.2986 -35.2557 -14.5391 -13.3717  -6.0222  -3.4075
    -3.0794  -2.8108  -2.1345  -1.6091  -0.7766   2.0796   2.2165   2.3997
     2.6650

          k = 0.1111 0.1925 0.0000 ( 10724 PWs)   bands (ev):

   -61.3298 -35.4878 -35.3851 -35.2818 -14.1793 -13.2160  -5.6781  -3.9736
    -3.6063  -2.8815  -2.4903  -1.4472  -1.0209   1.6363   2.0694   2.0875
     3.2111

          k = 0.1111 0.3208 0.0000 ( 10750 PWs)   bands (ev):

   -61.3151 -35.5119 -35.4597 -35.3250 -13.5643 -12.9495  -5.5399  -4.3714
    -4.3397  -3.5904  -2.2817  -1.7202  -1.3469   1.4347   2.0280   2.3832
     3.7443

          k = 0.1111 0.4491 0.0000 ( 10759 PWs)   bands (ev):

   -61.3021 -35.6209 -35.4349 -35.3633 -12.9265 -12.6782  -5.9857  -5.2334
    -4.4178  -3.7301  -2.3010  -2.2271  -1.1267   1.7490   2.2514   2.9552
     3.8871

          k = 0.1111 0.5774 0.0000 ( 10772 PWs)   bands (ev):

   -61.2970 -35.6631 -35.4251 -35.3786 -12.6364 -12.5570  -6.2351  -5.5871
    -4.5779  -3.7002  -2.4832  -2.2191  -0.8712   1.9137   2.5253   3.3401
     3.7047

          k = 0.1111-0.4491 0.0000 ( 10759 PWs)   bands (ev):

   -61.3022 -35.6200 -35.4350 -35.3639 -12.9281 -12.6749  -5.9875  -5.2455
    -4.4150  -3.7134  -2.3146  -2.2381  -1.1147   1.7423   2.2669   2.9970
     3.8329

          k = 0.1111-0.3208 0.0000 ( 10750 PWs)   bands (ev):

   -61.3151 -35.5102 -35.4598 -35.3263 -13.5664 -12.9454  -5.5412  -4.3815
    -4.3477  -3.5805  -2.2874  -1.7298  -1.3243   1.4199   2.0433   2.3950
     3.7257

          k = 0.1111-0.1925 0.0000 ( 10724 PWs)   bands (ev):

   -61.3298 -35.4880 -35.3829 -35.2837 -14.1810 -13.2129  -5.6802  -3.9868
    -3.5791  -2.9173  -2.4808  -1.4477  -1.0036   1.6289   2.0467   2.0883
     3.2369

          k = 0.1111-0.0642 0.0000 ( 10711 PWs)   bands (ev):

   -61.3394 -35.5062 -35.2968 -35.2574 -14.5398 -13.3707  -6.0234  -3.4189
    -3.0561  -2.7993  -2.1792  -1.5919  -0.7716   2.0969   2.1690   2.3791
     2.7169

          k = 0.2222 0.1283 0.0000 ( 10736 PWs)   bands (ev):

   -61.3256 -35.4798 -35.4297 -35.2857 -14.0123 -13.1470  -5.5968  -4.1679
    -3.9611  -2.7376  -2.2903  -1.8004  -1.1927   1.6096   2.0149   2.3682
     3.2480

          k = 0.2222 0.2566 0.0000 ( 10750 PWs)   bands (ev):

   -61.3151 -35.5131 -35.4596 -35.3242 -13.5621 -12.9530  -5.5385  -4.3829
    -4.3329  -3.5697  -2.2925  -1.7226  -1.3512   1.4346   2.0338   2.3955
     3.7339

          k = 0.2222 0.3849 0.0000 ( 10752 PWs)   bands (ev):

   -61.3031 -35.5829 -35.4366 -35.3921 -12.9838 -12.6963  -5.6957  -5.1294
    -4.1426  -3.9317  -3.0523  -1.9710  -1.1652   1.6037   2.3127   2.5151
     4.0971

          k = 0.2222 0.5132 0.0000 ( 10803 PWs)   bands (ev):

   -61.2952 -35.6154 -35.4489 -35.4216 -12.5536 -12.4989  -5.7794  -5.7449
    -4.3551  -3.7186  -3.4625  -2.4772  -0.7789   1.6980   2.6484   2.7551
     4.2795

          k = 0.2222 0.6415 0.0000 ( 10803 PWs)   bands (ev):

   -61.2953 -35.6142 -35.4499 -35.4217 -12.5555 -12.4954  -5.7884  -5.7465
    -4.3473  -3.7105  -3.4721  -2.4807  -0.7791   1.7005   2.6613   2.7648
     4.2548

          k = 0.2222-0.3849 0.0000 ( 10752 PWs)   bands (ev):

   -61.3031 -35.5801 -35.4368 -35.3942 -12.9880 -12.6884  -5.6972  -5.1508
    -4.1481  -3.9167  -3.0532  -1.9765  -1.1576   1.6035   2.3268   2.5368
     4.0532

          k = 0.2222-0.2566 0.0000 ( 10750 PWs)   bands (ev):

   -61.3151 -35.5102 -35.4598 -35.3263 -13.5664 -12.9454  -5.5412  -4.3815
    -4.3477  -3.5805  -2.2874  -1.7298  -1.3243   1.4199   2.0433   2.3950
     3.7257

          k = 0.2222-0.1283 0.0000 ( 10736 PWs)   bands (ev):

   -61.3256 -35.4800 -35.4276 -35.2873 -14.0150 -13.1426  -5.6012  -4.1772
    -3.9412  -2.7698  -2.2827  -1.8027  -1.1728   1.6109   2.0027   2.3414
     3.2806

          k = 0.2222-0.0000 0.0000 ( 10724 PWs)   bands (ev):

   -61.3298 -35.4878 -35.3851 -35.2818 -14.1793 -13.2160  -5.6781  -3.9736
    -3.6063  -2.8815  -2.4903  -1.4472  -1.0209   1.6363   2.0694   2.0875
     3.2111

          k = 0.3333 0.1925 0.0000 ( 10762 PWs)   bands (ev):

   -61.3099 -35.5757 -35.4497 -35.3195 -13.3174 -12.8581  -5.8215  -4.8133
    -4.4212  -3.2719  -2.2568  -1.7051  -1.5670   1.8243   1.8264   2.9851
     3.6685

          k = 0.3333 0.3208 0.0000 ( 10759 PWs)   bands (ev):

   -61.3021 -35.6229 -35.4346 -35.3619 -12.9207 -12.6870  -5.9904  -5.2285
    -4.4024  -3.7089  -2.3161  -2.2447  -1.1296   1.7441   2.2570   2.9820
     3.8787

          k = 0.3333 0.4491 0.0000 ( 10803 PWs)   bands (ev):

   -61.2952 -35.6171 -35.4476 -35.4215 -12.5503 -12.5042  -5.7727  -5.7501
    -4.3444  -3.7080  -3.4665  -2.4914  -0.7815   1.6953   2.6511   2.7516
     4.2943

          k = 0.3333 0.5774 0.0000 ( 10818 PWs)   bands (ev):

   -61.2925 -35.5717 -35.5246 -35.4164 -12.4184 -12.4008  -6.0405  -5.2142
    -4.6662  -4.0546  -3.4869  -2.7811  -0.4913   1.3878   2.4503   3.1296
     4.5805

          k = 0.3333 0.7057 0.0000 ( 10803 PWs)   bands (ev):

   -61.2953 -35.6142 -35.4499 -35.4217 -12.5555 -12.4954  -5.7884  -5.7465
    -4.3473  -3.7105  -3.4721  -2.4807  -0.7791   1.7005   2.6613   2.7648
     4.2548

          k = 0.3333-0.3208 0.0000 ( 10759 PWs)   bands (ev):

   -61.3022 -35.6200 -35.4350 -35.3639 -12.9281 -12.6749  -5.9875  -5.2455
    -4.4150  -3.7134  -2.3146  -2.2381  -1.1147   1.7423   2.2669   2.9970
     3.8329

          k = 0.3333-0.1925 0.0000 ( 10762 PWs)   bands (ev):

   -61.3100 -35.5732 -35.4500 -35.3212 -13.3233 -12.8486  -5.8219  -4.8129
    -4.4346  -3.2969  -2.2483  -1.7076  -1.5358   1.8121   1.8299   2.9547
     3.6879

          k = 0.3333-0.0642 0.0000 ( 10750 PWs)   bands (ev):

   -61.3151 -35.5119 -35.4597 -35.3250 -13.5643 -12.9495  -5.5399  -4.3714
    -4.3397  -3.5904  -2.2817  -1.7202  -1.3469   1.4347   2.0280   2.3832
     3.7443

          k = 0.3333 0.0642 0.0000 ( 10750 PWs)   bands (ev):

   -61.3151 -35.5131 -35.4596 -35.3242 -13.5621 -12.9530  -5.5385  -4.3829
    -4.3329  -3.5697  -2.2925  -1.7226  -1.3512   1.4346   2.0339   2.3955
     3.7339

          k = 0.4444 0.2566 0.0000 ( 10772 PWs)   bands (ev):

   -61.2997 -35.6692 -35.4299 -35.3415 -12.7737 -12.6437  -6.3424  -5.3747
    -4.5917  -3.5684  -2.5090  -1.3667  -1.2768   1.9020   2.2963   3.3892
     3.8457

          k = 0.4444 0.3849 0.0000 ( 10772 PWs)   bands (ev):

   -61.2970 -35.6658 -35.4247 -35.3768 -12.6279 -12.5698  -6.2434  -5.5703
    -4.5640  -3.6819  -2.5069  -2.2204  -0.8802   1.9079   2.5181   3.3349
     3.7439

          k = 0.4444 0.5132 0.0000 ( 10803 PWs)   bands (ev):

   -61.2952 -35.6171 -35.4476 -35.4215 -12.5503 -12.5042  -5.7727  -5.7501
    -4.3444  -3.7080  -3.4665  -2.4914  -0.7815   1.6953   2.6511   2.7516
     4.2943

          k = 0.4444 0.6415 0.0000 ( 10803 PWs)   bands (ev):

   -61.2952 -35.6154 -35.4489 -35.4216 -12.5536 -12.4989  -5.7794  -5.7449
    -4.3551  -3.7186  -3.4625  -2.4772  -0.7789   1.6980   2.6484   2.7551
     4.2795

          k = 0.4444 0.7698 0.0000 ( 10772 PWs)   bands (ev):

   -61.2970 -35.6631 -35.4251 -35.3786 -12.6364 -12.5570  -6.2351  -5.5871
    -4.5779  -3.7002  -2.4832  -2.2191  -0.8712   1.9137   2.5253   3.3401
     3.7047

          k = 0.4444-0.2566 0.0000 ( 10772 PWs)   bands (ev):

   -61.2997 -35.6666 -35.4303 -35.3431 -12.7831 -12.6298  -6.3351  -5.3899
    -4.6069  -3.5904  -2.4870  -1.3784  -1.2481   1.9097   2.2940   3.3472
     3.8601

          k = 0.4444-0.1283 0.0000 ( 10759 PWs)   bands (ev):

   -61.3021 -35.6209 -35.4349 -35.3633 -12.9265 -12.6782  -5.9857  -5.2334
    -4.4178  -3.7301  -2.3010  -2.2271  -1.1267   1.7490   2.2514   2.9552
     3.8871

          k = 0.4444 0.0000 0.0000 ( 10752 PWs)   bands (ev):

   -61.3031 -35.5829 -35.4366 -35.3921 -12.9838 -12.6963  -5.6957  -5.1294
    -4.1426  -3.9317  -3.0523  -1.9710  -1.1652   1.6037   2.3127   2.5151
     4.0971

          k = 0.4444 0.1283 0.0000 ( 10759 PWs)   bands (ev):

   -61.3021 -35.6229 -35.4346 -35.3619 -12.9207 -12.6870  -5.9904  -5.2285
    -4.4024  -3.7089  -2.3161  -2.2447  -1.1296   1.7441   2.2570   2.9820
     3.8787

     the Fermi energy is     0.2738 ev

!    total energy              =    -496.73151457 Ry
     estimated scf accuracy    <       0.00000008 Ry
     smearing contrib. (-TS)   =      -0.00000000 Ry
     internal energy E=F+TS    =    -496.73151457 Ry

     convergence has been achieved in   5 iterations

     negative rho (up, down):  7.801E-05 0.000E+00

     Forces acting on atoms (cartesian axes, Ry/au):

     atom    1 type  1   force =    -0.00565001   -0.00326156   -0.00102751
     atom    2 type  2   force =     0.00282770    0.00163128   -0.00048179
     atom    3 type  2   force =     0.00282231    0.00163028    0.00150930
     The non-local contrib.  to forces
     atom    1 type  1   force =     0.00166239    0.00095963    0.00031994
     atom    2 type  2   force =     0.00215776    0.00124485   -0.26399326
     atom    3 type  2   force =     0.00214174    0.00123710    0.26437990
     The ionic contribution  to forces
     atom    1 type  1   force =    -0.03529507   -0.02037476    0.00228168
     atom    2 type  2   force =     0.01766454    0.01019034   36.67133414
     atom    3 type  2   force =     0.01763053    0.01018442  -36.67361582
     The local contribution  to forces
     atom    1 type  1   force =     0.02781987    0.01605959   -0.00490856
     atom    2 type  2   force =    -0.01701124   -0.00981352  -36.40854541
     atom    3 type  2   force =    -0.01696542   -0.00980015   36.41058042
     The core correction contribution to forces
     atom    1 type  1   force =    -0.00012117   -0.00006995   -0.00002638
     atom    2 type  2   force =    -0.00007916   -0.00004567    0.00193449
     atom    3 type  2   force =    -0.00007872   -0.00004547   -0.00195830
     The Hubbard contrib.    to forces
     atom    1 type  1   force =     0.00000000    0.00000000    0.00000000
     atom    2 type  2   force =     0.00000000    0.00000000    0.00000000
     atom    3 type  2   force =     0.00000000    0.00000000    0.00000000
     The SCF correction term to forces
     atom    1 type  1   force =     0.00026427    0.00015255    0.00126159
     atom    2 type  2   force =     0.00002723    0.00001571    0.00049945
     atom    3 type  2   force =     0.00002567    0.00001482    0.00031920

     DFT-D3 dispersion contribution to forces:
     atom    1 type  1   force =    -0.00003255   -0.00001879   -0.00000141
     atom    2 type  2   force =     0.00001630    0.00000940   -0.00175685
     atom    3 type  2   force =     0.00001625    0.00000939    0.00175826

     Total force =     0.008210     Total SCF correction =     0.001428
     SCF correction compared to forces is large: reduce conv_thr to get better values


     Computing stress (Cartesian axis) and pressure


     negative rho (up, down):  7.801E-05 0.000E+00
          total   stress  (Ry/bohr**3)                   (kbar)     P=        6.63
   0.00007348   0.00000284   0.00000001           10.81        0.42        0.00
   0.00000284   0.00007020  -0.00000000            0.42       10.33       -0.00
   0.00000001  -0.00000000  -0.00000850            0.00       -0.00       -1.25


     Entering Dynamics:    iteration =    24

     <vel(dt)|acc(dt)> =  -0.64793661

ATOMIC_POSITIONS (crystal)
Mo           -0.0023004729       -0.0011499850        0.4999299092
S             0.6678185078        0.3339083218        0.5829315648
S             0.6678152985        0.3339083298        0.4171385260



     Writing config-only to output data dir ./tmp/scf.save/
     NEW-OLD atomic charge density approx. for the potential

     negative rho (up, down):  7.766E-05 0.000E+00

     total cpu time spent up to now is     1277.3 secs

     Self-consistent Calculation

     iteration #  1     ecut=    70.00 Ry     beta= 0.70
     Davidson diagonalization with overlap
     ethr =  1.00E-06,  avg # of iterations =  5.9

     negative rho (up, down):  7.806E-05 0.000E+00

     total cpu time spent up to now is     1287.6 secs

     total energy              =    -496.73144075 Ry
     estimated scf accuracy    <       0.00004015 Ry

     iteration #  2     ecut=    70.00 Ry     beta= 0.70
     Davidson diagonalization with overlap
     ethr =  1.54E-07,  avg # of iterations =  2.5

     negative rho (up, down):  7.821E-05 0.000E+00

     total cpu time spent up to now is     1295.5 secs

     total energy              =    -496.73142603 Ry
     estimated scf accuracy    <       0.00014341 Ry

     iteration #  3     ecut=    70.00 Ry     beta= 0.70
     Davidson diagonalization with overlap
     ethr =  1.54E-07,  avg # of iterations =  2.2

     negative rho (up, down):  7.828E-05 0.000E+00

     total cpu time spent up to now is     1302.8 secs

     total energy              =    -496.73145627 Ry
     estimated scf accuracy    <       0.00002382 Ry

     iteration #  4     ecut=    70.00 Ry     beta= 0.70
     Davidson diagonalization with overlap
     ethr =  9.16E-08,  avg # of iterations =  1.0

     negative rho (up, down):  7.833E-05 0.000E+00

     total cpu time spent up to now is     1309.6 secs

     End of self-consistent calculation

          k = 0.0000 0.0000 0.0000 ( 10733 PWs)   bands (ev):

   -61.3442 -35.5184 -35.2488 -35.2461 -14.7539 -13.4545  -6.2605  -3.0523
    -3.0325  -2.4516  -1.9433  -1.8585  -0.6823   2.3448   2.4412   2.5882
     2.6270

          k = 0.0000 0.1283 0.0000 ( 10711 PWs)   bands (ev):

   -61.3388 -35.5080 -35.3009 -35.2587 -14.5607 -13.3727  -6.0438  -3.4474
    -3.0811  -2.8460  -2.1780  -1.6094  -0.7579   2.1022   2.2044   2.4103
     2.6867

          k = 0.0000 0.2566 0.0000 ( 10736 PWs)   bands (ev):

   -61.3250 -35.4815 -35.4325 -35.2888 -14.0336 -13.1505  -5.6247  -4.1961
    -3.9702  -2.7776  -2.3239  -1.7929  -1.1804   1.6305   2.0229   2.3678
     3.2711

          k = 0.0000 0.3849 0.0000 ( 10762 PWs)   bands (ev):

   -61.3093 -35.5790 -35.4511 -35.3227 -13.3395 -12.8651  -5.8507  -4.8254
    -4.4386  -3.3104  -2.2422  -1.7382  -1.5571   1.8210   1.8463   2.9899
     3.6967

          k = 0.0000 0.5132 0.0000 ( 10772 PWs)   bands (ev):

   -61.2990 -35.6729 -35.4313 -35.3448 -12.7977 -12.6535  -6.3601  -5.3865
    -4.6134  -3.6064  -2.4902  -1.3979  -1.2643   1.8978   2.3025   3.3913
     3.8790

          k = 0.1111 0.0642 0.0000 ( 10711 PWs)   bands (ev):

   -61.3388 -35.5080 -35.2986 -35.2607 -14.5615 -13.3714  -6.0452  -3.4607
    -3.0517  -2.8326  -2.2310  -1.5912  -0.7519   2.1227   2.1550   2.3846
     2.7431

          k = 0.1111 0.1925 0.0000 ( 10724 PWs)   bands (ev):

   -61.3292 -35.4896 -35.3866 -35.2858 -14.2014 -13.2173  -5.7040  -4.0137
    -3.5991  -2.9354  -2.5189  -1.4463  -0.9988   1.6515   2.0570   2.1008
     3.2430

          k = 0.1111 0.3208 0.0000 ( 10750 PWs)   bands (ev):

   -61.3145 -35.5153 -35.4612 -35.3281 -13.5846 -12.9568  -5.5714  -4.4049
    -4.3562  -3.5888  -2.3169  -1.7225  -1.3407   1.4424   2.0502   2.4091
     3.7463

          k = 0.1111 0.4491 0.0000 ( 10759 PWs)   bands (ev):

   -61.3015 -35.6259 -35.4360 -35.3657 -12.9443 -12.6945  -6.0143  -5.2546
    -4.4195  -3.7220  -2.3367  -2.2386  -1.1323   1.7513   2.2647   3.0211
     3.8666

          k = 0.1111 0.5774 0.0000 ( 10772 PWs)   bands (ev):

   -61.2963 -35.6694 -35.4260 -35.3803 -12.6519 -12.5807  -6.2586  -5.5890
    -4.5868  -3.7078  -2.4890  -2.2320  -0.8875   1.9054   2.5228   3.3578
     3.7544

          k = 0.1111-0.4491 0.0000 ( 10759 PWs)   bands (ev):

   -61.3014 -35.6270 -35.4359 -35.3649 -12.9424 -12.6984  -6.0121  -5.2400
    -4.4229  -3.7418  -2.3203  -2.2257  -1.1469   1.7593   2.2463   2.9722
     3.9306

          k = 0.1111-0.3208 0.0000 ( 10750 PWs)   bands (ev):

   -61.3144 -35.5172 -35.4610 -35.3266 -13.5820 -12.9618  -5.5698  -4.3928
    -4.3465  -3.6003  -2.3103  -1.7113  -1.3677   1.4603   2.0317   2.3952
     3.7682

          k = 0.1111-0.1925 0.0000 ( 10724 PWs)   bands (ev):

   -61.3292 -35.4894 -35.3892 -35.2836 -14.1993 -13.2210  -5.7014  -3.9979
    -3.6309  -2.8931  -2.5304  -1.4455  -1.0193   1.6604   2.0835   2.0998
     3.2121

          k = 0.1111-0.0642 0.0000 ( 10711 PWs)   bands (ev):

   -61.3388 -35.5080 -35.3009 -35.2587 -14.5607 -13.3727  -6.0438  -3.4474
    -3.0811  -2.8461  -2.1780  -1.6094  -0.7579   2.1022   2.2044   2.4103
     2.6867

          k = 0.2222 0.1283 0.0000 ( 10736 PWs)   bands (ev):

   -61.3251 -35.4817 -35.4299 -35.2908 -14.0369 -13.1452  -5.6301  -4.2070
    -3.9457  -2.8170  -2.3145  -1.7961  -1.1568   1.6327   2.0075   2.3383
     3.3084

          k = 0.2222 0.2566 0.0000 ( 10750 PWs)   bands (ev):

   -61.3145 -35.5138 -35.4613 -35.3292 -13.5873 -12.9526  -5.5731  -4.3912
    -4.3640  -3.6139  -2.3039  -1.7198  -1.3357   1.4424   2.0431   2.3953
     3.7587

          k = 0.2222 0.3849 0.0000 ( 10752 PWs)   bands (ev):

   -61.3024 -35.5849 -35.4381 -35.3967 -13.0076 -12.7021  -5.7240  -5.1700
    -4.1590  -3.9291  -3.0684  -1.9662  -1.1729   1.6222   2.3168   2.5455
     4.0918

          k = 0.2222 0.5132 0.0000 ( 10803 PWs)   bands (ev):

   -61.2945 -35.6199 -35.4519 -35.4228 -12.5741 -12.5145  -5.8062  -5.7679
    -4.3589  -3.7105  -3.4851  -2.4800  -0.7920   1.6927   2.6834   2.7678
     4.2936

          k = 0.2222 0.6415 0.0000 ( 10803 PWs)   bands (ev):

   -61.2945 -35.6215 -35.4507 -35.4227 -12.5719 -12.5188  -5.7954  -5.7659
    -4.3683  -3.7199  -3.4735  -2.4761  -0.7917   1.6895   2.6681   2.7563
     4.3231

          k = 0.2222-0.3849 0.0000 ( 10752 PWs)   bands (ev):

   -61.3024 -35.5882 -35.4378 -35.3942 -13.0024 -12.7117  -5.7221  -5.1443
    -4.1522  -3.9466  -3.0675  -1.9601  -1.1821   1.6227   2.2998   2.5200
     4.1437

          k = 0.2222-0.2566 0.0000 ( 10750 PWs)   bands (ev):

   -61.3144 -35.5172 -35.4610 -35.3266 -13.5820 -12.9618  -5.5698  -4.3928
    -4.3465  -3.6003  -2.3103  -1.7113  -1.3677   1.4603   2.0317   2.3952
     3.7682

          k = 0.2222-0.1283 0.0000 ( 10736 PWs)   bands (ev):

   -61.3250 -35.4815 -35.4325 -35.2888 -14.0336 -13.1505  -5.6247  -4.1961
    -3.9702  -2.7776  -2.3239  -1.7929  -1.1804   1.6305   2.0229   2.3678
     3.2711

          k = 0.2222-0.0000 0.0000 ( 10724 PWs)   bands (ev):

   -61.3292 -35.4896 -35.3866 -35.2858 -14.2014 -13.2173  -5.7040  -4.0137
    -3.5991  -2.9354  -2.5189  -1.4463  -0.9988   1.6515   2.0570   2.1008
     3.2430

          k = 0.3333 0.1925 0.0000 ( 10762 PWs)   bands (ev):

   -61.3094 -35.5760 -35.4515 -35.3247 -13.3468 -12.8537  -5.8514  -4.8247
    -4.4545  -3.3410  -2.2322  -1.7333  -1.5277   1.8249   1.8319   2.9569
     3.7181

          k = 0.3333 0.3208 0.0000 ( 10759 PWs)   bands (ev):

   -61.3015 -35.6234 -35.4363 -35.3673 -12.9514 -12.6838  -6.0089  -5.2604
    -4.4378  -3.7479  -2.3181  -2.2176  -1.1296   1.7572   2.2580   2.9899
     3.8770

          k = 0.3333 0.4491 0.0000 ( 10803 PWs)   bands (ev):

   -61.2946 -35.6179 -35.4535 -35.4229 -12.5782 -12.5082  -5.8142  -5.7619
    -4.3713  -3.7234  -3.4803  -2.4631  -0.7890   1.6960   2.6809   2.7721
     4.2758

          k = 0.3333 0.5774 0.0000 ( 10818 PWs)   bands (ev):

   -61.2918 -35.5761 -35.5278 -35.4175 -12.4348 -12.4215  -6.0683  -5.2280
    -4.6832  -4.0705  -3.4873  -2.7713  -0.4991   1.3694   2.4767   3.1508
     4.6019

          k = 0.3333 0.7057 0.0000 ( 10803 PWs)   bands (ev):

   -61.2945 -35.6215 -35.4507 -35.4227 -12.5719 -12.5188  -5.7954  -5.7659
    -4.3683  -3.7199  -3.4735  -2.4761  -0.7917   1.6895   2.6681   2.7563
     4.3231

          k = 0.3333-0.3208 0.0000 ( 10759 PWs)   bands (ev):

   -61.3014 -35.6270 -35.4359 -35.3649 -12.9424 -12.6984  -6.0121  -5.2400
    -4.4229  -3.7417  -2.3203  -2.2257  -1.1469   1.7593   2.2463   2.9722
     3.9306

          k = 0.3333-0.1925 0.0000 ( 10762 PWs)   bands (ev):

   -61.3093 -35.5790 -35.4511 -35.3227 -13.3395 -12.8651  -5.8507  -4.8254
    -4.4386  -3.3104  -2.2422  -1.7382  -1.5571   1.8210   1.8463   2.9899
     3.6967

          k = 0.3333-0.0642 0.0000 ( 10750 PWs)   bands (ev):

   -61.3145 -35.5153 -35.4612 -35.3281 -13.5846 -12.9568  -5.5714  -4.4049
    -4.3562  -3.5888  -2.3169  -1.7225  -1.3407   1.4424   2.0502   2.4091
     3.7463

          k = 0.3333 0.0642 0.0000 ( 10750 PWs)   bands (ev):

   -61.3145 -35.5138 -35.4613 -35.3292 -13.5873 -12.9526  -5.5731  -4.3912
    -4.3640  -3.6139  -2.3038  -1.7198  -1.3357   1.4425   2.0431   2.3953
     3.7587

          k = 0.4444 0.2566 0.0000 ( 10772 PWs)   bands (ev):

   -61.2991 -35.6697 -35.4317 -35.3467 -12.8090 -12.6366  -6.3515  -5.4047
    -4.6313  -3.6331  -2.4644  -1.3976  -1.2445   1.9073   2.2996   3.3483
     3.8906

          k = 0.4444 0.3849 0.0000 ( 10772 PWs)   bands (ev):

   -61.2964 -35.6662 -35.4265 -35.3824 -12.6622 -12.5652  -6.2489  -5.6091
    -4.6032  -3.7300  -2.4610  -2.2299  -0.8775   1.9126   2.5314   3.3710
     3.7018

          k = 0.4444 0.5132 0.0000 ( 10803 PWs)   bands (ev):

   -61.2946 -35.6179 -35.4535 -35.4229 -12.5782 -12.5082  -5.8142  -5.7619
    -4.3713  -3.7234  -3.4803  -2.4631  -0.7890   1.6960   2.6809   2.7721
     4.2758

          k = 0.4444 0.6415 0.0000 ( 10803 PWs)   bands (ev):

   -61.2945 -35.6199 -35.4519 -35.4228 -12.5741 -12.5145  -5.8062  -5.7679
    -4.3589  -3.7105  -3.4851  -2.4800  -0.7920   1.6927   2.6834   2.7678
     4.2936

          k = 0.4444 0.7698 0.0000 ( 10772 PWs)   bands (ev):

   -61.2963 -35.6694 -35.4260 -35.3803 -12.6519 -12.5807  -6.2586  -5.5890
    -4.5868  -3.7078  -2.4890  -2.2320  -0.8875   1.9054   2.5228   3.3578
     3.7544

          k = 0.4444-0.2566 0.0000 ( 10772 PWs)   bands (ev):

   -61.2990 -35.6729 -35.4313 -35.3448 -12.7977 -12.6535  -6.3601  -5.3865
    -4.6134  -3.6064  -2.4902  -1.3978  -1.2643   1.8978   2.3025   3.3913
     3.8790

          k = 0.4444-0.1283 0.0000 ( 10759 PWs)   bands (ev):

   -61.3015 -35.6259 -35.4360 -35.3657 -12.9443 -12.6945  -6.0143  -5.2546
    -4.4195  -3.7220  -2.3367  -2.2386  -1.1323   1.7513   2.2647   3.0211
     3.8666

          k = 0.4444 0.0000 0.0000 ( 10752 PWs)   bands (ev):

   -61.3024 -35.5849 -35.4381 -35.3967 -13.0076 -12.7021  -5.7240  -5.1700
    -4.1590  -3.9291  -3.0684  -1.9662  -1.1729   1.6222   2.3168   2.5455
     4.0918

          k = 0.4444 0.1283 0.0000 ( 10759 PWs)   bands (ev):

   -61.3015 -35.6234 -35.4363 -35.3673 -12.9514 -12.6838  -6.0089  -5.2604
    -4.4378  -3.7479  -2.3181  -2.2176  -1.1296   1.7572   2.2580   2.9899
     3.8770

     the Fermi energy is     0.2936 ev

!    total energy              =    -496.73145918 Ry
     estimated scf accuracy    <       0.00000038 Ry
     smearing contrib. (-TS)   =      -0.00000000 Ry
     internal energy E=F+TS    =    -496.73145918 Ry

     convergence has been achieved in   4 iterations

     negative rho (up, down):  7.833E-05 0.000E+00

     Forces acting on atoms (cartesian axes, Ry/au):

     atom    1 type  1   force =     0.00674494    0.00389306    0.00259087
     atom    2 type  2   force =    -0.00335868   -0.00193745    0.00220710
     atom    3 type  2   force =    -0.00338626   -0.00195561   -0.00479797
     The non-local contrib.  to forces
     atom    1 type  1   force =    -0.00192155   -0.00110908   -0.00079161
     atom    2 type  2   force =    -0.00252883   -0.00145877   -0.26219361
     atom    3 type  2   force =    -0.00254447   -0.00146944    0.26138343
     The ionic contribution  to forces
     atom    1 type  1   force =     0.04142540    0.02390983   -0.00599300
     atom    2 type  2   force =    -0.02064188   -0.01190677   36.68832441
     atom    3 type  2   force =    -0.02078352   -0.01200306  -36.68233140
     The local contribution  to forces
     atom    1 type  1   force =    -0.03253277   -0.01877717    0.01178932
     atom    2 type  2   force =     0.01981242    0.01142831  -36.42335645
     atom    3 type  2   force =     0.01993661    0.01151396   36.41700714
     The core correction contribution to forces
     atom    1 type  1   force =     0.00014338    0.00008276    0.00006212
     atom    2 type  2   force =     0.00009186    0.00005299    0.00185933
     atom    3 type  2   force =     0.00009239    0.00005336   -0.00180856
     The Hubbard contrib.    to forces
     atom    1 type  1   force =     0.00000000    0.00000000    0.00000000
     atom    2 type  2   force =     0.00000000    0.00000000    0.00000000
     atom    3 type  2   force =     0.00000000    0.00000000    0.00000000
     The SCF correction term to forces
     atom    1 type  1   force =    -0.00035958   -0.00020754   -0.00234586
     atom    2 type  2   force =    -0.00002265   -0.00001304   -0.00052723
     atom    3 type  2   force =    -0.00001752   -0.00001015   -0.00067698

     DFT-D3 dispersion contribution to forces:
     atom    1 type  1   force =     0.00003982    0.00002299    0.00000359
     atom    2 type  2   force =    -0.00001984   -0.00001144   -0.00176567
     atom    3 type  2   force =    -0.00001999   -0.00001154    0.00176209

     Total force =     0.011206     Total SCF correction =     0.002532
     SCF correction compared to forces is large: reduce conv_thr to get better values


     Computing stress (Cartesian axis) and pressure


     negative rho (up, down):  7.833E-05 0.000E+00
          total   stress  (Ry/bohr**3)                   (kbar)     P=        8.99
   0.00008011  -0.00000360   0.00000003           11.78       -0.53        0.00
  -0.00000360   0.00008427   0.00000003           -0.53       12.40        0.00
   0.00000003   0.00000003   0.00001888            0.00        0.00        2.78


     Entering Dynamics:    iteration =    25

     <vel(dt)|acc(dt)> =  -0.98341160

ATOMIC_POSITIONS (crystal)
Mo           -0.0016332484       -0.0008164454        0.4999615774
S             0.6674863074        0.3337423297        0.5829585421
S             0.6674802743        0.3337407823        0.4170798805



     Writing config-only to output data dir ./tmp/scf.save/
     NEW-OLD atomic charge density approx. for the potential

     negative rho (up, down):  7.826E-05 0.000E+00

     total cpu time spent up to now is     1328.8 secs

     Self-consistent Calculation

     iteration #  1     ecut=    70.00 Ry     beta= 0.70
     Davidson diagonalization with overlap
     ethr =  1.00E-06,  avg # of iterations =  3.0

     Threshold (ethr) on eigenvalues was too large:
     Diagonalizing with lowered threshold

     Davidson diagonalization with overlap
     ethr =  4.15E-08,  avg # of iterations =  2.2

     negative rho (up, down):  7.825E-05 0.000E+00

     total cpu time spent up to now is     1347.3 secs

     total energy              =    -496.73149855 Ry
     estimated scf accuracy    <       0.00001118 Ry

     iteration #  2     ecut=    70.00 Ry     beta= 0.70
     Davidson diagonalization with overlap
     ethr =  4.30E-08,  avg # of iterations =  3.0

     negative rho (up, down):  7.828E-05 0.000E+00

     total cpu time spent up to now is     1357.2 secs

     total energy              =    -496.73148259 Ry
     estimated scf accuracy    <       0.00022412 Ry

     iteration #  3     ecut=    70.00 Ry     beta= 0.70
     Davidson diagonalization with overlap
     ethr =  4.30E-08,  avg # of iterations =  3.0

     negative rho (up, down):  7.827E-05 0.000E+00

     total cpu time spent up to now is     1366.8 secs

     total energy              =    -496.73150588 Ry
     estimated scf accuracy    <       0.00000373 Ry

     iteration #  4     ecut=    70.00 Ry     beta= 0.70
     Davidson diagonalization with overlap
     ethr =  1.43E-08,  avg # of iterations =  2.0

     negative rho (up, down):  7.826E-05 0.000E+00

     total cpu time spent up to now is     1375.4 secs

     End of self-consistent calculation

          k = 0.0000 0.0000 0.0000 ( 10733 PWs)   bands (ev):

   -61.3423 -35.5163 -35.2463 -35.2443 -14.7518 -13.4553  -6.2582  -3.0441
    -3.0302  -2.4540  -1.9270  -1.8670  -0.6846   2.3588   2.4271   2.5913
     2.6190

          k = 0.0000 0.1283 0.0000 ( 10711 PWs)   bands (ev):

   -61.3369 -35.5059 -35.2985 -35.2567 -14.5588 -13.3732  -6.0415  -3.4438
    -3.0772  -2.8397  -2.1790  -1.6079  -0.7591   2.1026   2.2003   2.4057
     2.6902

          k = 0.0000 0.2566 0.0000 ( 10736 PWs)   bands (ev):

   -61.3231 -35.4794 -35.4300 -35.2868 -14.0320 -13.1502  -5.6220  -4.1940
    -3.9661  -2.7774  -2.3184  -1.7950  -1.1786   1.6285   2.0201   2.3648
     3.2727

          k = 0.0000 0.3849 0.0000 ( 10762 PWs)   bands (ev):

   -61.3074 -35.5764 -35.4491 -35.3207 -13.3383 -12.8636  -5.8473  -4.8241
    -4.4387  -3.3093  -2.2434  -1.7327  -1.5553   1.8231   1.8420   2.9859
     3.6957

          k = 0.0000 0.5132 0.0000 ( 10772 PWs)   bands (ev):

   -61.2971 -35.6703 -35.4293 -35.3428 -12.7967 -12.6509  -6.3571  -5.3878
    -4.6130  -3.6049  -2.4898  -1.3927  -1.2651   1.9007   2.3022   3.3867
     3.8756

          k = 0.1111 0.0642 0.0000 ( 10711 PWs)   bands (ev):

   -61.3369 -35.5059 -35.2969 -35.2582 -14.5593 -13.3722  -6.0425  -3.4533
    -3.0566  -2.8301  -2.2166  -1.5947  -0.7548   2.1178   2.1638   2.3875
     2.7308

          k = 0.1111 0.1925 0.0000 ( 10724 PWs)   bands (ev):

   -61.3273 -35.4875 -35.3846 -35.2835 -14.1992 -13.2180  -5.7009  -4.0083
    -3.6006  -2.9279  -2.5155  -1.4471  -1.0015   1.6501   2.0597   2.0991
     3.2381

          k = 0.1111 0.3208 0.0000 ( 10750 PWs)   bands (ev):

   -61.3125 -35.5131 -35.4591 -35.3259 -13.5827 -12.9567  -5.5676  -4.4001
    -4.3545  -3.5900  -2.3121  -1.7226  -1.3417   1.4421   2.0475   2.4060
     3.7468

          k = 0.1111 0.4491 0.0000 ( 10759 PWs)   bands (ev):

   -61.2995 -35.6235 -35.4340 -35.3636 -12.9429 -12.6930  -6.0108  -5.2521
    -4.4200  -3.7241  -2.3316  -2.2370  -1.1319   1.7520   2.2635   3.0119
     3.8708

          k = 0.1111 0.5774 0.0000 ( 10772 PWs)   bands (ev):

   -61.2944 -35.6668 -35.4241 -35.3783 -12.6508 -12.5782  -6.2558  -5.5896
    -4.5861  -3.7075  -2.4882  -2.2307  -0.8853   1.9077   2.5242   3.3577
     3.7460

          k = 0.1111-0.4491 0.0000 ( 10759 PWs)   bands (ev):

   -61.2995 -35.6243 -35.4340 -35.3630 -12.9415 -12.6958  -6.0093  -5.2417
    -4.4224  -3.7381  -2.3200  -2.2279  -1.1422   1.7576   2.2505   2.9771
     3.9162

          k = 0.1111-0.3208 0.0000 ( 10750 PWs)   bands (ev):

   -61.3125 -35.5145 -35.4590 -35.3248 -13.5809 -12.9602  -5.5664  -4.3915
    -4.3477  -3.5981  -2.3074  -1.7147  -1.3607   1.4548   2.0345   2.3961
     3.7623

          k = 0.1111-0.1925 0.0000 ( 10724 PWs)   bands (ev):

   -61.3273 -35.4874 -35.3865 -35.2818 -14.1977 -13.2206  -5.6991  -3.9971
    -3.6233  -2.8979  -2.5236  -1.4466  -1.0161   1.6564   2.0786   2.0984
     3.2162

          k = 0.1111-0.0642 0.0000 ( 10711 PWs)   bands (ev):

   -61.3369 -35.5059 -35.2985 -35.2567 -14.5588 -13.3732  -6.0415  -3.4438
    -3.0772  -2.8397  -2.1790  -1.6079  -0.7591   2.1026   2.2003   2.4057
     2.6902

          k = 0.2222 0.1283 0.0000 ( 10736 PWs)   bands (ev):

   -61.3231 -35.4796 -35.4281 -35.2883 -14.0343 -13.1464  -5.6258  -4.2017
    -3.9489  -2.8053  -2.3118  -1.7972  -1.1619   1.6300   2.0093   2.3436
     3.2993

          k = 0.2222 0.2566 0.0000 ( 10750 PWs)   bands (ev):

   -61.3125 -35.5120 -35.4592 -35.3267 -13.5847 -12.9537  -5.5688  -4.3904
    -4.3602  -3.6077  -2.3029  -1.7206  -1.3381   1.4422   2.0425   2.3961
     3.7555

          k = 0.2222 0.3849 0.0000 ( 10752 PWs)   bands (ev):

   -61.3005 -35.5829 -35.4360 -35.3943 -13.0052 -12.7023  -5.7206  -5.1646
    -4.1572  -3.9300  -3.0666  -1.9673  -1.1718   1.6204   2.3170   2.5417
     4.0939

          k = 0.2222 0.5132 0.0000 ( 10803 PWs)   bands (ev):

   -61.2926 -35.6176 -35.4498 -35.4207 -12.5722 -12.5134  -5.8028  -5.7653
    -4.3590  -3.7124  -3.4824  -2.4798  -0.7898   1.6942   2.6792   2.7669
     4.2925

          k = 0.2222 0.6415 0.0000 ( 10803 PWs)   bands (ev):

   -61.2926 -35.6187 -35.4489 -35.4207 -12.5706 -12.5164  -5.7952  -5.7640
    -4.3657  -3.7191  -3.4742  -2.4770  -0.7897   1.6920   2.6683   2.7588
     4.3134

          k = 0.2222-0.3849 0.0000 ( 10752 PWs)   bands (ev):

   -61.3005 -35.5853 -35.4358 -35.3925 -13.0015 -12.7091  -5.7193  -5.1464
    -4.1524  -3.9425  -3.0659  -1.9630  -1.1783   1.6207   2.3050   2.5236
     4.1307

          k = 0.2222-0.2566 0.0000 ( 10750 PWs)   bands (ev):

   -61.3125 -35.5145 -35.4590 -35.3248 -13.5809 -12.9602  -5.5664  -4.3915
    -4.3477  -3.5981  -2.3074  -1.7147  -1.3607   1.4548   2.0345   2.3961
     3.7623

          k = 0.2222-0.1283 0.0000 ( 10736 PWs)   bands (ev):

   -61.3231 -35.4794 -35.4300 -35.2868 -14.0320 -13.1502  -5.6220  -4.1940
    -3.9661  -2.7774  -2.3184  -1.7950  -1.1786   1.6285   2.0201   2.3648
     3.2727

          k = 0.2222-0.0000 0.0000 ( 10724 PWs)   bands (ev):

   -61.3273 -35.4875 -35.3846 -35.2835 -14.1992 -13.2180  -5.7009  -4.0083
    -3.6006  -2.9279  -2.5155  -1.4471  -1.0015   1.6501   2.0597   2.0991
     3.2381

          k = 0.3333 0.1925 0.0000 ( 10762 PWs)   bands (ev):

   -61.3074 -35.5742 -35.4494 -35.3222 -13.3434 -12.8555  -5.8477  -4.8236
    -4.4500  -3.3310  -2.2363  -1.7300  -1.5336   1.8255   1.8322   2.9621
     3.7111

          k = 0.3333 0.3208 0.0000 ( 10759 PWs)   bands (ev):

   -61.2996 -35.6217 -35.4342 -35.3648 -12.9479 -12.6855  -6.0070  -5.2562
    -4.4330  -3.7424  -2.3185  -2.2222  -1.1299   1.7562   2.2588   2.9897
     3.8781

          k = 0.3333 0.4491 0.0000 ( 10803 PWs)   bands (ev):

   -61.2926 -35.6161 -35.4509 -35.4209 -12.5751 -12.5089  -5.8086  -5.7610
    -4.3679  -3.7215  -3.4790  -2.4678  -0.7877   1.6965   2.6773   2.7700
     4.2799

          k = 0.3333 0.5774 0.0000 ( 10818 PWs)   bands (ev):

   -61.2899 -35.5737 -35.5256 -35.4155 -12.4327 -12.4204  -6.0650  -5.2266
    -4.6814  -4.0690  -3.4879  -2.7729  -0.4976   1.3726   2.4738   3.1489
     4.5999

          k = 0.3333 0.7057 0.0000 ( 10803 PWs)   bands (ev):

   -61.2926 -35.6187 -35.4489 -35.4207 -12.5706 -12.5164  -5.7952  -5.7640
    -4.3657  -3.7191  -3.4742  -2.4770  -0.7897   1.6920   2.6683   2.7588
     4.3134

          k = 0.3333-0.3208 0.0000 ( 10759 PWs)   bands (ev):

   -61.2995 -35.6243 -35.4340 -35.3630 -12.9415 -12.6958  -6.0093  -5.2417
    -4.4224  -3.7381  -2.3200  -2.2279  -1.1422   1.7576   2.2505   2.9771
     3.9162

          k = 0.3333-0.1925 0.0000 ( 10762 PWs)   bands (ev):

   -61.3074 -35.5764 -35.4491 -35.3207 -13.3383 -12.8636  -5.8473  -4.8241
    -4.4387  -3.3093  -2.2434  -1.7327  -1.5553   1.8231   1.8420   2.9859
     3.6957

          k = 0.3333-0.0642 0.0000 ( 10750 PWs)   bands (ev):

   -61.3125 -35.5131 -35.4591 -35.3259 -13.5827 -12.9567  -5.5676  -4.4001
    -4.3545  -3.5900  -2.3121  -1.7226  -1.3417   1.4421   2.0475   2.4060
     3.7468

          k = 0.3333 0.0642 0.0000 ( 10750 PWs)   bands (ev):

   -61.3125 -35.5120 -35.4592 -35.3267 -13.5847 -12.9537  -5.5688  -4.3904
    -4.3602  -3.6077  -2.3029  -1.7206  -1.3381   1.4422   2.0425   2.3961
     3.7555

          k = 0.4444 0.2566 0.0000 ( 10772 PWs)   bands (ev):

   -61.2972 -35.6679 -35.4296 -35.3442 -12.8047 -12.6390  -6.3510  -5.4007
    -4.6258  -3.6238  -2.4715  -1.3940  -1.2495   1.9074   2.3002   3.3555
     3.8845

          k = 0.4444 0.3849 0.0000 ( 10772 PWs)   bands (ev):

   -61.2944 -35.6645 -35.4244 -35.3798 -12.6581 -12.5672  -6.2489  -5.6038
    -4.5978  -3.7232  -2.4683  -2.2293  -0.8781   1.9127   2.5304   3.3663
     3.7093

          k = 0.4444 0.5132 0.0000 ( 10803 PWs)   bands (ev):

   -61.2926 -35.6161 -35.4509 -35.4209 -12.5751 -12.5089  -5.8086  -5.7610
    -4.3679  -3.7215  -3.4790  -2.4678  -0.7877   1.6965   2.6773   2.7699
     4.2799

          k = 0.4444 0.6415 0.0000 ( 10803 PWs)   bands (ev):

   -61.2926 -35.6176 -35.4498 -35.4207 -12.5722 -12.5134  -5.8028  -5.7653
    -4.3590  -3.7124  -3.4824  -2.4798  -0.7898   1.6942   2.6792   2.7669
     4.2925

          k = 0.4444 0.7698 0.0000 ( 10772 PWs)   bands (ev):

   -61.2944 -35.6668 -35.4241 -35.3783 -12.6508 -12.5782  -6.2558  -5.5896
    -4.5861  -3.7075  -2.4882  -2.2307  -0.8853   1.9077   2.5242   3.3577
     3.7460

          k = 0.4444-0.2566 0.0000 ( 10772 PWs)   bands (ev):

   -61.2971 -35.6703 -35.4293 -35.3428 -12.7967 -12.6509  -6.3571  -5.3878
    -4.6130  -3.6049  -2.4899  -1.3927  -1.2651   1.9007   2.3022   3.3867
     3.8756

          k = 0.4444-0.1283 0.0000 ( 10759 PWs)   bands (ev):

   -61.2995 -35.6235 -35.4340 -35.3636 -12.9429 -12.6930  -6.0108  -5.2521
    -4.4200  -3.7241  -2.3316  -2.2370  -1.1319   1.7520   2.2635   3.0119
     3.8708

          k = 0.4444 0.0000 0.0000 ( 10752 PWs)   bands (ev):

   -61.3005 -35.5829 -35.4360 -35.3943 -13.0052 -12.7023  -5.7206  -5.1646
    -4.1572  -3.9300  -3.0666  -1.9673  -1.1718   1.6204   2.3170   2.5417
     4.0939

          k = 0.4444 0.1283 0.0000 ( 10759 PWs)   bands (ev):

   -61.2996 -35.6217 -35.4342 -35.3648 -12.9479 -12.6855  -6.0070  -5.2562
    -4.4330  -3.7424  -2.3185  -2.2222  -1.1299   1.7562   2.2588   2.9897
     3.8782

     the Fermi energy is     0.2919 ev

!    total energy              =    -496.73150617 Ry
     estimated scf accuracy    <       0.00000064 Ry
     smearing contrib. (-TS)   =      -0.00000000 Ry
     internal energy E=F+TS    =    -496.73150617 Ry

     convergence has been achieved in   4 iterations

     negative rho (up, down):  7.826E-05 0.000E+00

     Forces acting on atoms (cartesian axes, Ry/au):

     atom    1 type  1   force =     0.00469990    0.00271269    0.00148910
     atom    2 type  2   force =    -0.00234152   -0.00135048    0.00251193
     atom    3 type  2   force =    -0.00235838   -0.00136221   -0.00400103
     The non-local contrib.  to forces
     atom    1 type  1   force =    -0.00155108   -0.00089526   -0.00034668
     atom    2 type  2   force =    -0.00179975   -0.00103805   -0.26232976
     atom    3 type  2   force =    -0.00180696   -0.00104366    0.26189242
     The ionic contribution  to forces
     atom    1 type  1   force =     0.02945277    0.01699952   -0.00326755
     atom    2 type  2   force =    -0.01471388   -0.00848597   36.68529508
     atom    3 type  2   force =    -0.01473889   -0.00851355  -36.68202753
     The local contribution  to forces
     atom    1 type  1   force =    -0.02299648   -0.01327308    0.00790640
     atom    2 type  2   force =     0.01408719    0.00812458  -36.41830544
     atom    3 type  2   force =     0.01409817    0.00814342   36.41537973
     The core correction contribution to forces
     atom    1 type  1   force =     0.00010232    0.00005906    0.00003616
     atom    2 type  2   force =     0.00006560    0.00003784    0.00187312
     atom    3 type  2   force =     0.00006555    0.00003786   -0.00184226
     The Hubbard contrib.    to forces
     atom    1 type  1   force =     0.00000000    0.00000000    0.00000000
     atom    2 type  2   force =     0.00000000    0.00000000    0.00000000
     atom    3 type  2   force =     0.00000000    0.00000000    0.00000000
     The SCF correction term to forces
     atom    1 type  1   force =    -0.00033176   -0.00019147   -0.00268315
     atom    2 type  2   force =     0.00003738    0.00002156   -0.00209887
     atom    3 type  2   force =     0.00004185    0.00002417    0.00099245

     DFT-D3 dispersion contribution to forces:
     atom    1 type  1   force =     0.00002814    0.00001624    0.00000196
     atom    2 type  2   force =    -0.00001405   -0.00000810   -0.00176416
     atom    3 type  2   force =    -0.00001409   -0.00000814    0.00176219

     Total force =     0.008289     Total SCF correction =     0.003569
     SCF correction compared to forces is large: reduce conv_thr to get better values


     Computing stress (Cartesian axis) and pressure


     negative rho (up, down):  7.826E-05 0.000E+00
          total   stress  (Ry/bohr**3)                   (kbar)     P=        8.70
   0.00008010  -0.00000255   0.00000000           11.78       -0.38        0.00
  -0.00000255   0.00008304   0.00000001           -0.38       12.22        0.00
   0.00000000   0.00000001   0.00001422            0.00        0.00        2.09


     Entering Dynamics:    iteration =    26

     <vel(dt)|acc(dt)> =   0.96189042

ATOMIC_POSITIONS (crystal)
Mo           -0.0002660829       -0.0001330143        0.5000021039
S             0.6668049443        0.3334019602        0.5830888598
S             0.6667944719        0.3333977208        0.4169090364



     Writing config-only to output data dir ./tmp/scf.save/
     NEW-OLD atomic charge density approx. for the potential

     negative rho (up, down):  7.802E-05 0.000E+00

     total cpu time spent up to now is     1391.0 secs

     Self-consistent Calculation

     iteration #  1     ecut=    70.00 Ry     beta= 0.70
     Davidson diagonalization with overlap
     ethr =  1.00E-06,  avg # of iterations =  4.1

     Threshold (ethr) on eigenvalues was too large:
     Diagonalizing with lowered threshold

     Davidson diagonalization with overlap
     ethr =  6.84E-08,  avg # of iterations =  2.7

     negative rho (up, down):  7.811E-05 0.000E+00

     total cpu time spent up to now is     1406.5 secs

     total energy              =    -496.73155277 Ry
     estimated scf accuracy    <       0.00001543 Ry

     iteration #  2     ecut=    70.00 Ry     beta= 0.70
     Davidson diagonalization with overlap
     ethr =  5.93E-08,  avg # of iterations =  3.0

     negative rho (up, down):  7.809E-05 0.000E+00

     total cpu time spent up to now is     1414.6 secs

     total energy              =    -496.73153457 Ry
     estimated scf accuracy    <       0.00025217 Ry

     iteration #  3     ecut=    70.00 Ry     beta= 0.70
     Davidson diagonalization with overlap
     ethr =  5.93E-08,  avg # of iterations =  3.0

     negative rho (up, down):  7.810E-05 0.000E+00

     total cpu time spent up to now is     1424.8 secs

     total energy              =    -496.73156129 Ry
     estimated scf accuracy    <       0.00000569 Ry

     iteration #  4     ecut=    70.00 Ry     beta= 0.70
     Davidson diagonalization with overlap
     ethr =  2.19E-08,  avg # of iterations =  2.0

     negative rho (up, down):  7.811E-05 0.000E+00

     total cpu time spent up to now is     1434.2 secs

     total energy              =    -496.73156249 Ry
     estimated scf accuracy    <       0.00000485 Ry

     iteration #  5     ecut=    70.00 Ry     beta= 0.70
     Davidson diagonalization with overlap
     ethr =  1.87E-08,  avg # of iterations =  1.0

     negative rho (up, down):  7.812E-05 0.000E+00

     total cpu time spent up to now is     1442.9 secs

     End of self-consistent calculation

          k = 0.0000 0.0000 0.0000 ( 10733 PWs)   bands (ev):

   -61.3448 -35.5176 -35.2466 -35.2463 -14.7433 -13.4561  -6.2504  -3.0230
    -3.0207  -2.4607  -1.8898  -1.8801  -0.6949   2.3858   2.3968   2.5942
     2.5988

          k = 0.0000 0.1283 0.0000 ( 10711 PWs)   bands (ev):

   -61.3394 -35.5072 -35.2991 -35.2583 -14.5506 -13.3732  -6.0336  -3.4321
    -3.0689  -2.8220  -2.1772  -1.6030  -0.7666   2.0981   2.1884   2.3925
     2.6970

          k = 0.0000 0.2566 0.0000 ( 10736 PWs)   bands (ev):

   -61.3256 -35.4808 -35.4303 -35.2883 -14.0247 -13.1479  -5.6126  -4.1863
    -3.9560  -2.7729  -2.3026  -1.7997  -1.1783   1.6188   2.0109   2.3545
     3.2727

          k = 0.0000 0.3849 0.0000 ( 10762 PWs)   bands (ev):

   -61.3099 -35.5763 -35.4507 -35.3222 -13.3318 -12.8580  -5.8360  -4.8196
    -4.4368  -3.3029  -2.2474  -1.7191  -1.5514   1.8233   1.8285   2.9721
     3.6888

          k = 0.0000 0.5132 0.0000 ( 10772 PWs)   bands (ev):

   -61.2997 -35.6700 -35.4309 -35.3442 -12.7906 -12.6426  -6.3479  -5.3889
    -4.6100  -3.5975  -2.4909  -1.3818  -1.2642   1.9033   2.2970   3.3708
     3.8641

          k = 0.1111 0.0642 0.0000 ( 10711 PWs)   bands (ev):

   -61.3394 -35.5072 -35.2988 -35.2585 -14.5507 -13.3730  -6.0338  -3.4336
    -3.0657  -2.8204  -2.1833  -1.6008  -0.7659   2.1006   2.1822   2.3896
     2.7038

          k = 0.1111 0.1925 0.0000 ( 10724 PWs)   bands (ev):

   -61.3298 -35.4888 -35.3860 -35.2841 -14.1907 -13.2180  -5.6909  -3.9933
    -3.6024  -2.9088  -2.5038  -1.4483  -1.0110   1.6419   2.0622   2.0921
     3.2248

          k = 0.1111 0.3208 0.0000 ( 10750 PWs)   bands (ev):

   -61.3151 -35.5138 -35.4606 -35.3268 -13.5749 -12.9543  -5.5551  -4.3882
    -4.3484  -3.5895  -2.2993  -1.7233  -1.3444   1.4363   2.0380   2.3956
     3.7421

          k = 0.1111 0.4491 0.0000 ( 10759 PWs)   bands (ev):

   -61.3021 -35.6236 -35.4356 -35.3647 -12.9358 -12.6873  -6.0001  -5.2444
    -4.4187  -3.7257  -2.3193  -2.2351  -1.1304   1.7485   2.2576   2.9878
     3.8732

          k = 0.1111 0.5774 0.0000 ( 10772 PWs)   bands (ev):

   -61.2969 -35.6665 -35.4257 -35.3797 -12.6444 -12.5698  -6.2473  -5.5883
    -4.5822  -3.7038  -2.4883  -2.2259  -0.8806   1.9090   2.5230   3.3496
     3.7251

          k = 0.1111-0.4491 0.0000 ( 10759 PWs)   bands (ev):

   -61.3021 -35.6237 -35.4356 -35.3647 -12.9356 -12.6877  -5.9998  -5.2428
    -4.4191  -3.7280  -2.3174  -2.2336  -1.1321   1.7494   2.2555   2.9821
     3.8806

          k = 0.1111-0.3208 0.0000 ( 10750 PWs)   bands (ev):

   -61.3150 -35.5140 -35.4605 -35.3267 -13.5746 -12.9549  -5.5550  -4.3869
    -4.3473  -3.5908  -2.2985  -1.7220  -1.3476   1.4383   2.0359   2.3939
     3.7447

          k = 0.1111-0.1925 0.0000 ( 10724 PWs)   bands (ev):

   -61.3298 -35.4888 -35.3863 -35.2839 -14.1905 -13.2184  -5.6906  -3.9915
    -3.6061  -2.9039  -2.5051  -1.4482  -1.0134   1.6429   2.0652   2.0920
     3.2213

          k = 0.1111-0.0642 0.0000 ( 10711 PWs)   bands (ev):

   -61.3394 -35.5072 -35.2991 -35.2583 -14.5506 -13.3732  -6.0336  -3.4321
    -3.0689  -2.8220  -2.1772  -1.6030  -0.7666   2.0981   2.1884   2.3925
     2.6970

          k = 0.2222 0.1283 0.0000 ( 10736 PWs)   bands (ev):

   -61.3256 -35.4808 -35.4300 -35.2885 -14.0250 -13.1473  -5.6132  -4.1875
    -3.9533  -2.7774  -2.3016  -1.8001  -1.1755   1.6190   2.0092   2.3509
     3.2771

          k = 0.2222 0.2566 0.0000 ( 10750 PWs)   bands (ev):

   -61.3151 -35.5136 -35.4606 -35.3270 -13.5752 -12.9538  -5.5553  -4.3867
    -4.3494  -3.5923  -2.2978  -1.7230  -1.3439   1.4363   2.0372   2.3939
     3.7436

          k = 0.2222 0.3849 0.0000 ( 10752 PWs)   bands (ev):

   -61.3030 -35.5840 -35.4374 -35.3947 -12.9961 -12.7000  -5.7096  -5.1498
    -4.1512  -3.9309  -3.0607  -1.9705  -1.1695   1.6109   2.3145   2.5290
     4.0912

          k = 0.2222 0.5132 0.0000 ( 10803 PWs)   bands (ev):

   -61.2952 -35.6179 -35.4507 -35.4223 -12.5642 -12.5076  -5.7926  -5.7569
    -4.3568  -3.7153  -3.4746  -2.4807  -0.7862   1.6948   2.6642   2.7602
     4.2840

          k = 0.2222 0.6415 0.0000 ( 10803 PWs)   bands (ev):

   -61.2952 -35.6181 -35.4505 -35.4223 -12.5639 -12.5081  -5.7914  -5.7567
    -4.3579  -3.7163  -3.4733  -2.4802  -0.7861   1.6944   2.6625   2.7588
     4.2874

          k = 0.2222-0.3849 0.0000 ( 10752 PWs)   bands (ev):

   -61.3030 -35.5844 -35.4374 -35.3944 -12.9955 -12.7011  -5.7094  -5.1469
    -4.1505  -3.9329  -3.0606  -1.9698  -1.1706   1.6110   2.3125   2.5261
     4.0972

          k = 0.2222-0.2566 0.0000 ( 10750 PWs)   bands (ev):

   -61.3150 -35.5140 -35.4605 -35.3267 -13.5746 -12.9549  -5.5550  -4.3869
    -4.3473  -3.5908  -2.2985  -1.7220  -1.3476   1.4383   2.0359   2.3939
     3.7447

          k = 0.2222-0.1283 0.0000 ( 10736 PWs)   bands (ev):

   -61.3256 -35.4808 -35.4303 -35.2883 -14.0247 -13.1479  -5.6126  -4.1863
    -3.9560  -2.7729  -2.3026  -1.7997  -1.1783   1.6188   2.0109   2.3545
     3.2727

          k = 0.2222-0.0000 0.0000 ( 10724 PWs)   bands (ev):

   -61.3298 -35.4888 -35.3860 -35.2841 -14.1907 -13.2180  -5.6909  -3.9933
    -3.6024  -2.9088  -2.5038  -1.4483  -1.0110   1.6419   2.0622   2.0921
     3.2248

          k = 0.3333 0.1925 0.0000 ( 10762 PWs)   bands (ev):

   -61.3099 -35.5760 -35.4507 -35.3224 -13.3326 -12.8567  -5.8360  -4.8195
    -4.4386  -3.3064  -2.2463  -1.7189  -1.5476   1.8234   1.8272   2.9682
     3.6913

          k = 0.3333 0.3208 0.0000 ( 10759 PWs)   bands (ev):

   -61.3021 -35.6233 -35.4356 -35.3649 -12.9366 -12.6861  -5.9994  -5.2451
    -4.4208  -3.7286  -2.3172  -2.2327  -1.1300   1.7492   2.2569   2.9842
     3.8744

          k = 0.3333 0.4491 0.0000 ( 10803 PWs)   bands (ev):

   -61.2952 -35.6177 -35.4508 -35.4223 -12.5646 -12.5069  -5.7935  -5.7562
    -4.3583  -3.7167  -3.4741  -2.4787  -0.7858   1.6951   2.6639   2.7607
     4.2819

          k = 0.3333 0.5774 0.0000 ( 10818 PWs)   bands (ev):

   -61.2924 -35.5740 -35.5265 -35.4171 -12.4266 -12.4122  -6.0542  -5.2215
    -4.6750  -4.0630  -3.4884  -2.7778  -0.4960   1.3788   2.4612   3.1382
     4.5889

          k = 0.3333 0.7057 0.0000 ( 10803 PWs)   bands (ev):

   -61.2952 -35.6181 -35.4505 -35.4223 -12.5639 -12.5081  -5.7914  -5.7567
    -4.3579  -3.7163  -3.4733  -2.4802  -0.7861   1.6944   2.6625   2.7588
     4.2874

          k = 0.3333-0.3208 0.0000 ( 10759 PWs)   bands (ev):

   -61.3021 -35.6237 -35.4356 -35.3647 -12.9356 -12.6877  -5.9998  -5.2428
    -4.4191  -3.7280  -2.3174  -2.2336  -1.1321   1.7494   2.2555   2.9821
     3.8806

          k = 0.3333-0.1925 0.0000 ( 10762 PWs)   bands (ev):

   -61.3099 -35.5763 -35.4507 -35.3222 -13.3318 -12.8580  -5.8360  -4.8196
    -4.4368  -3.3029  -2.2474  -1.7191  -1.5514   1.8233   1.8285   2.9721
     3.6888

          k = 0.3333-0.0642 0.0000 ( 10750 PWs)   bands (ev):

   -61.3151 -35.5138 -35.4606 -35.3268 -13.5749 -12.9543  -5.5551  -4.3882
    -4.3484  -3.5895  -2.2993  -1.7233  -1.3444   1.4363   2.0380   2.3956
     3.7421

          k = 0.3333 0.0642 0.0000 ( 10750 PWs)   bands (ev):

   -61.3151 -35.5136 -35.4606 -35.3270 -13.5752 -12.9538  -5.5553  -4.3867
    -4.3494  -3.5923  -2.2978  -1.7230  -1.3439   1.4363   2.0372   2.3939
     3.7436

          k = 0.4444 0.2566 0.0000 ( 10772 PWs)   bands (ev):

   -61.2997 -35.6696 -35.4310 -35.3444 -12.7919 -12.6407  -6.3469  -5.3910
    -4.6121  -3.6006  -2.4879  -1.3826  -1.2611   1.9044   2.2967   3.3654
     3.8658

          k = 0.4444 0.3849 0.0000 ( 10772 PWs)   bands (ev):

   -61.2969 -35.6661 -35.4257 -35.3799 -12.6455 -12.5681  -6.2462  -5.5906
    -4.5841  -3.7064  -2.4851  -2.2257  -0.8794   1.9098   2.5240   3.3507
     3.7194

          k = 0.4444 0.5132 0.0000 ( 10803 PWs)   bands (ev):

   -61.2952 -35.6177 -35.4508 -35.4223 -12.5646 -12.5069  -5.7935  -5.7562
    -4.3583  -3.7167  -3.4741  -2.4787  -0.7858   1.6951   2.6639   2.7607
     4.2819

          k = 0.4444 0.6415 0.0000 ( 10803 PWs)   bands (ev):

   -61.2952 -35.6179 -35.4507 -35.4223 -12.5642 -12.5076  -5.7926  -5.7569
    -4.3568  -3.7153  -3.4746  -2.4807  -0.7862   1.6948   2.6642   2.7602
     4.2840

          k = 0.4444 0.7698 0.0000 ( 10772 PWs)   bands (ev):

   -61.2969 -35.6665 -35.4257 -35.3797 -12.6444 -12.5698  -6.2473  -5.5883
    -4.5822  -3.7038  -2.4883  -2.2259  -0.8806   1.9090   2.5230   3.3496
     3.7251

          k = 0.4444-0.2566 0.0000 ( 10772 PWs)   bands (ev):

   -61.2997 -35.6700 -35.4309 -35.3442 -12.7906 -12.6426  -6.3479  -5.3889
    -4.6100  -3.5975  -2.4909  -1.3818  -1.2642   1.9033   2.2970   3.3708
     3.8641

          k = 0.4444-0.1283 0.0000 ( 10759 PWs)   bands (ev):

   -61.3021 -35.6236 -35.4356 -35.3647 -12.9358 -12.6873  -6.0001  -5.2444
    -4.4187  -3.7257  -2.3193  -2.2351  -1.1304   1.7485   2.2576   2.9878
     3.8732

          k = 0.4444 0.0000 0.0000 ( 10752 PWs)   bands (ev):

   -61.3030 -35.5840 -35.4374 -35.3947 -12.9961 -12.7000  -5.7096  -5.1498
    -4.1512  -3.9309  -3.0607  -1.9705  -1.1695   1.6109   2.3145   2.5290
     4.0912

          k = 0.4444 0.1283 0.0000 ( 10759 PWs)   bands (ev):

   -61.3021 -35.6233 -35.4356 -35.3649 -12.9366 -12.6861  -5.9994  -5.2451
    -4.4208  -3.7286  -2.3172  -2.2327  -1.1300   1.7492   2.2569   2.9842
     3.8744

     the Fermi energy is     0.2815 ev

!    total energy              =    -496.73156309 Ry
     estimated scf accuracy    <       0.00000004 Ry
     smearing contrib. (-TS)   =      -0.00000000 Ry
     internal energy E=F+TS    =    -496.73156309 Ry

     convergence has been achieved in   5 iterations

     negative rho (up, down):  7.812E-05 0.000E+00

     Forces acting on atoms (cartesian axes, Ry/au):

     atom    1 type  1   force =     0.00070693    0.00040804   -0.00005561
     atom    2 type  2   force =    -0.00036198   -0.00020827    0.00097672
     atom    3 type  2   force =    -0.00034495   -0.00019976   -0.00092111
     The non-local contrib.  to forces
     atom    1 type  1   force =    -0.00026963   -0.00015563   -0.00000829
     atom    2 type  2   force =    -0.00030956   -0.00017819   -0.26313743
     atom    3 type  2   force =    -0.00030365   -0.00017576    0.26309770
     The ionic contribution  to forces
     atom    1 type  1   force =     0.00480076    0.00277096    0.00017521
     atom    2 type  2   force =    -0.00243231   -0.00139953   36.67790142
     atom    3 type  2   force =    -0.00236845   -0.00137143  -36.67807663
     The local contribution  to forces
     atom    1 type  1   force =    -0.00392408   -0.00226494   -0.00060000
     atom    2 type  2   force =     0.00234701    0.00135049  -36.41431709
     atom    3 type  2   force =     0.00229537    0.00132905   36.41443312
     The core correction contribution to forces
     atom    1 type  1   force =     0.00001420    0.00000820   -0.00000097
     atom    2 type  2   force =     0.00001137    0.00000654    0.00189465
     atom    3 type  2   force =     0.00001139    0.00000659   -0.00189339
     The Hubbard contrib.    to forces
     atom    1 type  1   force =     0.00000000    0.00000000    0.00000000
     atom    2 type  2   force =     0.00000000    0.00000000    0.00000000
     atom    3 type  2   force =     0.00000000    0.00000000    0.00000000
     The SCF correction term to forces
     atom    1 type  1   force =     0.00006475    0.00003736    0.00042775
     atom    2 type  2   force =     0.00000739    0.00000427    0.00044477
     atom    3 type  2   force =     0.00000623    0.00000360   -0.00019324

     DFT-D3 dispersion contribution to forces:
     atom    1 type  1   force =     0.00000453    0.00000261   -0.00000011
     atom    2 type  2   force =    -0.00000229   -0.00000132   -0.00176041
     atom    3 type  2   force =    -0.00000224   -0.00000130    0.00176052

     Total force =     0.001675     Total SCF correction =     0.000651
     SCF correction compared to forces is large: reduce conv_thr to get better values


     Computing stress (Cartesian axis) and pressure


     negative rho (up, down):  7.812E-05 0.000E+00
          total   stress  (Ry/bohr**3)                   (kbar)     P=        7.60
   0.00007559  -0.00000041  -0.00000002           11.12       -0.06       -0.00
  -0.00000041   0.00007605  -0.00000001           -0.06       11.19       -0.00
  -0.00000002  -0.00000001   0.00000326           -0.00       -0.00        0.48


     Damped Dynamics: convergence achieved in  26 steps

     End of damped dynamics calculation

     Final energy =    -496.7315630930 Ry

Begin final coordinates
     new unit-cell volume =   1087.85123 a.u.^3 (   161.20292 Ang^3 )
     density =      1.64887 g/cm^3

CELL_PARAMETERS (angstrom)
   3.130000000   0.000000000   0.000000000
  -1.565000000   2.710659514   0.000000000
   0.000000000   0.000000000  19.000000000

ATOMIC_POSITIONS (crystal)
Mo           -0.0002660829       -0.0001330143        0.5000021039
S             0.6668049443        0.3334019602        0.5830888598
S             0.6667944719        0.3333977208        0.4169090364
End final coordinates



     Writing all to output data dir ./tmp/scf.save/
 
     init_run     :      8.10s CPU      9.39s WALL (       1 calls)
     electrons    :    963.83s CPU   1091.43s WALL (      17 calls)
     update_pot   :     23.76s CPU     27.26s WALL (      16 calls)
     forces       :     38.35s CPU     45.26s WALL (      17 calls)
     force_dftd3  :      0.36s CPU      0.37s WALL (      17 calls)
     stress       :    237.54s CPU    262.16s WALL (      17 calls)
     stres_dftd3  :      0.36s CPU      0.36s WALL (      17 calls)

     Called by init_run:
     wfcinit      :      3.62s CPU      3.76s WALL (       1 calls)
     potinit      :      1.00s CPU      1.25s WALL (       1 calls)
     hinit0       :      1.32s CPU      1.42s WALL (       1 calls)

     Called by electrons:
     c_bands      :    640.29s CPU    682.70s WALL (     100 calls)
     sum_band     :    214.93s CPU    263.14s WALL (     100 calls)
     v_of_rho     :     18.75s CPU     20.32s WALL (     109 calls)
     newd         :     89.00s CPU    131.76s WALL (     109 calls)
     PAW_pot      :     19.30s CPU     19.45s WALL (     125 calls)
     mix_rho      :      2.59s CPU      2.65s WALL (     100 calls)
     energy_dftd3 :      0.35s CPU      0.35s WALL (      17 calls)

     Called by c_bands:
     init_us_2    :     17.54s CPU     17.84s WALL (   10291 calls)
     init_us_2:cp :     17.46s CPU     17.79s WALL (   10291 calls)
     cegterg      :    569.87s CPU    611.66s WALL (    4100 calls)

     Called by *egterg:
     cdiaghg      :      7.47s CPU      7.60s WALL (   15448 calls)
     h_psi        :    477.80s CPU    518.37s WALL (   16473 calls)
     s_psi        :     16.77s CPU     17.06s WALL (   16473 calls)
     g_psi        :      1.66s CPU      1.68s WALL (   12332 calls)

     Called by h_psi:
     h_psi:calbec :     21.03s CPU     21.84s WALL (   16473 calls)
     vloc_psi     :    434.30s CPU    473.56s WALL (   16473 calls)
     add_vuspsi   :     18.88s CPU     19.34s WALL (   16473 calls)

     General routines
     calbec       :     38.54s CPU     39.79s WALL (   24714 calls)
     fft          :     28.23s CPU     35.36s WALL (    1832 calls)
     ffts         :      0.26s CPU      0.42s WALL (     209 calls)
     fftw         :    275.53s CPU    310.22s WALL (  475596 calls)
     interpolate  :      1.27s CPU      1.47s WALL (     109 calls)
 
     Parallel routines
 
     PWSCF        :  21m31.08s CPU  24m22.12s WALL

 
   This run was terminated on:  11:31:13  15Jul2025            

=------------------------------------------------------------------------------=
   JOB DONE.
=------------------------------------------------------------------------------=
