
     Program PWSCF v.7.2 starts on 15Jul2025 at 11: 6:51 

     This program is part of the open-source Quantum ESPRESSO suite
     for quantum simulation of materials; please cite
         "P. Giannozzi et al., J. Phys.:Condens. Matter 21 395502 (2009);
         "P. Giannozzi et al., J. Phys.:Condens. Matter 29 465901 (2017);
         "P. Giannozzi et al., J. Chem. Phys. 152 154105 (2020);
          URL http://www.quantum-espresso.org", 
     in publications or presentations arising from this work. More details at
     http://www.quantum-espresso.org/quote

     Parallel version (MPI), running on     4 processors

     MPI processes distributed on     1 nodes
     22601 MiB available memory on the printing compute node when the environment starts
 
     Waiting for input...
     Reading input from standard input

     Current dimensions of program PWSCF are:
     Max number of different atomic species (ntypx) = 10
     Max number of k-points (npk) =  40000
     Max angular momentum in pseudopotentials (lmaxx) =  4
     file Mo.pbe-spn-kjpaw_psl.1.0.0.UPF: wavefunction(s)  4S 4D renormalized
     file S.pbe-n-kjpaw_psl.1.0.0.UPF: wavefunction(s)  3S 3P renormalized
 
     R & G space division:  proc/nbgrp/npool/nimage =       4
     Subspace diagonalization in iterative solution of the eigenvalue problem:
     a serial algorithm will be used

 
     Parallelization info
     --------------------
     sticks:   dense  smooth     PW     G-vecs:    dense   smooth      PW
     Min         415     168     52                84469    21398    3690
     Max         416     169     55                84496    21417    3693
     Sum        1663     673    211               337953    85631   14765
 
     Using Slab Decomposition
 


     bravais-lattice index     =            0
     lattice parameter (alat)  =       5.8959  a.u.
     unit-cell volume          =    1080.9112 (a.u.)^3
     number of atoms/cell      =            3
     number of atomic types    =            2
     number of electrons       =        26.00
     number of Kohn-Sham states=           17
     kinetic-energy cutoff     =      70.0000  Ry
     charge density cutoff     =     700.0000  Ry
     scf convergence threshold =      1.0E-06
     mixing beta               =       0.7000
     number of iterations used =            8  plain     mixing
     energy convergence thresh.=      1.0E-04
     force convergence thresh. =      1.0E-03
     Exchange-correlation= SLA  PW   PBX  PBC
                           (   1   4   3   4   0   0   0)
     nstep                     =          100


     celldm(1)=   5.895946  celldm(2)=   0.000000  celldm(3)=   0.000000
     celldm(4)=   0.000000  celldm(5)=   0.000000  celldm(6)=   0.000000

     crystal axes: (cart. coord. in units of alat)
               a(1) = (   1.000000   0.000000   0.000000 )  
               a(2) = (  -0.500000   0.866025   0.000000 )  
               a(3) = (   0.000000   0.000000   6.089744 )  

     reciprocal axes: (cart. coord. in units 2 pi/alat)
               b(1) = (  1.000000  0.577350  0.000000 )  
               b(2) = (  0.000000  1.154701  0.000000 )  
               b(3) = (  0.000000  0.000000  0.164211 )  


     PseudoPot. # 1 for Mo read from file:
     /shared/ESPRESSO/PSLIBRARY/1.0.0/pbe/PSEUDOPOTENTIALS/Mo.pbe-spn-kjpaw_psl.1.0.0.UPF
     MD5 check sum: 4396e0c640fcce5c25f020efccf1ab12
     Pseudo is Projector augmented-wave + core cor, Zval = 14.0
     Generated using &quot;atomic&quot; code by A. Dal Corso  v.6.3
     Shape of augmentation charge: PSQ
     Using radial grid of 1229 points,  6 beta functions with: 
                l(1) =   0
                l(2) =   0
                l(3) =   1
                l(4) =   1
                l(5) =   2
                l(6) =   2
     Q(r) pseudized with 0 coefficients 


     PseudoPot. # 2 for S  read from file:
     /shared/ESPRESSO/PSLIBRARY/1.0.0/pbe/PSEUDOPOTENTIALS/S.pbe-n-kjpaw_psl.1.0.0.UPF
     MD5 check sum: c08f931834bcc19553f8bde8f1a3adc5
     Pseudo is Projector augmented-wave + core cor, Zval =  6.0
     Generated using "atomic" code by A. Dal Corso  (Quantum ESPRESSO distribution)
     Shape of augmentation charge: PSQ
     Using radial grid of 1151 points,  6 beta functions with: 
                l(1) =   0
                l(2) =   0
                l(3) =   1
                l(4) =   1
                l(5) =   2
                l(6) =   2
     Q(r) pseudized with 0 coefficients 


     atomic species   valence    mass     pseudopotential
        Mo            14.00    95.94000     Mo( 1.00)
        S              6.00    32.06500     S ( 1.00)

     No symmetry found



   Cartesian axes

     site n.     atom                  positions (alat units)
         1           Mo  tau(   1) = (   0.0000000   0.0000000   3.0448718  )
         2           S   tau(   2) = (   0.5000000   0.2886751   3.6858974  )
         3           S   tau(   3) = (   0.5000000   0.2886751   2.4038462  )

     --------------------------------------------
     DFT-D3 Dispersion Correction (3-body terms):
     --------------------------------------------
       Reference C6 values for interpolation: 

         atom   Coordination number   C6
         S          0.000           268.01
         S          0.995           261.99
         S          1.990           251.62
         Mo         0.000          1691.79
         Mo         1.942          1004.01
         Mo        11.056           674.22

       Values used:

         atom   Coordination number  R0_AB[au]  C6      C8
         Mo         9.680            3.547    674.22  77634.20
         S          3.361            3.128    251.62  12327.25
         S          3.361            3.128    251.62  12327.25

         Molecular C6 ( Ry / a.u.^6 ) =      3323.66


     number of k points=    41  Gaussian smearing, width (Ry)=  0.0073
                       cart. coord. in units 2pi/alat
        k(    1) = (   0.0000000   0.0000000   0.0000000), wk =   0.0246914
        k(    2) = (   0.0000000   0.1283001   0.0000000), wk =   0.0493827
        k(    3) = (   0.0000000   0.2566001   0.0000000), wk =   0.0493827
        k(    4) = (   0.0000000   0.3849002   0.0000000), wk =   0.0493827
        k(    5) = (   0.0000000   0.5132002   0.0000000), wk =   0.0493827
        k(    6) = (   0.1111111   0.0641500   0.0000000), wk =   0.0493827
        k(    7) = (   0.1111111   0.1924501   0.0000000), wk =   0.0493827
        k(    8) = (   0.1111111   0.3207501   0.0000000), wk =   0.0493827
        k(    9) = (   0.1111111   0.4490502   0.0000000), wk =   0.0493827
        k(   10) = (   0.1111111   0.5773503   0.0000000), wk =   0.0493827
        k(   11) = (   0.1111111  -0.4490502   0.0000000), wk =   0.0493827
        k(   12) = (   0.1111111  -0.3207501   0.0000000), wk =   0.0493827
        k(   13) = (   0.1111111  -0.1924501   0.0000000), wk =   0.0493827
        k(   14) = (   0.1111111  -0.0641500   0.0000000), wk =   0.0493827
        k(   15) = (   0.2222222   0.1283001   0.0000000), wk =   0.0493827
        k(   16) = (   0.2222222   0.2566001   0.0000000), wk =   0.0493827
        k(   17) = (   0.2222222   0.3849002   0.0000000), wk =   0.0493827
        k(   18) = (   0.2222222   0.5132002   0.0000000), wk =   0.0493827
        k(   19) = (   0.2222222   0.6415003   0.0000000), wk =   0.0493827
        k(   20) = (   0.2222222  -0.3849002   0.0000000), wk =   0.0493827
        k(   21) = (   0.2222222  -0.2566001   0.0000000), wk =   0.0493827
        k(   22) = (   0.2222222  -0.1283001   0.0000000), wk =   0.0493827
        k(   23) = (   0.2222222  -0.0000000   0.0000000), wk =   0.0493827
        k(   24) = (   0.3333333   0.1924501   0.0000000), wk =   0.0493827
        k(   25) = (   0.3333333   0.3207501   0.0000000), wk =   0.0493827
        k(   26) = (   0.3333333   0.4490502   0.0000000), wk =   0.0493827
        k(   27) = (   0.3333333   0.5773503   0.0000000), wk =   0.0493827
        k(   28) = (   0.3333333   0.7056503   0.0000000), wk =   0.0493827
        k(   29) = (   0.3333333  -0.3207501   0.0000000), wk =   0.0493827
        k(   30) = (   0.3333333  -0.1924501   0.0000000), wk =   0.0493827
        k(   31) = (   0.3333333  -0.0641500   0.0000000), wk =   0.0493827
        k(   32) = (   0.3333333   0.0641500   0.0000000), wk =   0.0493827
        k(   33) = (   0.4444444   0.2566001   0.0000000), wk =   0.0493827
        k(   34) = (   0.4444444   0.3849002   0.0000000), wk =   0.0493827
        k(   35) = (   0.4444444   0.5132002   0.0000000), wk =   0.0493827
        k(   36) = (   0.4444444   0.6415003   0.0000000), wk =   0.0493827
        k(   37) = (   0.4444444   0.7698004   0.0000000), wk =   0.0493827
        k(   38) = (   0.4444444  -0.2566001   0.0000000), wk =   0.0493827
        k(   39) = (   0.4444444  -0.1283001   0.0000000), wk =   0.0493827
        k(   40) = (   0.4444444   0.0000000   0.0000000), wk =   0.0493827
        k(   41) = (   0.4444444   0.1283001   0.0000000), wk =   0.0493827

     Dense  grid:   337953 G-vectors     FFT dimensions: (  50,  50, 320)

     Smooth grid:    85631 G-vectors     FFT dimensions: (  32,  32, 192)

     Estimated max dynamical RAM per process >     345.58 MB

     Estimated total dynamical RAM >       1.35 GB

     Initial potential from superposition of free atoms

     starting charge      25.9991, renormalised to      26.0000

     negative rho (up, down):  5.105E-05 0.000E+00
     Starting wfcs are   18 randomized atomic wfcs
     Checking if some PAW data can be deallocated... 

     total cpu time spent up to now is       11.4 secs

     Self-consistent Calculation

     iteration #  1     ecut=    70.00 Ry     beta= 0.70
     Davidson diagonalization with overlap
     ethr =  1.00E-02,  avg # of iterations =  2.0

     Threshold (ethr) on eigenvalues was too large:
     Diagonalizing with lowered threshold

     Davidson diagonalization with overlap
     ethr =  2.80E-04,  avg # of iterations =  3.1

     negative rho (up, down):  5.932E-05 0.000E+00

     total cpu time spent up to now is       52.1 secs

     total energy              =    -496.50768812 Ry
     estimated scf accuracy    <       0.11463467 Ry

     iteration #  2     ecut=    70.00 Ry     beta= 0.70
     Davidson diagonalization with overlap
     ethr =  4.41E-04,  avg # of iterations =  3.0

     negative rho (up, down):  5.951E-05 0.000E+00

     total cpu time spent up to now is       70.4 secs

     total energy              =    -496.34684071 Ry
     estimated scf accuracy    <       2.03258399 Ry

     iteration #  3     ecut=    70.00 Ry     beta= 0.70
     Davidson diagonalization with overlap
     ethr =  4.41E-04,  avg # of iterations =  3.1

     negative rho (up, down):  6.194E-05 0.000E+00

     total cpu time spent up to now is       79.2 secs

     total energy              =    -496.54629839 Ry
     estimated scf accuracy    <       0.18005572 Ry

     iteration #  4     ecut=    70.00 Ry     beta= 0.70
     Davidson diagonalization with overlap
     ethr =  4.41E-04,  avg # of iterations =  1.1

     negative rho (up, down):  6.613E-05 0.000E+00

     total cpu time spent up to now is       85.9 secs

     total energy              =    -496.56469802 Ry
     estimated scf accuracy    <       0.00303314 Ry

     iteration #  5     ecut=    70.00 Ry     beta= 0.70
     Davidson diagonalization with overlap
     ethr =  1.17E-05,  avg # of iterations =  2.1

     negative rho (up, down):  6.693E-05 0.000E+00

     total cpu time spent up to now is       92.6 secs

     total energy              =    -496.56482435 Ry
     estimated scf accuracy    <       0.00278994 Ry

     iteration #  6     ecut=    70.00 Ry     beta= 0.70
     Davidson diagonalization with overlap
     ethr =  1.07E-05,  avg # of iterations =  1.1

     negative rho (up, down):  6.883E-05 0.000E+00

     total cpu time spent up to now is       98.6 secs

     total energy              =    -496.56509757 Ry
     estimated scf accuracy    <       0.00319282 Ry

     iteration #  7     ecut=    70.00 Ry     beta= 0.70
     Davidson diagonalization with overlap
     ethr =  1.07E-05,  avg # of iterations =  1.0

     negative rho (up, down):  7.023E-05 0.000E+00

     total cpu time spent up to now is      105.4 secs

     total energy              =    -496.56527984 Ry
     estimated scf accuracy    <       0.00001224 Ry

     iteration #  8     ecut=    70.00 Ry     beta= 0.70
     Davidson diagonalization with overlap
     ethr =  4.71E-08,  avg # of iterations =  3.4

     negative rho (up, down):  7.036E-05 0.000E+00

     total cpu time spent up to now is      118.4 secs

     total energy              =    -496.56528604 Ry
     estimated scf accuracy    <       0.00000410 Ry

     iteration #  9     ecut=    70.00 Ry     beta= 0.70
     Davidson diagonalization with overlap
     ethr =  1.58E-08,  avg # of iterations =  1.1

     negative rho (up, down):  7.044E-05 0.000E+00

     total cpu time spent up to now is      128.8 secs

     End of self-consistent calculation

          k = 0.0000 0.0000 0.0000 ( 10685 PWs)   bands (ev):

   -61.4138 -35.5111 -35.1759 -35.1759 -13.6343 -13.2003  -5.3445  -2.9744
    -1.6894  -1.2024  -1.2024  -0.1439  -0.1438   1.9477   1.9477   2.2545
     2.2545

          k = 0.0000 0.1283 0.0000 ( 10675 PWs)   bands (ev):

   -61.4088 -35.5039 -35.2211 -35.1866 -13.4582 -13.0637  -5.0911  -3.0297
    -1.6449  -1.5593  -1.0022  -0.5356  -0.4091   1.2743   1.7858   1.9024
     2.3580

          k = 0.0000 0.2566 0.0000 ( 10668 PWs)   bands (ev):

   -61.3962 -35.4857 -35.3345 -35.2136 -12.9658 -12.6830  -4.4684  -3.2416
    -2.7042  -1.6857  -1.4548  -0.9481  -0.5309   0.5412   1.5362   1.7338
     2.4866

          k = 0.0000 0.3849 0.0000 ( 10710 PWs)   bands (ev):

   -61.3819 -35.4649 -35.4612 -35.2441 -12.2874 -12.1654  -4.2944  -3.9114
    -3.6315  -2.5822  -1.5273  -1.4338  -0.2187   0.9210   1.7015   1.9547
     2.5127

          k = 0.0000 0.5132 0.0000 ( 10710 PWs)   bands (ev):

   -61.3724 -35.5428 -35.4514 -35.2639 -11.7514 -11.7268  -5.1686  -4.7051
    -3.5960  -2.8059  -1.7066  -1.3038  -0.2143   1.6380   2.1742   2.1920
     2.4928

          k = 0.1111 0.0642 0.0000 ( 10675 PWs)   bands (ev):

   -61.4088 -35.5039 -35.2211 -35.1866 -13.4582 -13.0637  -5.0911  -3.0297
    -1.6449  -1.5593  -1.0022  -0.5356  -0.4091   1.2743   1.7858   1.9024
     2.3580

          k = 0.1111 0.1925 0.0000 ( 10656 PWs)   bands (ev):

   -61.4000 -35.4912 -35.2964 -35.2095 -13.1232 -12.8043  -4.6400  -3.1339
    -2.3484  -1.4407  -1.4288  -0.7253  -0.7164   0.6173   1.5424   1.6914
     2.4324

          k = 0.1111 0.3208 0.0000 ( 10681 PWs)   bands (ev):

   -61.3865 -35.4717 -35.4070 -35.2477 -12.5311 -12.3484  -4.0262  -3.4180
    -3.4087  -2.5860  -1.5564  -1.2808  -0.4855   0.3629   1.7307   1.7566
     2.4377

          k = 0.1111 0.4491 0.0000 ( 10685 PWs)   bands (ev):

   -61.3746 -35.5024 -35.4545 -35.2815 -11.8843 -11.8605  -4.6586  -4.2808
    -3.5066  -2.8766  -1.8453  -1.6542  -0.5224   1.0226   1.9131   2.2359
     2.4794

          k = 0.1111 0.5774 0.0000 ( 10692 PWs)   bands (ev):

   -61.3699 -35.5397 -35.4478 -35.2949 -11.6336 -11.5748  -5.1458  -4.7345
    -3.4870  -2.8275  -2.1205  -1.5882  -0.5136   1.6941   1.9466   2.2036
     2.5485

          k = 0.1111-0.4491 0.0000 ( 10685 PWs)   bands (ev):

   -61.3746 -35.5024 -35.4545 -35.2815 -11.8843 -11.8605  -4.6586  -4.2808
    -3.5066  -2.8766  -1.8453  -1.6542  -0.5224   1.0226   1.9131   2.2359
     2.4794

          k = 0.1111-0.3208 0.0000 ( 10681 PWs)   bands (ev):

   -61.3865 -35.4717 -35.4070 -35.2477 -12.5311 -12.3484  -4.0262  -3.4180
    -3.4087  -2.5860  -1.5564  -1.2808  -0.4855   0.3629   1.7307   1.7566
     2.4377

          k = 0.1111-0.1925 0.0000 ( 10656 PWs)   bands (ev):

   -61.4000 -35.4912 -35.2964 -35.2095 -13.1232 -12.8043  -4.6400  -3.1339
    -2.3484  -1.4407  -1.4288  -0.7253  -0.7164   0.6173   1.5424   1.6914
     2.4324

          k = 0.1111-0.0642 0.0000 ( 10675 PWs)   bands (ev):

   -61.4088 -35.5039 -35.2212 -35.1866 -13.4582 -13.0637  -5.0911  -3.0297
    -1.6449  -1.5593  -1.0022  -0.5356  -0.4091   1.2743   1.7858   1.9024
     2.3580

          k = 0.2222 0.1283 0.0000 ( 10668 PWs)   bands (ev):

   -61.3962 -35.4857 -35.3345 -35.2136 -12.9658 -12.6830  -4.4684  -3.2416
    -2.7042  -1.6857  -1.4548  -0.9481  -0.5309   0.5412   1.5362   1.7338
     2.4866

          k = 0.2222 0.2566 0.0000 ( 10681 PWs)   bands (ev):

   -61.3865 -35.4717 -35.4070 -35.2477 -12.5311 -12.3484  -4.0262  -3.4180
    -3.4087  -2.5860  -1.5564  -1.2808  -0.4855   0.3629   1.7307   1.7566
     2.4377

          k = 0.2222 0.3849 0.0000 ( 10690 PWs)   bands (ev):

   -61.3755 -35.4678 -35.4558 -35.3075 -11.9507 -11.9046  -4.1817  -3.7744
    -3.4347  -3.2735  -2.1059  -1.8858  -0.6768   0.5509   1.5665   2.3495
     2.5909

          k = 0.2222 0.5132 0.0000 ( 10733 PWs)   bands (ev):

   -61.3683 -35.4966 -35.4454 -35.3572 -11.5617 -11.4965  -4.6224  -4.4191
    -3.2839  -3.0906  -2.6345  -2.5346  -0.5337   1.2666   1.3166   2.2711
     2.8983

          k = 0.2222 0.6415 0.0000 ( 10733 PWs)   bands (ev):

   -61.3683 -35.4966 -35.4454 -35.3572 -11.5617 -11.4965  -4.6224  -4.4191
    -3.2839  -3.0906  -2.6345  -2.5346  -0.5337   1.2666   1.3166   2.2711
     2.8983

          k = 0.2222-0.3849 0.0000 ( 10690 PWs)   bands (ev):

   -61.3755 -35.4678 -35.4558 -35.3075 -11.9507 -11.9046  -4.1817  -3.7744
    -3.4347  -3.2735  -2.1059  -1.8858  -0.6768   0.5509   1.5665   2.3495
     2.5909

          k = 0.2222-0.2566 0.0000 ( 10681 PWs)   bands (ev):

   -61.3865 -35.4717 -35.4070 -35.2477 -12.5311 -12.3484  -4.0262  -3.4180
    -3.4087  -2.5860  -1.5564  -1.2808  -0.4855   0.3629   1.7307   1.7566
     2.4377

          k = 0.2222-0.1283 0.0000 ( 10668 PWs)   bands (ev):

   -61.3962 -35.4857 -35.3345 -35.2136 -12.9658 -12.6830  -4.4684  -3.2416
    -2.7042  -1.6857  -1.4548  -0.9481  -0.5309   0.5412   1.5362   1.7338
     2.4866

          k = 0.2222-0.0000 0.0000 ( 10656 PWs)   bands (ev):

   -61.4000 -35.4912 -35.2964 -35.2095 -13.1232 -12.8043  -4.6400  -3.1339
    -2.3484  -1.4407  -1.4288  -0.7253  -0.7164   0.6173   1.5424   1.6914
     2.4324

          k = 0.3333 0.1925 0.0000 ( 10710 PWs)   bands (ev):

   -61.3819 -35.4649 -35.4612 -35.2441 -12.2874 -12.1654  -4.2944  -3.9114
    -3.6315  -2.5822  -1.5273  -1.4338  -0.2187   0.9210   1.7015   1.9547
     2.5127

          k = 0.3333 0.3208 0.0000 ( 10685 PWs)   bands (ev):

   -61.3746 -35.5024 -35.4545 -35.2815 -11.8843 -11.8605  -4.6586  -4.2808
    -3.5066  -2.8766  -1.8453  -1.6542  -0.5224   1.0226   1.9131   2.2359
     2.4794

          k = 0.3333 0.4491 0.0000 ( 10733 PWs)   bands (ev):

   -61.3683 -35.4966 -35.4454 -35.3572 -11.5617 -11.4965  -4.6224  -4.4191
    -3.2839  -3.0906  -2.6345  -2.5346  -0.5337   1.2666   1.3166   2.2711
     2.8983

          k = 0.3333 0.5774 0.0000 ( 10716 PWs)   bands (ev):

   -61.3658 -35.4463 -35.4418 -35.4354 -11.4339 -11.3342  -4.4109  -4.2080
    -3.6507  -3.1901  -3.0705  -2.8594  -0.3534   1.0266   1.6670   1.8086
     3.1296

          k = 0.3333 0.7057 0.0000 ( 10733 PWs)   bands (ev):

   -61.3683 -35.4967 -35.4454 -35.3572 -11.5617 -11.4965  -4.6224  -4.4191
    -3.2839  -3.0906  -2.6345  -2.5346  -0.5337   1.2666   1.3166   2.2710
     2.8983

          k = 0.3333-0.3208 0.0000 ( 10685 PWs)   bands (ev):

   -61.3746 -35.5024 -35.4545 -35.2815 -11.8843 -11.8605  -4.6586  -4.2808
    -3.5066  -2.8766  -1.8453  -1.6542  -0.5224   1.0226   1.9131   2.2359
     2.4794

          k = 0.3333-0.1925 0.0000 ( 10710 PWs)   bands (ev):

   -61.3819 -35.4649 -35.4612 -35.2441 -12.2874 -12.1654  -4.2944  -3.9114
    -3.6315  -2.5822  -1.5273  -1.4338  -0.2187   0.9210   1.7015   1.9547
     2.5127

          k = 0.3333-0.0642 0.0000 ( 10681 PWs)   bands (ev):

   -61.3865 -35.4717 -35.4070 -35.2477 -12.5311 -12.3484  -4.0262  -3.4180
    -3.4087  -2.5860  -1.5564  -1.2808  -0.4855   0.3629   1.7307   1.7566
     2.4377

          k = 0.3333 0.0642 0.0000 ( 10681 PWs)   bands (ev):

   -61.3865 -35.4717 -35.4070 -35.2477 -12.5311 -12.3484  -4.0262  -3.4180
    -3.4087  -2.5860  -1.5564  -1.2808  -0.4855   0.3629   1.7307   1.7566
     2.4377

          k = 0.4444 0.2566 0.0000 ( 10710 PWs)   bands (ev):

   -61.3724 -35.5428 -35.4514 -35.2639 -11.7514 -11.7268  -5.1686  -4.7051
    -3.5960  -2.8059  -1.7066  -1.3038  -0.2143   1.6380   2.1742   2.1920
     2.4928

          k = 0.4444 0.3849 0.0000 ( 10692 PWs)   bands (ev):

   -61.3699 -35.5397 -35.4478 -35.2949 -11.6336 -11.5748  -5.1458  -4.7345
    -3.4870  -2.8275  -2.1205  -1.5882  -0.5136   1.6941   1.9466   2.2036
     2.5485

          k = 0.4444 0.5132 0.0000 ( 10733 PWs)   bands (ev):

   -61.3683 -35.4966 -35.4454 -35.3572 -11.5617 -11.4965  -4.6224  -4.4191
    -3.2839  -3.0906  -2.6345  -2.5346  -0.5337   1.2666   1.3166   2.2711
     2.8983

          k = 0.4444 0.6415 0.0000 ( 10733 PWs)   bands (ev):

   -61.3683 -35.4967 -35.4454 -35.3572 -11.5617 -11.4965  -4.6224  -4.4191
    -3.2839  -3.0906  -2.6345  -2.5346  -0.5337   1.2666   1.3166   2.2711
     2.8983

          k = 0.4444 0.7698 0.0000 ( 10692 PWs)   bands (ev):

   -61.3699 -35.5397 -35.4478 -35.2949 -11.6336 -11.5748  -5.1458  -4.7345
    -3.4870  -2.8275  -2.1205  -1.5882  -0.5136   1.6941   1.9466   2.2036
     2.5485

          k = 0.4444-0.2566 0.0000 ( 10710 PWs)   bands (ev):

   -61.3724 -35.5428 -35.4514 -35.2639 -11.7514 -11.7268  -5.1686  -4.7051
    -3.5960  -2.8059  -1.7066  -1.3038  -0.2143   1.6380   2.1742   2.1920
     2.4928

          k = 0.4444-0.1283 0.0000 ( 10685 PWs)   bands (ev):

   -61.3746 -35.5024 -35.4545 -35.2815 -11.8843 -11.8605  -4.6586  -4.2808
    -3.5066  -2.8766  -1.8453  -1.6542  -0.5224   1.0226   1.9131   2.2359
     2.4794

          k = 0.4444 0.0000 0.0000 ( 10690 PWs)   bands (ev):

   -61.3755 -35.4678 -35.4558 -35.3075 -11.9507 -11.9046  -4.1817  -3.7744
    -3.4347  -3.2735  -2.1059  -1.8858  -0.6768   0.5509   1.5665   2.3495
     2.5909

          k = 0.4444 0.1283 0.0000 ( 10685 PWs)   bands (ev):

   -61.3746 -35.5024 -35.4545 -35.2815 -11.8843 -11.8605  -4.6586  -4.2808
    -3.5066  -2.8766  -1.8453  -1.6542  -0.5224   1.0226   1.9131   2.2359
     2.4794

     the Fermi energy is     0.0938 ev

!    total energy              =    -496.56528589 Ry
     estimated scf accuracy    <       0.00000048 Ry
     smearing contrib. (-TS)   =      -0.00000084 Ry
     internal energy E=F+TS    =    -496.56528505 Ry

     convergence has been achieved in   9 iterations

     negative rho (up, down):  7.044E-05 0.000E+00

     Forces acting on atoms (cartesian axes, Ry/au):

     atom    1 type  1   force =     0.00000069    0.00000153    0.00014570
     atom    2 type  2   force =     0.00000024   -0.00000278   -0.16950827
     atom    3 type  2   force =    -0.00000093    0.00000125    0.16936257
     The non-local contrib.  to forces
     atom    1 type  1   force =     0.00000144    0.00000091    0.00004473
     atom    2 type  2   force =    -0.00000365    0.00000304   -0.33001180
     atom    3 type  2   force =    -0.00000012   -0.00000237    0.33007286
     The ionic contribution  to forces
     atom    1 type  1   force =     0.00000000    0.00000000   -0.00000000
     atom    2 type  2   force =    -0.00000000    0.00000000   35.44101088
     atom    3 type  2   force =    -0.00000000    0.00000000  -35.44101088
     The local contribution  to forces
     atom    1 type  1   force =    -0.00000538    0.00000247    0.00145713
     atom    2 type  2   force =     0.00000312   -0.00000756  -35.28273013
     atom    3 type  2   force =    -0.00000365    0.00000549   35.28329212
     The core correction contribution to forces
     atom    1 type  1   force =    -0.00000011    0.00000002    0.00000515
     atom    2 type  2   force =     0.00000009   -0.00000019    0.00617489
     atom    3 type  2   force =    -0.00000007    0.00000012   -0.00617404
     The Hubbard contrib.    to forces
     atom    1 type  1   force =     0.00000000    0.00000000    0.00000000
     atom    2 type  2   force =     0.00000000    0.00000000    0.00000000
     atom    3 type  2   force =     0.00000000    0.00000000    0.00000000
     The SCF correction term to forces
     atom    1 type  1   force =     0.00000295   -0.00000181   -0.00124968
     atom    2 type  2   force =    -0.00000112    0.00000198   -0.00136911
     atom    3 type  2   force =     0.00000111   -0.00000194    0.00082280

     DFT-D3 dispersion contribution to forces:
     atom    1 type  1   force =     0.00000000    0.00000000    0.00000000
     atom    2 type  2   force =     0.00000000    0.00000000   -0.00247136
     atom    3 type  2   force =    -0.00000000   -0.00000000    0.00247136

     Total force =     0.239618     Total SCF correction =     0.002028


     Computing stress (Cartesian axis) and pressure


     negative rho (up, down):  7.044E-05 0.000E+00
          total   stress  (Ry/bohr**3)                   (kbar)     P=      -77.90
  -0.00020033   0.00000000  -0.00000000          -29.47        0.00       -0.00
   0.00000000  -0.00020033  -0.00000000            0.00      -29.47       -0.00
  -0.00000000  -0.00000000  -0.00118798           -0.00       -0.00     -174.76


     Entering Dynamics:    iteration =     2

     <vel(dt)|acc(dt)> =  -0.16940937

ATOMIC_POSITIONS (crystal)
Mo            0.0000001173        0.0000001316        0.5000017808
S             0.6666665650        0.3333330943        0.6031912602
S             0.6666666511        0.3333334407        0.3968069590



     Writing config-only to output data dir ./tmp/scf.save/
     NEW-OLD atomic charge density approx. for the potential

     negative rho (up, down):  7.162E-05 0.000E+00

     total cpu time spent up to now is      164.1 secs

     Self-consistent Calculation

     iteration #  1     ecut=    70.00 Ry     beta= 0.70
     Davidson diagonalization with overlap
     ethr =  1.00E-06,  avg # of iterations =  7.1

     negative rho (up, down):  7.130E-05 0.000E+00

     total cpu time spent up to now is      196.9 secs

     total energy              =    -496.58935939 Ry
     estimated scf accuracy    <       0.00103704 Ry

     iteration #  2     ecut=    70.00 Ry     beta= 0.70
     Davidson diagonalization with overlap
     ethr =  3.99E-06,  avg # of iterations =  3.1

     negative rho (up, down):  7.090E-05 0.000E+00

     total cpu time spent up to now is      215.6 secs

     total energy              =    -496.58656696 Ry
     estimated scf accuracy    <       0.04462107 Ry

     iteration #  3     ecut=    70.00 Ry     beta= 0.70
     Davidson diagonalization with overlap
     ethr =  3.99E-06,  avg # of iterations =  3.0

     negative rho (up, down):  7.095E-05 0.000E+00

     total cpu time spent up to now is      232.8 secs

     total energy              =    -496.59001965 Ry
     estimated scf accuracy    <       0.00009629 Ry

     iteration #  4     ecut=    70.00 Ry     beta= 0.70
     Davidson diagonalization with overlap
     ethr =  3.70E-07,  avg # of iterations =  2.8

     negative rho (up, down):  7.091E-05 0.000E+00

     total cpu time spent up to now is      249.0 secs

     total energy              =    -496.58993724 Ry
     estimated scf accuracy    <       0.00221471 Ry

     iteration #  5     ecut=    70.00 Ry     beta= 0.70
     Davidson diagonalization with overlap
     ethr =  3.70E-07,  avg # of iterations =  2.0

     negative rho (up, down):  7.092E-05 0.000E+00

     total cpu time spent up to now is      264.3 secs

     total energy              =    -496.59006926 Ry
     estimated scf accuracy    <       0.00000967 Ry

     iteration #  6     ecut=    70.00 Ry     beta= 0.70
     Davidson diagonalization with overlap
     ethr =  3.72E-08,  avg # of iterations =  2.1

     negative rho (up, down):  7.091E-05 0.000E+00

     total cpu time spent up to now is      279.8 secs

     total energy              =    -496.59007025 Ry
     estimated scf accuracy    <       0.00000149 Ry

     iteration #  7     ecut=    70.00 Ry     beta= 0.70
     Davidson diagonalization with overlap
     ethr =  5.72E-09,  avg # of iterations =  2.5

     negative rho (up, down):  7.091E-05 0.000E+00

     total cpu time spent up to now is      296.6 secs

     End of self-consistent calculation

          k = 0.0000 0.0000 0.0000 ( 10685 PWs)   bands (ev):

   -61.3960 -35.4934 -35.1663 -35.1663 -13.7084 -13.2268  -5.3934  -2.9431
    -1.6120  -1.3012  -1.3012  -0.2595  -0.2595   1.9889   1.9889   2.2871
     2.2871

          k = 0.0000 0.1283 0.0000 ( 10675 PWs)   bands (ev):

   -61.3910 -35.4860 -35.2119 -35.1771 -13.5309 -13.0931  -5.1416  -3.0163
    -1.7406  -1.5071  -1.1039  -0.6315  -0.5301   1.3355   1.8275   1.9516
     2.4072

          k = 0.0000 0.2566 0.0000 ( 10668 PWs)   bands (ev):

   -61.3783 -35.4672 -35.3263 -35.2042 -13.0352 -12.7209  -4.5266  -3.2777
    -2.8147  -1.7228  -1.4257  -1.0782  -0.6384   0.6319   1.5790   1.8148
     2.5675

          k = 0.0000 0.3849 0.0000 ( 10710 PWs)   bands (ev):

   -61.3639 -35.4542 -35.4458 -35.2349 -12.3532 -12.2162  -4.3960  -3.9890
    -3.6950  -2.5692  -1.5704  -1.5101  -0.3121   1.0028   1.7261   2.0695
     2.6178

          k = 0.0000 0.5132 0.0000 ( 10710 PWs)   bands (ev):

   -61.3544 -35.5364 -35.4318 -35.2549 -11.8141 -11.7905  -5.2608  -4.7682
    -3.6673  -2.7986  -1.8462  -1.2814  -0.2863   1.7167   2.1746   2.3227
     2.6094

          k = 0.1111 0.0642 0.0000 ( 10675 PWs)   bands (ev):

   -61.3910 -35.4860 -35.2119 -35.1771 -13.5309 -13.0931  -5.1416  -3.0163
    -1.7406  -1.5071  -1.1039  -0.6315  -0.5301   1.3355   1.8275   1.9516
     2.4072

          k = 0.1111 0.1925 0.0000 ( 10656 PWs)   bands (ev):

   -61.3822 -35.4729 -35.2878 -35.2001 -13.1936 -12.8394  -4.6947  -3.1491
    -2.4616  -1.5235  -1.4058  -0.8189  -0.8151   0.6992   1.5899   1.7492
     2.5168

          k = 0.1111 0.3208 0.0000 ( 10681 PWs)   bands (ev):

   -61.3686 -35.4528 -35.3994 -35.2386 -12.5980 -12.3942  -4.1056  -3.4963
    -3.4833  -2.6363  -1.5703  -1.3603  -0.5600   0.4576   1.7691   1.8352
     2.5599

          k = 0.1111 0.4491 0.0000 ( 10685 PWs)   bands (ev):

   -61.3566 -35.4957 -35.4351 -35.2727 -11.9485 -11.9192  -4.7564  -4.3567
    -3.5749  -2.8989  -1.9373  -1.6804  -0.5520   1.0946   2.0216   2.2672
     2.6120

          k = 0.1111 0.5774 0.0000 ( 10692 PWs)   bands (ev):

   -61.3519 -35.5333 -35.4281 -35.2861 -11.6991 -11.6380  -5.2351  -4.8019
    -3.5644  -2.8349  -2.2320  -1.6207  -0.5212   1.7556   2.0703   2.2512
     2.6767

          k = 0.1111-0.4491 0.0000 ( 10685 PWs)   bands (ev):

   -61.3566 -35.4957 -35.4351 -35.2727 -11.9485 -11.9192  -4.7564  -4.3567
    -3.5749  -2.8989  -1.9373  -1.6804  -0.5520   1.0946   2.0216   2.2672
     2.6120

          k = 0.1111-0.3208 0.0000 ( 10681 PWs)   bands (ev):

   -61.3686 -35.4528 -35.3994 -35.2386 -12.5980 -12.3942  -4.1056  -3.4963
    -3.4833  -2.6363  -1.5703  -1.3603  -0.5600   0.4576   1.7691   1.8352
     2.5599

          k = 0.1111-0.1925 0.0000 ( 10656 PWs)   bands (ev):

   -61.3822 -35.4729 -35.2878 -35.2001 -13.1936 -12.8394  -4.6947  -3.1491
    -2.4616  -1.5235  -1.4058  -0.8189  -0.8151   0.6992   1.5899   1.7492
     2.5168

          k = 0.1111-0.0642 0.0000 ( 10675 PWs)   bands (ev):

   -61.3910 -35.4860 -35.2119 -35.1771 -13.5309 -13.0931  -5.1416  -3.0163
    -1.7406  -1.5071  -1.1039  -0.6315  -0.5301   1.3355   1.8275   1.9516
     2.4072

          k = 0.2222 0.1283 0.0000 ( 10668 PWs)   bands (ev):

   -61.3783 -35.4672 -35.3263 -35.2042 -13.0352 -12.7209  -4.5266  -3.2777
    -2.8147  -1.7228  -1.4257  -1.0782  -0.6384   0.6319   1.5790   1.8148
     2.5675

          k = 0.2222 0.2566 0.0000 ( 10681 PWs)   bands (ev):

   -61.3686 -35.4528 -35.3994 -35.2386 -12.5980 -12.3942  -4.1056  -3.4963
    -3.4833  -2.6363  -1.5703  -1.3603  -0.5600   0.4576   1.7691   1.8352
     2.5599

          k = 0.2222 0.3849 0.0000 ( 10690 PWs)   bands (ev):

   -61.3575 -35.4608 -35.4364 -35.2989 -12.0152 -11.9615  -4.2913  -3.8703
    -3.4898  -3.3239  -2.1737  -1.9241  -0.6819   0.6446   1.6636   2.3861
     2.7341

          k = 0.2222 0.5132 0.0000 ( 10733 PWs)   bands (ev):

   -61.3502 -35.4899 -35.4257 -35.3490 -11.6277 -11.5595  -4.7125  -4.5154
    -3.3659  -3.1468  -2.7002  -2.5608  -0.5160   1.3474   1.4343   2.3420
     3.0451

          k = 0.2222 0.6415 0.0000 ( 10733 PWs)   bands (ev):

   -61.3502 -35.4899 -35.4257 -35.3490 -11.6277 -11.5595  -4.7125  -4.5154
    -3.3659  -3.1468  -2.7002  -2.5608  -0.5160   1.3474   1.4343   2.3420
     3.0451

          k = 0.2222-0.3849 0.0000 ( 10690 PWs)   bands (ev):

   -61.3575 -35.4608 -35.4364 -35.2989 -12.0152 -11.9615  -4.2913  -3.8703
    -3.4898  -3.3239  -2.1737  -1.9241  -0.6819   0.6446   1.6636   2.3861
     2.7341

          k = 0.2222-0.2566 0.0000 ( 10681 PWs)   bands (ev):

   -61.3686 -35.4528 -35.3994 -35.2386 -12.5980 -12.3942  -4.1056  -3.4963
    -3.4833  -2.6363  -1.5703  -1.3603  -0.5600   0.4576   1.7691   1.8352
     2.5599

          k = 0.2222-0.1283 0.0000 ( 10668 PWs)   bands (ev):

   -61.3783 -35.4672 -35.3263 -35.2042 -13.0352 -12.7209  -4.5266  -3.2777
    -2.8147  -1.7228  -1.4257  -1.0782  -0.6384   0.6319   1.5790   1.8148
     2.5675

          k = 0.2222-0.0000 0.0000 ( 10656 PWs)   bands (ev):

   -61.3822 -35.4729 -35.2878 -35.2001 -13.1936 -12.8394  -4.6947  -3.1492
    -2.4616  -1.5235  -1.4058  -0.8189  -0.8151   0.6992   1.5899   1.7492
     2.5168

          k = 0.3333 0.1925 0.0000 ( 10710 PWs)   bands (ev):

   -61.3639 -35.4542 -35.4458 -35.2349 -12.3532 -12.2162  -4.3960  -3.9890
    -3.6950  -2.5692  -1.5704  -1.5101  -0.3121   1.0028   1.7261   2.0695
     2.6178

          k = 0.3333 0.3208 0.0000 ( 10685 PWs)   bands (ev):

   -61.3566 -35.4957 -35.4351 -35.2727 -11.9485 -11.9192  -4.7564  -4.3567
    -3.5749  -2.8989  -1.9373  -1.6804  -0.5520   1.0946   2.0216   2.2672
     2.6120

          k = 0.3333 0.4491 0.0000 ( 10733 PWs)   bands (ev):

   -61.3502 -35.4899 -35.4257 -35.3490 -11.6277 -11.5595  -4.7125  -4.5154
    -3.3659  -3.1468  -2.7002  -2.5608  -0.5160   1.3474   1.4343   2.3420
     3.0451

          k = 0.3333 0.5774 0.0000 ( 10716 PWs)   bands (ev):

   -61.3477 -35.4398 -35.4272 -35.4219 -11.5028 -11.3969  -4.5368  -4.2970
    -3.7274  -3.2221  -3.1473  -2.8772  -0.3331   1.1482   1.7119   1.9348
     3.2858

          k = 0.3333 0.7057 0.0000 ( 10733 PWs)   bands (ev):

   -61.3502 -35.4899 -35.4257 -35.3490 -11.6277 -11.5595  -4.7125  -4.5154
    -3.3659  -3.1468  -2.7002  -2.5608  -0.5160   1.3474   1.4343   2.3420
     3.0451

          k = 0.3333-0.3208 0.0000 ( 10685 PWs)   bands (ev):

   -61.3566 -35.4957 -35.4351 -35.2727 -11.9485 -11.9192  -4.7564  -4.3567
    -3.5749  -2.8989  -1.9373  -1.6804  -0.5520   1.0946   2.0216   2.2672
     2.6120

          k = 0.3333-0.1925 0.0000 ( 10710 PWs)   bands (ev):

   -61.3639 -35.4542 -35.4458 -35.2349 -12.3532 -12.2162  -4.3960  -3.9890
    -3.6950  -2.5692  -1.5704  -1.5101  -0.3121   1.0028   1.7261   2.0695
     2.6178

          k = 0.3333-0.0642 0.0000 ( 10681 PWs)   bands (ev):

   -61.3686 -35.4528 -35.3994 -35.2386 -12.5980 -12.3942  -4.1056  -3.4963
    -3.4833  -2.6363  -1.5703  -1.3603  -0.5600   0.4576   1.7691   1.8352
     2.5599

          k = 0.3333 0.0642 0.0000 ( 10681 PWs)   bands (ev):

   -61.3686 -35.4528 -35.3994 -35.2386 -12.5980 -12.3942  -4.1056  -3.4963
    -3.4833  -2.6363  -1.5703  -1.3603  -0.5600   0.4576   1.7691   1.8352
     2.5599

          k = 0.4444 0.2566 0.0000 ( 10710 PWs)   bands (ev):

   -61.3544 -35.5364 -35.4318 -35.2549 -11.8141 -11.7905  -5.2608  -4.7682
    -3.6673  -2.7986  -1.8462  -1.2814  -0.2863   1.7167   2.1746   2.3227
     2.6094

          k = 0.4444 0.3849 0.0000 ( 10692 PWs)   bands (ev):

   -61.3519 -35.5333 -35.4281 -35.2861 -11.6991 -11.6380  -5.2351  -4.8019
    -3.5644  -2.8349  -2.2320  -1.6207  -0.5212   1.7556   2.0703   2.2512
     2.6767

          k = 0.4444 0.5132 0.0000 ( 10733 PWs)   bands (ev):

   -61.3502 -35.4899 -35.4257 -35.3490 -11.6277 -11.5595  -4.7125  -4.5154
    -3.3659  -3.1468  -2.7002  -2.5608  -0.5160   1.3474   1.4343   2.3420
     3.0451

          k = 0.4444 0.6415 0.0000 ( 10733 PWs)   bands (ev):

   -61.3502 -35.4899 -35.4257 -35.3490 -11.6277 -11.5595  -4.7125  -4.5154
    -3.3659  -3.1468  -2.7002  -2.5608  -0.5160   1.3474   1.4343   2.3420
     3.0451

          k = 0.4444 0.7698 0.0000 ( 10692 PWs)   bands (ev):

   -61.3519 -35.5333 -35.4281 -35.2861 -11.6991 -11.6380  -5.2351  -4.8019
    -3.5644  -2.8349  -2.2320  -1.6207  -0.5212   1.7556   2.0703   2.2512
     2.6767

          k = 0.4444-0.2566 0.0000 ( 10710 PWs)   bands (ev):

   -61.3544 -35.5364 -35.4318 -35.2549 -11.8141 -11.7905  -5.2608  -4.7682
    -3.6673  -2.7986  -1.8462  -1.2814  -0.2863   1.7167   2.1746   2.3227
     2.6094

          k = 0.4444-0.1283 0.0000 ( 10685 PWs)   bands (ev):

   -61.3566 -35.4957 -35.4351 -35.2727 -11.9485 -11.9192  -4.7564  -4.3567
    -3.5749  -2.8989  -1.9373  -1.6804  -0.5520   1.0946   2.0216   2.2672
     2.6120

          k = 0.4444 0.0000 0.0000 ( 10690 PWs)   bands (ev):

   -61.3575 -35.4608 -35.4364 -35.2989 -12.0152 -11.9615  -4.2913  -3.8703
    -3.4898  -3.3239  -2.1737  -1.9241  -0.6819   0.6446   1.6636   2.3861
     2.7341

          k = 0.4444 0.1283 0.0000 ( 10685 PWs)   bands (ev):

   -61.3566 -35.4957 -35.4351 -35.2727 -11.9485 -11.9192  -4.7564  -4.3567
    -3.5749  -2.8989  -1.9373  -1.6804  -0.5520   1.0946   2.0216   2.2672
     2.6120

     the Fermi energy is     0.0896 ev

!    total energy              =    -496.59007040 Ry
     estimated scf accuracy    <       0.00000023 Ry
     smearing contrib. (-TS)   =      -0.00000000 Ry
     internal energy E=F+TS    =    -496.59007040 Ry

     convergence has been achieved in   7 iterations

     negative rho (up, down):  7.091E-05 0.000E+00

     Forces acting on atoms (cartesian axes, Ry/au):

     atom    1 type  1   force =    -0.00000006   -0.00000015   -0.00005326
     atom    2 type  2   force =     0.00000007    0.00000014   -0.16323567
     atom    3 type  2   force =    -0.00000001    0.00000001    0.16328893
     The non-local contrib.  to forces
     atom    1 type  1   force =     0.00000004    0.00000001   -0.00000201
     atom    2 type  2   force =    -0.00000005    0.00000018   -0.32891120
     atom    3 type  2   force =    -0.00000010   -0.00000000    0.32888679
     The ionic contribution  to forces
     atom    1 type  1   force =    -0.00000056   -0.00000123   -0.00014066
     atom    2 type  2   force =     0.00000012    0.00000114   35.62549519
     atom    3 type  2   force =     0.00000043    0.00000009  -35.62535453
     The local contribution  to forces
     atom    1 type  1   force =     0.00000039    0.00000111   -0.00018303
     atom    2 type  2   force =     0.00000017   -0.00000120  -35.46182853
     atom    3 type  2   force =    -0.00000019   -0.00000005   35.46245600
     The core correction contribution to forces
     atom    1 type  1   force =    -0.00000000   -0.00000000   -0.00000228
     atom    2 type  2   force =     0.00000001   -0.00000001    0.00593534
     atom    3 type  2   force =     0.00000000    0.00000000   -0.00592984
     The Hubbard contrib.    to forces
     atom    1 type  1   force =     0.00000000    0.00000000    0.00000000
     atom    2 type  2   force =     0.00000000    0.00000000    0.00000000
     atom    3 type  2   force =     0.00000000    0.00000000    0.00000000
     The SCF correction term to forces
     atom    1 type  1   force =     0.00000009   -0.00000004    0.00033611
     atom    2 type  2   force =    -0.00000017    0.00000003   -0.00139300
     atom    3 type  2   force =    -0.00000013   -0.00000002    0.00081989

     DFT-D3 dispersion contribution to forces:
     atom    1 type  1   force =    -0.00000000   -0.00000000    0.00000003
     atom    2 type  2   force =     0.00000000    0.00000000   -0.00247207
     atom    3 type  2   force =     0.00000000   -0.00000000    0.00247204

     Total force =     0.230888     Total SCF correction =     0.001651


     Computing stress (Cartesian axis) and pressure


     negative rho (up, down):  7.091E-05 0.000E+00
          total   stress  (Ry/bohr**3)                   (kbar)     P=      -73.72
  -0.00019096   0.00000000  -0.00000000          -28.09        0.00       -0.00
   0.00000000  -0.00019096   0.00000000            0.00      -28.09        0.00
  -0.00000000   0.00000000  -0.00112154           -0.00        0.00     -164.98


     Entering Dynamics:    iteration =     4

     <vel(dt)|acc(dt)> =  -0.16742117

ATOMIC_POSITIONS (crystal)
Mo           -0.0046930139       -0.0023466652        0.4999998144
S             0.6690135263        0.3345073070        0.5963507070
S             0.6690128210        0.3345060249        0.4036494786



     Writing config-only to output data dir ./tmp/scf.save/
     NEW-OLD atomic charge density approx. for the potential

     negative rho (up, down):  7.668E-05 0.000E+00

     total cpu time spent up to now is      311.5 secs

     Self-consistent Calculation

     iteration #  1     ecut=    70.00 Ry     beta= 0.70
     Davidson diagonalization with overlap
     ethr =  1.00E-06,  avg # of iterations =  9.9

     negative rho (up, down):  7.506E-05 0.000E+00

     total cpu time spent up to now is      324.5 secs

     total energy              =    -496.65619330 Ry
     estimated scf accuracy    <       0.01001779 Ry

     iteration #  2     ecut=    70.00 Ry     beta= 0.70
     Davidson diagonalization with overlap
     ethr =  3.85E-05,  avg # of iterations =  3.0

     negative rho (up, down):  7.378E-05 0.000E+00

     total cpu time spent up to now is      336.3 secs

     total energy              =    -496.63888265 Ry
     estimated scf accuracy    <       0.24739387 Ry

     iteration #  3     ecut=    70.00 Ry     beta= 0.70
     Davidson diagonalization with overlap
     ethr =  3.85E-05,  avg # of iterations =  3.1

     negative rho (up, down):  7.326E-05 0.000E+00

     total cpu time spent up to now is      349.8 secs

     total energy              =    -496.66263551 Ry
     estimated scf accuracy    <       0.00025490 Ry

     iteration #  4     ecut=    70.00 Ry     beta= 0.70
     Davidson diagonalization with overlap
     ethr =  9.80E-07,  avg # of iterations =  3.6

     negative rho (up, down):  7.341E-05 0.000E+00

     total cpu time spent up to now is      363.0 secs

     total energy              =    -496.66266110 Ry
     estimated scf accuracy    <       0.00011706 Ry

     iteration #  5     ecut=    70.00 Ry     beta= 0.70
     Davidson diagonalization with overlap
     ethr =  4.50E-07,  avg # of iterations =  2.0

     negative rho (up, down):  7.349E-05 0.000E+00

     total cpu time spent up to now is      376.0 secs

     total energy              =    -496.66265357 Ry
     estimated scf accuracy    <       0.00042994 Ry

     iteration #  6     ecut=    70.00 Ry     beta= 0.70
     Davidson diagonalization with overlap
     ethr =  4.50E-07,  avg # of iterations =  1.8

     negative rho (up, down):  7.356E-05 0.000E+00

     total cpu time spent up to now is      394.1 secs

     total energy              =    -496.66268763 Ry
     estimated scf accuracy    <       0.00000278 Ry

     iteration #  7     ecut=    70.00 Ry     beta= 0.70
     Davidson diagonalization with overlap
     ethr =  1.07E-08,  avg # of iterations =  3.3

     negative rho (up, down):  7.357E-05 0.000E+00

     total cpu time spent up to now is      413.8 secs

     End of self-consistent calculation

          k = 0.0000 0.0000 0.0000 ( 10685 PWs)   bands (ev):

   -61.3413 -35.4507 -35.1436 -35.1426 -13.9912 -13.3155  -5.5955  -2.8194
    -1.7310  -1.7038  -1.3345  -0.7640  -0.6421   2.1356   2.1857   2.3158
     2.4475

          k = 0.0000 0.1283 0.0000 ( 10675 PWs)   bands (ev):

   -61.3362 -35.4424 -35.1909 -35.1539 -13.8084 -13.1944  -5.3497  -2.9805
    -2.1678  -1.5330  -1.2803  -1.0246  -0.9292   1.5585   2.0078   2.1133
     2.5419

          k = 0.0000 0.2566 0.0000 ( 10668 PWs)   bands (ev):

   -61.3231 -35.4213 -35.3099 -35.1819 -13.3004 -12.8588  -4.7687  -3.4474
    -3.2150  -1.8170  -1.5414  -1.3449  -1.0641   0.9526   1.7410   2.0767
     2.8264

          k = 0.0000 0.3849 0.0000 ( 10710 PWs)   bands (ev):

   -61.3082 -35.4428 -35.3973 -35.2136 -12.6063 -12.4095  -4.7932  -4.2615
    -3.9054  -2.5103  -2.0589  -1.4893  -0.6714   1.2931   1.8035   2.4535
     2.9786

          k = 0.0000 0.5132 0.0000 ( 10710 PWs)   bands (ev):

   -61.2985 -35.5283 -35.3815 -35.2341 -12.0579 -12.0379  -5.5980  -4.9746
    -3.9256  -2.7643  -2.3456  -1.2371  -0.5587   1.9757   2.1553   2.7600
     3.0268

          k = 0.1111 0.0642 0.0000 ( 10675 PWs)   bands (ev):

   -61.3362 -35.4425 -35.1900 -35.1547 -13.8092 -13.1931  -5.3518  -2.9650
    -2.1826  -1.5133  -1.2784  -1.0383  -0.9394   1.5892   1.9734   2.0491
     2.6135

          k = 0.1111 0.1925 0.0000 ( 10656 PWs)   bands (ev):

   -61.3271 -35.4278 -35.2691 -35.1783 -13.4639 -12.9628  -4.9241  -3.2154
    -2.8915  -1.9007  -1.3609  -1.1487  -1.1061   0.9978   1.7593   1.9101
     2.8116

          k = 0.1111 0.3208 0.0000 ( 10681 PWs)   bands (ev):

   -61.3131 -35.4053 -35.3853 -35.2178 -12.8566 -12.5631  -4.4590  -3.7676
    -3.7389  -2.8408  -1.6794  -1.5943  -0.8157   0.7847   1.9014   2.1020
     2.9587

          k = 0.1111 0.4491 0.0000 ( 10685 PWs)   bands (ev):

   -61.3008 -35.4856 -35.3853 -35.2528 -12.1985 -12.1435  -5.1217  -4.6274
    -3.8109  -3.0172  -2.2072  -1.8277  -0.6685   1.3421   2.3555   2.4231
     3.0301

          k = 0.1111 0.5774 0.0000 ( 10692 PWs)   bands (ev):

   -61.2959 -35.5250 -35.3774 -35.2665 -11.9536 -11.8849  -5.5585  -5.0320
    -3.8454  -2.9104  -2.5620  -1.7654  -0.5659   1.9289   2.3971   2.4989
     3.1183

          k = 0.1111-0.4491 0.0000 ( 10685 PWs)   bands (ev):

   -61.3008 -35.4862 -35.3852 -35.2524 -12.1963 -12.1475  -5.1219  -4.6161
    -3.8157  -3.0476  -2.1795  -1.8103  -0.6775   1.3486   2.3336   2.3531
     3.1167

          k = 0.1111-0.3208 0.0000 ( 10681 PWs)   bands (ev):

   -61.3131 -35.4051 -35.3864 -35.2171 -12.8538 -12.5679  -4.4578  -3.7620
    -3.7472  -2.8392  -1.6725  -1.5731  -0.8434   0.8047   1.8850   2.0686
     3.0028

          k = 0.1111-0.1925 0.0000 ( 10656 PWs)   bands (ev):

   -61.3271 -35.4277 -35.2704 -35.1774 -13.4617 -12.9663  -4.9193  -3.2487
    -2.8782  -1.8640  -1.3479  -1.1982  -1.0932   1.0004   1.7700   1.9396
     2.7774

          k = 0.1111-0.0642 0.0000 ( 10675 PWs)   bands (ev):

   -61.3362 -35.4424 -35.1909 -35.1539 -13.8084 -13.1944  -5.3497  -2.9805
    -2.1678  -1.5330  -1.2803  -1.0246  -0.9292   1.5585   2.0078   2.1133
     2.5419

          k = 0.2222 0.1283 0.0000 ( 10668 PWs)   bands (ev):

   -61.3232 -35.4216 -35.3087 -35.1826 -13.3037 -12.8538  -4.7786  -3.4148
    -3.2180  -1.8153  -1.5975  -1.3185  -1.0557   0.9562   1.7183   2.0366
     2.8720

          k = 0.2222 0.2566 0.0000 ( 10681 PWs)   bands (ev):

   -61.3131 -35.4054 -35.3846 -35.2182 -12.8594 -12.5589  -4.4650  -3.7684
    -3.7209  -2.8628  -1.6544  -1.5966  -0.8221   0.7817   1.8924   2.0739
     2.9775

          k = 0.2222 0.3849 0.0000 ( 10690 PWs)   bands (ev):

   -61.3017 -35.4486 -35.3870 -35.2806 -12.2690 -12.1726  -4.6990  -4.2403
    -3.6779  -3.5023  -2.4294  -2.0144  -0.7429   0.9745   2.0005   2.4792
     3.1923

          k = 0.2222 0.5132 0.0000 ( 10733 PWs)   bands (ev):

   -61.2942 -35.4795 -35.3748 -35.3321 -11.8797 -11.8090  -5.0375  -4.8791
    -3.6519  -3.3340  -2.9370  -2.6148  -0.5012   1.5998   1.8506   2.5513
     3.5250

          k = 0.2222 0.6415 0.0000 ( 10733 PWs)   bands (ev):

   -61.2942 -35.4803 -35.3747 -35.3314 -11.8843 -11.8063  -5.0414  -4.8652
    -3.6616  -3.3513  -2.9208  -2.6080  -0.4972   1.5988   1.8389   2.5358
     3.5572

          k = 0.2222-0.3849 0.0000 ( 10690 PWs)   bands (ev):

   -61.3017 -35.4504 -35.3867 -35.2794 -12.2631 -12.1824  -4.7052  -4.2130
    -3.6739  -3.5276  -2.4245  -2.0055  -0.7416   0.9730   1.9681   2.4590
     3.2641

          k = 0.2222-0.2566 0.0000 ( 10681 PWs)   bands (ev):

   -61.3131 -35.4051 -35.3864 -35.2171 -12.8538 -12.5679  -4.4578  -3.7620
    -3.7472  -2.8392  -1.6725  -1.5731  -0.8434   0.8047   1.8850   2.0686
     3.0028

          k = 0.2222-0.1283 0.0000 ( 10668 PWs)   bands (ev):

   -61.3231 -35.4213 -35.3099 -35.1819 -13.3004 -12.8588  -4.7687  -3.4474
    -3.2150  -1.8170  -1.5414  -1.3449  -1.0641   0.9526   1.7410   2.0767
     2.8264

          k = 0.2222-0.0000 0.0000 ( 10656 PWs)   bands (ev):

   -61.3271 -35.4278 -35.2691 -35.1783 -13.4639 -12.9628  -4.9241  -3.2154
    -2.8915  -1.9007  -1.3609  -1.1487  -1.1061   0.9978   1.7593   1.9101
     2.8116

          k = 0.3333 0.1925 0.0000 ( 10710 PWs)   bands (ev):

   -61.3083 -35.4413 -35.3977 -35.2142 -12.6141 -12.3980  -4.7907  -4.2588
    -3.9184  -2.4877  -2.1001  -1.4491  -0.6751   1.2780   1.7980   2.3974
     3.0036

          k = 0.3333 0.3208 0.0000 ( 10685 PWs)   bands (ev):

   -61.3008 -35.4843 -35.3856 -35.2534 -12.2065 -12.1324  -5.1070  -4.6370
    -3.8337  -3.0295  -2.1881  -1.8025  -0.6695   1.3373   2.3509   2.3752
     3.0325

          k = 0.3333 0.4491 0.0000 ( 10733 PWs)   bands (ev):

   -61.2943 -35.4784 -35.3750 -35.3328 -11.8729 -11.8138  -5.0228  -4.8905
    -3.6666  -3.3513  -2.9393  -2.5848  -0.4923   1.5933   1.8427   2.5608
     3.4978

          k = 0.3333 0.5774 0.0000 ( 10716 PWs)   bands (ev):

   -61.2916 -35.4305 -35.4101 -35.3707 -11.7657 -11.6471  -4.9949  -4.6037
    -4.0076  -3.4165  -3.3256  -2.9032  -0.2960   1.5744   1.7930   2.3683
     3.7985

          k = 0.3333 0.7057 0.0000 ( 10733 PWs)   bands (ev):

   -61.2942 -35.4803 -35.3747 -35.3314 -11.8843 -11.8063  -5.0414  -4.8652
    -3.6616  -3.3513  -2.9208  -2.6080  -0.4972   1.5988   1.8389   2.5358
     3.5572

          k = 0.3333-0.3208 0.0000 ( 10685 PWs)   bands (ev):

   -61.3008 -35.4862 -35.3852 -35.2524 -12.1963 -12.1475  -5.1219  -4.6161
    -3.8157  -3.0476  -2.1795  -1.8103  -0.6775   1.3486   2.3336   2.3531
     3.1167

          k = 0.3333-0.1925 0.0000 ( 10710 PWs)   bands (ev):

   -61.3082 -35.4428 -35.3973 -35.2136 -12.6063 -12.4095  -4.7932  -4.2615
    -3.9054  -2.5103  -2.0589  -1.4893  -0.6714   1.2931   1.8035   2.4535
     2.9786

          k = 0.3333-0.0642 0.0000 ( 10681 PWs)   bands (ev):

   -61.3131 -35.4053 -35.3853 -35.2178 -12.8566 -12.5631  -4.4590  -3.7676
    -3.7389  -2.8408  -1.6794  -1.5943  -0.8157   0.7847   1.9014   2.1020
     2.9587

          k = 0.3333 0.0642 0.0000 ( 10681 PWs)   bands (ev):

   -61.3131 -35.4054 -35.3846 -35.2182 -12.8594 -12.5589  -4.4650  -3.7684
    -3.7209  -2.8628  -1.6544  -1.5966  -0.8221   0.7817   1.8924   2.0739
     2.9775

          k = 0.4444 0.2566 0.0000 ( 10710 PWs)   bands (ev):

   -61.2986 -35.5265 -35.3820 -35.2347 -12.0508 -12.0398  -5.5770  -5.0003
    -3.9508  -2.7124  -2.3815  -1.2004  -0.5731   1.9715   2.1610   2.6839
     3.0345

          k = 0.4444 0.3849 0.0000 ( 10692 PWs)   bands (ev):

   -61.2960 -35.5233 -35.3778 -35.2673 -11.9368 -11.8969  -5.5359  -5.0593
    -3.8683  -2.9102  -2.5392  -1.7619  -0.5556   1.9182   2.4190   2.4956
     3.0470

          k = 0.4444 0.5132 0.0000 ( 10733 PWs)   bands (ev):

   -61.2943 -35.4784 -35.3750 -35.3328 -11.8729 -11.8138  -5.0228  -4.8905
    -3.6666  -3.3513  -2.9393  -2.5848  -0.4923   1.5933   1.8427   2.5608
     3.4978

          k = 0.4444 0.6415 0.0000 ( 10733 PWs)   bands (ev):

   -61.2942 -35.4795 -35.3748 -35.3321 -11.8797 -11.8090  -5.0375  -4.8791
    -3.6519  -3.3340  -2.9370  -2.6148  -0.5012   1.5998   1.8506   2.5513
     3.5250

          k = 0.4444 0.7698 0.0000 ( 10692 PWs)   bands (ev):

   -61.2959 -35.5250 -35.3774 -35.2665 -11.9536 -11.8849  -5.5585  -5.0320
    -3.8454  -2.9104  -2.5620  -1.7654  -0.5659   1.9289   2.3971   2.4989
     3.1183

          k = 0.4444-0.2566 0.0000 ( 10710 PWs)   bands (ev):

   -61.2985 -35.5283 -35.3815 -35.2341 -12.0579 -12.0379  -5.5980  -4.9746
    -3.9256  -2.7643  -2.3456  -1.2370  -0.5587   1.9757   2.1553   2.7600
     3.0268

          k = 0.4444-0.1283 0.0000 ( 10685 PWs)   bands (ev):

   -61.3008 -35.4856 -35.3853 -35.2528 -12.1985 -12.1435  -5.1217  -4.6274
    -3.8109  -3.0172  -2.2072  -1.8277  -0.6685   1.3421   2.3555   2.4231
     3.0301

          k = 0.4444 0.0000 0.0000 ( 10690 PWs)   bands (ev):

   -61.3017 -35.4486 -35.3870 -35.2806 -12.2690 -12.1726  -4.6990  -4.2403
    -3.6779  -3.5023  -2.4294  -2.0144  -0.7429   0.9745   2.0005   2.4792
     3.1923

          k = 0.4444 0.1283 0.0000 ( 10685 PWs)   bands (ev):

   -61.3008 -35.4843 -35.3856 -35.2534 -12.2065 -12.1324  -5.1070  -4.6370
    -3.8337  -3.0295  -2.1881  -1.8025  -0.6695   1.3373   2.3509   2.3752
     3.0325

     the Fermi energy is     0.3400 ev

!    total energy              =    -496.66268789 Ry
     estimated scf accuracy    <       0.00000071 Ry
     smearing contrib. (-TS)   =      -0.00000000 Ry
     internal energy E=F+TS    =    -496.66268789 Ry

     convergence has been achieved in   7 iterations

     negative rho (up, down):  7.357E-05 0.000E+00

     Forces acting on atoms (cartesian axes, Ry/au):

     atom    1 type  1   force =     0.00706303    0.00407821    0.00018378
     atom    2 type  2   force =    -0.00353277   -0.00204014   -0.12943246
     atom    3 type  2   force =    -0.00353026   -0.00203806    0.12924868
     The non-local contrib.  to forces
     atom    1 type  1   force =    -0.00186386   -0.00107619   -0.00000264
     atom    2 type  2   force =    -0.00316004   -0.00182491   -0.31818846
     atom    3 type  2   force =    -0.00315939   -0.00182394    0.31825541
     The ionic contribution  to forces
     atom    1 type  1   force =     0.04908079    0.02833952    0.00000675
     atom    2 type  2   force =    -0.02454017   -0.01417221   36.17969193
     atom    3 type  2   force =    -0.02454062   -0.01416731  -36.17969868
     The local contribution  to forces
     atom    1 type  1   force =    -0.04045288   -0.02335775    0.00267015
     atom    2 type  2   force =     0.02406251    0.01389638  -35.99192475
     atom    3 type  2   force =     0.02406688    0.01389380   35.99266789
     The core correction contribution to forces
     atom    1 type  1   force =     0.00016575    0.00009570    0.00001402
     atom    2 type  2   force =     0.00011205    0.00006471    0.00491620
     atom    3 type  2   force =     0.00011212    0.00006473   -0.00491507
     The Hubbard contrib.    to forces
     atom    1 type  1   force =     0.00000000    0.00000000    0.00000000
     atom    2 type  2   force =     0.00000000    0.00000000    0.00000000
     atom    3 type  2   force =     0.00000000    0.00000000    0.00000000
     The SCF correction term to forces
     atom    1 type  1   force =     0.00009158    0.00005288   -0.00238544
     atom    2 type  2   force =     0.00000326    0.00000188   -0.00164767
     atom    3 type  2   force =     0.00000112    0.00000065    0.00089755

     DFT-D3 dispersion contribution to forces:
     atom    1 type  1   force =     0.00003469    0.00002003    0.00000000
     atom    2 type  2   force =    -0.00001734   -0.00001002   -0.00216064
     atom    3 type  2   force =    -0.00001734   -0.00001001    0.00216064

     Total force =     0.183188     Total SCF correction =     0.003037


     Computing stress (Cartesian axis) and pressure


     negative rho (up, down):  7.357E-05 0.000E+00
          total   stress  (Ry/bohr**3)                   (kbar)     P=      -54.28
  -0.00013734   0.00000046  -0.00000000          -20.20        0.07       -0.00
   0.00000046  -0.00013787  -0.00000000            0.07      -20.28       -0.00
  -0.00000000  -0.00000000  -0.00083180           -0.00       -0.00     -122.36


     Entering Dynamics:    iteration =     5

     <vel(dt)|acc(dt)> =   0.99934116

ATOMIC_POSITIONS (crystal)
Mo           -0.0092963006       -0.0046485643        0.5000100330
S             0.6713151482        0.3356592006        0.5845428480
S             0.6713144857        0.3356560304        0.4154471191



     Writing config-only to output data dir ./tmp/scf.save/
     NEW-OLD atomic charge density approx. for the potential

     negative rho (up, down):  8.572E-05 0.000E+00

     total cpu time spent up to now is      453.3 secs

     Self-consistent Calculation

     iteration #  1     ecut=    70.00 Ry     beta= 0.70
     Davidson diagonalization with overlap
     ethr =  1.00E-06,  avg # of iterations = 11.1

     negative rho (up, down):  8.103E-05 0.000E+00

     total cpu time spent up to now is      497.1 secs

     total energy              =    -496.71647934 Ry
     estimated scf accuracy    <       0.02265493 Ry

     iteration #  2     ecut=    70.00 Ry     beta= 0.70
     Davidson diagonalization with overlap
     ethr =  8.71E-05,  avg # of iterations =  3.0

     negative rho (up, down):  7.885E-05 0.000E+00

     total cpu time spent up to now is      518.0 secs

     total energy              =    -496.69878748 Ry
     estimated scf accuracy    <       0.22728004 Ry

     iteration #  3     ecut=    70.00 Ry     beta= 0.70
     Davidson diagonalization with overlap
     ethr =  8.71E-05,  avg # of iterations =  3.0

     negative rho (up, down):  7.780E-05 0.000E+00

     total cpu time spent up to now is      534.1 secs

     total energy              =    -496.72907845 Ry
     estimated scf accuracy    <       0.00097633 Ry

     iteration #  4     ecut=    70.00 Ry     beta= 0.70
     Davidson diagonalization with overlap
     ethr =  3.76E-06,  avg # of iterations =  3.1

     negative rho (up, down):  7.788E-05 0.000E+00

     total cpu time spent up to now is      545.2 secs

     total energy              =    -496.72910105 Ry
     estimated scf accuracy    <       0.00048910 Ry

     iteration #  5     ecut=    70.00 Ry     beta= 0.70
     Davidson diagonalization with overlap
     ethr =  1.88E-06,  avg # of iterations =  2.0

     negative rho (up, down):  7.790E-05 0.000E+00

     total cpu time spent up to now is      553.0 secs

     total energy              =    -496.72915781 Ry
     estimated scf accuracy    <       0.00067625 Ry

     iteration #  6     ecut=    70.00 Ry     beta= 0.70
     Davidson diagonalization with overlap
     ethr =  1.88E-06,  avg # of iterations =  1.1

     negative rho (up, down):  7.808E-05 0.000E+00

     total cpu time spent up to now is      560.7 secs

     total energy              =    -496.72922493 Ry
     estimated scf accuracy    <       0.00000111 Ry

     iteration #  7     ecut=    70.00 Ry     beta= 0.70
     Davidson diagonalization with overlap
     ethr =  4.27E-09,  avg # of iterations =  4.8

     negative rho (up, down):  7.808E-05 0.000E+00

     total cpu time spent up to now is      574.5 secs

     total energy              =    -496.72922641 Ry
     estimated scf accuracy    <       0.00000137 Ry

     iteration #  8     ecut=    70.00 Ry     beta= 0.70
     Davidson diagonalization with overlap
     ethr =  4.27E-09,  avg # of iterations =  1.0

     negative rho (up, down):  7.809E-05 0.000E+00

     total cpu time spent up to now is      587.0 secs

     End of self-consistent calculation

          k = 0.0000 0.0000 0.0000 ( 10685 PWs)   bands (ev):

   -61.2909 -35.4629 -35.1792 -35.1695 -14.6431 -13.4387  -6.1540  -2.8445
    -2.7685  -2.5045  -1.8551  -1.5211  -0.7637   2.2732   2.5206   2.6475
     2.6653

          k = 0.0000 0.1283 0.0000 ( 10675 PWs)   bands (ev):

   -61.2854 -35.4524 -35.2307 -35.1836 -14.4484 -13.3511  -5.9285  -3.2163
    -3.0579  -2.6218  -1.9374  -1.5213  -0.8232   2.0451   2.2579   2.4347
     2.7366

          k = 0.0000 0.2566 0.0000 ( 10668 PWs)   bands (ev):

   -61.2712 -35.4256 -35.3640 -35.2145 -13.9149 -13.1127  -5.4748  -4.0253
    -3.9118  -2.5352  -2.1073  -1.7839  -1.2022   1.5711   2.0569   2.4101
     3.2658

          k = 0.0000 0.3849 0.0000 ( 10710 PWs)   bands (ev):

   -61.2550 -35.5127 -35.3951 -35.2491 -13.2059 -12.8050  -5.6958  -4.7563
    -4.3265  -3.0816  -2.2786  -1.6515  -1.4311   1.8052   1.9068   2.9997
     3.6659

          k = 0.0000 0.5132 0.0000 ( 10710 PWs)   bands (ev):

   -61.2444 -35.6081 -35.3750 -35.2715 -12.6449 -12.5756  -6.2675  -5.3227
    -4.4908  -3.3861  -2.5479  -1.3573  -1.1053   1.9983   2.3443   3.3658
     3.8649

          k = 0.1111 0.0642 0.0000 ( 10675 PWs)   bands (ev):

   -61.2854 -35.4526 -35.2224 -35.1913 -14.4515 -13.3461  -5.9345  -3.2651
    -2.9549  -2.5712  -2.1278  -1.4577  -0.8023   2.1080   2.1346   2.3314
     2.9107

          k = 0.1111 0.1925 0.0000 ( 10656 PWs)   bands (ev):

   -61.2755 -35.4341 -35.3132 -35.2150 -14.0893 -13.1776  -5.5748  -3.8415
    -3.4982  -2.7925  -2.2823  -1.3986  -0.9960   1.5916   2.0716   2.1080
     3.2995

          k = 0.1111 0.3208 0.0000 ( 10681 PWs)   bands (ev):

   -61.2603 -35.4452 -35.4055 -35.2565 -13.4628 -12.8956  -5.4016  -4.3276
    -4.2464  -3.4236  -2.1888  -1.7189  -1.2315   1.3811   2.1114   2.4548
     3.6854

          k = 0.1111 0.4491 0.0000 ( 10685 PWs)   bands (ev):

   -61.2469 -35.5589 -35.3801 -35.2936 -12.8032 -12.6138  -5.8952  -5.1743
    -4.2986  -3.5529  -2.2802  -2.2658  -1.0017   1.7451   2.3801   3.0742
     3.7575

          k = 0.1111 0.5774 0.0000 ( 10692 PWs)   bands (ev):

   -61.2416 -35.6045 -35.3698 -35.3074 -12.4968 -12.4951  -6.1781  -5.4933
    -4.4584  -3.5507  -2.5421  -2.1381  -0.7892   1.9960   2.5810   3.2562
     3.8210

          k = 0.1111-0.4491 0.0000 ( 10685 PWs)   bands (ev):

   -61.2469 -35.5627 -35.3797 -35.2909 -12.7958 -12.6288  -5.8885  -5.1212
    -4.3120  -3.6292  -2.2277  -2.2039  -1.0540   1.7756   2.3104   2.8860
     4.0028

          k = 0.1111-0.3208 0.0000 ( 10681 PWs)   bands (ev):

   -61.2602 -35.4522 -35.4049 -35.2512 -13.4528 -12.9146  -5.3964  -4.2962
    -4.2110  -3.4519  -2.1609  -1.6763  -1.3362   1.4493   2.0441   2.3940
     3.7766

          k = 0.1111-0.1925 0.0000 ( 10656 PWs)   bands (ev):

   -61.2754 -35.4336 -35.3224 -35.2073 -14.0813 -13.1916  -5.5638  -3.7833
    -3.6146  -2.6337  -2.3254  -1.3946  -1.0741   1.6187   2.1129   2.1639
     3.1878

          k = 0.1111-0.0642 0.0000 ( 10675 PWs)   bands (ev):

   -61.2854 -35.4524 -35.2307 -35.1836 -14.4484 -13.3511  -5.9285  -3.2163
    -3.0579  -2.6218  -1.9374  -1.5213  -0.8232   2.0451   2.2579   2.4347
     2.7366

          k = 0.2222 0.1283 0.0000 ( 10668 PWs)   bands (ev):

   -61.2713 -35.4264 -35.3546 -35.2217 -13.9273 -13.0925  -5.4976  -4.0622
    -3.8128  -2.6919  -2.0679  -1.7993  -1.1184   1.5821   1.9929   2.3135
     3.3962

          k = 0.2222 0.2566 0.0000 ( 10681 PWs)   bands (ev):

   -61.2604 -35.4399 -35.4061 -35.2603 -13.4732 -12.8794  -5.4093  -4.2739
    -4.2722  -3.5207  -2.1301  -1.7102  -1.2231   1.3797   2.0835   2.4028
     3.7326

          k = 0.2222 0.3849 0.0000 ( 10690 PWs)   bands (ev):

   -61.2480 -35.5132 -35.3826 -35.3280 -12.8789 -12.6091  -5.5790  -5.0579
    -4.0678  -3.8531  -2.9651  -1.9707  -1.0521   1.5789   2.4487   2.5530
     3.9979

          k = 0.2222 0.5132 0.0000 ( 10733 PWs)   bands (ev):

   -61.2398 -35.5519 -35.3815 -35.3669 -12.4254 -12.4148  -5.6798  -5.6771
    -4.2301  -3.6376  -3.4035  -2.5162  -0.6933   1.7870   2.6255   2.8166
     4.2763

          k = 0.2222 0.6415 0.0000 ( 10733 PWs)   bands (ev):

   -61.2398 -35.5574 -35.3772 -35.3665 -12.4316 -12.4164  -5.6732  -5.6372
    -4.2658  -3.6740  -3.3574  -2.5028  -0.6906   1.7773   2.5721   2.7719
     4.3854

          k = 0.2222-0.3849 0.0000 ( 10690 PWs)   bands (ev):

   -61.2478 -35.5249 -35.3815 -35.3190 -12.8587 -12.6459  -5.5752  -4.9593
    -4.0455  -3.9186  -2.9599  -1.9505  -1.0816   1.5814   2.3853   2.4554
     4.1980

          k = 0.2222-0.2566 0.0000 ( 10681 PWs)   bands (ev):

   -61.2602 -35.4522 -35.4049 -35.2512 -13.4528 -12.9146  -5.3964  -4.2962
    -4.2110  -3.4519  -2.1609  -1.6763  -1.3362   1.4493   2.0441   2.3940
     3.7766

          k = 0.2222-0.1283 0.0000 ( 10668 PWs)   bands (ev):

   -61.2712 -35.4256 -35.3640 -35.2145 -13.9149 -13.1127  -5.4748  -4.0253
    -3.9118  -2.5352  -2.1073  -1.7839  -1.2022   1.5711   2.0569   2.4101
     3.2658

          k = 0.2222-0.0000 0.0000 ( 10656 PWs)   bands (ev):

   -61.2755 -35.4341 -35.3132 -35.2150 -14.0893 -13.1776  -5.5748  -3.8415
    -3.4982  -2.7925  -2.2823  -1.3986  -0.9960   1.5916   2.0716   2.1080
     3.2995

          k = 0.3333 0.1925 0.0000 ( 10710 PWs)   bands (ev):

   -61.2552 -35.5019 -35.3965 -35.2560 -13.2337 -12.7611  -5.6974  -4.7518
    -4.3834  -3.2030  -2.2394  -1.5280  -1.4271   1.7863   1.8791   2.8888
     3.7332

          k = 0.3333 0.3208 0.0000 ( 10685 PWs)   bands (ev):

   -61.2471 -35.5498 -35.3813 -35.2995 -12.8306 -12.5726  -5.8716  -5.1973
    -4.3666  -3.6539  -2.1969  -2.1894  -0.9997   1.7594   2.3571   2.9571
     3.7917

          k = 0.3333 0.4491 0.0000 ( 10733 PWs)   bands (ev):

   -61.2399 -35.5443 -35.3875 -35.3675 -12.4414 -12.3900  -5.7113  -5.6514
    -4.2746  -3.6900  -3.3898  -2.4465  -0.6814   1.7952   2.6177   2.8337
     4.2030

          k = 0.3333 0.5774 0.0000 ( 10716 PWs)   bands (ev):

   -61.2370 -35.5062 -35.4595 -35.3617 -12.3257 -12.2709  -5.9274  -5.1506
    -4.5861  -3.9524  -3.4610  -2.7892  -0.4125   1.5368   2.3868   3.1195
     4.6007

          k = 0.3333 0.7057 0.0000 ( 10733 PWs)   bands (ev):

   -61.2398 -35.5574 -35.3772 -35.3665 -12.4316 -12.4164  -5.6732  -5.6372
    -4.2658  -3.6741  -3.3574  -2.5028  -0.6906   1.7773   2.5721   2.7719
     4.3854

          k = 0.3333-0.3208 0.0000 ( 10685 PWs)   bands (ev):

   -61.2469 -35.5627 -35.3797 -35.2909 -12.7958 -12.6288  -5.8885  -5.1212
    -4.3120  -3.6292  -2.2277  -2.2039  -1.0540   1.7756   2.3104   2.8860
     4.0028

          k = 0.3333-0.1925 0.0000 ( 10710 PWs)   bands (ev):

   -61.2550 -35.5127 -35.3951 -35.2491 -13.2059 -12.8050  -5.6958  -4.7563
    -4.3265  -3.0816  -2.2786  -1.6515  -1.4311   1.8052   1.9068   2.9997
     3.6659

          k = 0.3333-0.0642 0.0000 ( 10681 PWs)   bands (ev):

   -61.2603 -35.4452 -35.4055 -35.2565 -13.4628 -12.8956  -5.4016  -4.3276
    -4.2464  -3.4236  -2.1888  -1.7189  -1.2315   1.3811   2.1114   2.4548
     3.6854

          k = 0.3333 0.0642 0.0000 ( 10681 PWs)   bands (ev):

   -61.2604 -35.4399 -35.4061 -35.2603 -13.4732 -12.8794  -5.4093  -4.2739
    -4.2722  -3.5207  -2.1301  -1.7102  -1.2231   1.3797   2.0835   2.4028
     3.7326

          k = 0.4444 0.2566 0.0000 ( 10710 PWs)   bands (ev):

   -61.2447 -35.5963 -35.3769 -35.2783 -12.6891 -12.5102  -6.2297  -5.3943
    -4.5588  -3.4896  -2.4456  -1.2414  -1.1491   2.0331   2.3275   3.2390
     3.8675

          k = 0.4444 0.3849 0.0000 ( 10692 PWs)   bands (ev):

   -61.2418 -35.5927 -35.3715 -35.3148 -12.5363 -12.4357  -6.1359  -5.5719
    -4.5200  -3.6389  -2.4290  -2.1263  -0.7584   2.0136   2.6168   3.3266
     3.5933

          k = 0.4444 0.5132 0.0000 ( 10733 PWs)   bands (ev):

   -61.2399 -35.5443 -35.3875 -35.3675 -12.4414 -12.3900  -5.7113  -5.6514
    -4.2746  -3.6900  -3.3898  -2.4465  -0.6814   1.7952   2.6177   2.8337
     4.2030

          k = 0.4444 0.6415 0.0000 ( 10733 PWs)   bands (ev):

   -61.2398 -35.5519 -35.3815 -35.3669 -12.4254 -12.4148  -5.6798  -5.6771
    -4.2301  -3.6376  -3.4035  -2.5162  -0.6933   1.7870   2.6255   2.8166
     4.2763

          k = 0.4444 0.7698 0.0000 ( 10692 PWs)   bands (ev):

   -61.2416 -35.6045 -35.3698 -35.3074 -12.4968 -12.4951  -6.1781  -5.4933
    -4.4584  -3.5507  -2.5421  -2.1381  -0.7892   1.9960   2.5810   3.2562
     3.8210

          k = 0.4444-0.2566 0.0000 ( 10710 PWs)   bands (ev):

   -61.2444 -35.6081 -35.3750 -35.2715 -12.6449 -12.5756  -6.2675  -5.3227
    -4.4908  -3.3861  -2.5479  -1.3573  -1.1053   1.9983   2.3443   3.3658
     3.8649

          k = 0.4444-0.1283 0.0000 ( 10685 PWs)   bands (ev):

   -61.2469 -35.5589 -35.3801 -35.2936 -12.8032 -12.6138  -5.8952  -5.1743
    -4.2986  -3.5529  -2.2802  -2.2658  -1.0017   1.7451   2.3801   3.0742
     3.7575

          k = 0.4444 0.0000 0.0000 ( 10690 PWs)   bands (ev):

   -61.2480 -35.5132 -35.3826 -35.3280 -12.8789 -12.6091  -5.5790  -5.0579
    -4.0678  -3.8531  -2.9651  -1.9707  -1.0521   1.5789   2.4487   2.5530
     3.9979

          k = 0.4444 0.1283 0.0000 ( 10685 PWs)   bands (ev):

   -61.2471 -35.5498 -35.3813 -35.2995 -12.8306 -12.5726  -5.8716  -5.1973
    -4.3666  -3.6538  -2.1969  -2.1894  -0.9997   1.7594   2.3571   2.9571
     3.7917

     the Fermi energy is     0.2967 ev

!    total energy              =    -496.72922641 Ry
     estimated scf accuracy    <       0.00000009 Ry
     smearing contrib. (-TS)   =      -0.00000000 Ry
     internal energy E=F+TS    =    -496.72922641 Ry

     convergence has been achieved in   8 iterations

     negative rho (up, down):  7.809E-05 0.000E+00

     Forces acting on atoms (cartesian axes, Ry/au):

     atom    1 type  1   force =     0.02492837    0.01439415   -0.00016912
     atom    2 type  2   force =    -0.01247056   -0.00720263   -0.01551325
     atom    3 type  2   force =    -0.01245781   -0.00719152    0.01568237
     The non-local contrib.  to forces
     atom    1 type  1   force =    -0.00784786   -0.00453146    0.00019932
     atom    2 type  2   force =    -0.00972229   -0.00561527   -0.26914332
     atom    3 type  2   force =    -0.00971354   -0.00560740    0.26928647
     The ionic contribution  to forces
     atom    1 type  1   force =     0.15141840    0.08743322    0.00065755
     atom    2 type  2   force =    -0.07574912   -0.04375247   36.88224569
     atom    3 type  2   force =    -0.07566928   -0.04368075  -36.88290324
     The local contribution  to forces
     atom    1 type  1   force =    -0.11933956   -0.06891030    0.00039349
     atom    2 type  2   force =     0.07272791    0.04200746  -36.62815104
     atom    3 type  2   force =     0.07265135    0.04193865   36.62966867
     The core correction contribution to forces
     atom    1 type  1   force =     0.00052760    0.00030464   -0.00000155
     atom    2 type  2   force =     0.00034812    0.00020106    0.00217556
     atom    3 type  2   force =     0.00034774    0.00020074   -0.00217955
     The Hubbard contrib.    to forces
     atom    1 type  1   force =     0.00000000    0.00000000    0.00000000
     atom    2 type  2   force =     0.00000000    0.00000000    0.00000000
     atom    3 type  2   force =     0.00000000    0.00000000    0.00000000
     The SCF correction term to forces
     atom    1 type  1   force =     0.00000535    0.00000309   -0.00129499
     atom    2 type  2   force =     0.00000254    0.00000147   -0.00078826
     atom    3 type  2   force =     0.00000353    0.00000204    0.00020249

     DFT-D3 dispersion contribution to forces:
     atom    1 type  1   force =     0.00016140    0.00009320   -0.00000051
     atom    2 type  2   force =    -0.00008075   -0.00004663   -0.00172946
     atom    3 type  2   force =    -0.00008065   -0.00004656    0.00172996

     Total force =     0.041588     Total SCF correction =     0.001530


     Computing stress (Cartesian axis) and pressure


     negative rho (up, down):  7.809E-05 0.000E+00
          total   stress  (Ry/bohr**3)                   (kbar)     P=        1.94
   0.00005802  -0.00001233  -0.00000002            8.53       -1.81       -0.00
  -0.00001233   0.00007225  -0.00000002           -1.81       10.63       -0.00
  -0.00000002  -0.00000002  -0.00009068           -0.00       -0.00      -13.34


     Entering Dynamics:    iteration =     8

     <vel(dt)|acc(dt)> =   0.08785077

ATOMIC_POSITIONS (crystal)
Mo           -0.0032459146       -0.0016233066        0.5000324001
S             0.6682782624        0.3341407185        0.5839038384
S             0.6683009856        0.3341492547        0.4160637616



     Writing config-only to output data dir ./tmp/scf.save/
     NEW-OLD atomic charge density approx. for the potential

     negative rho (up, down):  7.678E-05 0.000E+00

     total cpu time spent up to now is      619.0 secs

     Self-consistent Calculation

     iteration #  1     ecut=    70.00 Ry     beta= 0.70
     Davidson diagonalization with overlap
     ethr =  1.00E-06,  avg # of iterations =  7.0

     negative rho (up, down):  7.745E-05 0.000E+00

     total cpu time spent up to now is      649.2 secs

     total energy              =    -496.73060616 Ry
     estimated scf accuracy    <       0.00012503 Ry

     iteration #  2     ecut=    70.00 Ry     beta= 0.70
     Davidson diagonalization with overlap
     ethr =  4.81E-07,  avg # of iterations =  3.0

     negative rho (up, down):  7.769E-05 0.000E+00

     total cpu time spent up to now is      667.7 secs

     total energy              =    -496.73052179 Ry
     estimated scf accuracy    <       0.00095511 Ry

     iteration #  3     ecut=    70.00 Ry     beta= 0.70
     Davidson diagonalization with overlap
     ethr =  4.81E-07,  avg # of iterations =  2.7

     negative rho (up, down):  7.778E-05 0.000E+00

     total cpu time spent up to now is      684.9 secs

     total energy              =    -496.73066504 Ry
     estimated scf accuracy    <       0.00002574 Ry

     iteration #  4     ecut=    70.00 Ry     beta= 0.70
     Davidson diagonalization with overlap
     ethr =  9.90E-08,  avg # of iterations =  2.1

     negative rho (up, down):  7.782E-05 0.000E+00

     total cpu time spent up to now is      703.3 secs

     total energy              =    -496.73066158 Ry
     estimated scf accuracy    <       0.00009166 Ry

     iteration #  5     ecut=    70.00 Ry     beta= 0.70
     Davidson diagonalization with overlap
     ethr =  9.90E-08,  avg # of iterations =  2.0

     negative rho (up, down):  7.785E-05 0.000E+00

     total cpu time spent up to now is      722.2 secs

     End of self-consistent calculation

          k = 0.0000 0.0000 0.0000 ( 10685 PWs)   bands (ev):

   -61.2934 -35.4684 -35.1839 -35.1806 -14.6845 -13.4424  -6.1924  -2.8947
    -2.8677  -2.4786  -1.8106  -1.6935  -0.7283   2.3947   2.5274   2.6004
     2.6537

          k = 0.0000 0.1283 0.0000 ( 10675 PWs)   bands (ev):

   -61.2877 -35.4578 -35.2370 -35.1936 -14.4897 -13.3558  -5.9700  -3.2957
    -3.0424  -2.6856  -2.0272  -1.5461  -0.7893   2.1034   2.2675   2.4362
     2.7426

          k = 0.0000 0.2566 0.0000 ( 10668 PWs)   bands (ev):

   -61.2735 -35.4309 -35.3712 -35.2243 -13.9569 -13.1203  -5.5302  -4.0826
    -3.9141  -2.6329  -2.1644  -1.7796  -1.1761   1.6118   2.0581   2.4147
     3.3045

          k = 0.0000 0.3849 0.0000 ( 10710 PWs)   bands (ev):

   -61.2573 -35.5208 -35.4001 -35.2591 -13.2512 -12.8161  -5.7522  -4.7786
    -4.3652  -3.1712  -2.2526  -1.6058  -1.5116   1.8388   1.8921   3.0173
     3.7052

          k = 0.0000 0.5132 0.0000 ( 10710 PWs)   bands (ev):

   -61.2466 -35.6166 -35.3799 -35.2816 -12.6954 -12.5893  -6.2977  -5.3555
    -4.5389  -3.4702  -2.5082  -1.2941  -1.2027   1.9936   2.3502   3.4069
     3.8746

          k = 0.1111 0.0642 0.0000 ( 10675 PWs)   bands (ev):

   -61.2878 -35.4579 -35.2342 -35.1961 -14.4908 -13.3540  -5.9721  -3.3137
    -3.0052  -2.6672  -2.0992  -1.5189  -0.7815   2.1338   2.2000   2.4006
     2.8180

          k = 0.1111 0.1925 0.0000 ( 10656 PWs)   bands (ev):

   -61.2778 -35.4392 -35.3241 -35.2216 -14.1273 -13.1905  -5.6181  -3.8878
    -3.5405  -2.8161  -2.3594  -1.4040  -0.9975   1.6364   2.1071   2.1269
     3.2862

          k = 0.1111 0.3208 0.0000 ( 10681 PWs)   bands (ev):

   -61.2626 -35.4555 -35.4103 -35.2647 -13.5018 -12.9134  -5.4627  -4.3389
    -4.2745  -3.4950  -2.2076  -1.7024  -1.2754   1.4270   2.1000   2.4518
     3.7496

          k = 0.1111 0.4491 0.0000 ( 10685 PWs)   bands (ev):

   -61.2491 -35.5685 -35.3847 -35.3030 -12.8475 -12.6336  -5.9350  -5.1990
    -4.3449  -3.6307  -2.2582  -2.2393  -1.0459   1.7730   2.3530   3.0449
     3.8550

          k = 0.1111 0.5774 0.0000 ( 10692 PWs)   bands (ev):

   -61.2438 -35.6131 -35.3746 -35.3179 -12.5459 -12.5122  -6.2032  -5.5390
    -4.5077  -3.6123  -2.5014  -2.1538  -0.8110   1.9916   2.5916   3.3411
     3.7780

          k = 0.1111-0.4491 0.0000 ( 10685 PWs)   bands (ev):

   -61.2491 -35.5699 -35.3846 -35.3021 -12.8449 -12.6389  -5.9323  -5.1797
    -4.3496  -3.6579  -2.2359  -2.2210  -1.0651   1.7838   2.3281   2.9764
     3.9440

          k = 0.1111-0.3208 0.0000 ( 10681 PWs)   bands (ev):

   -61.2625 -35.4580 -35.4101 -35.2629 -13.4983 -12.9202  -5.4607  -4.3254
    -4.2617  -3.5077  -2.1977  -1.6870  -1.3128   1.4511   2.0757   2.4310
     3.7816

          k = 0.1111-0.1925 0.0000 ( 10656 PWs)   bands (ev):

   -61.2778 -35.4390 -35.3273 -35.2189 -14.1244 -13.1955  -5.6144  -3.8667
    -3.5837  -2.7582  -2.3747  -1.4032  -1.0255   1.6469   2.1274   2.1425
     3.2449

          k = 0.1111-0.0642 0.0000 ( 10675 PWs)   bands (ev):

   -61.2877 -35.4578 -35.2370 -35.1936 -14.4897 -13.3558  -5.9700  -3.2957
    -3.0424  -2.6856  -2.0272  -1.5461  -0.7893   2.1034   2.2675   2.4362
     2.7426

          k = 0.2222 0.1283 0.0000 ( 10668 PWs)   bands (ev):

   -61.2735 -35.4312 -35.3680 -35.2268 -13.9613 -13.1131  -5.5378  -4.0967
    -3.8803  -2.6871  -2.1514  -1.7841  -1.1447   1.6149   2.0365   2.3750
     3.3547

          k = 0.2222 0.2566 0.0000 ( 10681 PWs)   bands (ev):

   -61.2626 -35.4536 -35.4105 -35.2660 -13.5055 -12.9077  -5.4651  -4.3197
    -4.2849  -3.5290  -2.1881  -1.6989  -1.2706   1.4267   2.0902   2.4322
     3.7666

          k = 0.2222 0.3849 0.0000 ( 10690 PWs)   bands (ev):

   -61.2501 -35.5262 -35.3868 -35.3350 -12.9141 -12.6412  -5.6308  -5.0849
    -4.0858  -3.8852  -2.9929  -1.9554  -1.0887   1.6111   2.4216   2.5606
     4.0850

          k = 0.2222 0.5132 0.0000 ( 10733 PWs)   bands (ev):

   -61.2420 -35.5622 -35.3913 -35.3713 -12.4680 -12.4424  -5.7266  -5.7061
    -4.2793  -3.6700  -3.4165  -2.4836  -0.7153   1.7776   2.6585   2.8231
     4.3175

          k = 0.2222 0.6415 0.0000 ( 10733 PWs)   bands (ev):

   -61.2420 -35.5641 -35.3897 -35.3711 -12.4649 -12.4483  -5.7117  -5.7041
    -4.2920  -3.6831  -3.4003  -2.4785  -0.7146   1.7740   2.6386   2.8072
     4.3570

          k = 0.2222-0.3849 0.0000 ( 10690 PWs)   bands (ev):

   -61.2501 -35.5303 -35.3865 -35.3319 -12.9070 -12.6543  -5.6290  -5.0499
    -4.0774  -3.9092  -2.9912  -1.9474  -1.1000   1.6116   2.3990   2.5255
     4.1568

          k = 0.2222-0.2566 0.0000 ( 10681 PWs)   bands (ev):

   -61.2625 -35.4580 -35.4101 -35.2629 -13.4983 -12.9202  -5.4607  -4.3254
    -4.2617  -3.5077  -2.1977  -1.6870  -1.3128   1.4511   2.0757   2.4310
     3.7816

          k = 0.2222-0.1283 0.0000 ( 10668 PWs)   bands (ev):

   -61.2735 -35.4309 -35.3712 -35.2243 -13.9569 -13.1203  -5.5302  -4.0826
    -3.9141  -2.6329  -2.1644  -1.7796  -1.1761   1.6118   2.0580   2.4147
     3.3045

          k = 0.2222-0.0000 0.0000 ( 10656 PWs)   bands (ev):

   -61.2778 -35.4392 -35.3241 -35.2216 -14.1273 -13.1905  -5.6181  -3.8878
    -3.5405  -2.8161  -2.3594  -1.4040  -0.9975   1.6363   2.1071   2.1269
     3.2862

          k = 0.3333 0.1925 0.0000 ( 10710 PWs)   bands (ev):

   -61.2573 -35.5170 -35.4006 -35.2614 -13.2610 -12.8006  -5.7527  -4.7774
    -4.3863  -3.2132  -2.2386  -1.5850  -1.4862   1.8299   1.8853   2.9718
     3.7334

          k = 0.3333 0.3208 0.0000 ( 10685 PWs)   bands (ev):

   -61.2492 -35.5654 -35.3852 -35.3050 -12.8572 -12.6190  -5.9268  -5.2072
    -4.3696  -3.6659  -2.2322  -2.2101  -1.0433   1.7791   2.3445   3.0016
     3.8681

          k = 0.3333 0.4491 0.0000 ( 10733 PWs)   bands (ev):

   -61.2420 -35.5596 -35.3933 -35.3715 -12.4737 -12.4336  -5.7378  -5.6971
    -4.2959  -3.6880  -3.4109  -2.4596  -0.7110   1.7811   2.6547   2.8290
     4.2923

          k = 0.3333 0.5774 0.0000 ( 10716 PWs)   bands (ev):

   -61.2391 -35.5164 -35.4697 -35.3660 -12.3565 -12.3126  -5.9829  -5.1761
    -4.6172  -3.9869  -3.4640  -2.7747  -0.4312   1.5013   2.4348   3.1597
     4.6371

          k = 0.3333 0.7057 0.0000 ( 10733 PWs)   bands (ev):

   -61.2420 -35.5641 -35.3897 -35.3711 -12.4649 -12.4483  -5.7117  -5.7041
    -4.2920  -3.6831  -3.4003  -2.4785  -0.7146   1.7740   2.6386   2.8072
     4.3570

          k = 0.3333-0.3208 0.0000 ( 10685 PWs)   bands (ev):

   -61.2491 -35.5699 -35.3846 -35.3021 -12.8449 -12.6389  -5.9323  -5.1797
    -4.3496  -3.6579  -2.2359  -2.2209  -1.0651   1.7838   2.3281   2.9764
     3.9440

          k = 0.3333-0.1925 0.0000 ( 10710 PWs)   bands (ev):

   -61.2573 -35.5208 -35.4001 -35.2591 -13.2512 -12.8161  -5.7522  -4.7786
    -4.3652  -3.1712  -2.2526  -1.6058  -1.5116   1.8388   1.8921   3.0172
     3.7052

          k = 0.3333-0.0642 0.0000 ( 10681 PWs)   bands (ev):

   -61.2626 -35.4555 -35.4103 -35.2647 -13.5018 -12.9134  -5.4627  -4.3389
    -4.2745  -3.4950  -2.2076  -1.7024  -1.2754   1.4270   2.1000   2.4518
     3.7496

          k = 0.3333 0.0642 0.0000 ( 10681 PWs)   bands (ev):

   -61.2626 -35.4536 -35.4105 -35.2660 -13.5055 -12.9077  -5.4651  -4.3197
    -4.2849  -3.5290  -2.1881  -1.6989  -1.2706   1.4267   2.0902   2.4322
     3.7666

          k = 0.4444 0.2566 0.0000 ( 10710 PWs)   bands (ev):

   -61.2467 -35.6125 -35.3805 -35.2839 -12.7110 -12.5662  -6.2848  -5.3807
    -4.5634  -3.5066  -2.4718  -1.2718  -1.1982   2.0059   2.3451   3.3481
     3.8882

          k = 0.4444 0.3849 0.0000 ( 10692 PWs)   bands (ev):

   -61.2439 -35.6090 -35.3751 -35.3204 -12.5602 -12.4909  -6.1887  -5.5668
    -4.5300  -3.6429  -2.4617  -2.1508  -0.7980   1.9991   2.6039   3.3590
     3.7038

          k = 0.4444 0.5132 0.0000 ( 10733 PWs)   bands (ev):

   -61.2420 -35.5596 -35.3933 -35.3715 -12.4737 -12.4336  -5.7378  -5.6971
    -4.2959  -3.6880  -3.4109  -2.4596  -0.7110   1.7811   2.6547   2.8290
     4.2923

          k = 0.4444 0.6415 0.0000 ( 10733 PWs)   bands (ev):

   -61.2420 -35.5622 -35.3913 -35.3713 -12.4680 -12.4424  -5.7266  -5.7061
    -4.2793  -3.6700  -3.4165  -2.4836  -0.7153   1.7776   2.6585   2.8231
     4.3175

          k = 0.4444 0.7698 0.0000 ( 10692 PWs)   bands (ev):

   -61.2438 -35.6131 -35.3746 -35.3179 -12.5459 -12.5122  -6.2032  -5.5390
    -4.5077  -3.6123  -2.5014  -2.1538  -0.8110   1.9916   2.5916   3.3411
     3.7780

          k = 0.4444-0.2566 0.0000 ( 10710 PWs)   bands (ev):

   -61.2466 -35.6166 -35.3799 -35.2816 -12.6954 -12.5893  -6.2977  -5.3555
    -4.5389  -3.4702  -2.5082  -1.2941  -1.2027   1.9936   2.3502   3.4069
     3.8746

          k = 0.4444-0.1283 0.0000 ( 10685 PWs)   bands (ev):

   -61.2491 -35.5685 -35.3847 -35.3030 -12.8475 -12.6336  -5.9350  -5.1990
    -4.3449  -3.6307  -2.2582  -2.2393  -1.0459   1.7730   2.3530   3.0449
     3.8550

          k = 0.4444 0.0000 0.0000 ( 10690 PWs)   bands (ev):

   -61.2501 -35.5262 -35.3868 -35.3350 -12.9141 -12.6412  -5.6308  -5.0849
    -4.0858  -3.8852  -2.9929  -1.9554  -1.0887   1.6111   2.4216   2.5606
     4.0850

          k = 0.4444 0.1283 0.0000 ( 10685 PWs)   bands (ev):

   -61.2492 -35.5654 -35.3852 -35.3050 -12.8572 -12.6190  -5.9268  -5.2072
    -4.3696  -3.6659  -2.2322  -2.2101  -1.0433   1.7791   2.3445   3.0016
     3.8681

     the Fermi energy is     0.3300 ev

!    total energy              =    -496.73067130 Ry
     estimated scf accuracy    <       0.00000046 Ry
     smearing contrib. (-TS)   =      -0.00000000 Ry
     internal energy E=F+TS    =    -496.73067130 Ry

     convergence has been achieved in   5 iterations

     negative rho (up, down):  7.785E-05 0.000E+00

     Forces acting on atoms (cartesian axes, Ry/au):

     atom    1 type  1   force =     0.00879232    0.00507776   -0.00080488
     atom    2 type  2   force =    -0.00438632   -0.00253505   -0.00770581
     atom    3 type  2   force =    -0.00440601   -0.00254271    0.00851069
     The non-local contrib.  to forces
     atom    1 type  1   force =    -0.00289085   -0.00166948    0.00045937
     atom    2 type  2   force =    -0.00351962   -0.00203402   -0.26602562
     atom    3 type  2   force =    -0.00350608   -0.00202345    0.26634350
     The ionic contribution  to forces
     atom    1 type  1   force =     0.05573801    0.03219005    0.00235743
     atom    2 type  2   force =    -0.02785503   -0.01609933   36.90462556
     atom    3 type  2   force =    -0.02788298   -0.01609072  -36.90698298
     The local contribution  to forces
     atom    1 type  1   force =    -0.04480789   -0.02587763   -0.00562818
     atom    2 type  2   force =     0.02673330    0.01545099  -36.64744871
     atom    3 type  2   force =     0.02672740    0.01542389   36.64978020
     The core correction contribution to forces
     atom    1 type  1   force =     0.00017905    0.00010341   -0.00002721
     atom    2 type  2   force =     0.00012736    0.00007360    0.00200531
     atom    3 type  2   force =     0.00012650    0.00007300   -0.00202419
     The Hubbard contrib.    to forces
     atom    1 type  1   force =     0.00000000    0.00000000    0.00000000
     atom    2 type  2   force =     0.00000000    0.00000000    0.00000000
     atom    3 type  2   force =     0.00000000    0.00000000    0.00000000
     The SCF correction term to forces
     atom    1 type  1   force =     0.00042374    0.00024465    0.00226448
     atom    2 type  2   force =     0.00006199    0.00003579    0.00110688
     atom    3 type  2   force =     0.00006347    0.00003665   -0.00011857

     DFT-D3 dispersion contribution to forces:
     atom    1 type  1   force =     0.00005639    0.00003256   -0.00000168
     atom    2 type  2   force =    -0.00002819   -0.00001629   -0.00174014
     atom    3 type  2   force =    -0.00002819   -0.00001627    0.00174182

     Total force =     0.016944     Total SCF correction =     0.002572
     SCF correction compared to forces is large: reduce conv_thr to get better values


     Computing stress (Cartesian axis) and pressure


     negative rho (up, down):  7.785E-05 0.000E+00
          total   stress  (Ry/bohr**3)                   (kbar)     P=        5.70
   0.00007784  -0.00000469   0.00000002           11.45       -0.69        0.00
  -0.00000469   0.00008326   0.00000000           -0.69       12.25        0.00
   0.00000002   0.00000000  -0.00004479            0.00        0.00       -6.59


     Entering Dynamics:    iteration =    10

     <vel(dt)|acc(dt)> =  -0.95503578

ATOMIC_POSITIONS (crystal)
Mo           -0.0020928882       -0.0010466934        0.5000240981
S             0.6677025529        0.3338526724        0.5837038459
S             0.6677236687        0.3338606877        0.4162720559



     Writing config-only to output data dir ./tmp/scf.save/
     NEW-OLD atomic charge density approx. for the potential

     negative rho (up, down):  7.793E-05 0.000E+00

     total cpu time spent up to now is      762.9 secs

     Self-consistent Calculation

     iteration #  1     ecut=    70.00 Ry     beta= 0.70
     Davidson diagonalization with overlap
     ethr =  1.00E-06,  avg # of iterations =  4.4

     Threshold (ethr) on eigenvalues was too large:
     Diagonalizing with lowered threshold

     Davidson diagonalization with overlap
     ethr =  4.18E-08,  avg # of iterations =  2.4

     negative rho (up, down):  7.791E-05 0.000E+00

     total cpu time spent up to now is      783.2 secs

     total energy              =    -496.73083670 Ry
     estimated scf accuracy    <       0.00001004 Ry

     iteration #  2     ecut=    70.00 Ry     beta= 0.70
     Davidson diagonalization with overlap
     ethr =  3.86E-08,  avg # of iterations =  3.0

     negative rho (up, down):  7.793E-05 0.000E+00

     total cpu time spent up to now is      791.1 secs

     total energy              =    -496.73082262 Ry
     estimated scf accuracy    <       0.00018807 Ry

     iteration #  3     ecut=    70.00 Ry     beta= 0.70
     Davidson diagonalization with overlap
     ethr =  3.86E-08,  avg # of iterations =  3.0

     negative rho (up, down):  7.793E-05 0.000E+00

     total cpu time spent up to now is      803.7 secs

     total energy              =    -496.73084241 Ry
     estimated scf accuracy    <       0.00000120 Ry

     iteration #  4     ecut=    70.00 Ry     beta= 0.70
     Davidson diagonalization with overlap
     ethr =  4.62E-09,  avg # of iterations =  2.7

     negative rho (up, down):  7.792E-05 0.000E+00

     total cpu time spent up to now is      816.5 secs

     total energy              =    -496.73084231 Ry
     estimated scf accuracy    <       0.00000415 Ry

     iteration #  5     ecut=    70.00 Ry     beta= 0.70
     Davidson diagonalization with overlap
     ethr =  4.62E-09,  avg # of iterations =  2.0

     negative rho (up, down):  7.791E-05 0.000E+00

     total cpu time spent up to now is      828.7 secs

     End of self-consistent calculation

          k = 0.0000 0.0000 0.0000 ( 10685 PWs)   bands (ev):

   -61.2934 -35.4698 -35.1854 -35.1831 -14.6990 -13.4443  -6.2059  -2.9146
    -2.8971  -2.4716  -1.8103  -1.7345  -0.7171   2.4176   2.5037   2.6188
     2.6536

          k = 0.0000 0.1283 0.0000 ( 10675 PWs)   bands (ev):

   -61.2877 -35.4592 -35.2388 -35.1959 -14.5041 -13.3582  -5.9843  -3.3209
    -3.0426  -2.7078  -2.0551  -1.5504  -0.7793   2.1174   2.2632   2.4396
     2.7500

          k = 0.0000 0.2566 0.0000 ( 10668 PWs)   bands (ev):

   -61.2734 -35.4321 -35.3734 -35.2267 -13.9712 -13.1241  -5.5484  -4.1009
    -3.9196  -2.6599  -2.1853  -1.7777  -1.1699   1.6235   2.0603   2.4147
     3.3162

          k = 0.0000 0.3849 0.0000 ( 10710 PWs)   bands (ev):

   -61.2572 -35.5233 -35.4012 -35.2615 -13.2661 -12.8219  -5.7712  -4.7871
    -4.3773  -3.1969  -2.2457  -1.6120  -1.5213   1.8478   1.8901   3.0208
     3.7194

          k = 0.0000 0.5132 0.0000 ( 10710 PWs)   bands (ev):

   -61.2465 -35.6194 -35.3809 -35.2841 -12.7115 -12.5965  -6.3094  -5.3647
    -4.5537  -3.4951  -2.4984  -1.2911  -1.2194   1.9904   2.3529   3.4120
     3.8877

          k = 0.1111 0.0642 0.0000 ( 10675 PWs)   bands (ev):

   -61.2877 -35.4592 -35.2369 -35.1976 -14.5048 -13.3570  -5.9856  -3.3327
    -3.0184  -2.6958  -2.1021  -1.5325  -0.7742   2.1370   2.2178   2.4166
     2.8004

          k = 0.1111 0.1925 0.0000 ( 10656 PWs)   bands (ev):

   -61.2778 -35.4404 -35.3268 -35.2234 -14.1408 -13.1950  -5.6335  -3.9050
    -3.5536  -2.8277  -2.3838  -1.4057  -0.9964   1.6488   2.1134   2.1328
     3.2869

          k = 0.1111 0.3208 0.0000 ( 10681 PWs)   bands (ev):

   -61.2625 -35.4583 -35.4114 -35.2669 -13.5155 -12.9200  -5.4831  -4.3465
    -4.2850  -3.5146  -2.2183  -1.6986  -1.2860   1.4397   2.0986   2.4517
     3.7674

          k = 0.1111 0.4491 0.0000 ( 10685 PWs)   bands (ev):

   -61.2490 -35.5714 -35.3858 -35.3055 -12.8623 -12.6417  -5.9494  -5.2086
    -4.3587  -3.6514  -2.2619  -2.2303  -1.0575   1.7805   2.3468   3.0412
     3.8802

          k = 0.1111 0.5774 0.0000 ( 10692 PWs)   bands (ev):

   -61.2437 -35.6158 -35.3756 -35.3205 -12.5621 -12.5202  -6.2133  -5.5522
    -4.5231  -3.6301  -2.4919  -2.1614  -0.8174   1.9895   2.5939   3.3596
     3.7762

          k = 0.1111-0.4491 0.0000 ( 10685 PWs)   bands (ev):

   -61.2490 -35.5723 -35.3857 -35.3048 -12.8606 -12.6452  -5.9476  -5.1960
    -4.3618  -3.6690  -2.2474  -2.2185  -1.0700   1.7876   2.3305   2.9967
     3.9379

          k = 0.1111-0.3208 0.0000 ( 10681 PWs)   bands (ev):

   -61.2625 -35.4600 -35.4113 -35.2656 -13.5132 -12.9245  -5.4818  -4.3373
    -4.2766  -3.5233  -2.2119  -1.6887  -1.3102   1.4554   2.0827   2.4384
     3.7880

          k = 0.1111-0.1925 0.0000 ( 10656 PWs)   bands (ev):

   -61.2778 -35.4403 -35.3290 -35.2216 -14.1390 -13.1983  -5.6311  -3.8912
    -3.5818  -2.7900  -2.3937  -1.4052  -1.0146   1.6559   2.1329   2.1366
     3.2600

          k = 0.1111-0.0642 0.0000 ( 10675 PWs)   bands (ev):

   -61.2877 -35.4592 -35.2388 -35.1959 -14.5041 -13.3582  -5.9843  -3.3209
    -3.0426  -2.7078  -2.0551  -1.5504  -0.7793   2.1174   2.2632   2.4396
     2.7500

          k = 0.2222 0.1283 0.0000 ( 10668 PWs)   bands (ev):

   -61.2735 -35.4323 -35.3712 -35.2284 -13.9741 -13.1194  -5.5533  -4.1103
    -3.8979  -2.6948  -2.1769  -1.7805  -1.1493   1.6254   2.0465   2.3884
     3.3492

          k = 0.2222 0.2566 0.0000 ( 10681 PWs)   bands (ev):

   -61.2625 -35.4571 -35.4116 -35.2678 -13.5179 -12.9163  -5.4847  -4.3341
    -4.2919  -3.5367  -2.2058  -1.6963  -1.2826   1.4396   2.0923   2.4390
     3.7785

          k = 0.2222 0.3849 0.0000 ( 10690 PWs)   bands (ev):

   -61.2500 -35.5296 -35.3878 -35.3371 -12.9271 -12.6515  -5.6484  -5.0972
    -4.0935  -3.8946  -3.0033  -1.9513  -1.0995   1.6211   2.4145   2.5646
     4.1079

          k = 0.2222 0.5132 0.0000 ( 10733 PWs)   bands (ev):

   -61.2419 -35.5652 -35.3938 -35.3722 -12.4827 -12.4526  -5.7426  -5.7171
    -4.2944  -3.6786  -3.4230  -2.4761  -0.7227   1.7743   2.6693   2.8255
     4.3304

          k = 0.2222 0.6415 0.0000 ( 10733 PWs)   bands (ev):

   -61.2418 -35.5665 -35.3928 -35.3721 -12.4807 -12.4564  -5.7330  -5.7157
    -4.3027  -3.6871  -3.4126  -2.4727  -0.7222   1.7719   2.6563   2.8152
     4.3561

          k = 0.2222-0.3849 0.0000 ( 10690 PWs)   bands (ev):

   -61.2500 -35.5324 -35.3876 -35.3349 -12.9225 -12.6601  -5.6470  -5.0744
    -4.0879  -3.9102  -3.0023  -1.9461  -1.1070   1.6214   2.3997   2.5418
     4.1545

          k = 0.2222-0.2566 0.0000 ( 10681 PWs)   bands (ev):

   -61.2625 -35.4600 -35.4113 -35.2656 -13.5132 -12.9245  -5.4818  -4.3373
    -4.2766  -3.5233  -2.2119  -1.6887  -1.3102   1.4554   2.0827   2.4384
     3.7880

          k = 0.2222-0.1283 0.0000 ( 10668 PWs)   bands (ev):

   -61.2734 -35.4321 -35.3734 -35.2267 -13.9712 -13.1241  -5.5484  -4.1009
    -3.9196  -2.6599  -2.1853  -1.7777  -1.1699   1.6235   2.0603   2.4147
     3.3163

          k = 0.2222-0.0000 0.0000 ( 10656 PWs)   bands (ev):

   -61.2778 -35.4404 -35.3268 -35.2234 -14.1408 -13.1950  -5.6335  -3.9050
    -3.5536  -2.8278  -2.3838  -1.4057  -0.9964   1.6488   2.1134   2.1328
     3.2870

          k = 0.3333 0.1925 0.0000 ( 10710 PWs)   bands (ev):

   -61.2572 -35.5207 -35.4015 -35.2631 -13.2725 -12.8118  -5.7716  -4.7864
    -4.3911  -3.2240  -2.2366  -1.6040  -1.4992   1.8416   1.8863   2.9907
     3.7382

          k = 0.3333 0.3208 0.0000 ( 10685 PWs)   bands (ev):

   -61.2491 -35.5692 -35.3861 -35.3068 -12.8686 -12.6322  -5.9442  -5.2139
    -4.3749  -3.6741  -2.2451  -2.2114  -1.0556   1.7848   2.3411   3.0130
     3.8888

          k = 0.3333 0.4491 0.0000 ( 10733 PWs)   bands (ev):

   -61.2419 -35.5634 -35.3952 -35.3724 -12.4864 -12.4469  -5.7499  -5.7114
    -4.3053  -3.6902  -3.4192  -2.4606  -0.7199   1.7768   2.6667   2.8294
     4.3142

          k = 0.3333 0.5774 0.0000 ( 10716 PWs)   bands (ev):

   -61.2390 -35.5195 -35.4723 -35.3669 -12.3676 -12.3271  -6.0011  -5.1856
    -4.6287  -3.9983  -3.4658  -2.7707  -0.4372   1.4897   2.4495   3.1717
     4.6489

          k = 0.3333 0.7057 0.0000 ( 10733 PWs)   bands (ev):

   -61.2418 -35.5665 -35.3928 -35.3721 -12.4807 -12.4564  -5.7330  -5.7157
    -4.3027  -3.6871  -3.4126  -2.4727  -0.7222   1.7719   2.6563   2.8152
     4.3561

          k = 0.3333-0.3208 0.0000 ( 10685 PWs)   bands (ev):

   -61.2490 -35.5723 -35.3857 -35.3048 -12.8606 -12.6452  -5.9476  -5.1960
    -4.3618  -3.6690  -2.2474  -2.2185  -1.0700   1.7876   2.3305   2.9967
     3.9379

          k = 0.3333-0.1925 0.0000 ( 10710 PWs)   bands (ev):

   -61.2572 -35.5233 -35.4012 -35.2615 -13.2661 -12.8219  -5.7712  -4.7871
    -4.3773  -3.1969  -2.2457  -1.6120  -1.5213   1.8478   1.8901   3.0208
     3.7194

          k = 0.3333-0.0642 0.0000 ( 10681 PWs)   bands (ev):

   -61.2625 -35.4583 -35.4114 -35.2669 -13.5155 -12.9200  -5.4831  -4.3465
    -4.2850  -3.5146  -2.2183  -1.6986  -1.2860   1.4397   2.0986   2.4517
     3.7674

          k = 0.3333 0.0642 0.0000 ( 10681 PWs)   bands (ev):

   -61.2625 -35.4571 -35.4116 -35.2678 -13.5179 -12.9163  -5.4847  -4.3341
    -4.2919  -3.5367  -2.2058  -1.6963  -1.2826   1.4396   2.0923   2.4390
     3.7785

          k = 0.4444 0.2566 0.0000 ( 10710 PWs)   bands (ev):

   -61.2466 -35.6166 -35.3814 -35.2857 -12.7217 -12.5815  -6.3011  -5.3811
    -4.5696  -3.5187  -2.4748  -1.2839  -1.2091   1.9984   2.3498   3.3723
     3.8980

          k = 0.4444 0.3849 0.0000 ( 10692 PWs)   bands (ev):

   -61.2437 -35.6130 -35.3760 -35.3222 -12.5713 -12.5064  -6.2041  -5.5702
    -4.5376  -3.6499  -2.4662  -2.1595  -0.8088   1.9946   2.6018   3.3700
     3.7293

          k = 0.4444 0.5132 0.0000 ( 10733 PWs)   bands (ev):

   -61.2419 -35.5634 -35.3952 -35.3724 -12.4864 -12.4469  -5.7499  -5.7114
    -4.3053  -3.6902  -3.4192  -2.4606  -0.7199   1.7768   2.6667   2.8294
     4.3142

          k = 0.4444 0.6415 0.0000 ( 10733 PWs)   bands (ev):

   -61.2419 -35.5652 -35.3938 -35.3722 -12.4827 -12.4526  -5.7426  -5.7171
    -4.2944  -3.6786  -3.4230  -2.4761  -0.7227   1.7743   2.6693   2.8255
     4.3304

          k = 0.4444 0.7698 0.0000 ( 10692 PWs)   bands (ev):

   -61.2437 -35.6158 -35.3756 -35.3205 -12.5621 -12.5202  -6.2133  -5.5522
    -4.5231  -3.6301  -2.4919  -2.1614  -0.8174   1.9895   2.5939   3.3596
     3.7762

          k = 0.4444-0.2566 0.0000 ( 10710 PWs)   bands (ev):

   -61.2465 -35.6194 -35.3809 -35.2841 -12.7116 -12.5965  -6.3094  -5.3647
    -4.5537  -3.4951  -2.4984  -1.2911  -1.2194   1.9904   2.3529   3.4120
     3.8877

          k = 0.4444-0.1283 0.0000 ( 10685 PWs)   bands (ev):

   -61.2490 -35.5714 -35.3858 -35.3055 -12.8623 -12.6417  -5.9494  -5.2086
    -4.3587  -3.6514  -2.2619  -2.2303  -1.0575   1.7805   2.3468   3.0412
     3.8802

          k = 0.4444 0.0000 0.0000 ( 10690 PWs)   bands (ev):

   -61.2500 -35.5296 -35.3878 -35.3371 -12.9271 -12.6515  -5.6484  -5.0972
    -4.0935  -3.8946  -3.0033  -1.9513  -1.0995   1.6211   2.4145   2.5646
     4.1079

          k = 0.4444 0.1283 0.0000 ( 10685 PWs)   bands (ev):

   -61.2491 -35.5692 -35.3861 -35.3068 -12.8686 -12.6322  -5.9442  -5.2139
    -4.3749  -3.6741  -2.2451  -2.2114  -1.0556   1.7848   2.3411   3.0130
     3.8888

     the Fermi energy is     0.3409 ev

!    total energy              =    -496.73084285 Ry
     estimated scf accuracy    <       0.00000005 Ry
     smearing contrib. (-TS)   =      -0.00000000 Ry
     internal energy E=F+TS    =    -496.73084285 Ry

     convergence has been achieved in   5 iterations

     negative rho (up, down):  7.791E-05 0.000E+00

     Forces acting on atoms (cartesian axes, Ry/au):

     atom    1 type  1   force =     0.00582365    0.00336337   -0.00076670
     atom    2 type  2   force =    -0.00290562   -0.00167978   -0.00464927
     atom    3 type  2   force =    -0.00291803   -0.00168359    0.00541597
     The non-local contrib.  to forces
     atom    1 type  1   force =    -0.00182539   -0.00105422    0.00037852
     atom    2 type  2   force =    -0.00227683   -0.00131619   -0.26475979
     atom    3 type  2   force =    -0.00228621   -0.00131913    0.26516567
     The ionic contribution  to forces
     atom    1 type  1   force =     0.03641479    0.02103099    0.00180719
     atom    2 type  2   force =    -0.01817043   -0.01050524   36.91289867
     atom    3 type  2   force =    -0.01824437   -0.01052575  -36.91470586
     The local contribution  to forces
     atom    1 type  1   force =    -0.02901345   -0.01675646   -0.00194354
     atom    2 type  2   force =     0.01744988    0.01008862  -36.65265601
     atom    3 type  2   force =     0.01752008    0.01010793   36.65541270
     The core correction contribution to forces
     atom    1 type  1   force =     0.00012043    0.00006955   -0.00001595
     atom    2 type  2   force =     0.00008262    0.00004776    0.00195598
     atom    3 type  2   force =     0.00008292    0.00004784   -0.00197306
     The Hubbard contrib.    to forces
     atom    1 type  1   force =     0.00000000    0.00000000    0.00000000
     atom    2 type  2   force =     0.00000000    0.00000000    0.00000000
     atom    3 type  2   force =     0.00000000    0.00000000    0.00000000
     The SCF correction term to forces
     atom    1 type  1   force =     0.00007322    0.00004228   -0.00092622
     atom    2 type  2   force =     0.00000977    0.00000564   -0.00027902
     atom    3 type  2   force =     0.00001023    0.00000590   -0.00016295

     DFT-D3 dispersion contribution to forces:
     atom    1 type  1   force =     0.00003647    0.00002106   -0.00000126
     atom    2 type  2   force =    -0.00001821   -0.00001053   -0.00174365
     atom    3 type  2   force =    -0.00001826   -0.00001054    0.00174491

     Total force =     0.010926     Total SCF correction =     0.000985


     Computing stress (Cartesian axis) and pressure


     negative rho (up, down):  7.791E-05 0.000E+00
          total   stress  (Ry/bohr**3)                   (kbar)     P=        6.91
   0.00008385  -0.00000306   0.00000004           12.33       -0.45        0.01
  -0.00000306   0.00008738   0.00000001           -0.45       12.85        0.00
   0.00000004   0.00000001  -0.00003039            0.01        0.00       -4.47


     Entering Dynamics:    iteration =    12

     <vel(dt)|acc(dt)> =  -0.83111232

ATOMIC_POSITIONS (crystal)
Mo           -0.0012589140       -0.0006296280        0.5000148079
S             0.6672880373        0.3336452057        0.5835593265
S             0.6673042100        0.3336510890        0.4164258656



     Writing config-only to output data dir ./tmp/scf.save/
     NEW-OLD atomic charge density approx. for the potential

     negative rho (up, down):  7.799E-05 0.000E+00

     total cpu time spent up to now is      868.4 secs

     Self-consistent Calculation

     iteration #  1     ecut=    70.00 Ry     beta= 0.70
     Davidson diagonalization with overlap
     ethr =  1.00E-06,  avg # of iterations =  3.6

     Threshold (ethr) on eigenvalues was too large:
     Diagonalizing with lowered threshold

     Davidson diagonalization with overlap
     ethr =  1.65E-08,  avg # of iterations =  3.8

     negative rho (up, down):  7.800E-05 0.000E+00

     total cpu time spent up to now is      910.0 secs

     total energy              =    -496.73091912 Ry
     estimated scf accuracy    <       0.00000468 Ry

     iteration #  2     ecut=    70.00 Ry     beta= 0.70
     Davidson diagonalization with overlap
     ethr =  1.80E-08,  avg # of iterations =  3.0

     negative rho (up, down):  7.799E-05 0.000E+00

     total cpu time spent up to now is      930.5 secs

     total energy              =    -496.73091389 Ry
     estimated scf accuracy    <       0.00006216 Ry

     iteration #  3     ecut=    70.00 Ry     beta= 0.70
     Davidson diagonalization with overlap
     ethr =  1.80E-08,  avg # of iterations =  3.0

     negative rho (up, down):  7.799E-05 0.000E+00

     total cpu time spent up to now is      950.5 secs

     total energy              =    -496.73092108 Ry
     estimated scf accuracy    <       0.00000200 Ry

     iteration #  4     ecut=    70.00 Ry     beta= 0.70
     Davidson diagonalization with overlap
     ethr =  7.68E-09,  avg # of iterations =  2.0

     negative rho (up, down):  7.799E-05 0.000E+00

     total cpu time spent up to now is      969.5 secs

     total energy              =    -496.73092131 Ry
     estimated scf accuracy    <       0.00000353 Ry

     iteration #  5     ecut=    70.00 Ry     beta= 0.70
     Davidson diagonalization with overlap
     ethr =  7.68E-09,  avg # of iterations =  1.3

     negative rho (up, down):  7.800E-05 0.000E+00

     total cpu time spent up to now is      984.7 secs

     End of self-consistent calculation

          k = 0.0000 0.0000 0.0000 ( 10685 PWs)   bands (ev):

   -61.2935 -35.4710 -35.1866 -35.1852 -14.7096 -13.4456  -6.2157  -2.9292
    -2.9186  -2.4664  -1.8101  -1.7645  -0.7088   2.4342   2.4862   2.6322
     2.6534

          k = 0.0000 0.1283 0.0000 ( 10675 PWs)   bands (ev):

   -61.2879 -35.4604 -35.2403 -35.1978 -14.5147 -13.3599  -5.9947  -3.3394
    -3.0430  -2.7240  -2.0758  -1.5530  -0.7719   2.1275   2.2589   2.4421
     2.7564

          k = 0.0000 0.2566 0.0000 ( 10668 PWs)   bands (ev):

   -61.2736 -35.4333 -35.3751 -35.2286 -13.9817 -13.1269  -5.5617  -4.1144
    -3.9238  -2.6796  -2.2007  -1.7761  -1.1652   1.6320   2.0621   2.4143
     3.3251

          k = 0.0000 0.3849 0.0000 ( 10710 PWs)   bands (ev):

   -61.2573 -35.5252 -35.4023 -35.2635 -13.2770 -12.8261  -5.7851  -4.7934
    -4.3861  -3.2157  -2.2404  -1.6207  -1.5241   1.8542   1.8888   3.0229
     3.7301

          k = 0.0000 0.5132 0.0000 ( 10710 PWs)   bands (ev):

   -61.2466 -35.6214 -35.3819 -35.2861 -12.7234 -12.6019  -6.3180  -5.3714
    -4.5644  -3.5135  -2.4910  -1.2936  -1.2270   1.9880   2.3549   3.4145
     3.8984

          k = 0.1111 0.0642 0.0000 ( 10675 PWs)   bands (ev):

   -61.2879 -35.4604 -35.2391 -35.1988 -14.5151 -13.3592  -5.9955  -3.3466
    -3.0283  -2.7167  -2.1043  -1.5422  -0.7688   2.1392   2.2308   2.4284
     2.7875

          k = 0.1111 0.1925 0.0000 ( 10656 PWs)   bands (ev):

   -61.2779 -35.4415 -35.3290 -35.2249 -14.1508 -13.1984  -5.6448  -3.9176
    -3.5634  -2.8362  -2.4017  -1.4067  -0.9956   1.6579   2.1177   2.1371
     3.2876

          k = 0.1111 0.3208 0.0000 ( 10681 PWs)   bands (ev):

   -61.2626 -35.4605 -35.4125 -35.2686 -13.5255 -12.9249  -5.4980  -4.3521
    -4.2926  -3.5290  -2.2264  -1.6957  -1.2935   1.4491   2.0976   2.4515
     3.7805

          k = 0.1111 0.4491 0.0000 ( 10685 PWs)   bands (ev):

   -61.2491 -35.5736 -35.3868 -35.3074 -12.8732 -12.6476  -5.9601  -5.2157
    -4.3688  -3.6665  -2.2647  -2.2235  -1.0658   1.7861   2.3421   3.0382
     3.8987

          k = 0.1111 0.5774 0.0000 ( 10692 PWs)   bands (ev):

   -61.2438 -35.6179 -35.3766 -35.3225 -12.5738 -12.5261  -6.2208  -5.5619
    -4.5343  -3.6432  -2.4848  -2.1671  -0.8220   1.9879   2.5954   3.3722
     3.7757

          k = 0.1111-0.4491 0.0000 ( 10685 PWs)   bands (ev):

   -61.2491 -35.5741 -35.3867 -35.3070 -12.8722 -12.6497  -5.9590  -5.2080
    -4.3707  -3.6771  -2.2560  -2.2165  -1.0734   1.7904   2.3323   3.0113
     3.9336

          k = 0.1111-0.3208 0.0000 ( 10681 PWs)   bands (ev):

   -61.2626 -35.4615 -35.4124 -35.2678 -13.5242 -12.9275  -5.4972  -4.3464
    -4.2876  -3.5345  -2.2225  -1.6897  -1.3081   1.4585   2.0880   2.4436
     3.7929

          k = 0.1111-0.1925 0.0000 ( 10656 PWs)   bands (ev):

   -61.2779 -35.4415 -35.3303 -35.2237 -14.1497 -13.2003  -5.6433  -3.9092
    -3.5805  -2.8133  -2.4077  -1.4064  -1.0066   1.6623   2.1319   2.1371
     3.2713

          k = 0.1111-0.0642 0.0000 ( 10675 PWs)   bands (ev):

   -61.2879 -35.4604 -35.2403 -35.1978 -14.5147 -13.3599  -5.9947  -3.3394
    -3.0430  -2.7240  -2.0758  -1.5530  -0.7719   2.1275   2.2589   2.4421
     2.7564

          k = 0.2222 0.1283 0.0000 ( 10668 PWs)   bands (ev):

   -61.2736 -35.4334 -35.3738 -35.2296 -13.9835 -13.1240  -5.5646  -4.1201
    -3.9108  -2.7006  -2.1956  -1.7777  -1.1526   1.6331   2.0538   2.3982
     3.3452

          k = 0.2222 0.2566 0.0000 ( 10681 PWs)   bands (ev):

   -61.2626 -35.4598 -35.4125 -35.2691 -13.5270 -12.9226  -5.4989  -4.3446
    -4.2969  -3.5423  -2.2189  -1.6943  -1.2913   1.4490   2.0938   2.4437
     3.7872

          k = 0.2222 0.3849 0.0000 ( 10690 PWs)   bands (ev):

   -61.2501 -35.5323 -35.3888 -35.3387 -12.9366 -12.6591  -5.6612  -5.1062
    -4.0990  -3.9014  -3.0110  -1.9482  -1.1074   1.6285   2.4092   2.5674
     4.1246

          k = 0.2222 0.5132 0.0000 ( 10733 PWs)   bands (ev):

   -61.2420 -35.5675 -35.3958 -35.3732 -12.4934 -12.4601  -5.7543  -5.7253
    -4.3054  -3.6849  -3.4278  -2.4704  -0.7280   1.7718   2.6770   2.8273
     4.3399

          k = 0.2222 0.6415 0.0000 ( 10733 PWs)   bands (ev):

   -61.2419 -35.5683 -35.3952 -35.3731 -12.4922 -12.4625  -5.7484  -5.7244
    -4.3105  -3.6900  -3.4215  -2.4684  -0.7278   1.7703   2.6691   2.8211
     4.3555

          k = 0.2222-0.3849 0.0000 ( 10690 PWs)   bands (ev):

   -61.2501 -35.5340 -35.3886 -35.3374 -12.9339 -12.6643  -5.6604  -5.0924
    -4.0956  -3.9108  -3.0104  -1.9450  -1.1120   1.6286   2.4002   2.5536
     4.1528

          k = 0.2222-0.2566 0.0000 ( 10681 PWs)   bands (ev):

   -61.2626 -35.4615 -35.4124 -35.2678 -13.5242 -12.9275  -5.4972  -4.3464
    -4.2876  -3.5345  -2.2225  -1.6897  -1.3081   1.4585   2.0880   2.4436
     3.7929

          k = 0.2222-0.1283 0.0000 ( 10668 PWs)   bands (ev):

   -61.2736 -35.4333 -35.3751 -35.2286 -13.9817 -13.1269  -5.5617  -4.1144
    -3.9238  -2.6796  -2.2007  -1.7761  -1.1652   1.6320   2.0621   2.4143
     3.3251

          k = 0.2222-0.0000 0.0000 ( 10656 PWs)   bands (ev):

   -61.2779 -35.4415 -35.3290 -35.2249 -14.1508 -13.1984  -5.6448  -3.9176
    -3.5634  -2.8362  -2.4017  -1.4067  -0.9955   1.6579   2.1177   2.1371
     3.2876

          k = 0.3333 0.1925 0.0000 ( 10710 PWs)   bands (ev):

   -61.2573 -35.5237 -35.4025 -35.2645 -13.2809 -12.8200  -5.7853  -4.7930
    -4.3945  -3.2320  -2.2349  -1.6179  -1.5086   1.8501   1.8869   3.0044
     3.7417

          k = 0.3333 0.3208 0.0000 ( 10685 PWs)   bands (ev):

   -61.2492 -35.5723 -35.3869 -35.3082 -12.8770 -12.6419  -5.9569  -5.2189
    -4.3786  -3.6802  -2.2547  -2.2122  -1.0645   1.7887   2.3387   3.0211
     3.9039

          k = 0.3333 0.4491 0.0000 ( 10733 PWs)   bands (ev):

   -61.2420 -35.5664 -35.3967 -35.3733 -12.4956 -12.4567  -5.7587  -5.7218
    -4.3121  -3.6918  -3.4254  -2.4611  -0.7263   1.7733   2.6754   2.8296
     4.3302

          k = 0.3333 0.5774 0.0000 ( 10716 PWs)   bands (ev):

   -61.2391 -35.5218 -35.4743 -35.3678 -12.3757 -12.3378  -6.0145  -5.1926
    -4.6371  -4.0064  -3.4671  -2.7675  -0.4415   1.4812   2.4602   3.1804
     4.6574

          k = 0.3333 0.7057 0.0000 ( 10733 PWs)   bands (ev):

   -61.2419 -35.5683 -35.3952 -35.3731 -12.4922 -12.4625  -5.7484  -5.7244
    -4.3105  -3.6900  -3.4215  -2.4684  -0.7278   1.7703   2.6691   2.8211
     4.3555

          k = 0.3333-0.3208 0.0000 ( 10685 PWs)   bands (ev):

   -61.2491 -35.5741 -35.3867 -35.3070 -12.8722 -12.6497  -5.9590  -5.2080
    -4.3707  -3.6771  -2.2560  -2.2164  -1.0734   1.7904   2.3323   3.0113
     3.9336

          k = 0.3333-0.1925 0.0000 ( 10710 PWs)   bands (ev):

   -61.2573 -35.5252 -35.4023 -35.2635 -13.2770 -12.8261  -5.7851  -4.7934
    -4.3861  -3.2157  -2.2404  -1.6207  -1.5241   1.8542   1.8888   3.0229
     3.7301

          k = 0.3333-0.0642 0.0000 ( 10681 PWs)   bands (ev):

   -61.2626 -35.4605 -35.4125 -35.2686 -13.5255 -12.9249  -5.4980  -4.3521
    -4.2926  -3.5290  -2.2264  -1.6957  -1.2935   1.4491   2.0976   2.4515
     3.7805

          k = 0.3333 0.0642 0.0000 ( 10681 PWs)   bands (ev):

   -61.2626 -35.4598 -35.4125 -35.2691 -13.5270 -12.9226  -5.4989  -4.3446
    -4.2969  -3.5423  -2.2189  -1.6943  -1.2913   1.4490   2.0938   2.4437
     3.7872

          k = 0.4444 0.2566 0.0000 ( 10710 PWs)   bands (ev):

   -61.2467 -35.6198 -35.3822 -35.2870 -12.7295 -12.5928  -6.3131  -5.3813
    -4.5741  -3.5277  -2.4768  -1.2929  -1.2170   1.9929   2.3531   3.3899
     3.9053

          k = 0.4444 0.3849 0.0000 ( 10692 PWs)   bands (ev):

   -61.2438 -35.6162 -35.3768 -35.3236 -12.5794 -12.5177  -6.2153  -5.5727
    -4.5431  -3.6551  -2.4693  -2.1660  -0.8166   1.9911   2.6002   3.3779
     3.7480

          k = 0.4444 0.5132 0.0000 ( 10733 PWs)   bands (ev):

   -61.2420 -35.5664 -35.3967 -35.3733 -12.4956 -12.4567  -5.7587  -5.7218
    -4.3121  -3.6918  -3.4254  -2.4611  -0.7263   1.7733   2.6754   2.8296
     4.3302

          k = 0.4444 0.6415 0.0000 ( 10733 PWs)   bands (ev):

   -61.2420 -35.5675 -35.3958 -35.3732 -12.4934 -12.4601  -5.7543  -5.7253
    -4.3054  -3.6849  -3.4278  -2.4704  -0.7280   1.7718   2.6770   2.8273
     4.3399

          k = 0.4444 0.7698 0.0000 ( 10692 PWs)   bands (ev):

   -61.2438 -35.6179 -35.3766 -35.3225 -12.5738 -12.5261  -6.2208  -5.5619
    -4.5343  -3.6432  -2.4848  -2.1671  -0.8220   1.9879   2.5954   3.3722
     3.7757

          k = 0.4444-0.2566 0.0000 ( 10710 PWs)   bands (ev):

   -61.2466 -35.6214 -35.3819 -35.2861 -12.7234 -12.6019  -6.3180  -5.3714
    -4.5644  -3.5135  -2.4910  -1.2936  -1.2270   1.9880   2.3549   3.4145
     3.8984

          k = 0.4444-0.1283 0.0000 ( 10685 PWs)   bands (ev):

   -61.2491 -35.5736 -35.3868 -35.3074 -12.8732 -12.6476  -5.9601  -5.2157
    -4.3688  -3.6665  -2.2647  -2.2235  -1.0658   1.7861   2.3421   3.0382
     3.8987

          k = 0.4444 0.0000 0.0000 ( 10690 PWs)   bands (ev):

   -61.2501 -35.5323 -35.3888 -35.3387 -12.9366 -12.6591  -5.6612  -5.1062
    -4.0990  -3.9014  -3.0110  -1.9482  -1.1074   1.6285   2.4092   2.5674
     4.1246

          k = 0.4444 0.1283 0.0000 ( 10685 PWs)   bands (ev):

   -61.2492 -35.5723 -35.3869 -35.3082 -12.8770 -12.6419  -5.9569  -5.2189
    -4.3786  -3.6802  -2.2547  -2.2122  -1.0645   1.7887   2.3387   3.0211
     3.9039

     the Fermi energy is     0.3487 ev

!    total energy              =    -496.73092168 Ry
     estimated scf accuracy    <       0.00000002 Ry
     smearing contrib. (-TS)   =      -0.00000000 Ry
     internal energy E=F+TS    =    -496.73092168 Ry

     convergence has been achieved in   5 iterations

     negative rho (up, down):  7.800E-05 0.000E+00

     Forces acting on atoms (cartesian axes, Ry/au):

     atom    1 type  1   force =     0.00352671    0.00203689   -0.00045810
     atom    2 type  2   force =    -0.00175384   -0.00101441   -0.00290018
     atom    3 type  2   force =    -0.00177287   -0.00102249    0.00335828
     The non-local contrib.  to forces
     atom    1 type  1   force =    -0.00110759   -0.00063970    0.00020678
     atom    2 type  2   force =    -0.00137600   -0.00079581   -0.26387164
     atom    3 type  2   force =    -0.00138773   -0.00080042    0.26405322
     The ionic contribution  to forces
     atom    1 type  1   force =     0.02211429    0.01277241    0.00113458
     atom    2 type  2   force =    -0.01101783   -0.00637309   36.91906182
     atom    3 type  2   force =    -0.01109646   -0.00639932  -36.92019640
     The local contribution  to forces
     atom    1 type  1   force =    -0.01763411   -0.01018483   -0.00194467
     atom    2 type  2   force =     0.01058188    0.00612089  -36.65845137
     atom    3 type  2   force =     0.01065160    0.00614281   36.65983807
     The core correction contribution to forces
     atom    1 type  1   force =     0.00007270    0.00004199   -0.00001151
     atom    2 type  2   force =     0.00005009    0.00002897    0.00191000
     atom    3 type  2   force =     0.00005034    0.00002904   -0.00192022
     The Hubbard contrib.    to forces
     atom    1 type  1   force =     0.00000000    0.00000000    0.00000000
     atom    2 type  2   force =     0.00000000    0.00000000    0.00000000
     atom    3 type  2   force =     0.00000000    0.00000000    0.00000000
     The SCF correction term to forces
     atom    1 type  1   force =     0.00004945    0.00002856    0.00018751
     atom    2 type  2   force =     0.00000901    0.00000521    0.00022739
     atom    3 type  2   force =     0.00001043    0.00000602   -0.00013351

     DFT-D3 dispersion contribution to forces:
     atom    1 type  1   force =     0.00002199    0.00001270   -0.00000078
     atom    2 type  2   force =    -0.00001097   -0.00000634   -0.00174637
     atom    3 type  2   force =    -0.00001102   -0.00000636    0.00174714

     Total force =     0.006692     Total SCF correction =     0.000329


     Computing stress (Cartesian axis) and pressure


     negative rho (up, down):  7.800E-05 0.000E+00
          total   stress  (Ry/bohr**3)                   (kbar)     P=        7.84
   0.00008828  -0.00000188   0.00000003           12.99       -0.28        0.00
  -0.00000188   0.00009044   0.00000001           -0.28       13.30        0.00
   0.00000003   0.00000001  -0.00001884            0.00        0.00       -2.77


     Entering Dynamics:    iteration =    14

     <vel(dt)|acc(dt)> =  -0.70991441

ATOMIC_POSITIONS (crystal)
Mo           -0.0008005609       -0.0004003966        0.5000086725
S             0.6670615202        0.3335317748        0.5834623412
S             0.6670723740        0.3335352885        0.4165289863



     Writing config-only to output data dir ./tmp/scf.save/
     NEW-OLD atomic charge density approx. for the potential

     negative rho (up, down):  7.807E-05 0.000E+00

     total cpu time spent up to now is     1004.8 secs

     Self-consistent Calculation

     iteration #  1     ecut=    70.00 Ry     beta= 0.70
     Davidson diagonalization with overlap
     ethr =  1.00E-06,  avg # of iterations =  3.0

     Threshold (ethr) on eigenvalues was too large:
     Diagonalizing with lowered threshold

     Davidson diagonalization with overlap
     ethr =  7.44E-09,  avg # of iterations =  4.0

     negative rho (up, down):  7.805E-05 0.000E+00

     total cpu time spent up to now is     1025.3 secs

     End of self-consistent calculation

          k = 0.0000 0.0000 0.0000 ( 10685 PWs)   bands (ev):

   -61.2943 -35.4728 -35.1875 -35.1873 -14.7160 -13.4457  -6.2224  -2.9390
    -2.9322  -2.4627  -1.8111  -1.7828  -0.7035   2.4438   2.4771   2.6411
     2.6544

          k = 0.0000 0.1283 0.0000 ( 10675 PWs)   bands (ev):

   -61.2886 -35.4621 -35.2415 -35.1996 -14.5210 -13.3604  -6.0018  -3.3512
    -3.0434  -2.7346  -2.0889  -1.5544  -0.7673   2.1343   2.2566   2.4447
     2.7608

          k = 0.0000 0.2566 0.0000 ( 10668 PWs)   bands (ev):

   -61.2743 -35.4349 -35.3765 -35.2305 -13.9880 -13.1281  -5.5706  -4.1226
    -3.9264  -2.6919  -2.2107  -1.7746  -1.1624   1.6380   2.0639   2.4145
     3.3309

          k = 0.0000 0.3849 0.0000 ( 10710 PWs)   bands (ev):

   -61.2580 -35.5268 -35.4039 -35.2654 -13.2836 -12.8284  -5.7938  -4.7967
    -4.3916  -3.2274  -2.2369  -1.6277  -1.5245   1.8585   1.8885   3.0248
     3.7373

          k = 0.0000 0.5132 0.0000 ( 10710 PWs)   bands (ev):

   -61.2473 -35.6231 -35.3835 -35.2880 -12.7306 -12.6051  -6.3229  -5.3746
    -4.5715  -3.5250  -2.4865  -1.2975  -1.2291   1.9863   2.3563   3.4166
     3.9060

          k = 0.1111 0.0642 0.0000 ( 10675 PWs)   bands (ev):

   -61.2886 -35.4621 -35.2414 -35.1997 -14.5212 -13.3599  -6.0023  -3.3559
    -3.0343  -2.7299  -2.1066  -1.5475  -0.7653   2.1416   2.2383   2.4361
     2.7810

          k = 0.1111 0.1925 0.0000 ( 10656 PWs)   bands (ev):

   -61.2786 -35.4432 -35.3310 -35.2261 -14.1568 -13.1998  -5.6524  -3.9256
    -3.5694  -2.8418  -2.4130  -1.4069  -0.9948   1.6643   2.1205   2.1404
     3.2889

          k = 0.1111 0.3208 0.0000 ( 10681 PWs)   bands (ev):

   -61.2633 -35.4624 -35.4141 -35.2701 -13.5316 -12.9274  -5.5077  -4.3554
    -4.2974  -3.5381  -2.2315  -1.6935  -1.2980   1.4555   2.0972   2.4519
     3.7889

          k = 0.1111 0.4491 0.0000 ( 10685 PWs)   bands (ev):

   -61.2498 -35.5754 -35.3883 -35.3091 -12.8799 -12.6511  -5.9664  -5.2195
    -4.3754  -3.6758  -2.2665  -2.2193  -1.0708   1.7899   2.3390   3.0375
     3.9102

          k = 0.1111 0.5774 0.0000 ( 10692 PWs)   bands (ev):

   -61.2445 -35.6195 -35.3781 -35.3245 -12.5811 -12.5296  -6.2249  -5.5670
    -4.5418  -3.6511  -2.4805  -2.1703  -0.8248   1.9867   2.5963   3.3801
     3.7768

          k = 0.1111-0.4491 0.0000 ( 10685 PWs)   bands (ev):

   -61.2498 -35.5756 -35.3883 -35.3091 -12.8792 -12.6524  -5.9657  -5.2147
    -4.3765  -3.6822  -2.2610  -2.2151  -1.0757   1.7923   2.3332   3.0202
     3.9327

          k = 0.1111-0.3208 0.0000 ( 10681 PWs)   bands (ev):

   -61.2633 -35.4627 -35.4140 -35.2700 -13.5307 -12.9291  -5.5072  -4.3517
    -4.2942  -3.5413  -2.2292  -1.6900  -1.3074   1.4613   2.0914   2.4467
     3.7970

          k = 0.1111-0.1925 0.0000 ( 10656 PWs)   bands (ev):

   -61.2786 -35.4431 -35.3313 -35.2259 -14.1561 -13.2011  -5.6515  -3.9202
    -3.5800  -2.8275  -2.4169  -1.4069  -1.0019   1.6671   2.1295   2.1405
     3.2785

          k = 0.1111-0.0642 0.0000 ( 10675 PWs)   bands (ev):

   -61.2886 -35.4621 -35.2415 -35.1996 -14.5210 -13.3604  -6.0018  -3.3512
    -3.0434  -2.7346  -2.0889  -1.5544  -0.7673   2.1343   2.2566   2.4447
     2.7608

          k = 0.2222 0.1283 0.0000 ( 10668 PWs)   bands (ev):

   -61.2743 -35.4350 -35.3762 -35.2306 -13.9891 -13.1263  -5.5724  -4.1265
    -3.9186  -2.7048  -2.2073  -1.7755  -1.1543   1.6385   2.0587   2.4039
     3.3440

          k = 0.2222 0.2566 0.0000 ( 10681 PWs)   bands (ev):

   -61.2633 -35.4622 -35.4141 -35.2702 -13.5325 -12.9260  -5.5082  -4.3510
    -4.3002  -3.5461  -2.2267  -1.6925  -1.2965   1.4554   2.0948   2.4469
     3.7933

          k = 0.2222 0.3849 0.0000 ( 10690 PWs)   bands (ev):

   -61.2508 -35.5346 -35.3903 -35.3400 -12.9425 -12.6635  -5.6691  -5.1117
    -4.1029  -3.9054  -3.0152  -1.9458  -1.1122   1.6336   2.4055   2.5698
     4.1351

          k = 0.2222 0.5132 0.0000 ( 10733 PWs)   bands (ev):

   -61.2426 -35.5694 -35.3976 -35.3747 -12.5000 -12.4646  -5.7612  -5.7299
    -4.3126  -3.6882  -3.4305  -2.4669  -0.7313   1.7700   2.6826   2.8285
     4.3462

          k = 0.2222 0.6415 0.0000 ( 10733 PWs)   bands (ev):

   -61.2426 -35.5697 -35.3975 -35.3747 -12.4993 -12.4661  -5.7575  -5.7292
    -4.3158  -3.6912  -3.4265  -2.4658  -0.7313   1.7690   2.6775   2.8246
     4.3562

          k = 0.2222-0.3849 0.0000 ( 10690 PWs)   bands (ev):

   -61.2508 -35.5351 -35.3902 -35.3397 -12.9407 -12.6667  -5.6685  -5.1030
    -4.1008  -3.9111  -3.0150  -1.9442  -1.1153   1.6336   2.4002   2.5608
     4.1533

          k = 0.2222-0.2566 0.0000 ( 10681 PWs)   bands (ev):

   -61.2633 -35.4627 -35.4140 -35.2700 -13.5307 -12.9291  -5.5072  -4.3517
    -4.2942  -3.5413  -2.2292  -1.6900  -1.3074   1.4613   2.0914   2.4467
     3.7970

          k = 0.2222-0.1283 0.0000 ( 10668 PWs)   bands (ev):

   -61.2743 -35.4349 -35.3765 -35.2305 -13.9880 -13.1281  -5.5706  -4.1226
    -3.9264  -2.6919  -2.2107  -1.7746  -1.1624   1.6380   2.0639   2.4145
     3.3309

          k = 0.2222-0.0000 0.0000 ( 10656 PWs)   bands (ev):

   -61.2786 -35.4432 -35.3310 -35.2261 -14.1568 -13.1998  -5.6524  -3.9256
    -3.5694  -2.8419  -2.4130  -1.4069  -0.9948   1.6643   2.1205   2.1404
     3.2889

          k = 0.3333 0.1925 0.0000 ( 10710 PWs)   bands (ev):

   -61.2580 -35.5264 -35.4040 -35.2654 -13.2861 -12.8245  -5.7939  -4.7970
    -4.3971  -3.2374  -2.2333  -1.6264  -1.5139   1.8555   1.8874   3.0127
     3.7450

          k = 0.3333 0.3208 0.0000 ( 10685 PWs)   bands (ev):

   -61.2498 -35.5750 -35.3885 -35.3092 -12.8823 -12.6475  -5.9645  -5.2218
    -4.3816  -3.6841  -2.2600  -2.2120  -1.0697   1.7914   2.3369   3.0266
     3.9136

          k = 0.3333 0.4491 0.0000 ( 10733 PWs)   bands (ev):

   -61.2426 -35.5691 -35.3978 -35.3748 -12.5014 -12.4624  -5.7641  -5.7277
    -4.3167  -3.6925  -3.4290  -2.4610  -0.7301   1.7708   2.6817   2.8299
     4.3399

          k = 0.3333 0.5774 0.0000 ( 10716 PWs)   bands (ev):

   -61.2398 -35.5239 -35.4760 -35.3693 -12.3805 -12.3444  -6.0225  -5.1964
    -4.6415  -4.0122  -3.4669  -2.7659  -0.4441   1.4751   2.4676   3.1861
     4.6630

          k = 0.3333 0.7057 0.0000 ( 10733 PWs)   bands (ev):

   -61.2426 -35.5697 -35.3975 -35.3747 -12.4993 -12.4661  -5.7575  -5.7292
    -4.3158  -3.6912  -3.4265  -2.4658  -0.7313   1.7690   2.6775   2.8246
     4.3562

          k = 0.3333-0.3208 0.0000 ( 10685 PWs)   bands (ev):

   -61.2498 -35.5756 -35.3883 -35.3091 -12.8792 -12.6524  -5.9657  -5.2147
    -4.3765  -3.6822  -2.2610  -2.2151  -1.0757   1.7923   2.3332   3.0202
     3.9327

          k = 0.3333-0.1925 0.0000 ( 10710 PWs)   bands (ev):

   -61.2580 -35.5268 -35.4039 -35.2654 -13.2836 -12.8284  -5.7938  -4.7967
    -4.3916  -3.2274  -2.2369  -1.6277  -1.5245   1.8585   1.8885   3.0248
     3.7373

          k = 0.3333-0.0642 0.0000 ( 10681 PWs)   bands (ev):

   -61.2633 -35.4624 -35.4141 -35.2701 -13.5316 -12.9274  -5.5077  -4.3554
    -4.2974  -3.5381  -2.2315  -1.6935  -1.2980   1.4555   2.0972   2.4519
     3.7889

          k = 0.3333 0.0642 0.0000 ( 10681 PWs)   bands (ev):

   -61.2633 -35.4622 -35.4141 -35.2702 -13.5325 -12.9260  -5.5082  -4.3510
    -4.3002  -3.5461  -2.2267  -1.6925  -1.2965   1.4554   2.0948   2.4469
     3.7933

          k = 0.4444 0.2566 0.0000 ( 10710 PWs)   bands (ev):

   -61.2473 -35.6226 -35.3837 -35.2880 -12.7345 -12.5993  -6.3198  -5.3813
    -4.5776  -3.5337  -2.4773  -1.2980  -1.2213   1.9893   2.3549   3.4006
     3.9109

          k = 0.4444 0.3849 0.0000 ( 10692 PWs)   bands (ev):

   -61.2445 -35.6190 -35.3783 -35.3246 -12.5846 -12.5243  -6.2215  -5.5742
    -4.5473  -3.6585  -2.4705  -2.1696  -0.8210   1.9886   2.5992   3.3838
     3.7593

          k = 0.4444 0.5132 0.0000 ( 10733 PWs)   bands (ev):

   -61.2426 -35.5691 -35.3978 -35.3748 -12.5014 -12.4624  -5.7641  -5.7277
    -4.3167  -3.6925  -3.4290  -2.4610  -0.7301   1.7708   2.6817   2.8299
     4.3399

          k = 0.4444 0.6415 0.0000 ( 10733 PWs)   bands (ev):

   -61.2426 -35.5694 -35.3976 -35.3747 -12.5000 -12.4646  -5.7612  -5.7299
    -4.3126  -3.6882  -3.4305  -2.4669  -0.7313   1.7700   2.6826   2.8285
     4.3462

          k = 0.4444 0.7698 0.0000 ( 10692 PWs)   bands (ev):

   -61.2445 -35.6195 -35.3781 -35.3245 -12.5811 -12.5296  -6.2249  -5.5670
    -4.5418  -3.6511  -2.4805  -2.1703  -0.8248   1.9867   2.5963   3.3801
     3.7768

          k = 0.4444-0.2566 0.0000 ( 10710 PWs)   bands (ev):

   -61.2473 -35.6231 -35.3835 -35.2880 -12.7306 -12.6051  -6.3229  -5.3746
    -4.5715  -3.5250  -2.4865  -1.2975  -1.2291   1.9863   2.3563   3.4166
     3.9060

          k = 0.4444-0.1283 0.0000 ( 10685 PWs)   bands (ev):

   -61.2498 -35.5754 -35.3883 -35.3091 -12.8799 -12.6511  -5.9664  -5.2195
    -4.3754  -3.6758  -2.2665  -2.2193  -1.0708   1.7899   2.3391   3.0375
     3.9102

          k = 0.4444 0.0000 0.0000 ( 10690 PWs)   bands (ev):

   -61.2508 -35.5346 -35.3903 -35.3400 -12.9425 -12.6635  -5.6691  -5.1117
    -4.1029  -3.9054  -3.0152  -1.9458  -1.1122   1.6336   2.4055   2.5698
     4.1351

          k = 0.4444 0.1283 0.0000 ( 10685 PWs)   bands (ev):

   -61.2498 -35.5750 -35.3885 -35.3092 -12.8823 -12.6475  -5.9645  -5.2218
    -4.3816  -3.6841  -2.2601  -2.2120  -1.0697   1.7914   2.3369   3.0266
     3.9136

     the Fermi energy is     0.3538 ev

!    total energy              =    -496.73095044 Ry
     estimated scf accuracy    <       0.00000091 Ry
     smearing contrib. (-TS)   =      -0.00000000 Ry
     internal energy E=F+TS    =    -496.73095044 Ry

     convergence has been achieved in   1 iterations

     negative rho (up, down):  7.805E-05 0.000E+00

     Forces acting on atoms (cartesian axes, Ry/au):

     atom    1 type  1   force =     0.00179871    0.00103891   -0.00018978
     atom    2 type  2   force =    -0.00089471   -0.00051803   -0.00150178
     atom    3 type  2   force =    -0.00090400   -0.00052088    0.00169157
     The non-local contrib.  to forces
     atom    1 type  1   force =    -0.00041497   -0.00023969    0.00013211
     atom    2 type  2   force =    -0.00086636   -0.00050134   -0.26376519
     atom    3 type  2   force =    -0.00087529   -0.00050459    0.26393117
     The ionic contribution  to forces
     atom    1 type  1   force =     0.01414642    0.00817064    0.00067392
     atom    2 type  2   force =    -0.00704297   -0.00407618   36.92319783
     atom    3 type  2   force =    -0.00710345   -0.00409446  -36.92387175
     The local contribution  to forces
     atom    1 type  1   force =    -0.01278533   -0.00738446   -0.00009731
     atom    2 type  2   force =     0.00653943    0.00378492  -36.66114944
     atom    3 type  2   force =     0.00659884    0.00380345   36.66244942
     The core correction contribution to forces
     atom    1 type  1   force =     0.00001356    0.00000783   -0.00000105
     atom    2 type  2   force =     0.00002944    0.00001704    0.00190505
     atom    3 type  2   force =     0.00002977    0.00001716   -0.00191052
     The Hubbard contrib.    to forces
     atom    1 type  1   force =     0.00000000    0.00000000    0.00000000
     atom    2 type  2   force =     0.00000000    0.00000000    0.00000000
     atom    3 type  2   force =     0.00000000    0.00000000    0.00000000
     The SCF correction term to forces
     atom    1 type  1   force =     0.00054964    0.00031744   -0.00081678
     atom    2 type  2   force =     0.00017734    0.00010252    0.00013839
     atom    3 type  2   force =     0.00017777    0.00010257   -0.00057520

     DFT-D3 dispersion contribution to forces:
     atom    1 type  1   force =     0.00001401    0.00000809   -0.00000046
     atom    2 type  2   force =    -0.00000698   -0.00000404   -0.00174821
     atom    3 type  2   force =    -0.00000703   -0.00000405    0.00174866

     Total force =     0.003410     Total SCF correction =     0.001226
     SCF correction compared to forces is large: reduce conv_thr to get better values


     Computing stress (Cartesian axis) and pressure


     negative rho (up, down):  7.805E-05 0.000E+00
          total   stress  (Ry/bohr**3)                   (kbar)     P=        8.59
   0.00009218  -0.00000197   0.00000003           13.56       -0.29        0.00
  -0.00000197   0.00009446   0.00000001           -0.29       13.90        0.00
   0.00000003   0.00000001  -0.00001142            0.00        0.00       -1.68


     Entering Dynamics:    iteration =    16

     <vel(dt)|acc(dt)> =  -0.53781864

ATOMIC_POSITIONS (crystal)
Mo           -0.0006095471       -0.0003048573        0.5000056658
S             0.6669677401        0.3334847525        0.5834039138
S             0.6669751404        0.3334867715        0.4165904204



     Writing config-only to output data dir ./tmp/scf.save/
     NEW-OLD atomic charge density approx. for the potential

     negative rho (up, down):  7.810E-05 0.000E+00

     total cpu time spent up to now is     1048.9 secs

     Self-consistent Calculation

     iteration #  1     ecut=    70.00 Ry     beta= 0.70
     Davidson diagonalization with overlap
     ethr =  1.00E-06,  avg # of iterations =  2.0

     Threshold (ethr) on eigenvalues was too large:
     Diagonalizing with lowered threshold

     Davidson diagonalization with overlap
     ethr =  1.84E-08,  avg # of iterations =  4.0

     negative rho (up, down):  7.808E-05 0.000E+00

     total cpu time spent up to now is     1086.3 secs

     total energy              =    -496.73095729 Ry
     estimated scf accuracy    <       0.00000304 Ry

     iteration #  2     ecut=    70.00 Ry     beta= 0.70
     Davidson diagonalization with overlap
     ethr =  1.17E-08,  avg # of iterations =  3.0

     negative rho (up, down):  7.810E-05 0.000E+00

     total cpu time spent up to now is     1106.6 secs

     total energy              =    -496.73095332 Ry
     estimated scf accuracy    <       0.00005829 Ry

     iteration #  3     ecut=    70.00 Ry     beta= 0.70
     Davidson diagonalization with overlap
     ethr =  1.17E-08,  avg # of iterations =  3.0

     negative rho (up, down):  7.809E-05 0.000E+00

     total cpu time spent up to now is     1126.4 secs

     total energy              =    -496.73095937 Ry
     estimated scf accuracy    <       0.00000123 Ry

     iteration #  4     ecut=    70.00 Ry     beta= 0.70
     Davidson diagonalization with overlap
     ethr =  4.74E-09,  avg # of iterations =  2.0

     negative rho (up, down):  7.809E-05 0.000E+00

     total cpu time spent up to now is     1144.3 secs

     End of self-consistent calculation

          k = 0.0000 0.0000 0.0000 ( 10685 PWs)   bands (ev):

   -61.2932 -35.4719 -35.1875 -35.1868 -14.7205 -13.4464  -6.2258  -2.9453
    -2.9401  -2.4603  -1.8137  -1.7915  -0.6996   2.4477   2.4730   2.6452
     2.6556

          k = 0.0000 0.1283 0.0000 ( 10675 PWs)   bands (ev):

   -61.2876 -35.4612 -35.2415 -35.1992 -14.5254 -13.3612  -6.0054  -3.3583
    -3.0440  -2.7412  -2.0959  -1.5554  -0.7638   2.1378   2.2555   2.4464
     2.7628

          k = 0.0000 0.2566 0.0000 ( 10668 PWs)   bands (ev):

   -61.2733 -35.4341 -35.3766 -35.2301 -13.9923 -13.1294  -5.5753  -4.1280
    -3.9287  -2.6987  -2.2170  -1.7736  -1.1604   1.6415   2.0651   2.4150
     3.3342

          k = 0.0000 0.3849 0.0000 ( 10710 PWs)   bands (ev):

   -61.2570 -35.5269 -35.4030 -35.2650 -13.2880 -12.8304  -5.7994  -4.7997
    -4.3945  -3.2341  -2.2345  -1.6330  -1.5243   1.8612   1.8887   3.0263
     3.7417

          k = 0.0000 0.5132 0.0000 ( 10710 PWs)   bands (ev):

   -61.2463 -35.6233 -35.3826 -35.2877 -12.7351 -12.6076  -6.3270  -5.3774
    -4.5749  -3.5316  -2.4834  -1.3014  -1.2294   1.9856   2.3576   3.4181
     3.9110

          k = 0.1111 0.0642 0.0000 ( 10675 PWs)   bands (ev):

   -61.2876 -35.4613 -35.2409 -35.1997 -14.5256 -13.3609  -6.0058  -3.3618
    -3.0368  -2.7377  -2.1098  -1.5502  -0.7623   2.1435   2.2416   2.4397
     2.7782

          k = 0.1111 0.1925 0.0000 ( 10656 PWs)   bands (ev):

   -61.2776 -35.4423 -35.3308 -35.2260 -14.1610 -13.2012  -5.6565  -3.9310
    -3.5725  -2.8460  -2.4199  -1.4071  -0.9935   1.6679   2.1218   2.1423
     3.2901

          k = 0.1111 0.3208 0.0000 ( 10681 PWs)   bands (ev):

   -61.2623 -35.4624 -35.4132 -35.2699 -13.5357 -12.9294  -5.5135  -4.3585
    -4.3004  -3.5427  -2.2354  -1.6924  -1.3000   1.4590   2.0979   2.4525
     3.7940

          k = 0.1111 0.4491 0.0000 ( 10685 PWs)   bands (ev):

   -61.2488 -35.5755 -35.3874 -35.3089 -12.8841 -12.6536  -5.9712  -5.2229
    -4.3785  -3.6806  -2.2686  -2.2169  -1.0735   1.7921   2.3384   3.0381
     3.9166

          k = 0.1111 0.5774 0.0000 ( 10692 PWs)   bands (ev):

   -61.2434 -35.6197 -35.3772 -35.3242 -12.5856 -12.5323  -6.2287  -5.5710
    -4.5453  -3.6559  -2.4776  -2.1729  -0.8264   1.9865   2.5973   3.3849
     3.7784

          k = 0.1111-0.4491 0.0000 ( 10685 PWs)   bands (ev):

   -61.2488 -35.5758 -35.3874 -35.3087 -12.8836 -12.6547  -5.9706  -5.2192
    -4.3794  -3.6857  -2.2644  -2.2135  -1.0772   1.7942   2.3336   3.0250
     3.9336

          k = 0.1111-0.3208 0.0000 ( 10681 PWs)   bands (ev):

   -61.2623 -35.4629 -35.4131 -35.2696 -13.5351 -12.9307  -5.5131  -4.3556
    -4.2980  -3.5454  -2.2336  -1.6895  -1.3072   1.4636   2.0932   2.4487
     3.7999

          k = 0.1111-0.1925 0.0000 ( 10656 PWs)   bands (ev):

   -61.2776 -35.4423 -35.3314 -35.2255 -14.1604 -13.2022  -5.6558  -3.9269
    -3.5808  -2.8349  -2.4229  -1.4070  -0.9989   1.6700   2.1287   2.1422
     3.2821

          k = 0.1111-0.0642 0.0000 ( 10675 PWs)   bands (ev):

   -61.2876 -35.4612 -35.2415 -35.1992 -14.5254 -13.3612  -6.0054  -3.3583
    -3.0440  -2.7412  -2.0959  -1.5554  -0.7638   2.1378   2.2555   2.4464
     2.7628

          k = 0.2222 0.1283 0.0000 ( 10668 PWs)   bands (ev):

   -61.2733 -35.4341 -35.3759 -35.2306 -13.9932 -13.1280  -5.5767  -4.1308
    -3.9224  -2.7089  -2.2145  -1.7744  -1.1543   1.6420   2.0612   2.4070
     3.3440

          k = 0.2222 0.2566 0.0000 ( 10681 PWs)   bands (ev):

   -61.2623 -35.4620 -35.4132 -35.2702 -13.5364 -12.9283  -5.5139  -4.3549
    -4.3025  -3.5492  -2.2318  -1.6917  -1.2989   1.4590   2.0960   2.4488
     3.7972

          k = 0.2222 0.3849 0.0000 ( 10690 PWs)   bands (ev):

   -61.2498 -35.5345 -35.3894 -35.3400 -12.9465 -12.6663  -5.6745  -5.1162
    -4.1048  -3.9076  -3.0188  -1.9445  -1.1150   1.6368   2.4045   2.5716
     4.1413

          k = 0.2222 0.5132 0.0000 ( 10733 PWs)   bands (ev):

   -61.2416 -35.5695 -35.3975 -35.3737 -12.5043 -12.4677  -5.7664  -5.7338
    -4.3161  -3.6903  -3.4329  -2.4646  -0.7333   1.7695   2.6863   2.8299
     4.3504

          k = 0.2222 0.6415 0.0000 ( 10733 PWs)   bands (ev):

   -61.2416 -35.5699 -35.3972 -35.3737 -12.5037 -12.4688  -5.7635  -5.7333
    -4.3186  -3.6928  -3.4298  -2.4636  -0.7332   1.7688   2.6824   2.8269
     4.3580

          k = 0.2222-0.3849 0.0000 ( 10690 PWs)   bands (ev):

   -61.2498 -35.5354 -35.3893 -35.3393 -12.9451 -12.6688  -5.6741  -5.1095
    -4.1031  -3.9122  -3.0185  -1.9429  -1.1173   1.6369   2.4001   2.5649
     4.1550

          k = 0.2222-0.2566 0.0000 ( 10681 PWs)   bands (ev):

   -61.2623 -35.4629 -35.4131 -35.2696 -13.5351 -12.9307  -5.5131  -4.3556
    -4.2980  -3.5454  -2.2336  -1.6895  -1.3072   1.4636   2.0932   2.4487
     3.7999

          k = 0.2222-0.1283 0.0000 ( 10668 PWs)   bands (ev):

   -61.2733 -35.4341 -35.3766 -35.2301 -13.9923 -13.1294  -5.5753  -4.1280
    -3.9287  -2.6987  -2.2170  -1.7736  -1.1604   1.6415   2.0651   2.4150
     3.3342

          k = 0.2222-0.0000 0.0000 ( 10656 PWs)   bands (ev):

   -61.2776 -35.4423 -35.3308 -35.2260 -14.1610 -13.2012  -5.6565  -3.9310
    -3.5725  -2.8460  -2.4199  -1.4071  -0.9935   1.6679   2.1218   2.1423
     3.2901

          k = 0.3333 0.1925 0.0000 ( 10710 PWs)   bands (ev):

   -61.2570 -35.5262 -35.4031 -35.2655 -13.2898 -12.8274  -5.7995  -4.7995
    -4.3987  -3.2420  -2.2319  -1.6323  -1.5161   1.8591   1.8880   3.0172
     3.7474

          k = 0.3333 0.3208 0.0000 ( 10685 PWs)   bands (ev):

   -61.2488 -35.5749 -35.3875 -35.3093 -12.8860 -12.6509  -5.9697  -5.2245
    -4.3832  -3.6872  -2.2638  -2.2114  -1.0728   1.7934   2.3367   3.0298
     3.9192

          k = 0.3333 0.4491 0.0000 ( 10733 PWs)   bands (ev):

   -61.2416 -35.5690 -35.3979 -35.3738 -12.5054 -12.4660  -5.7685  -5.7321
    -4.3194  -3.6936  -3.4317  -2.4601  -0.7325   1.7703   2.6855   2.8310
     4.3456

          k = 0.3333 0.5774 0.0000 ( 10716 PWs)   bands (ev):

   -61.2387 -35.5240 -35.4760 -35.3683 -12.3838 -12.3487  -6.0283  -5.1997
    -4.6457  -4.0145  -3.4680  -2.7638  -0.4456   1.4724   2.4721   3.1901
     4.6670

          k = 0.3333 0.7057 0.0000 ( 10733 PWs)   bands (ev):

   -61.2416 -35.5699 -35.3972 -35.3737 -12.5037 -12.4688  -5.7635  -5.7333
    -4.3186  -3.6928  -3.4298  -2.4636  -0.7332   1.7688   2.6824   2.8269
     4.3580

          k = 0.3333-0.3208 0.0000 ( 10685 PWs)   bands (ev):

   -61.2488 -35.5758 -35.3874 -35.3087 -12.8836 -12.6547  -5.9706  -5.2192
    -4.3794  -3.6857  -2.2644  -2.2135  -1.0772   1.7942   2.3336   3.0250
     3.9336

          k = 0.3333-0.1925 0.0000 ( 10710 PWs)   bands (ev):

   -61.2570 -35.5269 -35.4030 -35.2650 -13.2880 -12.8304  -5.7994  -4.7997
    -4.3945  -3.2341  -2.2345  -1.6330  -1.5243   1.8612   1.8887   3.0263
     3.7417

          k = 0.3333-0.0642 0.0000 ( 10681 PWs)   bands (ev):

   -61.2623 -35.4624 -35.4132 -35.2699 -13.5357 -12.9294  -5.5135  -4.3585
    -4.3004  -3.5427  -2.2354  -1.6924  -1.3000   1.4590   2.0979   2.4525
     3.7940

          k = 0.3333 0.0642 0.0000 ( 10681 PWs)   bands (ev):

   -61.2623 -35.4620 -35.4132 -35.2702 -13.5364 -12.9283  -5.5139  -4.3549
    -4.3025  -3.5492  -2.2318  -1.6917  -1.2989   1.4590   2.0960   2.4488
     3.7972

          k = 0.4444 0.2566 0.0000 ( 10710 PWs)   bands (ev):

   -61.2463 -35.6225 -35.3827 -35.2881 -12.7381 -12.6032  -6.3246  -5.3823
    -4.5796  -3.5385  -2.4765  -1.3024  -1.2232   1.9880   2.3568   3.4059
     3.9146

          k = 0.4444 0.3849 0.0000 ( 10692 PWs)   bands (ev):

   -61.2434 -35.6189 -35.3773 -35.3247 -12.5883 -12.5282  -6.2260  -5.5763
    -4.5496  -3.6616  -2.4701  -2.1724  -0.8238   1.9881   2.5996   3.3874
     3.7651

          k = 0.4444 0.5132 0.0000 ( 10733 PWs)   bands (ev):

   -61.2416 -35.5690 -35.3979 -35.3738 -12.5054 -12.4660  -5.7685  -5.7321
    -4.3194  -3.6936  -3.4317  -2.4601  -0.7325   1.7703   2.6855   2.8310
     4.3456

          k = 0.4444 0.6415 0.0000 ( 10733 PWs)   bands (ev):

   -61.2416 -35.5695 -35.3975 -35.3737 -12.5043 -12.4677  -5.7664  -5.7338
    -4.3161  -3.6903  -3.4329  -2.4646  -0.7333   1.7695   2.6863   2.8299
     4.3504

          k = 0.4444 0.7698 0.0000 ( 10692 PWs)   bands (ev):

   -61.2434 -35.6197 -35.3772 -35.3242 -12.5856 -12.5323  -6.2287  -5.5710
    -4.5453  -3.6559  -2.4776  -2.1729  -0.8264   1.9865   2.5973   3.3849
     3.7783

          k = 0.4444-0.2566 0.0000 ( 10710 PWs)   bands (ev):

   -61.2463 -35.6233 -35.3826 -35.2877 -12.7351 -12.6076  -6.3270  -5.3775
    -4.5749  -3.5316  -2.4834  -1.3014  -1.2294   1.9856   2.3576   3.4181
     3.9110

          k = 0.4444-0.1283 0.0000 ( 10685 PWs)   bands (ev):

   -61.2488 -35.5755 -35.3874 -35.3089 -12.8841 -12.6536  -5.9712  -5.2229
    -4.3785  -3.6806  -2.2686  -2.2169  -1.0735   1.7921   2.3384   3.0381
     3.9166

          k = 0.4444 0.0000 0.0000 ( 10690 PWs)   bands (ev):

   -61.2498 -35.5345 -35.3894 -35.3400 -12.9465 -12.6663  -5.6745  -5.1162
    -4.1048  -3.9076  -3.0188  -1.9445  -1.1150   1.6368   2.4045   2.5716
     4.1413

          k = 0.4444 0.1283 0.0000 ( 10685 PWs)   bands (ev):

   -61.2488 -35.5749 -35.3875 -35.3093 -12.8860 -12.6509  -5.9697  -5.2245
    -4.3832  -3.6872  -2.2638  -2.2114  -1.0728   1.7934   2.3367   3.0298
     3.9192

     the Fermi energy is     0.3577 ev

!    total energy              =    -496.73095954 Ry
     estimated scf accuracy    <       0.00000002 Ry
     smearing contrib. (-TS)   =      -0.00000000 Ry
     internal energy E=F+TS    =    -496.73095954 Ry

     convergence has been achieved in   4 iterations

     negative rho (up, down):  7.809E-05 0.000E+00

     Forces acting on atoms (cartesian axes, Ry/au):

     atom    1 type  1   force =     0.00172606    0.00099691   -0.00016824
     atom    2 type  2   force =    -0.00086075   -0.00049825   -0.00079308
     atom    3 type  2   force =    -0.00086531   -0.00049865    0.00096132
     The non-local contrib.  to forces
     atom    1 type  1   force =    -0.00055303   -0.00031941    0.00017528
     atom    2 type  2   force =    -0.00067010   -0.00038785   -0.26295087
     atom    3 type  2   force =    -0.00067410   -0.00038852    0.26308740
     The ionic contribution  to forces
     atom    1 type  1   force =     0.01080535    0.00624078    0.00044398
     atom    2 type  2   force =    -0.00538062   -0.00311497   36.92564881
     atom    3 type  2   force =    -0.00542473   -0.00312582  -36.92609278
     The local contribution  to forces
     atom    1 type  1   force =    -0.00855243   -0.00493958    0.00004276
     atom    2 type  2   force =     0.00515203    0.00298261  -36.66329276
     atom    3 type  2   force =     0.00519623    0.00299418   36.66424159
     The core correction contribution to forces
     atom    1 type  1   force =     0.00003624    0.00002093   -0.00000470
     atom    2 type  2   force =     0.00002422    0.00001402    0.00186933
     atom    3 type  2   force =     0.00002444    0.00001409   -0.00187339
     The Hubbard contrib.    to forces
     atom    1 type  1   force =     0.00000000    0.00000000    0.00000000
     atom    2 type  2   force =     0.00000000    0.00000000    0.00000000
     atom    3 type  2   force =     0.00000000    0.00000000    0.00000000
     The SCF correction term to forces
     atom    1 type  1   force =    -0.00002802   -0.00001618   -0.00077846
     atom    2 type  2   force =     0.00001178    0.00000682   -0.00027148
     atom    3 type  2   force =     0.00001095    0.00000631   -0.00010431

     DFT-D3 dispersion contribution to forces:
     atom    1 type  1   force =     0.00001068    0.00000617   -0.00000030
     atom    2 type  2   force =    -0.00000533   -0.00000308   -0.00174930
     atom    3 type  2   force =    -0.00000536   -0.00000309    0.00174960

     Total force =     0.002746     Total SCF correction =     0.000832
     SCF correction compared to forces is large: reduce conv_thr to get better values


     Computing stress (Cartesian axis) and pressure


     negative rho (up, down):  7.809E-05 0.000E+00
          total   stress  (Ry/bohr**3)                   (kbar)     P=        8.86
   0.00009322  -0.00000094   0.00000002           13.71       -0.14        0.00
  -0.00000094   0.00009431   0.00000000           -0.14       13.87        0.00
   0.00000002   0.00000000  -0.00000677            0.00        0.00       -1.00


     Entering Dynamics:    iteration =    18

     <vel(dt)|acc(dt)> =  -0.37940373

ATOMIC_POSITIONS (crystal)
Mo           -0.0004245447       -0.0002123296        0.5000037721
S             0.6668761750        0.3334388622        0.5833712074
S             0.6668817030        0.3334401341        0.4166250205



     Writing config-only to output data dir ./tmp/scf.save/
     NEW-OLD atomic charge density approx. for the potential

     negative rho (up, down):  7.811E-05 0.000E+00

     total cpu time spent up to now is     1152.8 secs

     Self-consistent Calculation

     iteration #  1     ecut=    70.00 Ry     beta= 0.70
     Davidson diagonalization with overlap
     ethr =  1.00E-06,  avg # of iterations =  2.0

     Threshold (ethr) on eigenvalues was too large:
     Diagonalizing with lowered threshold

     Davidson diagonalization with overlap
     ethr =  5.13E-09,  avg # of iterations =  4.0

     negative rho (up, down):  7.811E-05 0.000E+00

     total cpu time spent up to now is     1159.9 secs

     total energy              =    -496.73096246 Ry
     estimated scf accuracy    <       0.00000137 Ry

     iteration #  2     ecut=    70.00 Ry     beta= 0.70
     Davidson diagonalization with overlap
     ethr =  5.26E-09,  avg # of iterations =  3.1

     negative rho (up, down):  7.811E-05 0.000E+00

     total cpu time spent up to now is     1163.8 secs

     total energy              =    -496.73096015 Ry
     estimated scf accuracy    <       0.00003302 Ry

     iteration #  3     ecut=    70.00 Ry     beta= 0.70
     Davidson diagonalization with overlap
     ethr =  5.26E-09,  avg # of iterations =  3.0

     negative rho (up, down):  7.810E-05 0.000E+00

     total cpu time spent up to now is     1167.4 secs

     End of self-consistent calculation

          k = 0.0000 0.0000 0.0000 ( 10685 PWs)   bands (ev):

   -61.2924 -35.4715 -35.1870 -35.1864 -14.7229 -13.4468  -6.2279  -2.9482
    -2.9446  -2.4592  -1.8134  -1.7980  -0.6974   2.4516   2.4692   2.6484
     2.6556

          k = 0.0000 0.1283 0.0000 ( 10675 PWs)   bands (ev):

   -61.2868 -35.4607 -35.2410 -35.1988 -14.5278 -13.3616  -6.0077  -3.3622
    -3.0441  -2.7446  -2.1004  -1.5558  -0.7619   2.1402   2.2545   2.4472
     2.7647

          k = 0.0000 0.2566 0.0000 ( 10668 PWs)   bands (ev):

   -61.2724 -35.4335 -35.3762 -35.2297 -13.9947 -13.1301  -5.5782  -4.1309
    -3.9296  -2.7029  -2.2202  -1.7732  -1.1590   1.6437   2.0658   2.4151
     3.3365

          k = 0.0000 0.3849 0.0000 ( 10710 PWs)   bands (ev):

   -61.2561 -35.5266 -35.4024 -35.2646 -13.2905 -12.8314  -5.8024  -4.8010
    -4.3965  -3.2381  -2.2333  -1.6357  -1.5238   1.8629   1.8890   3.0269
     3.7445

          k = 0.0000 0.5132 0.0000 ( 10710 PWs)   bands (ev):

   -61.2454 -35.6230 -35.3820 -35.2873 -12.7378 -12.6088  -6.3289  -5.3789
    -4.5772  -3.5355  -2.4817  -1.3035  -1.2293   1.9856   2.3585   3.4186
     3.9139

          k = 0.1111 0.0642 0.0000 ( 10675 PWs)   bands (ev):

   -61.2868 -35.4608 -35.2406 -35.1992 -14.5279 -13.3614  -6.0079  -3.3647
    -3.0391  -2.7421  -2.1101  -1.5521  -0.7608   2.1441   2.2448   2.4425
     2.7755

          k = 0.1111 0.1925 0.0000 ( 10656 PWs)   bands (ev):

   -61.2768 -35.4418 -35.3305 -35.2255 -14.1633 -13.2020  -5.6589  -3.9336
    -3.5746  -2.8477  -2.4237  -1.4073  -0.9930   1.6701   2.1230   2.1435
     3.2906

          k = 0.1111 0.3208 0.0000 ( 10681 PWs)   bands (ev):

   -61.2615 -35.4621 -35.4126 -35.2695 -13.5380 -12.9305  -5.5167  -4.3597
    -4.3021  -3.5458  -2.2371  -1.6917  -1.3013   1.4614   2.0980   2.4528
     3.7972

          k = 0.1111 0.4491 0.0000 ( 10685 PWs)   bands (ev):

   -61.2479 -35.5752 -35.3869 -35.3085 -12.8866 -12.6550  -5.9735  -5.2244
    -4.3806  -3.6838  -2.2692  -2.2154  -1.0751   1.7937   2.3379   3.0377
     3.9211

          k = 0.1111 0.5774 0.0000 ( 10692 PWs)   bands (ev):

   -61.2426 -35.6194 -35.3766 -35.3239 -12.5883 -12.5337  -6.2303  -5.5731
    -4.5477  -3.6586  -2.4760  -2.1742  -0.8271   1.9867   2.5981   3.3877
     3.7788

          k = 0.1111-0.4491 0.0000 ( 10685 PWs)   bands (ev):

   -61.2479 -35.5754 -35.3868 -35.3084 -12.8863 -12.6557  -5.9731  -5.2218
    -4.3813  -3.6874  -2.2663  -2.2130  -1.0776   1.7952   2.3345   3.0286
     3.9330

          k = 0.1111-0.3208 0.0000 ( 10681 PWs)   bands (ev):

   -61.2615 -35.4625 -35.4126 -35.2692 -13.5376 -12.9314  -5.5164  -4.3576
    -4.3004  -3.5477  -2.2359  -1.6897  -1.3063   1.4646   2.0947   2.4501
     3.8013

          k = 0.1111-0.1925 0.0000 ( 10656 PWs)   bands (ev):

   -61.2768 -35.4418 -35.3310 -35.2251 -14.1629 -13.2027  -5.6584  -3.9307
    -3.5804  -2.8399  -2.4258  -1.4073  -0.9968   1.6716   2.1279   2.1435
     3.2850

          k = 0.1111-0.0642 0.0000 ( 10675 PWs)   bands (ev):

   -61.2868 -35.4607 -35.2410 -35.1988 -14.5278 -13.3616  -6.0077  -3.3622
    -3.0441  -2.7446  -2.1004  -1.5558  -0.7619   2.1402   2.2545   2.4472
     2.7647

          k = 0.2222 0.1283 0.0000 ( 10668 PWs)   bands (ev):

   -61.2724 -35.4336 -35.3757 -35.2301 -13.9953 -13.1291  -5.5792  -4.1328
    -3.9252  -2.7099  -2.2185  -1.7738  -1.1547   1.6440   2.0630   2.4096
     3.3434

          k = 0.2222 0.2566 0.0000 ( 10681 PWs)   bands (ev):

   -61.2615 -35.4618 -35.4127 -35.2697 -13.5385 -12.9298  -5.5170  -4.3571
    -4.3036  -3.5503  -2.2346  -1.6913  -1.3005   1.4614   2.0967   2.4502
     3.7995

          k = 0.2222 0.3849 0.0000 ( 10690 PWs)   bands (ev):

   -61.2489 -35.5344 -35.3888 -35.3395 -12.9487 -12.6681  -5.6773  -5.1181
    -4.1060  -3.9090  -3.0204  -1.9437  -1.1164   1.6388   2.4038   2.5725
     4.1454

          k = 0.2222 0.5132 0.0000 ( 10733 PWs)   bands (ev):

   -61.2407 -35.5692 -35.3972 -35.3732 -12.5067 -12.4694  -5.7689  -5.7355
    -4.3185  -3.6916  -3.4339  -2.4633  -0.7341   1.7694   2.6882   2.8308
     4.3529

          k = 0.2222 0.6415 0.0000 ( 10733 PWs)   bands (ev):

   -61.2407 -35.5695 -35.3969 -35.3732 -12.5063 -12.4702  -5.7669  -5.7352
    -4.3202  -3.6933  -3.4318  -2.4626  -0.7341   1.7689   2.6855   2.8287
     4.3582

          k = 0.2222-0.3849 0.0000 ( 10690 PWs)   bands (ev):

   -61.2489 -35.5350 -35.3888 -35.3391 -12.9477 -12.6698  -5.6769  -5.1134
    -4.1048  -3.9122  -3.0202  -1.9426  -1.1180   1.6389   2.4008   2.5678
     4.1550

          k = 0.2222-0.2566 0.0000 ( 10681 PWs)   bands (ev):

   -61.2615 -35.4625 -35.4126 -35.2692 -13.5376 -12.9314  -5.5164  -4.3576
    -4.3004  -3.5477  -2.2359  -1.6897  -1.3063   1.4646   2.0947   2.4501
     3.8013

          k = 0.2222-0.1283 0.0000 ( 10668 PWs)   bands (ev):

   -61.2724 -35.4335 -35.3762 -35.2297 -13.9947 -13.1301  -5.5782  -4.1309
    -3.9296  -2.7029  -2.2202  -1.7732  -1.1590   1.6437   2.0658   2.4151
     3.3365

          k = 0.2222-0.0000 0.0000 ( 10656 PWs)   bands (ev):

   -61.2768 -35.4418 -35.3305 -35.2255 -14.1633 -13.2020  -5.6589  -3.9336
    -3.5746  -2.8477  -2.4237  -1.4073  -0.9930   1.6701   2.1230   2.1435
     3.2906

          k = 0.3333 0.1925 0.0000 ( 10710 PWs)   bands (ev):

   -61.2561 -35.5260 -35.4025 -35.2650 -13.2918 -12.8293  -5.8025  -4.8009
    -4.3994  -3.2436  -2.2315  -1.6353  -1.5179   1.8614   1.8885   3.0206
     3.7485

          k = 0.3333 0.3208 0.0000 ( 10685 PWs)   bands (ev):

   -61.2479 -35.5748 -35.3869 -35.3088 -12.8879 -12.6531  -5.9725  -5.2255
    -4.3840  -3.6884  -2.2658  -2.2115  -1.0746   1.7947   2.3367   3.0319
     3.9229

          k = 0.3333 0.4491 0.0000 ( 10733 PWs)   bands (ev):

   -61.2408 -35.5688 -35.3975 -35.3732 -12.5075 -12.4682  -5.7704  -5.7344
    -4.3208  -3.6940  -3.4331  -2.4602  -0.7336   1.7699   2.6877   2.8316
     4.3496

          k = 0.3333 0.5774 0.0000 ( 10716 PWs)   bands (ev):

   -61.2379 -35.5237 -35.4756 -35.3678 -12.3857 -12.3511  -6.0311  -5.2012
    -4.6475  -4.0162  -3.4683  -2.7630  -0.4462   1.4710   2.4748   3.1924
     4.6694

          k = 0.3333 0.7057 0.0000 ( 10733 PWs)   bands (ev):

   -61.2407 -35.5695 -35.3969 -35.3732 -12.5063 -12.4702  -5.7669  -5.7352
    -4.3202  -3.6933  -3.4318  -2.4626  -0.7341   1.7689   2.6855   2.8287
     4.3582

          k = 0.3333-0.3208 0.0000 ( 10685 PWs)   bands (ev):

   -61.2479 -35.5754 -35.3868 -35.3084 -12.8863 -12.6557  -5.9731  -5.2218
    -4.3813  -3.6874  -2.2663  -2.2130  -1.0776   1.7952   2.3345   3.0286
     3.9330

          k = 0.3333-0.1925 0.0000 ( 10710 PWs)   bands (ev):

   -61.2561 -35.5266 -35.4024 -35.2646 -13.2905 -12.8314  -5.8024  -4.8010
    -4.3965  -3.2381  -2.2333  -1.6357  -1.5238   1.8629   1.8890   3.0269
     3.7445

          k = 0.3333-0.0642 0.0000 ( 10681 PWs)   bands (ev):

   -61.2615 -35.4621 -35.4126 -35.2695 -13.5380 -12.9305  -5.5167  -4.3597
    -4.3021  -3.5458  -2.2371  -1.6917  -1.3013   1.4614   2.0980   2.4528
     3.7972

          k = 0.3333 0.0642 0.0000 ( 10681 PWs)   bands (ev):

   -61.2615 -35.4618 -35.4127 -35.2697 -13.5385 -12.9298  -5.5170  -4.3571
    -4.3036  -3.5503  -2.2346  -1.6913  -1.3005   1.4614   2.0967   2.4502
     3.7995

          k = 0.4444 0.2566 0.0000 ( 10710 PWs)   bands (ev):

   -61.2454 -35.6224 -35.3821 -35.2877 -12.7399 -12.6057  -6.3272  -5.3823
    -4.5805  -3.5403  -2.4769  -1.3044  -1.2248   1.9873   2.3580   3.4101
     3.9165

          k = 0.4444 0.3849 0.0000 ( 10692 PWs)   bands (ev):

   -61.2426 -35.6188 -35.3767 -35.3243 -12.5901 -12.5308  -6.2285  -5.5768
    -4.5507  -3.6627  -2.4708  -2.1738  -0.8253   1.9878   2.5997   3.3894
     3.7696

          k = 0.4444 0.5132 0.0000 ( 10733 PWs)   bands (ev):

   -61.2408 -35.5688 -35.3975 -35.3732 -12.5075 -12.4682  -5.7704  -5.7344
    -4.3208  -3.6940  -3.4331  -2.4602  -0.7336   1.7699   2.6877   2.8316
     4.3496

          k = 0.4444 0.6415 0.0000 ( 10733 PWs)   bands (ev):

   -61.2407 -35.5692 -35.3972 -35.3732 -12.5067 -12.4694  -5.7689  -5.7355
    -4.3185  -3.6916  -3.4339  -2.4633  -0.7341   1.7694   2.6882   2.8308
     4.3529

          k = 0.4444 0.7698 0.0000 ( 10692 PWs)   bands (ev):

   -61.2426 -35.6194 -35.3766 -35.3239 -12.5883 -12.5337  -6.2303  -5.5731
    -4.5477  -3.6586  -2.4760  -2.1742  -0.8271   1.9867   2.5981   3.3877
     3.7788

          k = 0.4444-0.2566 0.0000 ( 10710 PWs)   bands (ev):

   -61.2454 -35.6230 -35.3820 -35.2873 -12.7378 -12.6088  -6.3289  -5.3789
    -4.5772  -3.5355  -2.4817  -1.3035  -1.2293   1.9856   2.3585   3.4186
     3.9139

          k = 0.4444-0.1283 0.0000 ( 10685 PWs)   bands (ev):

   -61.2479 -35.5752 -35.3869 -35.3085 -12.8866 -12.6550  -5.9735  -5.2244
    -4.3806  -3.6838  -2.2692  -2.2154  -1.0751   1.7937   2.3379   3.0377
     3.9211

          k = 0.4444 0.0000 0.0000 ( 10690 PWs)   bands (ev):

   -61.2489 -35.5344 -35.3888 -35.3395 -12.9487 -12.6681  -5.6773  -5.1181
    -4.1060  -3.9090  -3.0204  -1.9437  -1.1164   1.6388   2.4038   2.5725
     4.1454

          k = 0.4444 0.1283 0.0000 ( 10685 PWs)   bands (ev):

   -61.2479 -35.5748 -35.3869 -35.3088 -12.8879 -12.6531  -5.9725  -5.2255
    -4.3840  -3.6884  -2.2658  -2.2115  -1.0746   1.7947   2.3367   3.0319
     3.9229

     the Fermi energy is     0.3599 ev

!    total energy              =    -496.73096328 Ry
     estimated scf accuracy    <       0.00000022 Ry
     smearing contrib. (-TS)   =      -0.00000000 Ry
     internal energy E=F+TS    =    -496.73096328 Ry

     convergence has been achieved in   3 iterations

     negative rho (up, down):  7.810E-05 0.000E+00

     Forces acting on atoms (cartesian axes, Ry/au):

     atom    1 type  1   force =     0.00120294    0.00069477   -0.00016719
     atom    2 type  2   force =    -0.00059873   -0.00034679   -0.00018151
     atom    3 type  2   force =    -0.00060422   -0.00034798    0.00034870
     The non-local contrib.  to forces
     atom    1 type  1   force =    -0.00039828   -0.00023003    0.00000649
     atom    2 type  2   force =    -0.00047618   -0.00027576   -0.26277766
     atom    3 type  2   force =    -0.00048260   -0.00027799    0.26273401
     The ionic contribution  to forces
     atom    1 type  1   force =     0.00754193    0.00435591    0.00029696
     atom    2 type  2   force =    -0.00375350   -0.00217436   36.92702723
     atom    3 type  2   force =    -0.00378842   -0.00218155  -36.92732418
     The local contribution  to forces
     atom    1 type  1   force =    -0.00589195   -0.00340295   -0.00198877
     atom    2 type  2   force =     0.00361909    0.00209644  -36.66412047
     atom    3 type  2   force =     0.00365633    0.00210554   36.66404611
     The core correction contribution to forces
     atom    1 type  1   force =     0.00002604    0.00001504   -0.00000719
     atom    2 type  2   force =     0.00001740    0.00001008    0.00186230
     atom    3 type  2   force =     0.00001763    0.00001015   -0.00186421
     The Hubbard contrib.    to forces
     atom    1 type  1   force =     0.00000000    0.00000000    0.00000000
     atom    2 type  2   force =     0.00000000    0.00000000    0.00000000
     atom    3 type  2   force =     0.00000000    0.00000000    0.00000000
     The SCF correction term to forces
     atom    1 type  1   force =    -0.00008281   -0.00004783    0.00150078
     atom    2 type  2   force =    -0.00000240   -0.00000138   -0.00044771
     atom    3 type  2   force =    -0.00000400   -0.00000232    0.00098211

     DFT-D3 dispersion contribution to forces:
     atom    1 type  1   force =     0.00000745    0.00000430   -0.00000020
     atom    2 type  2   force =    -0.00000371   -0.00000215   -0.00174993
     atom    3 type  2   force =    -0.00000374   -0.00000215    0.00175013

     Total force =     0.001754     Total SCF correction =     0.001851
     SCF correction compared to forces is large: reduce conv_thr to get better values


     Computing stress (Cartesian axis) and pressure


     negative rho (up, down):  7.810E-05 0.000E+00
          total   stress  (Ry/bohr**3)                   (kbar)     P=        9.05
   0.00009439  -0.00000063   0.00000002           13.89       -0.09        0.00
  -0.00000063   0.00009512   0.00000000           -0.09       13.99        0.00
   0.00000002   0.00000000  -0.00000493            0.00        0.00       -0.73


     Entering Dynamics:    iteration =    20

     <vel(dt)|acc(dt)> =  -0.23521187

ATOMIC_POSITIONS (crystal)
Mo           -0.0003301873       -0.0001651354        0.5000021561
S             0.6668294747        0.3334154335        0.5833623706
S             0.6668340459        0.3334163685        0.4166354733



     Writing config-only to output data dir ./tmp/scf.save/
     NEW-OLD atomic charge density approx. for the potential

     negative rho (up, down):  7.811E-05 0.000E+00

     total cpu time spent up to now is     1175.5 secs

     Self-consistent Calculation

     iteration #  1     ecut=    70.00 Ry     beta= 0.70
     Davidson diagonalization with overlap
     ethr =  1.00E-06,  avg # of iterations =  2.0

     Threshold (ethr) on eigenvalues was too large:
     Diagonalizing with lowered threshold

     Davidson diagonalization with overlap
     ethr =  3.01E-08,  avg # of iterations =  1.9

     negative rho (up, down):  7.813E-05 0.000E+00

     total cpu time spent up to now is     1181.9 secs

     total energy              =    -496.73095819 Ry
     estimated scf accuracy    <       0.00000868 Ry

     iteration #  2     ecut=    70.00 Ry     beta= 0.70
     Davidson diagonalization with overlap
     ethr =  3.34E-08,  avg # of iterations =  3.0

     negative rho (up, down):  7.810E-05 0.000E+00

     total cpu time spent up to now is     1185.8 secs

     total energy              =    -496.73094688 Ry
     estimated scf accuracy    <       0.00016111 Ry

     iteration #  3     ecut=    70.00 Ry     beta= 0.70
     Davidson diagonalization with overlap
     ethr =  3.34E-08,  avg # of iterations =  3.0

     negative rho (up, down):  7.811E-05 0.000E+00

     total cpu time spent up to now is     1189.5 secs

     total energy              =    -496.73096417 Ry
     estimated scf accuracy    <       0.00000356 Ry

     iteration #  4     ecut=    70.00 Ry     beta= 0.70
     Davidson diagonalization with overlap
     ethr =  1.37E-08,  avg # of iterations =  1.6

     negative rho (up, down):  7.811E-05 0.000E+00

     total cpu time spent up to now is     1192.9 secs

     End of self-consistent calculation

          k = 0.0000 0.0000 0.0000 ( 10685 PWs)   bands (ev):

   -61.2943 -35.4733 -35.1889 -35.1885 -14.7243 -13.4474  -6.2294  -2.9503
    -2.9475  -2.4593  -1.8137  -1.8018  -0.6978   2.4526   2.4663   2.6489
     2.6544

          k = 0.0000 0.1283 0.0000 ( 10675 PWs)   bands (ev):

   -61.2887 -35.4626 -35.2429 -35.2008 -14.5292 -13.3623  -6.0092  -3.3647
    -3.0447  -2.7468  -2.1032  -1.5565  -0.7623   2.1401   2.2528   2.4463
     2.7647

          k = 0.0000 0.2566 0.0000 ( 10668 PWs)   bands (ev):

   -61.2743 -35.4354 -35.3781 -35.2317 -13.9961 -13.1308  -5.5800  -4.1328
    -3.9306  -2.7054  -2.2223  -1.7736  -1.1596   1.6433   2.0648   2.4138
     3.3364

          k = 0.0000 0.3849 0.0000 ( 10710 PWs)   bands (ev):

   -61.2580 -35.5285 -35.4043 -35.2666 -13.2919 -12.8322  -5.8042  -4.8022
    -4.3979  -3.2406  -2.2334  -1.6374  -1.5247   1.8621   1.8876   3.0258
     3.7444

          k = 0.0000 0.5132 0.0000 ( 10710 PWs)   bands (ev):

   -61.2473 -35.6249 -35.3839 -35.2893 -12.7394 -12.6097  -6.3302  -5.3801
    -4.5788  -3.5379  -2.4816  -1.3048  -1.2303   1.9840   2.3573   3.4174
     3.9138

          k = 0.1111 0.0642 0.0000 ( 10675 PWs)   bands (ev):

   -61.2887 -35.4626 -35.2426 -35.2011 -14.5293 -13.3621  -6.0094  -3.3667
    -3.0408  -2.7449  -2.1107  -1.5537  -0.7615   2.1432   2.2453   2.4428
     2.7730

          k = 0.1111 0.1925 0.0000 ( 10656 PWs)   bands (ev):

   -61.2787 -35.4436 -35.3325 -35.2274 -14.1646 -13.2028  -5.6605  -3.9354
    -3.5763  -2.8490  -2.4261  -1.4079  -0.9942   1.6699   2.1224   2.1428
     3.2895

          k = 0.1111 0.3208 0.0000 ( 10681 PWs)   bands (ev):

   -61.2633 -35.4641 -35.4145 -35.2715 -13.5394 -12.9315  -5.5186  -4.3607
    -4.3034  -3.5478  -2.2385  -1.6920  -1.3031   1.4611   2.0966   2.4515
     3.7973

          k = 0.1111 0.4491 0.0000 ( 10685 PWs)   bands (ev):

   -61.2498 -35.5772 -35.3887 -35.3105 -12.8881 -12.6560  -5.9750  -5.2256
    -4.3822  -3.6859  -2.2700  -2.2153  -1.0768   1.7929   2.3360   3.0360
     3.9218

          k = 0.1111 0.5774 0.0000 ( 10692 PWs)   bands (ev):

   -61.2445 -35.6214 -35.3785 -35.3259 -12.5898 -12.5346  -6.2315  -5.5746
    -4.5494  -3.6605  -2.4759  -2.1752  -0.8284   1.9851   2.5968   3.3876
     3.7774

          k = 0.1111-0.4491 0.0000 ( 10685 PWs)   bands (ev):

   -61.2498 -35.5773 -35.3887 -35.3104 -12.8878 -12.6566  -5.9747  -5.2236
    -4.3827  -3.6887  -2.2677  -2.2134  -1.0788   1.7941   2.3334   3.0289
     3.9310

          k = 0.1111-0.3208 0.0000 ( 10681 PWs)   bands (ev):

   -61.2633 -35.4644 -35.4144 -35.2713 -13.5390 -12.9322  -5.5184  -4.3591
    -4.3020  -3.5493  -2.2375  -1.6904  -1.3070   1.4635   2.0940   2.4494
     3.8005

          k = 0.1111-0.1925 0.0000 ( 10656 PWs)   bands (ev):

   -61.2787 -35.4436 -35.3328 -35.2271 -14.1643 -13.2033  -5.6601  -3.9332
    -3.5808  -2.8430  -2.4277  -1.4079  -0.9971   1.6710   2.1261   2.1428
     3.2852

          k = 0.1111-0.0642 0.0000 ( 10675 PWs)   bands (ev):

   -61.2887 -35.4626 -35.2429 -35.2008 -14.5292 -13.3623  -6.0092  -3.3647
    -3.0447  -2.7468  -2.1032  -1.5565  -0.7623   2.1401   2.2528   2.4463
     2.7647

          k = 0.2222 0.1283 0.0000 ( 10668 PWs)   bands (ev):

   -61.2743 -35.4354 -35.3777 -35.2320 -13.9966 -13.1300  -5.5807  -4.1343
    -3.9272  -2.7109  -2.2210  -1.7740  -1.1563   1.6435   2.0627   2.4095
     3.3417

          k = 0.2222 0.2566 0.0000 ( 10681 PWs)   bands (ev):

   -61.2633 -35.4639 -35.4145 -35.2716 -13.5398 -12.9309  -5.5189  -4.3587
    -4.3045  -3.5513  -2.2366  -1.6916  -1.3025   1.4611   2.0956   2.4494
     3.7990

          k = 0.2222 0.3849 0.0000 ( 10690 PWs)   bands (ev):

   -61.2508 -35.5364 -35.3906 -35.3415 -12.9500 -12.6693  -5.6790  -5.1194
    -4.1070  -3.9103  -3.0217  -1.9440  -1.1182   1.6382   2.4019   2.5714
     4.1458

          k = 0.2222 0.5132 0.0000 ( 10733 PWs)   bands (ev):

   -61.2426 -35.5712 -35.3991 -35.3750 -12.5082 -12.4705  -5.7705  -5.7368
    -4.3202  -3.6928  -3.4348  -2.4633  -0.7358   1.7678   2.6877   2.8295
     4.3524

          k = 0.2222 0.6415 0.0000 ( 10733 PWs)   bands (ev):

   -61.2426 -35.5714 -35.3989 -35.3750 -12.5078 -12.4711  -5.7689  -5.7365
    -4.3215  -3.6942  -3.4332  -2.4628  -0.7357   1.7674   2.6856   2.8278
     4.3565

          k = 0.2222-0.3849 0.0000 ( 10690 PWs)   bands (ev):

   -61.2508 -35.5368 -35.3906 -35.3411 -12.9492 -12.6706  -5.6787  -5.1158
    -4.1060  -3.9128  -3.0216  -1.9431  -1.1195   1.6382   2.3995   2.5678
     4.1532

          k = 0.2222-0.2566 0.0000 ( 10681 PWs)   bands (ev):

   -61.2633 -35.4644 -35.4144 -35.2713 -13.5390 -12.9322  -5.5184  -4.3591
    -4.3020  -3.5493  -2.2375  -1.6904  -1.3070   1.4635   2.0940   2.4494
     3.8005

          k = 0.2222-0.1283 0.0000 ( 10668 PWs)   bands (ev):

   -61.2743 -35.4354 -35.3781 -35.2317 -13.9961 -13.1308  -5.5800  -4.1328
    -3.9306  -2.7054  -2.2223  -1.7736  -1.1596   1.6433   2.0648   2.4138
     3.3364

          k = 0.2222-0.0000 0.0000 ( 10656 PWs)   bands (ev):

   -61.2787 -35.4436 -35.3325 -35.2274 -14.1646 -13.2028  -5.6605  -3.9354
    -3.5763  -2.8490  -2.4261  -1.4079  -0.9942   1.6699   2.1224   2.1428
     3.2895

          k = 0.3333 0.1925 0.0000 ( 10710 PWs)   bands (ev):

   -61.2580 -35.5281 -35.4043 -35.2669 -13.2929 -12.8306  -5.8043  -4.8021
    -4.4001  -3.2448  -2.2320  -1.6371  -1.5201   1.8609   1.8873   3.0208
     3.7475

          k = 0.3333 0.3208 0.0000 ( 10685 PWs)   bands (ev):

   -61.2498 -35.5768 -35.3887 -35.3107 -12.8891 -12.6545  -5.9742  -5.2265
    -4.3848  -3.6895  -2.2674  -2.2123  -1.0764   1.7937   2.3351   3.0314
     3.9232

          k = 0.3333 0.4491 0.0000 ( 10733 PWs)   bands (ev):

   -61.2426 -35.5709 -35.3994 -35.3750 -12.5087 -12.4696  -5.7716  -5.7359
    -4.3219  -3.6946  -3.4341  -2.4609  -0.7353   1.7682   2.6872   2.8301
     4.3498

          k = 0.3333 0.5774 0.0000 ( 10716 PWs)   bands (ev):

   -61.2398 -35.5257 -35.4776 -35.3696 -12.3868 -12.3525  -6.0329  -5.2024
    -4.6488  -4.0175  -3.4689  -2.7634  -0.4478   1.4689   2.4746   3.1917
     4.6686

          k = 0.3333 0.7057 0.0000 ( 10733 PWs)   bands (ev):

   -61.2426 -35.5714 -35.3989 -35.3750 -12.5078 -12.4711  -5.7689  -5.7365
    -4.3215  -3.6942  -3.4332  -2.4628  -0.7357   1.7674   2.6856   2.8278
     4.3565

          k = 0.3333-0.3208 0.0000 ( 10685 PWs)   bands (ev):

   -61.2498 -35.5773 -35.3887 -35.3104 -12.8878 -12.6566  -5.9747  -5.2236
    -4.3827  -3.6887  -2.2677  -2.2134  -1.0788   1.7941   2.3334   3.0289
     3.9310

          k = 0.3333-0.1925 0.0000 ( 10710 PWs)   bands (ev):

   -61.2580 -35.5285 -35.4043 -35.2666 -13.2919 -12.8322  -5.8042  -4.8022
    -4.3979  -3.2406  -2.2334  -1.6374  -1.5247   1.8621   1.8876   3.0258
     3.7444

          k = 0.3333-0.0642 0.0000 ( 10681 PWs)   bands (ev):

   -61.2633 -35.4641 -35.4145 -35.2715 -13.5394 -12.9315  -5.5186  -4.3607
    -4.3034  -3.5478  -2.2385  -1.6920  -1.3031   1.4611   2.0966   2.4515
     3.7973

          k = 0.3333 0.0642 0.0000 ( 10681 PWs)   bands (ev):

   -61.2633 -35.4639 -35.4145 -35.2716 -13.5398 -12.9309  -5.5189  -4.3587
    -4.3045  -3.5513  -2.2366  -1.6916  -1.3025   1.4611   2.0956   2.4494
     3.7990

          k = 0.4444 0.2566 0.0000 ( 10710 PWs)   bands (ev):

   -61.2473 -35.6245 -35.3839 -35.2896 -12.7410 -12.6073  -6.3289  -5.3827
    -4.5814  -3.5416  -2.4779  -1.3056  -1.2267   1.9853   2.3569   3.4108
     3.9158

          k = 0.4444 0.3849 0.0000 ( 10692 PWs)   bands (ev):

   -61.2445 -35.6209 -35.3785 -35.3262 -12.5913 -12.5324  -6.2301  -5.5775
    -4.5517  -3.6636  -2.4718  -2.1749  -0.8270   1.9860   2.5981   3.3889
     3.7703

          k = 0.4444 0.5132 0.0000 ( 10733 PWs)   bands (ev):

   -61.2426 -35.5709 -35.3994 -35.3750 -12.5087 -12.4696  -5.7716  -5.7359
    -4.3219  -3.6946  -3.4341  -2.4609  -0.7353   1.7682   2.6872   2.8301
     4.3498

          k = 0.4444 0.6415 0.0000 ( 10733 PWs)   bands (ev):

   -61.2426 -35.5712 -35.3991 -35.3750 -12.5082 -12.4705  -5.7705  -5.7368
    -4.3202  -3.6928  -3.4348  -2.4633  -0.7358   1.7678   2.6877   2.8295
     4.3524

          k = 0.4444 0.7698 0.0000 ( 10692 PWs)   bands (ev):

   -61.2445 -35.6214 -35.3785 -35.3259 -12.5898 -12.5346  -6.2315  -5.5746
    -4.5494  -3.6605  -2.4759  -2.1752  -0.8284   1.9851   2.5968   3.3876
     3.7774

          k = 0.4444-0.2566 0.0000 ( 10710 PWs)   bands (ev):

   -61.2473 -35.6249 -35.3839 -35.2893 -12.7394 -12.6097  -6.3302  -5.3801
    -4.5788  -3.5379  -2.4816  -1.3048  -1.2303   1.9840   2.3573   3.4174
     3.9138

          k = 0.4444-0.1283 0.0000 ( 10685 PWs)   bands (ev):

   -61.2498 -35.5772 -35.3887 -35.3105 -12.8881 -12.6560  -5.9750  -5.2256
    -4.3822  -3.6859  -2.2700  -2.2153  -1.0768   1.7929   2.3360   3.0360
     3.9218

          k = 0.4444 0.0000 0.0000 ( 10690 PWs)   bands (ev):

   -61.2508 -35.5364 -35.3906 -35.3415 -12.9500 -12.6693  -5.6790  -5.1194
    -4.1070  -3.9103  -3.0217  -1.9440  -1.1182   1.6382   2.4019   2.5714
     4.1458

          k = 0.4444 0.1283 0.0000 ( 10685 PWs)   bands (ev):

   -61.2498 -35.5768 -35.3887 -35.3107 -12.8891 -12.6545  -5.9742  -5.2265
    -4.3848  -3.6895  -2.2674  -2.2123  -1.0764   1.7937   2.3351   3.0314
     3.9232

     the Fermi energy is     0.3590 ev

!    total energy              =    -496.73096457 Ry
     estimated scf accuracy    <       0.00000001 Ry
     smearing contrib. (-TS)   =      -0.00000000 Ry
     internal energy E=F+TS    =    -496.73096457 Ry

     convergence has been achieved in   4 iterations

     negative rho (up, down):  7.811E-05 0.000E+00

     Forces acting on atoms (cartesian axes, Ry/au):

     atom    1 type  1   force =     0.00098977    0.00057163   -0.00002130
     atom    2 type  2   force =    -0.00048972   -0.00028374   -0.00019180
     atom    3 type  2   force =    -0.00050005   -0.00028789    0.00021309
     The non-local contrib.  to forces
     atom    1 type  1   force =    -0.00032818   -0.00018954   -0.00000912
     atom    2 type  2   force =    -0.00035284   -0.00020439   -0.26278533
     atom    3 type  2   force =    -0.00035046   -0.00020179    0.26278731
     The ionic contribution  to forces
     atom    1 type  1   force =     0.00587042    0.00339044    0.00016998
     atom    2 type  2   force =    -0.00292022   -0.00169243   36.92746334
     atom    3 type  2   force =    -0.00295019   -0.00169801  -36.92763332
     The local contribution  to forces
     atom    1 type  1   force =    -0.00434689   -0.00251056   -0.00011280
     atom    2 type  2   force =     0.00276708    0.00160363  -36.66513461
     atom    3 type  2   force =     0.00277665    0.00159816   36.66542504
     The core correction contribution to forces
     atom    1 type  1   force =     0.00002343    0.00001353    0.00000099
     atom    2 type  2   force =     0.00001259    0.00000729    0.00186014
     atom    3 type  2   force =     0.00001232    0.00000709   -0.00186023
     The Hubbard contrib.    to forces
     atom    1 type  1   force =     0.00000000    0.00000000    0.00000000
     atom    2 type  2   force =     0.00000000    0.00000000    0.00000000
     atom    3 type  2   force =     0.00000000    0.00000000    0.00000000
     The SCF correction term to forces
     atom    1 type  1   force =    -0.00021909   -0.00012651   -0.00005317
     atom    2 type  2   force =     0.00002226    0.00001291    0.00017186
     atom    3 type  2   force =     0.00003026    0.00001741   -0.00023890

     DFT-D3 dispersion contribution to forces:
     atom    1 type  1   force =     0.00000579    0.00000334   -0.00000011
     atom    2 type  2   force =    -0.00000288   -0.00000167   -0.00175015
     atom    3 type  2   force =    -0.00000291   -0.00000167    0.00175026

     Total force =     0.001429     Total SCF correction =     0.000394
     SCF correction compared to forces is large: reduce conv_thr to get better values


     Computing stress (Cartesian axis) and pressure


     negative rho (up, down):  7.811E-05 0.000E+00
          total   stress  (Ry/bohr**3)                   (kbar)     P=        9.08
   0.00009408  -0.00000054   0.00000002           13.84       -0.08        0.00
  -0.00000054   0.00009470   0.00000001           -0.08       13.93        0.00
   0.00000002   0.00000001  -0.00000366            0.00        0.00       -0.54


     Damped Dynamics: convergence achieved in  21 steps

     End of damped dynamics calculation

     Final energy =    -496.7309645668 Ry

Begin final coordinates
     new unit-cell volume =   1080.91121 a.u.^3 (   160.17452 Ang^3 )
     density =      1.65946 g/cm^3

CELL_PARAMETERS (angstrom)
   3.120000000   0.000000000   0.000000000
  -1.560000000   2.701999260   0.000000000
   0.000000000   0.000000000  19.000000000

ATOMIC_POSITIONS (crystal)
Mo           -0.0003301873       -0.0001651354        0.5000021561
S             0.6668294747        0.3334154335        0.5833623706
S             0.6668340459        0.3334163685        0.4166354733
End final coordinates



     Writing all to output data dir ./tmp/scf.save/
 
     init_run     :      9.10s CPU     11.01s WALL (       1 calls)
     electrons    :    764.28s CPU    919.57s WALL (      11 calls)
     update_pot   :     16.16s CPU     20.57s WALL (      10 calls)
     forces       :     30.92s CPU     34.87s WALL (      11 calls)
     force_dftd3  :      0.28s CPU      0.28s WALL (      11 calls)
     stress       :    180.31s CPU    193.21s WALL (      11 calls)
     stres_dftd3  :      0.29s CPU      0.30s WALL (      11 calls)

     Called by init_run:
     wfcinit      :      3.81s CPU      4.67s WALL (       1 calls)
     potinit      :      1.31s CPU      1.41s WALL (       1 calls)
     hinit0       :      1.81s CPU      2.19s WALL (       1 calls)

     Called by electrons:
     c_bands      :    487.46s CPU    560.14s WALL (      65 calls)
     sum_band     :    171.17s CPU    229.81s WALL (      65 calls)
     v_of_rho     :     14.21s CPU     16.49s WALL (      69 calls)
     newd         :     84.96s CPU    110.01s WALL (      69 calls)
     PAW_pot      :     24.37s CPU     24.67s WALL (      79 calls)
     mix_rho      :      1.87s CPU      2.12s WALL (      65 calls)
     energy_dftd3 :      0.27s CPU      0.27s WALL (      11 calls)

     Called by c_bands:
     init_us_2    :      8.39s CPU      8.58s WALL (    6683 calls)
     init_us_2:cp :      8.35s CPU      8.55s WALL (    6683 calls)
     cegterg      :    433.48s CPU    505.85s WALL (    2665 calls)

     Called by *egterg:
     cdiaghg      :      4.22s CPU      4.29s WALL (    9980 calls)
     h_psi        :    349.64s CPU    421.57s WALL (   10718 calls)
     s_psi        :      6.57s CPU      6.80s WALL (   10718 calls)
     g_psi        :      0.67s CPU      0.68s WALL (    8012 calls)

     Called by h_psi:
     h_psi:calbec :     16.63s CPU     18.44s WALL (   10718 calls)
     vloc_psi     :    321.93s CPU    391.61s WALL (   10718 calls)
     add_vuspsi   :      8.99s CPU      9.42s WALL (   10718 calls)

     General routines
     calbec       :    102.00s CPU    104.93s WALL (   16048 calls)
     fft          :     58.99s CPU     88.37s WALL (    1167 calls)
     ffts         :      0.27s CPU      0.36s WALL (     134 calls)
     fftw         :    261.68s CPU    327.22s WALL (  304471 calls)
     interpolate  :      1.00s CPU      1.18s WALL (      69 calls)
 
     Parallel routines
 
     PWSCF        :  16m57.35s CPU  19m59.28s WALL

 
   This run was terminated on:  11:26:51  15Jul2025            

=------------------------------------------------------------------------------=
   JOB DONE.
=------------------------------------------------------------------------------=
