
     Program PWSCF v.7.2 starts on 30May2025 at 13:24:24 

     This program is part of the open-source Quantum ESPRESSO suite
     for quantum simulation of materials; please cite
         "P. Giannozzi et al., J. Phys.:Condens. Matter 21 395502 (2009);
         "P. Giannozzi et al., J. Phys.:Condens. Matter 29 465901 (2017);
         "P. Giannozzi et al., J. Chem. Phys. 152 154105 (2020);
          URL http://www.quantum-espresso.org", 
     in publications or presentations arising from this work. More details at
     http://www.quantum-espresso.org/quote

     Parallel version (MPI), running on    16 processors

     MPI processes distributed on     1 nodes
     22590 MiB available memory on the printing compute node when the environment starts
 
     Waiting for input...
     Reading input from standard input

     Current dimensions of program PWSCF are:
     Max number of different atomic species (ntypx) = 10
     Max number of k-points (npk) =  40000
     Max angular momentum in pseudopotentials (lmaxx) =  4
     file Co.pbe-n-kjpaw_psl.1.0.0.UPF: wavefunction(s)  4S 3D renormalized
     Message from routine setup:
     using ibrav=0 with symmetry is DISCOURAGED, use correct ibrav instead
 
     R & G space division:  proc/nbgrp/npool/nimage =      16
     Subspace diagonalization in iterative solution of the eigenvalue problem:
     a serial algorithm will be used

 
     Parallelization info
     --------------------
     sticks:   dense  smooth     PW     G-vecs:    dense   smooth      PW
     Min          23      23      7                  627      627     107
     Max          24      24      8                  636      636     112
     Sum         379     379    121                10137    10137    1761
 
     Using Slab Decomposition
 


     bravais-lattice index     =            0
     lattice parameter (alat)  =       4.6676  a.u.
     unit-cell volume          =     143.3333 (a.u.)^3
     number of atoms/cell      =            2
     number of atomic types    =            1
     number of electrons       =        18.00
     number of Kohn-Sham states=           13
     kinetic-energy cutoff     =      65.0000  Ry
     charge density cutoff     =     260.0000  Ry
     scf convergence threshold =      1.0E-06
     mixing beta               =       0.7000
     number of iterations used =            8  plain     mixing
     Exchange-correlation= SLA  PW   PBX  PBC
                           (   1   4   3   4   0   0   0)

     celldm(1)=   4.667624  celldm(2)=   0.000000  celldm(3)=   0.000000
     celldm(4)=   0.000000  celldm(5)=   0.000000  celldm(6)=   0.000000

     crystal axes: (cart. coord. in units of alat)
               a(1) = (   1.000000   0.000000   0.000000 )  
               a(2) = (  -0.500000   0.866025   0.000000 )  
               a(3) = (   0.000000   0.000000   1.627530 )  

     reciprocal axes: (cart. coord. in units 2 pi/alat)
               b(1) = (  1.000000  0.577350  0.000000 )  
               b(2) = (  0.000000  1.154701  0.000000 )  
               b(3) = (  0.000000  0.000000  0.614428 )  


     PseudoPot. # 1 for Co read from file:
     /shared/ESPRESSO/PSLIBRARY/1.0.0/pbe/PSEUDOPOTENTIALS/Co.pbe-n-kjpaw_psl.1.0.0.UPF
     MD5 check sum: 17e7ab8db721b244d1352252ea6cb8e7
     Pseudo is Projector augmented-wave + core cor, Zval =  9.0
     Generated using "atomic" code by A. Dal Corso  (Quantum ESPRESSO distribution)
     Shape of augmentation charge: PSQ
     Using radial grid of 1193 points,  6 beta functions with: 
                l(1) =   0
                l(2) =   0
                l(3) =   1
                l(4) =   1
                l(5) =   2
                l(6) =   2
     Q(r) pseudized with 0 coefficients 


     atomic species   valence    mass     pseudopotential
        Co             9.00    58.93320     Co( 1.00)

     24 Sym. Ops., with inversion, found (12 have fractional translation)



   Cartesian axes

     site n.     atom                  positions (alat units)
         1           Co  tau(   1) = (   0.0000000   0.0000000   0.0000000  )
         2           Co  tau(   2) = (  -0.0000000   0.5773503   0.8137652  )

     number of k points=    15  Fermi-Dirac smearing, width (Ry)=  0.0070
                       cart. coord. in units 2pi/alat
        k(    1) = (   0.0000000   0.0000000   0.0000000), wk =   0.0160000
        k(    2) = (   0.0000000   0.0000000   0.1228856), wk =   0.0320000
        k(    3) = (   0.0000000   0.0000000   0.2457711), wk =   0.0320000
        k(    4) = (   0.0000000   0.2309401   0.0000000), wk =   0.0960000
        k(    5) = (   0.0000000   0.2309401   0.1228856), wk =   0.1920000
        k(    6) = (   0.0000000   0.2309401   0.2457711), wk =   0.1920000
        k(    7) = (   0.0000000   0.4618802   0.0000000), wk =   0.0960000
        k(    8) = (   0.0000000   0.4618802   0.1228856), wk =   0.1920000
        k(    9) = (   0.0000000   0.4618802   0.2457711), wk =   0.1920000
        k(   10) = (   0.2000000   0.3464102   0.0000000), wk =   0.0960000
        k(   11) = (   0.2000000   0.3464102   0.1228856), wk =   0.1920000
        k(   12) = (   0.2000000   0.3464102   0.2457711), wk =   0.1920000
        k(   13) = (   0.2000000   0.5773503   0.0000000), wk =   0.0960000
        k(   14) = (   0.2000000   0.5773503   0.1228856), wk =   0.1920000
        k(   15) = (   0.2000000   0.5773503   0.2457711), wk =   0.1920000

     Dense  grid:    10137 G-vectors     FFT dimensions: (  24,  24,  40)

     Estimated max dynamical RAM per process >       3.90 MB

     Estimated total dynamical RAM >      62.37 MB

     Initial potential from superposition of free atoms

     starting charge      17.9994, renormalised to      18.0000
     Starting wfcs are   18 randomized atomic wfcs
     Checking if some PAW data can be deallocated... 

     total cpu time spent up to now is        0.3 secs

     Self-consistent Calculation

     iteration #  1     ecut=    65.00 Ry     beta= 0.70
     Davidson diagonalization with overlap
     ethr =  1.00E-02,  avg # of iterations =  2.3

     Threshold (ethr) on eigenvalues was too large:
     Diagonalizing with lowered threshold

     Davidson diagonalization with overlap
     ethr =  4.52E-05,  avg # of iterations =  6.9

     total cpu time spent up to now is        0.5 secs

     total energy              =    -324.07191436 Ry
     estimated scf accuracy    <       0.02726307 Ry

     iteration #  2     ecut=    65.00 Ry     beta= 0.70
     Davidson diagonalization with overlap
     ethr =  1.51E-04,  avg # of iterations =  2.4

     total cpu time spent up to now is        0.6 secs

     total energy              =    -324.07109469 Ry
     estimated scf accuracy    <       0.08004984 Ry

     iteration #  3     ecut=    65.00 Ry     beta= 0.70
     Davidson diagonalization with overlap
     ethr =  1.51E-04,  avg # of iterations =  2.0

     total cpu time spent up to now is        0.7 secs

     total energy              =    -324.08535037 Ry
     estimated scf accuracy    <       0.00024189 Ry

     iteration #  4     ecut=    65.00 Ry     beta= 0.70
     Davidson diagonalization with overlap
     ethr =  1.34E-06,  avg # of iterations =  4.6

     total cpu time spent up to now is        0.8 secs

     total energy              =    -324.08543598 Ry
     estimated scf accuracy    <       0.00013878 Ry

     iteration #  5     ecut=    65.00 Ry     beta= 0.70
     Davidson diagonalization with overlap
     ethr =  7.71E-07,  avg # of iterations =  1.1

     total cpu time spent up to now is        0.8 secs

     total energy              =    -324.08544136 Ry
     estimated scf accuracy    <       0.00001851 Ry

     iteration #  6     ecut=    65.00 Ry     beta= 0.70
     Davidson diagonalization with overlap
     ethr =  1.03E-07,  avg # of iterations =  2.3

     total cpu time spent up to now is        0.9 secs

     total energy              =    -324.08544742 Ry
     estimated scf accuracy    <       0.00000305 Ry

     iteration #  7     ecut=    65.00 Ry     beta= 0.70
     Davidson diagonalization with overlap
     ethr =  1.69E-08,  avg # of iterations =  2.1

     total cpu time spent up to now is        1.0 secs

     End of self-consistent calculation

          k = 0.0000 0.0000 0.0000 (  1261 PWs)   bands (ev):

     5.1571   9.4563  12.3770  12.4113  12.4113  12.7532  12.7532  13.2108
    13.2108  14.0260  14.3853  14.3853  21.1612

          k = 0.0000 0.0000 0.1229 (  1255 PWs)   bands (ev):

     5.5589   9.2440  12.2627  12.3342  12.3342  12.6463  12.6463  12.9726
    13.4383  13.4383  14.3548  14.3548  23.1381

          k = 0.0000 0.0000 0.2458 (  1220 PWs)   bands (ev):

     6.6912   8.2183  12.0119  12.0185  12.3067  12.3067  12.4379  12.4379
    13.8553  13.8553  14.1946  14.1946  27.1917

          k = 0.0000 0.2309 0.0000 (  1262 PWs)   bands (ev):

     6.5265  10.1998  11.6521  11.7120  12.4175  12.8446  12.9666  13.0770
    13.0830  13.3388  14.5157  17.9332  21.3745

          k = 0.0000 0.2309 0.1229 (  1258 PWs)   bands (ev):

     6.8862  10.1094  11.3442  11.7814  12.2618  12.7062  12.7549  13.1749
    13.3956  13.4785  14.4371  16.4269  23.8468

          k = 0.0000 0.2309 0.2458 (  1261 PWs)   bands (ev):

     7.8895   9.2317  11.3219  11.7474  12.0685  12.4087  12.7840  12.9678
    13.7999  14.0675  14.1888  14.9418  28.0672

          k = 0.0000 0.4619 0.0000 (  1274 PWs)   bands (ev):

     9.3156  10.1724  10.4394  11.7820  12.3730  12.5028  12.6776  14.2961
    14.4348  14.6144  14.8797  20.2405  22.5836

          k = 0.0000 0.4619 0.1229 (  1258 PWs)   bands (ev):

     9.3081  10.1344  10.7173  11.3649  12.5415  12.6544  13.2810  14.2098
    14.3301  14.5643  14.6623  18.6659  22.5209

          k = 0.0000 0.4619 0.2458 (  1274 PWs)   bands (ev):

     9.4626   9.8423  10.9926  11.2799  13.0074  13.0269  13.6425  13.8586
    14.3972  14.4851  14.7029  16.3974  23.2207

          k = 0.2000 0.3464 0.0000 (  1268 PWs)   bands (ev):

     8.8056  10.7629  10.8319  11.0271  12.1682  12.5054  12.7804  13.4436
    14.1928  14.4850  14.7788  21.3998  22.1910

          k = 0.2000 0.3464 0.1229 (  1269 PWs)   bands (ev):

     9.0103  10.5862  11.0204  11.1193  12.1804  12.4420  12.6674  13.5497
    14.1500  14.3362  14.9258  18.6643  25.3828

          k = 0.2000 0.3464 0.2458 (  1267 PWs)   bands (ev):

     9.5359  10.1500  11.3538  11.3749  12.0100  12.0678  12.8908  13.4002
    14.3058  14.5325  15.1100  16.3177  26.9726

          k = 0.2000 0.5774 0.0000 (  1282 PWs)   bands (ev):

    10.3894  10.4428  10.4872  11.3947  12.0989  12.2855  12.9261  14.2359
    14.4444  14.4632  17.5206  18.9505  23.9186

          k = 0.2000 0.5774 0.1229 (  1286 PWs)   bands (ev):

    10.1250  10.5903  10.9983  11.1040  11.9859  12.4756  13.0223  14.1013
    14.2564  14.5416  17.7133  18.8999  23.5632

          k = 0.2000 0.5774 0.2458 (  1279 PWs)   bands (ev):

    10.1523  10.4416  11.1502  11.5970  11.7876  12.4296  13.2641  13.5415
    14.3751  14.5587  18.1772  18.6688  22.5228

     the Fermi energy is    14.2884 ev

!    total energy              =    -324.08544772 Ry
     total all-electron energy =     -5573.772800 Ry
     estimated scf accuracy    <       0.00000022 Ry
     smearing contrib. (-TS)   =      -0.01453035 Ry
     internal energy E=F+TS    =    -324.07091737 Ry

     The total energy is F=E-TS. E is the sum of the following terms:
     one-electron contribution =       0.95698486 Ry
     hartree contribution      =      25.92308895 Ry
     xc contribution           =     -65.20251255 Ry
     ewald contribution        =    -112.64113270 Ry
     one-center paw contrib.   =    -173.10734592 Ry

     convergence has been achieved in   7 iterations

     Forces acting on atoms (cartesian axes, Ry/au):

     atom    1 type  1   force =    -0.00000000   -0.00000000    0.00000000
     atom    2 type  1   force =     0.00000000    0.00000000    0.00000000
     The non-local contrib.  to forces
     atom    1 type  1   force =     0.00000000    0.00000000    0.00000000
     atom    2 type  1   force =     0.00000000   -0.00000000    0.00000000
     The ionic contribution  to forces
     atom    1 type  1   force =    -0.00000000    0.00000000   -0.00000000
     atom    2 type  1   force =    -0.00000000    0.00000000    0.00000000
     The local contribution  to forces
     atom    1 type  1   force =    -0.00000000   -0.00000000   -0.00000000
     atom    2 type  1   force =     0.00000000   -0.00000000    0.00000000
     The core correction contribution to forces
     atom    1 type  1   force =    -0.00000000    0.00000000   -0.00000000
     atom    2 type  1   force =     0.00000000   -0.00000000   -0.00000000
     The Hubbard contrib.    to forces
     atom    1 type  1   force =     0.00000000    0.00000000    0.00000000
     atom    2 type  1   force =     0.00000000    0.00000000    0.00000000
     The SCF correction term to forces
     atom    1 type  1   force =     0.00000000   -0.00000000    0.00000000
     atom    2 type  1   force =     0.00000000   -0.00000000   -0.00000000

     Total force =     0.000000     Total SCF correction =     0.000000


     Computing stress (Cartesian axis) and pressure

          total   stress  (Ry/bohr**3)                   (kbar)     P=      -37.60
  -0.00020339  -0.00000000   0.00000000          -29.92       -0.00        0.00
  -0.00000000  -0.00020339   0.00000000           -0.00      -29.92        0.00
   0.00000000   0.00000000  -0.00035999            0.00        0.00      -52.96


     Writing all to output data dir ./tmp/scf.save/
 
     init_run     :      0.08s CPU      0.14s WALL (       1 calls)
     electrons    :      0.64s CPU      0.71s WALL (       1 calls)
     forces       :      0.01s CPU      0.01s WALL (       1 calls)
     stress       :      0.02s CPU      0.03s WALL (       1 calls)

     Called by init_run:
     wfcinit      :      0.02s CPU      0.02s WALL (       1 calls)
     potinit      :      0.04s CPU      0.05s WALL (       1 calls)
     hinit0       :      0.02s CPU      0.06s WALL (       1 calls)

     Called by electrons:
     c_bands      :      0.32s CPU      0.35s WALL (       8 calls)
     sum_band     :      0.05s CPU      0.05s WALL (       8 calls)
     v_of_rho     :      0.00s CPU      0.00s WALL (       8 calls)
     newd         :      0.01s CPU      0.01s WALL (       8 calls)
     PAW_pot      :      0.30s CPU      0.33s WALL (       8 calls)
     mix_rho      :      0.00s CPU      0.00s WALL (       8 calls)

     Called by c_bands:
     init_us_2    :      0.00s CPU      0.00s WALL (     285 calls)
     init_us_2:cp :      0.00s CPU      0.00s WALL (     285 calls)
     cegterg      :      0.26s CPU      0.28s WALL (     120 calls)

     Called by *egterg:
     cdiaghg      :      0.06s CPU      0.07s WALL (     462 calls)
     h_psi        :      0.19s CPU      0.20s WALL (     492 calls)
     s_psi        :      0.00s CPU      0.00s WALL (     492 calls)
     g_psi        :      0.00s CPU      0.00s WALL (     357 calls)

     Called by h_psi:
     h_psi:calbec :      0.01s CPU      0.01s WALL (     492 calls)
     vloc_psi     :      0.18s CPU      0.19s WALL (     492 calls)
     add_vuspsi   :      0.00s CPU      0.00s WALL (     492 calls)

     General routines
     calbec       :      0.01s CPU      0.01s WALL (     687 calls)
     fft          :      0.00s CPU      0.04s WALL (     114 calls)
     ffts         :      0.00s CPU      0.00s WALL (       8 calls)
     fftw         :      0.19s CPU      0.21s WALL (   10888 calls)
 
     Parallel routines
 
     PWSCF        :      0.89s CPU      1.08s WALL

 
   This run was terminated on:  13:24:25  30May2025            

=------------------------------------------------------------------------------=
   JOB DONE.
=------------------------------------------------------------------------------=
