
     Program PWSCF v.7.2 starts on 30May2025 at 13:29:20 

     This program is part of the open-source Quantum ESPRESSO suite
     for quantum simulation of materials; please cite
         "P. Giannozzi et al., J. Phys.:Condens. Matter 21 395502 (2009);
         "P. Giannozzi et al., J. Phys.:Condens. Matter 29 465901 (2017);
         "P. Giannozzi et al., J. Chem. Phys. 152 154105 (2020);
          URL http://www.quantum-espresso.org", 
     in publications or presentations arising from this work. More details at
     http://www.quantum-espresso.org/quote

     Parallel version (MPI), running on    16 processors

     MPI processes distributed on     1 nodes
     22853 MiB available memory on the printing compute node when the environment starts
 
     Waiting for input...
     Reading input from standard input

     Current dimensions of program PWSCF are:
     Max number of different atomic species (ntypx) = 10
     Max number of k-points (npk) =  40000
     Max angular momentum in pseudopotentials (lmaxx) =  4
     file Co.pbe-n-kjpaw_psl.1.0.0.UPF: wavefunction(s)  4S 3D renormalized
     Message from routine setup:
     using ibrav=0 with symmetry is DISCOURAGED, use correct ibrav instead
 
     R & G space division:  proc/nbgrp/npool/nimage =      16
     Subspace diagonalization in iterative solution of the eigenvalue problem:
     a serial algorithm will be used

 
     Parallelization info
     --------------------
     sticks:   dense  smooth     PW     G-vecs:    dense   smooth      PW
     Min          23      23      7                  627      627     107
     Max          24      24      8                  636      636     114
     Sum         379     379    121                10137    10137    1785
 
     Using Slab Decomposition
 


     bravais-lattice index     =            0
     lattice parameter (alat)  =       4.6676  a.u.
     unit-cell volume          =     143.3333 (a.u.)^3
     number of atoms/cell      =            2
     number of atomic types    =            1
     number of electrons       =        18.00
     number of Kohn-Sham states=           13
     kinetic-energy cutoff     =      65.0000  Ry
     charge density cutoff     =     260.0000  Ry
     scf convergence threshold =      1.0E-06
     mixing beta               =       0.7000
     number of iterations used =            8  plain     mixing
     Exchange-correlation= SLA  PW   PBX  PBC
                           (   1   4   3   4   0   0   0)

     celldm(1)=   4.667624  celldm(2)=   0.000000  celldm(3)=   0.000000
     celldm(4)=   0.000000  celldm(5)=   0.000000  celldm(6)=   0.000000

     crystal axes: (cart. coord. in units of alat)
               a(1) = (   1.000000   0.000000   0.000000 )  
               a(2) = (  -0.500000   0.866025   0.000000 )  
               a(3) = (   0.000000   0.000000   1.627530 )  

     reciprocal axes: (cart. coord. in units 2 pi/alat)
               b(1) = (  1.000000  0.577350  0.000000 )  
               b(2) = (  0.000000  1.154701  0.000000 )  
               b(3) = (  0.000000  0.000000  0.614428 )  


     PseudoPot. # 1 for Co read from file:
     /shared/ESPRESSO/PSLIBRARY/1.0.0/pbe/PSEUDOPOTENTIALS/Co.pbe-n-kjpaw_psl.1.0.0.UPF
     MD5 check sum: 17e7ab8db721b244d1352252ea6cb8e7
     Pseudo is Projector augmented-wave + core cor, Zval =  9.0
     Generated using "atomic" code by A. Dal Corso  (Quantum ESPRESSO distribution)
     Shape of augmentation charge: PSQ
     Using radial grid of 1193 points,  6 beta functions with: 
                l(1) =   0
                l(2) =   0
                l(3) =   1
                l(4) =   1
                l(5) =   2
                l(6) =   2
     Q(r) pseudized with 0 coefficients 


     atomic species   valence    mass     pseudopotential
        Co             9.00    58.93320     Co( 1.00)

     24 Sym. Ops., with inversion, found (12 have fractional translation)



   Cartesian axes

     site n.     atom                  positions (alat units)
         1           Co  tau(   1) = (   0.0000000   0.0000000   0.0000000  )
         2           Co  tau(   2) = (  -0.0000000   0.5773503   0.8137652  )

     number of k points=    28  Fermi-Dirac smearing, width (Ry)=  0.0070
                       cart. coord. in units 2pi/alat
        k(    1) = (   0.0000000   0.0000000   0.0000000), wk =   0.0092593
        k(    2) = (   0.0000000   0.0000000   0.1024046), wk =   0.0185185
        k(    3) = (   0.0000000   0.0000000   0.2048093), wk =   0.0185185
        k(    4) = (   0.0000000   0.0000000  -0.3072139), wk =   0.0092593
        k(    5) = (   0.0000000   0.1924501   0.0000000), wk =   0.0555556
        k(    6) = (   0.0000000   0.1924501   0.1024046), wk =   0.1111111
        k(    7) = (   0.0000000   0.1924501   0.2048093), wk =   0.1111111
        k(    8) = (   0.0000000   0.1924501  -0.3072139), wk =   0.0555556
        k(    9) = (   0.0000000   0.3849002   0.0000000), wk =   0.0555556
        k(   10) = (   0.0000000   0.3849002   0.1024046), wk =   0.1111111
        k(   11) = (   0.0000000   0.3849002   0.2048093), wk =   0.1111111
        k(   12) = (   0.0000000   0.3849002  -0.3072139), wk =   0.0555556
        k(   13) = (   0.0000000  -0.5773503   0.0000000), wk =   0.0277778
        k(   14) = (   0.0000000  -0.5773503   0.1024046), wk =   0.0555556
        k(   15) = (   0.0000000  -0.5773503   0.2048093), wk =   0.0555556
        k(   16) = (   0.0000000  -0.5773503  -0.3072139), wk =   0.0277778
        k(   17) = (   0.1666667   0.2886751   0.0000000), wk =   0.0555556
        k(   18) = (   0.1666667   0.2886751   0.1024046), wk =   0.1111111
        k(   19) = (   0.1666667   0.2886751   0.2048093), wk =   0.1111111
        k(   20) = (   0.1666667   0.2886751  -0.3072139), wk =   0.0555556
        k(   21) = (   0.1666667   0.4811252   0.0000000), wk =   0.1111111
        k(   22) = (   0.1666667   0.4811252   0.1024046), wk =   0.2222222
        k(   23) = (   0.1666667   0.4811252   0.2048093), wk =   0.2222222
        k(   24) = (   0.1666667   0.4811252  -0.3072139), wk =   0.1111111
        k(   25) = (   0.3333333   0.5773503   0.0000000), wk =   0.0185185
        k(   26) = (   0.3333333   0.5773503   0.1024046), wk =   0.0370370
        k(   27) = (   0.3333333   0.5773503   0.2048093), wk =   0.0370370
        k(   28) = (   0.3333333   0.5773503  -0.3072139), wk =   0.0185185

     Dense  grid:    10137 G-vectors     FFT dimensions: (  24,  24,  40)

     Estimated max dynamical RAM per process >       4.10 MB

     Estimated total dynamical RAM >      65.63 MB

     Initial potential from superposition of free atoms

     starting charge      17.9994, renormalised to      18.0000
     Starting wfcs are   18 randomized atomic wfcs
     Checking if some PAW data can be deallocated... 

     total cpu time spent up to now is        0.4 secs

     Self-consistent Calculation

     iteration #  1     ecut=    65.00 Ry     beta= 0.70
     Davidson diagonalization with overlap
     ethr =  1.00E-02,  avg # of iterations =  2.4

     Threshold (ethr) on eigenvalues was too large:
     Diagonalizing with lowered threshold

     Davidson diagonalization with overlap
     ethr =  3.09E-05,  avg # of iterations =  7.0

     total cpu time spent up to now is        0.7 secs

     total energy              =    -324.07929082 Ry
     estimated scf accuracy    <       0.02304315 Ry

     iteration #  2     ecut=    65.00 Ry     beta= 0.70
     Davidson diagonalization with overlap
     ethr =  1.28E-04,  avg # of iterations =  2.4

     total cpu time spent up to now is        0.8 secs

     total energy              =    -324.08038738 Ry
     estimated scf accuracy    <       0.05672545 Ry

     iteration #  3     ecut=    65.00 Ry     beta= 0.70
     Davidson diagonalization with overlap
     ethr =  1.28E-04,  avg # of iterations =  2.0

     total cpu time spent up to now is        1.0 secs

     total energy              =    -324.09053465 Ry
     estimated scf accuracy    <       0.00008517 Ry

     iteration #  4     ecut=    65.00 Ry     beta= 0.70
     Davidson diagonalization with overlap
     ethr =  4.73E-07,  avg # of iterations =  4.8

     total cpu time spent up to now is        1.1 secs

     total energy              =    -324.09060183 Ry
     estimated scf accuracy    <       0.00010082 Ry

     iteration #  5     ecut=    65.00 Ry     beta= 0.70
     Davidson diagonalization with overlap
     ethr =  4.73E-07,  avg # of iterations =  1.2

     total cpu time spent up to now is        1.2 secs

     total energy              =    -324.09060266 Ry
     estimated scf accuracy    <       0.00001264 Ry

     iteration #  6     ecut=    65.00 Ry     beta= 0.70
     Davidson diagonalization with overlap
     ethr =  7.02E-08,  avg # of iterations =  2.4

     total cpu time spent up to now is        1.4 secs

     total energy              =    -324.09060745 Ry
     estimated scf accuracy    <       0.00001026 Ry

     iteration #  7     ecut=    65.00 Ry     beta= 0.70
     Davidson diagonalization with overlap
     ethr =  5.70E-08,  avg # of iterations =  1.1

     total cpu time spent up to now is        1.5 secs

     End of self-consistent calculation

          k = 0.0000 0.0000 0.0000 (  1261 PWs)   bands (ev):

     5.1590   9.4685  12.3780  12.4725  12.4725  12.8164  12.8164  13.2150
    13.2150  14.0057  14.3918  14.3918  21.1793

          k = 0.0000 0.0000 0.1024 (  1261 PWs)   bands (ev):

     5.4394   9.3317  12.2965  12.4064  12.4064  12.7370  12.7370  13.2048
    13.3870  13.3870  14.3748  14.3748  22.6122

          k = 0.0000 0.0000 0.2048 (  1232 PWs)   bands (ev):

     6.2477   8.6782  12.0983  12.1846  12.3500  12.3500  12.5621  12.5621
    13.7306  13.7306  14.2814  14.2814  25.7399

          k = 0.0000 0.0000-0.3072 (  1244 PWs)   bands (ev):

     7.4522   7.4522  11.9412  11.9412  12.4065  12.4065  12.4065  12.4065
    14.0602  14.0602  14.0602  14.0602  29.5205

          k = 0.0000 0.1925 0.0000 (  1267 PWs)   bands (ev):

     6.1253  10.0374  11.8730  11.9721  12.5414  12.9408  12.9471  12.9486
    13.0520  13.2364  14.4946  17.2271  21.3193

          k = 0.0000 0.1925 0.1024 (  1265 PWs)   bands (ev):

     6.3873   9.9628  11.6831  11.9127  12.4085  12.7480  12.7687  13.1060
    13.3110  13.3697  14.4515  16.2495  23.0404

          k = 0.0000 0.1925 0.2048 (  1258 PWs)   bands (ev):

     7.1397   9.3990  11.4086  11.9888  12.0757  12.5853  12.6916  12.9456
    13.6697  13.8093  14.3012  15.0883  26.3408

          k = 0.0000 0.1925-0.3072 (  1258 PWs)   bands (ev):

     8.2561   8.2561  11.6111  11.6111  12.2974  12.2974  12.7733  12.7733
    14.0286  14.0286  14.3505  14.3505  30.1551

          k = 0.0000 0.3849 0.0000 (  1272 PWs)   bands (ev):

     8.4959  10.3773  10.7029  11.6433  12.4971  12.5116  12.6305  14.0126
    14.0957  14.1660  14.6023  20.9647  21.5582

          k = 0.0000 0.3849 0.1024 (  1261 PWs)   bands (ev):

     8.6296  10.3638  10.7260  11.5763  12.3967  12.5961  12.9019  14.0246
    14.0584  14.0713  14.5473  18.6538  23.7642

          k = 0.0000 0.3849 0.2048 (  1264 PWs)   bands (ev):

     8.9976  10.0485  10.9445  11.5229  12.4389  12.8757  13.0894  13.7147
    14.1483  14.2013  14.4247  16.5335  24.9120

          k = 0.0000 0.3849-0.3072 (  1260 PWs)   bands (ev):

     9.5139   9.5139  11.2872  11.2872  12.8000  12.8000  13.2813  13.2813
    14.2818  14.2818  15.0231  15.0231  26.0120

          k = 0.0000-0.5774 0.0000 (  1268 PWs)   bands (ev):

     9.8724  10.0042  10.2901  12.0589  12.3032  12.4273  12.8144  14.5765
    14.6314  14.7342  16.1952  18.1570  24.2422

          k = 0.0000-0.5774 0.1024 (  1266 PWs)   bands (ev):

     9.6279  10.0420  10.7375  11.3393  12.4306  12.8022  13.4013  14.4071
    14.6189  14.7259  15.9074  17.9412  23.4492

          k = 0.0000-0.5774 0.2048 (  1272 PWs)   bands (ev):

     9.5199   9.9644  10.9635  11.1808  12.7934  13.0485  13.9245  14.5875
    14.6400  14.7031  15.1924  17.2398  22.5046

          k = 0.0000-0.5774-0.3072 (  1276 PWs)   bands (ev):

     9.6736   9.6736  11.1121  11.1121  13.3294  13.3294  13.9193  13.9193
    14.6716  14.6716  16.1011  16.1011  22.1429

          k = 0.1667 0.2887 0.0000 (  1264 PWs)   bands (ev):

     7.8552  10.7006  11.0336  11.2876  12.3443  12.4586  12.9409  13.2494
    13.8439  14.2166  14.5076  19.9557  21.8127

          k = 0.1667 0.2887 0.1024 (  1264 PWs)   bands (ev):

     8.0573  10.7572  10.8758  11.3493  12.2765  12.4755  12.8255  13.3469
    13.9677  14.0592  14.5493  18.1501  24.1221

          k = 0.1667 0.2887 0.2048 (  1271 PWs)   bands (ev):

     8.6222  10.2272  11.1070  11.5156  12.0463  12.3191  12.8544  13.4617
    14.0276  14.1834  14.5452  16.2325  27.4712

          k = 0.1667 0.2887-0.3072 (  1268 PWs)   bands (ev):

     9.4185   9.4185  11.4687  11.4687  12.0090  12.0090  13.1543  13.1543
    14.3454  14.3454  14.8993  14.8993  29.4027

          k = 0.1667 0.4811 0.0000 (  1269 PWs)   bands (ev):

     9.9830  10.4752  10.5058  11.3883  12.1098  12.4721  12.8199  14.0499
    14.4925  14.5655  16.0612  20.5038  23.8052

          k = 0.1667 0.4811 0.1024 (  1275 PWs)   bands (ev):

     9.9041  10.5238  10.6935  11.3069  12.1458  12.5414  12.8928  14.0368
    14.2767  14.6321  16.1252  19.8938  22.7303

          k = 0.1667 0.4811 0.2048 (  1282 PWs)   bands (ev):

     9.9055  10.3739  10.9874  11.5426  12.0052  12.6290  13.1198  13.7137
    14.2398  14.7138  16.3566  18.3686  22.8463

          k = 0.1667 0.4811-0.3072 (  1266 PWs)   bands (ev):

    10.0840  10.0840  11.3731  11.3731  12.3467  12.3467  13.3389  13.3389
    14.5656  14.5656  17.0417  17.0417  23.7015

          k = 0.3333 0.5774 0.0000 (  1290 PWs)   bands (ev):

    10.5158  10.8141  10.8141  11.0642  12.0925  12.0925  13.1325  14.2621
    14.2621  14.3804  19.2391  20.0856  20.0856

          k = 0.3333 0.5774 0.1024 (  1278 PWs)   bands (ev):

    10.6055  10.8569  10.8569  11.0876  12.0434  12.0434  13.1067  14.1264
    14.3079  14.3079  19.6470  20.1477  20.1477

          k = 0.3333 0.5774 0.2048 (  1284 PWs)   bands (ev):

    10.8283  10.9481  10.9481  11.1163  11.9454  11.9454  13.0831  13.6117
    14.3938  14.3938  20.3013  20.3013  20.6705

          k = 0.3333 0.5774-0.3072 (  1290 PWs)   bands (ev):

    10.9976  10.9976  11.0435  11.0435  11.8954  11.8954  13.2130  13.2130
    14.4343  14.4343  20.3997  20.3997  22.0548

     the Fermi energy is    14.2495 ev

!    total energy              =    -324.09060815 Ry
     total all-electron energy =     -5573.777961 Ry
     estimated scf accuracy    <       0.00000051 Ry
     smearing contrib. (-TS)   =      -0.01298947 Ry
     internal energy E=F+TS    =    -324.07761868 Ry

     The total energy is F=E-TS. E is the sum of the following terms:
     one-electron contribution =       0.92675389 Ry
     hartree contribution      =      25.95246399 Ry
     xc contribution           =     -65.21038192 Ry
     ewald contribution        =    -112.64113270 Ry
     one-center paw contrib.   =    -173.10532194 Ry

     convergence has been achieved in   7 iterations

     Forces acting on atoms (cartesian axes, Ry/au):

     atom    1 type  1   force =     0.00000000   -0.00000000    0.00000000
     atom    2 type  1   force =    -0.00000000   -0.00000000    0.00000000
     The non-local contrib.  to forces
     atom    1 type  1   force =     0.00000000    0.00000000    0.00000000
     atom    2 type  1   force =    -0.00000000   -0.00000000    0.00000000
     The ionic contribution  to forces
     atom    1 type  1   force =    -0.00000000    0.00000000   -0.00000000
     atom    2 type  1   force =    -0.00000000    0.00000000    0.00000000
     The local contribution  to forces
     atom    1 type  1   force =    -0.00000000    0.00000000   -0.00000000
     atom    2 type  1   force =     0.00000000   -0.00000000    0.00000000
     The core correction contribution to forces
     atom    1 type  1   force =    -0.00000000    0.00000000    0.00000000
     atom    2 type  1   force =     0.00000000   -0.00000000   -0.00000000
     The Hubbard contrib.    to forces
     atom    1 type  1   force =     0.00000000    0.00000000    0.00000000
     atom    2 type  1   force =     0.00000000    0.00000000    0.00000000
     The SCF correction term to forces
     atom    1 type  1   force =    -0.00000000   -0.00000000    0.00000000
     atom    2 type  1   force =    -0.00000000    0.00000000    0.00000000

     Total force =     0.000000     Total SCF correction =     0.000000


     Computing stress (Cartesian axis) and pressure

          total   stress  (Ry/bohr**3)                   (kbar)     P=      -40.17
  -0.00016055   0.00000000   0.00000000          -23.62        0.00        0.00
   0.00000000  -0.00016055   0.00000000            0.00      -23.62        0.00
  -0.00000000  -0.00000000  -0.00049821           -0.00       -0.00      -73.29


     Writing all to output data dir ./tmp/scf.save/
 
     init_run     :      0.08s CPU      0.14s WALL (       1 calls)
     electrons    :      0.97s CPU      1.06s WALL (       1 calls)
     forces       :      0.01s CPU      0.01s WALL (       1 calls)
     stress       :      0.04s CPU      0.04s WALL (       1 calls)

     Called by init_run:
     wfcinit      :      0.02s CPU      0.03s WALL (       1 calls)
     potinit      :      0.03s CPU      0.05s WALL (       1 calls)
     hinit0       :      0.02s CPU      0.06s WALL (       1 calls)

     Called by electrons:
     c_bands      :      0.62s CPU      0.66s WALL (       8 calls)
     sum_band     :      0.08s CPU      0.09s WALL (       8 calls)
     v_of_rho     :      0.00s CPU      0.00s WALL (       8 calls)
     newd         :      0.01s CPU      0.02s WALL (       8 calls)
     PAW_pot      :      0.28s CPU      0.33s WALL (       8 calls)
     mix_rho      :      0.00s CPU      0.00s WALL (       8 calls)

     Called by c_bands:
     init_us_2    :      0.01s CPU      0.01s WALL (     532 calls)
     init_us_2:cp :      0.01s CPU      0.01s WALL (     532 calls)
     cegterg      :      0.50s CPU      0.53s WALL (     224 calls)

     Called by *egterg:
     cdiaghg      :      0.11s CPU      0.12s WALL (     846 calls)
     h_psi        :      0.36s CPU      0.39s WALL (     902 calls)
     s_psi        :      0.01s CPU      0.01s WALL (     902 calls)
     g_psi        :      0.00s CPU      0.00s WALL (     650 calls)

     Called by h_psi:
     h_psi:calbec :      0.01s CPU      0.01s WALL (     902 calls)
     vloc_psi     :      0.34s CPU      0.37s WALL (     902 calls)
     add_vuspsi   :      0.01s CPU      0.01s WALL (     902 calls)

     General routines
     calbec       :      0.02s CPU      0.02s WALL (    1266 calls)
     fft          :      0.01s CPU      0.04s WALL (     114 calls)
     ffts         :      0.00s CPU      0.00s WALL (       8 calls)
     fftw         :      0.36s CPU      0.39s WALL (   20888 calls)
 
     Parallel routines
 
     PWSCF        :      1.27s CPU      1.55s WALL

 
   This run was terminated on:  13:29:21  30May2025            

=------------------------------------------------------------------------------=
   JOB DONE.
=------------------------------------------------------------------------------=
