
     Program PWSCF v.7.2 starts on 23Jul2025 at  9:29:10 

     This program is part of the open-source Quantum ESPRESSO suite
     for quantum simulation of materials; please cite
         "P. Giannozzi et al., J. Phys.:Condens. Matter 21 395502 (2009);
         "P. Giannozzi et al., J. Phys.:Condens. Matter 29 465901 (2017);
         "P. Giannozzi et al., J. Chem. Phys. 152 154105 (2020);
          URL http://www.quantum-espresso.org", 
     in publications or presentations arising from this work. More details at
     http://www.quantum-espresso.org/quote

     Parallel version (MPI), running on    16 processors

     MPI processes distributed on     1 nodes
     15318 MiB available memory on the printing compute node when the environment starts
 
     Waiting for input...
     Reading input from standard input

     Current dimensions of program PWSCF are:
     Max number of different atomic species (ntypx) = 10
     Max number of k-points (npk) =  40000
     Max angular momentum in pseudopotentials (lmaxx) =  4
     file Co.pbe-n-kjpaw_psl.1.0.0.UPF: wavefunction(s)  4S 3D renormalized
     Message from routine setup:
     using ibrav=0 with symmetry is DISCOURAGED, use correct ibrav instead
 
     R & G space division:  proc/nbgrp/npool/nimage =      16
     Subspace diagonalization in iterative solution of the eigenvalue problem:
     a serial algorithm will be used

 
     Parallelization info
     --------------------
     sticks:   dense  smooth     PW     G-vecs:    dense   smooth      PW
     Min          64      26      7                11526     2918     495
     Max          65      27      8                11555     2931     530
     Sum        1027     421    121               184537    46767    8197
 
     Using Slab Decomposition
 


     bravais-lattice index     =            0
     lattice parameter (alat)  =       4.6068  a.u.
     unit-cell volume          =     589.3972 (a.u.)^3
     number of atoms/cell      =            2
     number of atomic types    =            1
     number of electrons       =        18.00
     number of Kohn-Sham states=           13
     kinetic-energy cutoff     =      70.0000  Ry
     charge density cutoff     =     700.0000  Ry
     scf convergence threshold =      1.0E-06
     mixing beta               =       0.7000
     number of iterations used =            8  plain     mixing
     energy convergence thresh.=      1.0E-04
     force convergence thresh. =      1.0E-03
     Exchange-correlation= SLA  PW   PBX  PBC
                           (   1   4   3   4   0   0   0)
     nstep                     =          100


     celldm(1)=   4.606803  celldm(2)=   0.000000  celldm(3)=   0.000000
     celldm(4)=   0.000000  celldm(5)=   0.000000  celldm(6)=   0.000000

     crystal axes: (cart. coord. in units of alat)
               a(1) = (   1.000000   0.000000   0.000000 )  
               a(2) = (   0.500000   0.866025   0.000000 )  
               a(3) = (   0.000000   0.000000   6.961110 )  

     reciprocal axes: (cart. coord. in units 2 pi/alat)
               b(1) = (  1.000000 -0.577350  0.000000 )  
               b(2) = (  0.000000  1.154701  0.000000 )  
               b(3) = (  0.000000  0.000000  0.143655 )  


     PseudoPot. # 1 for Co read from file:
     /shared/ESPRESSO/PSLIBRARY/1.0.0/pbe/PSEUDOPOTENTIALS/Co.pbe-n-kjpaw_psl.1.0.0.UPF
     MD5 check sum: 17e7ab8db721b244d1352252ea6cb8e7
     Pseudo is Projector augmented-wave + core cor, Zval =  9.0
     Generated using "atomic" code by A. Dal Corso  (Quantum ESPRESSO distribution)
     Shape of augmentation charge: PSQ
     Using radial grid of 1193 points,  6 beta functions with: 
                l(1) =   0
                l(2) =   0
                l(3) =   1
                l(4) =   1
                l(5) =   2
                l(6) =   2
     Q(r) pseudized with 0 coefficients 


     atomic species   valence    mass     pseudopotential
        Co             9.00    58.93320     Co( 1.00)

     Starting magnetic structure 
     atomic species   magnetization
        Co           0.800

     12 Sym. Ops., with inversion, found ( 6 have fractional translation)



   Cartesian axes

     site n.     atom                  positions (alat units)
         1           Co  tau(   1) = (   1.0000000   0.5773503   3.0765251  )
         2           Co  tau(   2) = (   0.0000000   0.0000000   3.8845844  )

     --------------------------------------------
     DFT-D3 Dispersion Correction (3-body terms):
     --------------------------------------------
       Reference C6 values for interpolation: 

         atom   Coordination number   C6
         Co         0.000          1065.56
         Co         1.715           373.09
         Co         2.926           296.13
         Co         7.779           236.57

       Values used:

         atom   Coordination number  R0_AB[au]  C6      C8
         Co         7.538            3.243    236.57  20800.86
         Co         7.538            3.243    236.57  20800.86

         Molecular C6 ( Ry / a.u.^6 ) =       946.29


     number of k points=    19  Gaussian smearing, width (Ry)=  0.0073
                       cart. coord. in units 2pi/alat
        k(    1) = (   0.0000000   0.0000000   0.0000000), wk =   0.0069444
        k(    2) = (   0.0000000   0.0962250   0.0000000), wk =   0.0416667
        k(    3) = (   0.0000000   0.1924501   0.0000000), wk =   0.0416667
        k(    4) = (   0.0000000   0.2886751   0.0000000), wk =   0.0416667
        k(    5) = (   0.0000000   0.3849002   0.0000000), wk =   0.0416667
        k(    6) = (   0.0000000   0.4811252   0.0000000), wk =   0.0416667
        k(    7) = (   0.0000000  -0.5773503   0.0000000), wk =   0.0208333
        k(    8) = (   0.0833333   0.1443376   0.0000000), wk =   0.0416667
        k(    9) = (   0.0833333   0.2405626   0.0000000), wk =   0.0833333
        k(   10) = (   0.0833333   0.3367877   0.0000000), wk =   0.0833333
        k(   11) = (   0.0833333   0.4330127   0.0000000), wk =   0.0833333
        k(   12) = (   0.0833333  -0.6254628   0.0000000), wk =   0.0833333
        k(   13) = (   0.1666667   0.2886751   0.0000000), wk =   0.0416667
        k(   14) = (   0.1666667   0.3849002   0.0000000), wk =   0.0833333
        k(   15) = (   0.1666667  -0.6735753   0.0000000), wk =   0.0833333
        k(   16) = (   0.1666667  -0.5773503   0.0000000), wk =   0.0416667
        k(   17) = (   0.2500000  -0.7216878   0.0000000), wk =   0.0416667
        k(   18) = (   0.2500000  -0.6254628   0.0000000), wk =   0.0833333
        k(   19) = (   0.3333333  -0.5773503   0.0000000), wk =   0.0138889

     Dense  grid:   184537 G-vectors     FFT dimensions: (  45,  45, 288)

     Smooth grid:    46767 G-vectors     FFT dimensions: (  27,  27, 180)

     Estimated max dynamical RAM per process >      53.00 MB

     Estimated total dynamical RAM >     848.00 MB
     Generating pointlists ...
     new r_m :   0.4097 (alat units)  1.8872 (a.u.) for type    1

     Initial potential from superposition of free atoms

     starting charge      17.9994, renormalised to      18.0000

     negative rho (up, down):  1.191E-05 1.323E-06
     Starting wfcs are   18 randomized atomic wfcs
     Checking if some PAW data can be deallocated... 

     total cpu time spent up to now is        0.7 secs

     Self-consistent Calculation

     iteration #  1     ecut=    70.00 Ry     beta= 0.70
     Davidson diagonalization with overlap
     ethr =  1.00E-02,  avg # of iterations =  2.4

     total cpu time spent up to now is        1.3 secs

     total energy              =    -323.79109336 Ry
     estimated scf accuracy    <       0.80430242 Ry

     total magnetization       =     5.25 Bohr mag/cell
     absolute magnetization    =     5.25 Bohr mag/cell

     iteration #  2     ecut=    70.00 Ry     beta= 0.70
     Davidson diagonalization with overlap
     ethr =  4.47E-03,  avg # of iterations =  2.1

     total cpu time spent up to now is        1.8 secs

     total energy              =    -323.76345894 Ry
     estimated scf accuracy    <       0.62574293 Ry

     total magnetization       =     4.42 Bohr mag/cell
     absolute magnetization    =     4.51 Bohr mag/cell

     iteration #  3     ecut=    70.00 Ry     beta= 0.70
     Davidson diagonalization with overlap
     ethr =  3.48E-03,  avg # of iterations =  2.0

     negative rho (up, down):  4.784E-08 1.009E-11

     total cpu time spent up to now is        2.4 secs

     total energy              =    -323.96654862 Ry
     estimated scf accuracy    <       0.57199918 Ry

     total magnetization       =     3.59 Bohr mag/cell
     absolute magnetization    =     3.73 Bohr mag/cell

     iteration #  4     ecut=    70.00 Ry     beta= 0.70
     Davidson diagonalization with overlap
     ethr =  3.18E-03,  avg # of iterations =  1.2

     negative rho (up, down):  3.877E-07 8.169E-11

     total cpu time spent up to now is        2.9 secs

     total energy              =    -324.02578103 Ry
     estimated scf accuracy    <       0.03949094 Ry

     total magnetization       =     3.44 Bohr mag/cell
     absolute magnetization    =     3.75 Bohr mag/cell

     iteration #  5     ecut=    70.00 Ry     beta= 0.70
     Davidson diagonalization with overlap
     ethr =  2.19E-04,  avg # of iterations =  2.4

     negative rho (up, down):  2.222E-06 1.130E-07

     total cpu time spent up to now is        3.4 secs

     total energy              =    -324.03637820 Ry
     estimated scf accuracy    <       0.00068605 Ry

     total magnetization       =     3.25 Bohr mag/cell
     absolute magnetization    =     3.66 Bohr mag/cell

     iteration #  6     ecut=    70.00 Ry     beta= 0.70
     Davidson diagonalization with overlap
     c_bands:  1 eigenvalues not converged
     ethr =  3.81E-06,  avg # of iterations =  8.3

     negative rho (up, down):  2.544E-06 3.340E-07

     total cpu time spent up to now is        4.2 secs

     total energy              =    -324.03750773 Ry
     estimated scf accuracy    <       0.00048444 Ry

     total magnetization       =     3.23 Bohr mag/cell
     absolute magnetization    =     3.66 Bohr mag/cell

     iteration #  7     ecut=    70.00 Ry     beta= 0.70
     Davidson diagonalization with overlap
     ethr =  2.69E-06,  avg # of iterations =  2.0

     negative rho (up, down):  3.175E-06 1.032E-06

     total cpu time spent up to now is        4.8 secs

     total energy              =    -324.03759156 Ry
     estimated scf accuracy    <       0.00000824 Ry

     total magnetization       =     3.22 Bohr mag/cell
     absolute magnetization    =     3.65 Bohr mag/cell

     iteration #  8     ecut=    70.00 Ry     beta= 0.70
     Davidson diagonalization with overlap
     ethr =  4.58E-08,  avg # of iterations =  3.8

     negative rho (up, down):  3.020E-06 9.268E-07

     total cpu time spent up to now is        5.3 secs

     total energy              =    -324.03759770 Ry
     estimated scf accuracy    <       0.00000409 Ry

     total magnetization       =     3.21 Bohr mag/cell
     absolute magnetization    =     3.64 Bohr mag/cell

     iteration #  9     ecut=    70.00 Ry     beta= 0.70
     Davidson diagonalization with overlap
     ethr =  2.27E-08,  avg # of iterations =  1.7

     negative rho (up, down):  3.000E-06 8.889E-07
 
     Magnetic moment per site  (integrated on atomic sphere of radius R)
     atom   1 (R=0.410)  charge=  7.4516  magn=  1.6965
     atom   2 (R=0.410)  charge=  7.4516  magn=  1.6965

     total cpu time spent up to now is        5.9 secs

     End of self-consistent calculation

 ------ SPIN UP ------------


          k = 0.0000 0.0000 0.0000 (  5821 PWs)   bands (ev):

    -8.1327  -5.7593  -3.1245  -2.8015  -2.8015  -2.6477  -2.6477  -2.0754
    -1.7031  -1.7031  -1.1034  -1.1034   0.0018

          k = 0.0000 0.0962 0.0000 (  5795 PWs)   bands (ev):

    -7.8868  -5.5477  -3.1127  -2.9058  -2.7864  -2.6881  -2.5453  -2.2408
    -1.7373  -1.5864  -1.3665  -1.0985   0.6890

          k = 0.0000 0.1925 0.0000 (  5797 PWs)   bands (ev):

    -7.1942  -4.9974  -3.2718  -3.1671  -2.9047  -2.4758  -2.4033  -2.2728
    -1.9876  -1.7720  -1.0920  -0.8195   1.9214

          k = 0.0000 0.2887 0.0000 (  5793 PWs)   bands (ev):

    -6.2447  -4.5032  -3.7389  -3.1533  -2.8702  -2.5951  -2.2760  -1.9996
    -1.8501  -1.5555  -1.0849  -0.0372   3.4142

          k = 0.0000 0.3849 0.0000 (  5834 PWs)   bands (ev):

    -5.4837  -4.5368  -4.1498  -3.1476  -2.4783  -2.3561  -2.1101  -1.5966
    -1.4296  -1.1224  -1.0159   1.0792   5.1594

          k = 0.0000 0.4811 0.0000 (  5844 PWs)   bands (ev):

    -5.1736  -4.7541  -4.4205  -3.2748  -2.4417  -2.0537  -1.6715  -1.2817
    -0.8053  -0.7267  -0.1784   2.4089   7.0254

          k = 0.0000-0.5774 0.0000 (  5856 PWs)   bands (ev):

    -5.0894  -4.8708  -4.5148  -3.3258  -2.4746  -1.9277  -1.5300  -1.2657
    -0.6795  -0.5783   1.1725   2.6908   6.9358

          k = 0.0833 0.1443 0.0000 (  5806 PWs)   bands (ev):

    -7.4153  -5.1583  -3.1680  -3.0379  -3.0279  -2.5064  -2.3602  -2.3455
    -1.9894  -1.6498  -1.2228  -0.9137   1.5656

          k = 0.0833 0.2406 0.0000 (  5797 PWs)   bands (ev):

    -6.5739  -4.5573  -3.4974  -3.2845  -3.0687  -2.6530  -2.2807  -2.0020
    -1.9476  -1.5837  -1.1794  -0.2970   2.8640

          k = 0.0833 0.3368 0.0000 (  5821 PWs)   bands (ev):

    -5.6728  -4.3166  -3.9243  -3.1225  -2.9721  -2.6487  -2.2899  -1.8762
    -1.5245  -1.1307  -1.0682   0.6905   4.4586

          k = 0.0833 0.4330 0.0000 (  5840 PWs)   bands (ev):

    -5.1676  -4.5158  -4.2512  -3.1945  -2.5355  -2.3572  -1.9937  -1.5272
    -1.3521  -0.9199  -0.1926   2.0840   6.3091

          k = 0.0833-0.6255 0.0000 (  5835 PWs)   bands (ev):

    -5.0069  -4.7100  -4.4256  -3.2724  -2.5738  -2.0322  -1.7042  -1.3434
    -1.0233  -0.7890   1.2855   3.1524   6.8668

          k = 0.1667 0.2887 0.0000 (  5822 PWs)   bands (ev):

    -5.7314  -4.0403  -3.7034  -3.4848  -3.2055  -2.8350  -2.3643  -1.8177
    -1.5855  -1.1947  -1.0183   0.6100   4.2254

          k = 0.1667 0.3849 0.0000 (  5824 PWs)   bands (ev):

    -5.0674  -4.0653  -3.9872  -3.1542  -3.0496  -2.8050  -2.4513  -1.7008
    -1.5101  -0.9893  -0.0237   2.0154   5.9266

          k = 0.1667-0.6736 0.0000 (  5846 PWs)   bands (ev):

    -4.8030  -4.3035  -4.1770  -3.1585  -2.7693  -2.4998  -2.2298  -1.5236
    -1.4642  -0.9245   1.4747   3.7018   7.7227

          k = 0.1667-0.5774 0.0000 (  5852 PWs)   bands (ev):

    -4.7372  -4.4091  -4.2465  -3.1613  -2.8345  -2.2209  -2.1495  -1.5218
    -1.1197  -1.1137   2.9289   4.0359   7.4001

          k = 0.2500-0.7217 0.0000 (  5860 PWs)   bands (ev):

    -4.6805  -3.9749  -3.9681  -3.1167  -2.9432  -2.7981  -2.6397  -1.6507
    -1.5487  -0.9373   1.5495   3.8541   7.7439

          k = 0.2500-0.6255 0.0000 (  5874 PWs)   bands (ev):

    -4.5119  -4.0292  -3.9703  -3.0622  -2.9592  -2.6998  -2.5606  -1.6882
    -1.3813  -1.0974   3.5645   5.4779   7.4754

          k = 0.3333-0.5774 0.0000 (  5850 PWs)   bands (ev):

    -4.3845  -3.8807  -3.8807  -3.0189  -2.9076  -2.9076  -2.7193  -1.7382
    -1.2846  -1.2846   5.7588   6.2063   6.2063

 ------ SPIN DOWN ----------


          k = 0.0000 0.0000 0.0000 (  5821 PWs)   bands (ev):

    -8.1614  -5.2689  -1.5316  -1.2248  -1.1774  -1.1774  -1.0654  -1.0654
    -0.0425   0.2190   0.2190   0.8115   0.8115

          k = 0.0000 0.0962 0.0000 (  5795 PWs)   bands (ev):

    -7.9138  -5.0334  -1.5364  -1.4461  -1.2910  -1.0516  -0.9588  -0.9531
    -0.4348   0.1741   0.2787   0.8191   1.4496

          k = 0.0000 0.1925 0.0000 (  5797 PWs)   bands (ev):

    -7.2047  -4.3871  -1.8687  -1.6775  -1.4992  -0.9886  -0.7399  -0.6323
    -0.6269   0.1061   0.5466   0.8273   2.5510

          k = 0.0000 0.2887 0.0000 (  5793 PWs)   bands (ev):

    -6.1610  -3.6260  -2.3811  -1.7859  -1.6150  -1.1582  -0.5493  -0.3697
    -0.1174   0.2494   0.8250   1.0596   3.9011

          k = 0.0000 0.3849 0.0000 (  5834 PWs)   bands (ev):

    -5.0814  -3.4178  -2.8420  -1.6146  -1.2472  -1.0974  -0.6006   0.0950
     0.4206   0.6752   0.8482   1.8223   5.5227

          k = 0.0000 0.4811 0.0000 (  5844 PWs)   bands (ev):

    -4.3490  -3.6444  -3.1524  -1.6996  -0.6878  -0.6219  -0.4438   0.6548
     0.8493   1.0335   1.0969   2.7977   7.3186

          k = 0.0000-0.5774 0.0000 (  5856 PWs)   bands (ev):

    -3.9806  -3.9116  -3.2613  -1.7467  -0.7232  -0.4121  -0.1041   0.6749
     1.1769   1.2621   1.6409   3.1323   7.5598

          k = 0.0833 0.1443 0.0000 (  5806 PWs)   bands (ev):

    -7.4343  -4.5873  -1.6933  -1.6290  -1.5232  -0.9550  -0.7763  -0.7503
    -0.6510   0.1936   0.3556   0.8494   2.2350

          k = 0.0833 0.2406 0.0000 (  5797 PWs)   bands (ev):

    -6.5474  -3.8236  -2.1098  -1.9034  -1.7171  -1.0861  -0.6197  -0.4557
    -0.2711   0.2523   0.5935   1.0144   3.4049

          k = 0.0833 0.3368 0.0000 (  5821 PWs)   bands (ev):

    -5.4514  -3.2545  -2.5890  -1.8093  -1.7180  -1.2430  -0.5632  -0.1992
     0.2913   0.6113   0.7568   1.6136   4.8742

          k = 0.0833 0.4330 0.0000 (  5840 PWs)   bands (ev):

    -4.5272  -3.3687  -2.9633  -1.6419  -1.1023  -1.0469  -0.6515   0.2298
     0.5628   0.8691   1.3244   2.6644   6.6237

          k = 0.0833-0.6255 0.0000 (  5835 PWs)   bands (ev):

    -4.0041  -3.6592  -3.1650  -1.6897  -0.8738  -0.5846  -0.4226   0.5682
     0.7337   1.0169   2.1770   3.5982   7.5580

          k = 0.1667 0.2887 0.0000 (  5822 PWs)   bands (ev):

    -5.5802  -3.0516  -2.3251  -2.2802  -1.9185  -1.2234  -0.6347  -0.2086
     0.2428   0.5702   0.7268   1.6023   4.6651

          k = 0.1667 0.3849 0.0000 (  5824 PWs)   bands (ev):

    -4.5802  -2.8496  -2.6845  -1.9399  -1.7994  -1.3308  -0.7595   0.0338
     0.3651   0.8172   1.5072   2.7254   6.2751

          k = 0.1667-0.6736 0.0000 (  5846 PWs)   bands (ev):

    -3.9032  -3.1733  -2.9067  -1.6082  -1.2556  -1.2192  -0.8705   0.3481
     0.3686   0.9101   2.6092   4.2077   8.0954

          k = 0.1667-0.5774 0.0000 (  5852 PWs)   bands (ev):

    -3.6037  -3.4027  -2.9891  -1.5721  -1.2214  -0.8726  -0.8711   0.3691
     0.7063   0.7226   3.6548   4.6774   7.9666

          k = 0.2500-0.7217 0.0000 (  5860 PWs)   bands (ev):

    -3.8274  -2.7842  -2.6982  -1.7583  -1.7202  -1.3665  -1.0220   0.2206
     0.2594   0.9108   2.7439   4.4095   8.0420

          k = 0.2500-0.6255 0.0000 (  5874 PWs)   bands (ev):

    -3.3948  -2.9256  -2.7342  -1.5877  -1.4454  -1.3545  -1.1937   0.1891
     0.4733   0.7629   4.4040   5.9832   8.0657

          k = 0.3333-0.5774 0.0000 (  5850 PWs)   bands (ev):

    -3.2038  -2.7085  -2.7085  -1.6821  -1.4211  -1.3861  -1.3861   0.1386
     0.5846   0.5846   6.4170   6.8010   6.8010

     the Fermi energy is    -0.2937 ev

!    total energy              =    -324.03759885 Ry
     total all-electron energy =     -5573.724951 Ry
     estimated scf accuracy    <       0.00000013 Ry
     smearing contrib. (-TS)   =      -0.00066536 Ry
     internal energy E=F+TS    =    -324.03693349 Ry

     The total energy is F=E-TS. E is the sum of the following terms:
     one-electron contribution =    -727.73587584 Ry
     hartree contribution      =     380.74900686 Ry
     xc contribution           =     -65.23491560 Ry
     ewald contribution        =     261.30783222 Ry
     DFT-D3 Dispersion         =      -0.02203132 Ry
     one-center paw contrib.   =    -173.10094982 Ry

     total magnetization       =     3.21 Bohr mag/cell
     absolute magnetization    =     3.65 Bohr mag/cell

     convergence has been achieved in   9 iterations

     negative rho (up, down):  3.000E-06 8.889E-07

     Forces acting on atoms (cartesian axes, Ry/au):

     atom    1 type  1   force =     0.00000000    0.00000000    0.00631752
     atom    2 type  1   force =     0.00000000    0.00000000   -0.00631752
     The non-local contrib.  to forces
     atom    1 type  1   force =    -0.00000000    0.00000000   -0.08004808
     atom    2 type  1   force =    -0.00000000    0.00000000    0.08004808
     The ionic contribution  to forces
     atom    1 type  1   force =    -0.00000000   -0.00000000  -42.06299048
     atom    2 type  1   force =     0.00000000    0.00000000   42.06299048
     The local contribution  to forces
     atom    1 type  1   force =    -0.00000000   -0.00000000   42.13378418
     atom    2 type  1   force =     0.00000000    0.00000000  -42.13378418
     The core correction contribution to forces
     atom    1 type  1   force =    -0.00000000   -0.00000000    0.01401385
     atom    2 type  1   force =     0.00000000    0.00000000   -0.01401385
     The Hubbard contrib.    to forces
     atom    1 type  1   force =     0.00000000    0.00000000    0.00000000
     atom    2 type  1   force =     0.00000000    0.00000000    0.00000000
     The SCF correction term to forces
     atom    1 type  1   force =     0.00000000    0.00000000    0.00100854
     atom    2 type  1   force =    -0.00000000    0.00000000   -0.00100854

     DFT-D3 dispersion contribution to forces:
     atom    1 type  1   force =     0.00000000    0.00000000    0.00054951
     atom    2 type  1   force =    -0.00000000   -0.00000000   -0.00054951

     Total force =     0.008934     Total SCF correction =     0.001426
     SCF correction compared to forces is large: reduce conv_thr to get better values


     Computing stress (Cartesian axis) and pressure


     negative rho (up, down):  3.000E-06 8.889E-07
          total   stress  (Ry/bohr**3)                   (kbar)     P=      -11.59
  -0.00009655   0.00000000   0.00000000          -14.20        0.00        0.00
   0.00000000  -0.00009655   0.00000000            0.00      -14.20        0.00
  -0.00000000  -0.00000000  -0.00004326           -0.00       -0.00       -6.36


     BFGS Geometry Optimization
     Energy error            =      0.0E+00 Ry
     Gradient error          =      6.3E-03 Ry/Bohr

     number of scf cycles    =   1
     number of bfgs steps    =   0

     energy             new  =    -324.0375988474 Ry

     new trust radius        =       0.0063175180 bohr
     new conv_thr            =       0.0000010000 Ry


ATOMIC_POSITIONS (crystal)
Co            0.6666666667        0.6666666667        0.4421560169
Co            0.0000000000        0.0000000000        0.5578439831



     Writing config-only to output data dir ./tmp/scf.save/
     NEW-OLD atomic charge density approx. for the potential

     negative rho (up, down):  3.168E-06 9.926E-07
     Generating pointlists ...

     total cpu time spent up to now is        7.0 secs

     Self-consistent Calculation

     iteration #  1     ecut=    70.00 Ry     beta= 0.70
     Davidson diagonalization with overlap
     ethr =  1.00E-06,  avg # of iterations =  4.1

     negative rho (up, down):  3.075E-06 9.163E-07

     total cpu time spent up to now is        7.7 secs

     total energy              =    -324.03764331 Ry
     estimated scf accuracy    <       0.00002670 Ry

     total magnetization       =     3.21 Bohr mag/cell
     absolute magnetization    =     3.64 Bohr mag/cell

     iteration #  2     ecut=    70.00 Ry     beta= 0.70
     Davidson diagonalization with overlap
     ethr =  1.48E-07,  avg # of iterations =  2.3

     negative rho (up, down):  3.072E-06 8.751E-07

     total cpu time spent up to now is        8.3 secs

     total energy              =    -324.03763704 Ry
     estimated scf accuracy    <       0.00012381 Ry

     total magnetization       =     3.22 Bohr mag/cell
     absolute magnetization    =     3.65 Bohr mag/cell

     iteration #  3     ecut=    70.00 Ry     beta= 0.70
     Davidson diagonalization with overlap
     ethr =  1.48E-07,  avg # of iterations =  2.1

     negative rho (up, down):  3.057E-06 8.807E-07

     total cpu time spent up to now is        8.9 secs

     total energy              =    -324.03765725 Ry
     estimated scf accuracy    <       0.00000532 Ry

     total magnetization       =     3.21 Bohr mag/cell
     absolute magnetization    =     3.64 Bohr mag/cell

     iteration #  4     ecut=    70.00 Ry     beta= 0.70
     Davidson diagonalization with overlap
     ethr =  2.96E-08,  avg # of iterations =  2.4

     negative rho (up, down):  3.028E-06 8.989E-07
 
     Magnetic moment per site  (integrated on atomic sphere of radius R)
     atom   1 (R=0.410)  charge=  7.4540  magn=  1.6938
     atom   2 (R=0.410)  charge=  7.4540  magn=  1.6938

     total cpu time spent up to now is        9.4 secs

     End of self-consistent calculation

 ------ SPIN UP ------------


          k = 0.0000 0.0000 0.0000 (  5821 PWs)   bands (ev):

    -8.1422  -5.7622  -3.1137  -2.8060  -2.8060  -2.6505  -2.6505  -2.0726
    -1.7035  -1.7035  -1.0947  -1.0947   0.0128

          k = 0.0000 0.0962 0.0000 (  5795 PWs)   bands (ev):

    -7.8964  -5.5510  -3.1040  -2.9096  -2.7901  -2.6927  -2.5485  -2.2378
    -1.7374  -1.5798  -1.3628  -1.0895   0.7005

          k = 0.0000 0.1925 0.0000 (  5797 PWs)   bands (ev):

    -7.2040  -5.0020  -3.2794  -3.1640  -2.9033  -2.4718  -2.4096  -2.2770
    -1.9796  -1.7700  -1.0823  -0.8134   1.9333

          k = 0.0000 0.2887 0.0000 (  5793 PWs)   bands (ev):

    -6.2551  -4.5090  -3.7472  -3.1517  -2.8701  -2.5912  -2.2848  -1.9907
    -1.8533  -1.5523  -1.0745  -0.0271   3.4259

          k = 0.0000 0.3849 0.0000 (  5834 PWs)   bands (ev):

    -5.4942  -4.5427  -4.1583  -3.1423  -2.4806  -2.3647  -2.1070  -1.5904
    -1.4296  -1.1204  -1.0075   1.0912   5.1704

          k = 0.0000 0.4811 0.0000 (  5844 PWs)   bands (ev):

    -5.1842  -4.7606  -4.4284  -3.2687  -2.4502  -2.0517  -1.6683  -1.2746
    -0.8047  -0.7238  -0.1773   2.4189   7.0339

          k = 0.0000-0.5774 0.0000 (  5856 PWs)   bands (ev):

    -5.1003  -4.8773  -4.5223  -3.3194  -2.4831  -1.9238  -1.5273  -1.2570
    -0.6800  -0.5758   1.1717   2.6976   6.9421

          k = 0.0833 0.1443 0.0000 (  5806 PWs)   bands (ev):

    -7.4251  -5.1624  -3.1697  -3.0439  -3.0229  -2.5080  -2.3649  -2.3444
    -1.9837  -1.6458  -1.2164  -0.9062   1.5774

          k = 0.0833 0.2406 0.0000 (  5797 PWs)   bands (ev):

    -6.5841  -4.5632  -3.5056  -3.2866  -3.0657  -2.6493  -2.2828  -2.0003
    -1.9483  -1.5796  -1.1702  -0.2877   2.8758

          k = 0.0833 0.3368 0.0000 (  5821 PWs)   bands (ev):

    -5.6836  -4.3229  -3.9332  -3.1194  -2.9755  -2.6471  -2.2933  -1.8685
    -1.5247  -1.1230  -1.0651   0.7019   4.4699

          k = 0.0833 0.4330 0.0000 (  5840 PWs)   bands (ev):

    -5.1784  -4.5222  -4.2597  -3.1894  -2.5422  -2.3601  -1.9918  -1.5208
    -1.3454  -0.9154  -0.1917   2.0948   6.3193

          k = 0.0833-0.6255 0.0000 (  5835 PWs)   bands (ev):

    -5.0180  -4.7168  -4.4333  -3.2663  -2.5819  -2.0300  -1.7036  -1.3347
    -1.0202  -0.7850   1.2851   3.1593   6.8715

          k = 0.1667 0.2887 0.0000 (  5822 PWs)   bands (ev):

    -5.7424  -4.0496  -3.7112  -3.4891  -3.2026  -2.8309  -2.3644  -1.8116
    -1.5846  -1.1873  -1.0163   0.6210   4.2368

          k = 0.1667 0.3849 0.0000 (  5824 PWs)   bands (ev):

    -5.0789  -4.0730  -3.9970  -3.1557  -3.0500  -2.8042  -2.4513  -1.6925
    -1.5027  -0.9847  -0.0227   2.0259   5.9374

          k = 0.1667-0.6736 0.0000 (  5846 PWs)   bands (ev):

    -4.8151  -4.3112  -4.1854  -3.1548  -2.7745  -2.5022  -2.2288  -1.5147
    -1.4560  -0.9187   1.4749   3.7101   7.7290

          k = 0.1667-0.5774 0.0000 (  5852 PWs)   bands (ev):

    -4.7498  -4.4168  -4.2543  -3.1558  -2.8413  -2.2193  -2.1519  -1.5128
    -1.1124  -1.1074   2.9277   4.0404   7.4081

          k = 0.2500-0.7217 0.0000 (  5860 PWs)   bands (ev):

    -4.6931  -3.9839  -3.9783  -3.1176  -2.9474  -2.7953  -2.6377  -1.6410
    -1.5404  -0.9311   1.5500   3.8630   7.7539

          k = 0.2500-0.6255 0.0000 (  5874 PWs)   bands (ev):

    -4.5258  -4.0386  -3.9798  -3.0638  -2.9586  -2.7008  -2.5589  -1.6776
    -1.3732  -1.0901   3.5644   5.4822   7.4792

          k = 0.3333-0.5774 0.0000 (  5850 PWs)   bands (ev):

    -4.3998  -3.8911  -3.8911  -3.0214  -2.9074  -2.9074  -2.7153  -1.7261
    -1.2768  -1.2768   5.7572   6.2074   6.2074

 ------ SPIN DOWN ----------


          k = 0.0000 0.0000 0.0000 (  5821 PWs)   bands (ev):

    -8.1701  -5.2692  -1.5185  -1.2282  -1.1818  -1.1818  -1.0703  -1.0703
    -0.0346   0.2163   0.2163   0.8159   0.8159

          k = 0.0000 0.0962 0.0000 (  5795 PWs)   bands (ev):

    -7.9225  -5.0340  -1.5257  -1.4540  -1.2934  -1.0563  -0.9585  -0.9585
    -0.4307   0.1718   0.2765   0.8240   1.4570

          k = 0.0000 0.1925 0.0000 (  5797 PWs)   bands (ev):

    -7.2135  -4.3888  -1.8775  -1.6791  -1.4955  -0.9850  -0.7481  -0.6372
    -0.6224   0.1060   0.5467   0.8331   2.5597

          k = 0.0000 0.2887 0.0000 (  5793 PWs)   bands (ev):

    -6.1704  -3.6298  -2.3913  -1.7893  -1.6145  -1.1533  -0.5626  -0.3628
    -0.1210   0.2525   0.8319   1.0641   3.9099

          k = 0.0000 0.3849 0.0000 (  5834 PWs)   bands (ev):

    -5.0918  -3.4239  -2.8528  -1.6115  -1.2519  -1.0949  -0.6142   0.1021
     0.4183   0.6777   0.8547   1.8314   5.5307

          k = 0.0000 0.4811 0.0000 (  5844 PWs)   bands (ev):

    -4.3602  -3.6527  -3.1627  -1.6941  -0.7012  -0.6219  -0.4467   0.6594
     0.8550   1.0344   1.0984   2.8086   7.3242

          k = 0.0000-0.5774 0.0000 (  5856 PWs)   bands (ev):

    -3.9927  -3.9201  -3.2712  -1.7406  -0.7365  -0.4112  -0.1064   0.6812
     1.1762   1.2634   1.6446   3.1429   7.5622

          k = 0.0833 0.1443 0.0000 (  5806 PWs)   bands (ev):

    -7.4431  -4.5886  -1.7033  -1.6296  -1.5179  -0.9523  -0.7802  -0.7569
    -0.6475   0.1935   0.3538   0.8551   2.2435

          k = 0.0833 0.2406 0.0000 (  5797 PWs)   bands (ev):

    -6.5565  -3.8265  -2.1200  -1.9094  -1.7137  -1.0819  -0.6182  -0.4615
    -0.2748   0.2554   0.5960   1.0206   3.4137

          k = 0.0833 0.3368 0.0000 (  5821 PWs)   bands (ev):

    -5.4614  -3.2598  -2.6001  -1.8142  -1.7184  -1.2384  -0.5722  -0.1939
     0.2890   0.6146   0.7621   1.6214   4.8825

          k = 0.0833 0.4330 0.0000 (  5840 PWs)   bands (ev):

    -4.5385  -3.3763  -2.9742  -1.6388  -1.1067  -1.0490  -0.6596   0.2363
     0.5671   0.8718   1.3261   2.6735   6.6309

          k = 0.0833-0.6255 0.0000 (  5835 PWs)   bands (ev):

    -4.0159  -3.6686  -3.1750  -1.6842  -0.8860  -0.5855  -0.4255   0.5743
     0.7384   1.0207   2.1781   3.6067   7.5603

          k = 0.1667 0.2887 0.0000 (  5822 PWs)   bands (ev):

    -5.5902  -3.0569  -2.3341  -2.2902  -1.9168  -1.2193  -0.6361  -0.2086
     0.2410   0.5740   0.7303   1.6100   4.6734

          k = 0.1667 0.3849 0.0000 (  5824 PWs)   bands (ev):

    -4.5916  -2.8576  -2.6968  -1.9450  -1.8012  -1.3267  -0.7640   0.0396
     0.3698   0.8199   1.5090   2.7332   6.2827

          k = 0.1667-0.6736 0.0000 (  5846 PWs)   bands (ev):

    -3.9161  -3.1831  -2.9174  -1.6076  -1.2605  -1.2221  -0.8731   0.3548
     0.3757   0.9150   2.6102   4.2147   8.1017

          k = 0.1667-0.5774 0.0000 (  5852 PWs)   bands (ev):

    -3.6179  -3.4123  -2.9992  -1.5673  -1.2325  -0.8742  -0.8732   0.3759
     0.7141   0.7277   3.6550   4.6834   7.9713

          k = 0.2500-0.7217 0.0000 (  5860 PWs)   bands (ev):

    -3.8411  -2.7951  -2.7106  -1.7617  -1.7245  -1.3632  -1.0239   0.2281
     0.2661   0.9159   2.7450   4.4162   8.0490

          k = 0.2500-0.6255 0.0000 (  5874 PWs)   bands (ev):

    -3.4105  -2.9372  -2.7459  -1.5945  -1.4454  -1.3542  -1.1940   0.1985
     0.4803   0.7692   4.4049   5.9877   8.0688

          k = 0.3333-0.5774 0.0000 (  5850 PWs)   bands (ev):

    -3.2211  -2.7214  -2.7214  -1.6877  -1.4188  -1.3867  -1.3867   0.1504
     0.5909   0.5909   6.4169   6.8028   6.8028

     the Fermi energy is    -0.2912 ev

!    total energy              =    -324.03765832 Ry
     total all-electron energy =     -5573.725011 Ry
     estimated scf accuracy    <       0.00000038 Ry
     smearing contrib. (-TS)   =      -0.00066583 Ry
     internal energy E=F+TS    =    -324.03699249 Ry

     The total energy is F=E-TS. E is the sum of the following terms:
     one-electron contribution =    -728.80567934 Ry
     hartree contribution      =     381.28979424 Ry
     xc contribution           =     -65.23746649 Ry
     ewald contribution        =     261.83951802 Ry
     DFT-D3 Dispersion         =      -0.02203827 Ry
     one-center paw contrib.   =    -173.10112064 Ry

     total magnetization       =     3.21 Bohr mag/cell
     absolute magnetization    =     3.64 Bohr mag/cell

     convergence has been achieved in   4 iterations

     negative rho (up, down):  3.028E-06 8.989E-07

     Forces acting on atoms (cartesian axes, Ry/au):

     atom    1 type  1   force =     0.00000000    0.00000000    0.00241957
     atom    2 type  1   force =     0.00000000    0.00000000   -0.00241957
     The non-local contrib.  to forces
     atom    1 type  1   force =     0.00000000   -0.00000000   -0.08214096
     atom    2 type  1   force =     0.00000000   -0.00000000    0.08214096
     The ionic contribution  to forces
     atom    1 type  1   force =    -0.00000000   -0.00000000  -42.09753149
     atom    2 type  1   force =     0.00000000    0.00000000   42.09753149
     The local contribution  to forces
     atom    1 type  1   force =    -0.00000000   -0.00000000   42.16982313
     atom    2 type  1   force =     0.00000000    0.00000000  -42.16982313
     The core correction contribution to forces
     atom    1 type  1   force =    -0.00000000   -0.00000000    0.01416121
     atom    2 type  1   force =     0.00000000    0.00000000   -0.01416121
     The Hubbard contrib.    to forces
     atom    1 type  1   force =     0.00000000    0.00000000    0.00000000
     atom    2 type  1   force =     0.00000000    0.00000000    0.00000000
     The SCF correction term to forces
     atom    1 type  1   force =     0.00000000   -0.00000000   -0.00244388
     atom    2 type  1   force =    -0.00000000    0.00000000    0.00244388

     DFT-D3 dispersion contribution to forces:
     atom    1 type  1   force =     0.00000000    0.00000000    0.00055155
     atom    2 type  1   force =    -0.00000000   -0.00000000   -0.00055155

     Total force =     0.003422     Total SCF correction =     0.003456
     SCF correction compared to forces is large: reduce conv_thr to get better values


     Computing stress (Cartesian axis) and pressure


     negative rho (up, down):  3.028E-06 8.989E-07
          total   stress  (Ry/bohr**3)                   (kbar)     P=       -9.28
  -0.00008359   0.00000000   0.00000000          -12.30        0.00        0.00
   0.00000000  -0.00008359   0.00000000            0.00      -12.30        0.00
   0.00000000   0.00000000  -0.00002213            0.00        0.00       -3.25

     Energy error            =      5.9E-05 Ry
     Gradient error          =      2.4E-03 Ry/Bohr

     number of scf cycles    =   2
     number of bfgs steps    =   1

     energy             old  =    -324.0375988474 Ry
     energy             new  =    -324.0376583163 Ry

     CASE: energy            _new < energy            _old

     new trust radius        =       0.0039214742 bohr
     new conv_thr            =       0.0000000100 Ry


ATOMIC_POSITIONS (crystal)
Co            0.6666666667        0.6666666667        0.4422783014
Co            0.0000000000        0.0000000000        0.5577216986



     Writing config-only to output data dir ./tmp/scf.save/
     NEW-OLD atomic charge density approx. for the potential

     negative rho (up, down):  3.177E-06 9.594E-07
     Generating pointlists ...

     total cpu time spent up to now is       10.7 secs

     Self-consistent Calculation

     iteration #  1     ecut=    70.00 Ry     beta= 0.70
     Davidson diagonalization with overlap
     ethr =  1.00E-06,  avg # of iterations =  3.0

     Threshold (ethr) on eigenvalues was too large:
     Diagonalizing with lowered threshold

     Davidson diagonalization with overlap
     ethr =  1.35E-08,  avg # of iterations =  4.8

     negative rho (up, down):  3.093E-06 9.114E-07

     total cpu time spent up to now is       11.8 secs

     total energy              =    -324.03768215 Ry
     estimated scf accuracy    <       0.00000494 Ry

     total magnetization       =     3.21 Bohr mag/cell
     absolute magnetization    =     3.64 Bohr mag/cell

     iteration #  2     ecut=    70.00 Ry     beta= 0.70
     Davidson diagonalization with overlap
     ethr =  2.74E-08,  avg # of iterations =  2.4

     negative rho (up, down):  3.093E-06 8.756E-07

     total cpu time spent up to now is       12.4 secs

     total energy              =    -324.03768066 Ry
     estimated scf accuracy    <       0.00002245 Ry

     total magnetization       =     3.21 Bohr mag/cell
     absolute magnetization    =     3.64 Bohr mag/cell

     iteration #  3     ecut=    70.00 Ry     beta= 0.70
     Davidson diagonalization with overlap
     ethr =  2.74E-08,  avg # of iterations =  2.0

     negative rho (up, down):  3.073E-06 8.845E-07

     total cpu time spent up to now is       12.9 secs

     total energy              =    -324.03768421 Ry
     estimated scf accuracy    <       0.00000102 Ry

     total magnetization       =     3.21 Bohr mag/cell
     absolute magnetization    =     3.64 Bohr mag/cell

     iteration #  4     ecut=    70.00 Ry     beta= 0.70
     Davidson diagonalization with overlap
     ethr =  5.67E-09,  avg # of iterations =  2.2

     negative rho (up, down):  3.047E-06 9.044E-07

     total cpu time spent up to now is       13.5 secs

     total energy              =    -324.03768445 Ry
     estimated scf accuracy    <       0.00000012 Ry

     total magnetization       =     3.21 Bohr mag/cell
     absolute magnetization    =     3.64 Bohr mag/cell

     iteration #  5     ecut=    70.00 Ry     beta= 0.70
     Davidson diagonalization with overlap
     ethr =  6.53E-10,  avg # of iterations =  2.0

     negative rho (up, down):  3.046E-06 9.070E-07
 
     Magnetic moment per site  (integrated on atomic sphere of radius R)
     atom   1 (R=0.410)  charge=  7.4555  magn=  1.6920
     atom   2 (R=0.410)  charge=  7.4555  magn=  1.6920

     total cpu time spent up to now is       14.0 secs

     End of self-consistent calculation

 ------ SPIN UP ------------


          k = 0.0000 0.0000 0.0000 (  5821 PWs)   bands (ev):

    -8.1427  -5.7605  -3.1045  -2.8051  -2.8051  -2.6489  -2.6489  -2.0704
    -1.7004  -1.7004  -1.0862  -1.0862   0.0210

          k = 0.0000 0.0962 0.0000 (  5795 PWs)   bands (ev):

    -7.8969  -5.5496  -3.0959  -2.9083  -2.7893  -2.6919  -2.5473  -2.2338
    -1.7339  -1.5733  -1.3582  -1.0808   0.7092

          k = 0.0000 0.1925 0.0000 (  5797 PWs)   bands (ev):

    -7.2046  -5.0014  -3.2808  -3.1591  -2.8992  -2.4664  -2.4100  -2.2762
    -1.9724  -1.7652  -1.0732  -0.8080   1.9422

          k = 0.0000 0.2887 0.0000 (  5793 PWs)   bands (ev):

    -6.2559  -4.5092  -3.7490  -3.1475  -2.8671  -2.5856  -2.2869  -1.9830
    -1.8519  -1.5469  -1.0649  -0.0194   3.4345

          k = 0.0000 0.3849 0.0000 (  5834 PWs)   bands (ev):

    -5.4955  -4.5428  -4.1600  -3.1357  -2.4792  -2.3666  -2.1024  -1.5835
    -1.4263  -1.1158  -0.9991   1.1005   5.1782

          k = 0.0000 0.4811 0.0000 (  5844 PWs)   bands (ev):

    -5.1860  -4.7608  -4.4296  -3.2615  -2.4520  -2.0480  -1.6640  -1.2670
    -0.8010  -0.7187  -0.1729   2.4278   7.0401

          k = 0.0000-0.5774 0.0000 (  5856 PWs)   bands (ev):

    -5.1028  -4.8772  -4.5233  -3.3120  -2.4850  -1.9191  -1.5234  -1.2484
    -0.6771  -0.5709   1.1751   2.7059   6.9476

          k = 0.0833 0.1443 0.0000 (  5806 PWs)   bands (ev):

    -7.4256  -5.1616  -3.1677  -3.0447  -3.0162  -2.5057  -2.3646  -2.3406
    -1.9775  -1.6401  -1.2098  -0.8993   1.5864

          k = 0.0833 0.2406 0.0000 (  5797 PWs)   bands (ev):

    -6.5848  -4.5634  -3.5072  -3.2848  -3.0608  -2.6438  -2.2813  -1.9964
    -1.9455  -1.5736  -1.1616  -0.2804   2.8845

          k = 0.0833 0.3368 0.0000 (  5821 PWs)   bands (ev):

    -5.6847  -4.3233  -3.9352  -3.1145  -2.9746  -2.6429  -2.2921  -1.8613
    -1.5215  -1.1154  -1.0596   0.7107   4.4781

          k = 0.0833 0.4330 0.0000 (  5840 PWs)   bands (ev):

    -5.1802  -4.5225  -4.2613  -3.1829  -2.5431  -2.3590  -1.9876  -1.5140
    -1.3380  -0.9096  -0.1876   2.1036   6.3266

          k = 0.0833-0.6255 0.0000 (  5835 PWs)   bands (ev):

    -5.0205  -4.7170  -4.4344  -3.2592  -2.5835  -2.0262  -1.7006  -1.3262
    -1.0152  -0.7794   1.2888   3.1672   6.8764

          k = 0.1667 0.2887 0.0000 (  5822 PWs)   bands (ev):

    -5.7434  -4.0519  -3.7124  -3.4887  -3.1979  -2.8250  -2.3616  -1.8053
    -1.5807  -1.1799  -1.0116   0.6295   4.2451

          k = 0.1667 0.3849 0.0000 (  5824 PWs)   bands (ev):

    -5.0807  -4.0740  -3.9994  -3.1536  -3.0471  -2.8004  -2.4480  -1.6850
    -1.4949  -0.9791  -0.0187   2.0344   5.9451

          k = 0.1667-0.6736 0.0000 (  5846 PWs)   bands (ev):

    -4.8178  -4.3120  -4.1871  -3.1493  -2.7744  -2.5007  -2.2250  -1.5059
    -1.4485  -0.9125   1.4788   3.7179   7.7356

          k = 0.1667-0.5774 0.0000 (  5852 PWs)   bands (ev):

    -4.7532  -4.4175  -4.2556  -3.1491  -2.8422  -2.2155  -2.1501  -1.5041
    -1.1049  -1.1011   2.9309   4.0472   7.4147

          k = 0.2500-0.7217 0.0000 (  5860 PWs)   bands (ev):

    -4.6960  -3.9855  -3.9811  -3.1149  -2.9469  -2.7904  -2.6332  -1.6316
    -1.5330  -0.9247   1.5540   3.8707   7.7609

          k = 0.2500-0.6255 0.0000 (  5874 PWs)   bands (ev):

    -4.5299  -4.0404  -3.9820  -3.0617  -2.9549  -2.6982  -2.5547  -1.6677
    -1.3658  -1.0831   3.5683   5.4884   7.4845

          k = 0.3333-0.5774 0.0000 (  5850 PWs)   bands (ev):

    -4.4047  -3.8937  -3.8937  -3.0200  -2.9040  -2.9040  -2.7097  -1.7151
    -1.2697  -1.2697   5.7602   6.2123   6.2123

 ------ SPIN DOWN ----------


          k = 0.0000 0.0000 0.0000 (  5821 PWs)   bands (ev):

    -8.1704  -5.2663  -1.5075  -1.2291  -1.1821  -1.1821  -1.0709  -1.0709
    -0.0279   0.2163   0.2163   0.8202   0.8202

          k = 0.0000 0.0962 0.0000 (  5795 PWs)   bands (ev):

    -7.9228  -5.0314  -1.5164  -1.4569  -1.2922  -1.0568  -0.9594  -0.9563
    -0.4264   0.1720   0.2766   0.8286   1.4632

          k = 0.0000 0.1925 0.0000 (  5797 PWs)   bands (ev):

    -7.2139  -4.3868  -1.8806  -1.6774  -1.4905  -0.9808  -0.7508  -0.6378
    -0.6179   0.1078   0.5481   0.8382   2.5667

          k = 0.0000 0.2887 0.0000 (  5793 PWs)   bands (ev):

    -6.1710  -3.6292  -2.3950  -1.7886  -1.6120  -1.1482  -0.5687  -0.3564
    -0.1210   0.2565   0.8377   1.0683   3.9166

          k = 0.0000 0.3849 0.0000 (  5834 PWs)   bands (ev):

    -5.0932  -3.4248  -2.8566  -1.6075  -1.2523  -1.0912  -0.6205   0.1088
     0.4189   0.6816   0.8606   1.8388   5.5368

          k = 0.0000 0.4811 0.0000 (  5844 PWs)   bands (ev):

    -4.3628  -3.6547  -3.1659  -1.6885  -0.7075  -0.6196  -0.4461   0.6636
     0.8611   1.0371   1.1016   2.8178   7.3288

          k = 0.0000-0.5774 0.0000 (  5856 PWs)   bands (ev):

    -3.9969  -3.9216  -3.2740  -1.7346  -0.7428  -0.4083  -0.1056   0.6865
     1.1779   1.2665   1.6498   3.1528   7.5649

          k = 0.0833 0.1443 0.0000 (  5806 PWs)   bands (ev):

    -7.4434  -4.5864  -1.7072  -1.6279  -1.5112  -0.9487  -0.7803  -0.7585
    -0.6436   0.1952   0.3541   0.8602   2.2503

          k = 0.0833 0.2406 0.0000 (  5797 PWs)   bands (ev):

    -6.5569  -3.8253  -2.1239  -1.9106  -1.7090  -1.0773  -0.6156  -0.4626
    -0.2748   0.2592   0.5991   1.0260   3.4205

          k = 0.0833 0.3368 0.0000 (  5821 PWs)   bands (ev):

    -5.4624  -3.2602  -2.6042  -1.8147  -1.7166  -1.2333  -0.5758  -0.1884
     0.2895   0.6188   0.7672   1.6279   4.8888

          k = 0.0833 0.4330 0.0000 (  5840 PWs)   bands (ev):

    -4.5407  -3.3779  -2.9778  -1.6349  -1.1068  -1.0481  -0.6627   0.2426
     0.5713   0.8757   1.3295   2.6813   6.6364

          k = 0.0833-0.6255 0.0000 (  5835 PWs)   bands (ev):

    -4.0193  -3.6710  -3.1779  -1.6785  -0.8915  -0.5837  -0.4250   0.5796
     0.7435   1.0252   2.1815   3.6150   7.5636

          k = 0.1667 0.2887 0.0000 (  5822 PWs)   bands (ev):

    -5.5910  -3.0572  -2.3369  -2.2939  -1.9135  -1.2147  -0.6349  -0.2065
     0.2417   0.5782   0.7346   1.6164   4.6798

          k = 0.1667 0.3849 0.0000 (  5824 PWs)   bands (ev):

    -4.5936  -2.8596  -2.7013  -1.9460  -1.8002  -1.3218  -0.7648   0.0453
     0.3742   0.8237   1.5124   2.7400   6.2886

          k = 0.1667-0.6736 0.0000 (  5846 PWs)   bands (ev):

    -3.9197  -3.1859  -2.9207  -1.6054  -1.2612  -1.2213  -0.8727   0.3609
     0.3816   0.9201   2.6135   4.2214   8.1069

          k = 0.1667-0.5774 0.0000 (  5852 PWs)   bands (ev):

    -3.6232  -3.4146  -3.0021  -1.5621  -1.2373  -0.8740  -0.8713   0.3816
     0.7212   0.7330   3.6580   4.6903   7.9758

          k = 0.2500-0.7217 0.0000 (  5860 PWs)   bands (ev):

    -3.8449  -2.7985  -2.7150  -1.7618  -1.7251  -1.3587  -1.0231   0.2343
     0.2723   0.9212   2.7483   4.4224   8.0545

          k = 0.2500-0.6255 0.0000 (  5874 PWs)   bands (ev):

    -3.4164  -2.9406  -2.7496  -1.5966  -1.4436  -1.3515  -1.1923   0.2060
     0.4867   0.7752   4.4085   5.9934   8.0732

          k = 0.3333-0.5774 0.0000 (  5850 PWs)   bands (ev):

    -3.2281  -2.7256  -2.7256  -1.6889  -1.4149  -1.3853  -1.3853   0.1594
     0.5970   0.5970   6.4199   6.8074   6.8074

     the Fermi energy is    -0.2874 ev

!    total energy              =    -324.03768447 Ry
     total all-electron energy =     -5573.725037 Ry
     estimated scf accuracy    <          9.1E-09 Ry
     smearing contrib. (-TS)   =      -0.00066328 Ry
     internal energy E=F+TS    =    -324.03702118 Ry

     The total energy is F=E-TS. E is the sum of the following terms:
     one-electron contribution =    -729.46096025 Ry
     hartree contribution      =     381.61709723 Ry
     xc contribution           =     -65.23958022 Ry
     ewald contribution        =     262.16977056 Ry
     DFT-D3 Dispersion         =      -0.02204260 Ry
     one-center paw contrib.   =    -173.10130591 Ry

     total magnetization       =     3.21 Bohr mag/cell
     absolute magnetization    =     3.64 Bohr mag/cell

     convergence has been achieved in   5 iterations

     negative rho (up, down):  3.046E-06 9.070E-07

     Forces acting on atoms (cartesian axes, Ry/au):

     atom    1 type  1   force =     0.00000000    0.00000000    0.00263315
     atom    2 type  1   force =     0.00000000    0.00000000   -0.00263315
     The non-local contrib.  to forces
     atom    1 type  1   force =     0.00000000   -0.00000000   -0.08165452
     atom    2 type  1   force =     0.00000000    0.00000000    0.08165452
     The ionic contribution  to forces
     atom    1 type  1   force =    -0.00000000   -0.00000000  -42.11888317
     atom    2 type  1   force =     0.00000000    0.00000000   42.11888317
     The local contribution  to forces
     atom    1 type  1   force =    -0.00000000   -0.00000000   42.18871632
     atom    2 type  1   force =     0.00000000    0.00000000  -42.18871632
     The core correction contribution to forces
     atom    1 type  1   force =    -0.00000000   -0.00000000    0.01424018
     atom    2 type  1   force =     0.00000000    0.00000000   -0.01424018
     The Hubbard contrib.    to forces
     atom    1 type  1   force =     0.00000000    0.00000000    0.00000000
     atom    2 type  1   force =     0.00000000    0.00000000    0.00000000
     The SCF correction term to forces
     atom    1 type  1   force =     0.00000000   -0.00000000   -0.00033848
     atom    2 type  1   force =    -0.00000000   -0.00000000    0.00033848

     DFT-D3 dispersion contribution to forces:
     atom    1 type  1   force =     0.00000000    0.00000000    0.00055282
     atom    2 type  1   force =    -0.00000000   -0.00000000   -0.00055282

     Total force =     0.003724     Total SCF correction =     0.000479
     SCF correction compared to forces is large: reduce conv_thr to get better values


     Computing stress (Cartesian axis) and pressure


     negative rho (up, down):  3.046E-06 9.070E-07
          total   stress  (Ry/bohr**3)                   (kbar)     P=       -9.10
  -0.00008344   0.00000000  -0.00000000          -12.27        0.00       -0.00
   0.00000000  -0.00008344  -0.00000000            0.00      -12.27       -0.00
   0.00000000   0.00000000  -0.00001860            0.00        0.00       -2.74

     Energy error            =      2.6E-05 Ry
     Gradient error          =      2.6E-03 Ry/Bohr

     number of scf cycles    =   3
     number of bfgs steps    =   2

     energy             old  =    -324.0376583163 Ry
     energy             new  =    -324.0376844674 Ry

     CASE: energy            _new < energy            _old


     WARNING: bfgs curvature condition failed, Theta= 0.735
     uphill step: resetting bfgs history

     new trust radius        =       0.0026331499 bohr
     new conv_thr            =       0.0000000100 Ry


ATOMIC_POSITIONS (crystal)
Co            0.6666666667        0.6666666667        0.4423604116
Co            0.0000000000        0.0000000000        0.5576395884



     Writing config-only to output data dir ./tmp/scf.save/
     NEW-OLD atomic charge density approx. for the potential

     negative rho (up, down):  3.113E-06 9.502E-07
     Generating pointlists ...

     total cpu time spent up to now is       15.2 secs

     Self-consistent Calculation

     iteration #  1     ecut=    70.00 Ry     beta= 0.70
     Davidson diagonalization with overlap
     ethr =  1.00E-06,  avg # of iterations =  3.0

     Threshold (ethr) on eigenvalues was too large:
     Diagonalizing with lowered threshold

     Davidson diagonalization with overlap
     ethr =  1.04E-08,  avg # of iterations =  4.5

     negative rho (up, down):  3.092E-06 9.054E-07

     total cpu time spent up to now is       16.4 secs

     total energy              =    -324.03769506 Ry
     estimated scf accuracy    <       0.00000385 Ry

     total magnetization       =     3.20 Bohr mag/cell
     absolute magnetization    =     3.63 Bohr mag/cell

     iteration #  2     ecut=    70.00 Ry     beta= 0.70
     Davidson diagonalization with overlap
     ethr =  2.14E-08,  avg # of iterations =  2.4

     negative rho (up, down):  3.095E-06 8.784E-07

     total cpu time spent up to now is       16.9 secs

     total energy              =    -324.03769429 Ry
     estimated scf accuracy    <       0.00001510 Ry

     total magnetization       =     3.21 Bohr mag/cell
     absolute magnetization    =     3.64 Bohr mag/cell

     iteration #  3     ecut=    70.00 Ry     beta= 0.70
     Davidson diagonalization with overlap
     ethr =  2.14E-08,  avg # of iterations =  2.1

     negative rho (up, down):  3.086E-06 8.845E-07

     total cpu time spent up to now is       17.5 secs

     total energy              =    -324.03769672 Ry
     estimated scf accuracy    <       0.00000128 Ry

     total magnetization       =     3.20 Bohr mag/cell
     absolute magnetization    =     3.63 Bohr mag/cell

     iteration #  4     ecut=    70.00 Ry     beta= 0.70
     Davidson diagonalization with overlap
     ethr =  7.11E-09,  avg # of iterations =  2.1

     negative rho (up, down):  3.057E-06 9.081E-07

     total cpu time spent up to now is       18.0 secs

     total energy              =    -324.03769696 Ry
     estimated scf accuracy    <       0.00000003 Ry

     total magnetization       =     3.20 Bohr mag/cell
     absolute magnetization    =     3.63 Bohr mag/cell

     iteration #  5     ecut=    70.00 Ry     beta= 0.70
     Davidson diagonalization with overlap
     ethr =  1.70E-10,  avg # of iterations =  2.8

     negative rho (up, down):  3.056E-06 9.109E-07
 
     Magnetic moment per site  (integrated on atomic sphere of radius R)
     atom   1 (R=0.410)  charge=  7.4565  magn=  1.6909
     atom   2 (R=0.410)  charge=  7.4565  magn=  1.6909

     total cpu time spent up to now is       18.6 secs

     End of self-consistent calculation

 ------ SPIN UP ------------


          k = 0.0000 0.0000 0.0000 (  5821 PWs)   bands (ev):

    -8.1446  -5.7604  -3.0987  -2.8053  -2.8053  -2.6487  -2.6487  -2.0691
    -1.6989  -1.6989  -1.0812  -1.0812   0.0260

          k = 0.0000 0.0962 0.0000 (  5795 PWs)   bands (ev):

    -7.8987  -5.5496  -3.0912  -2.9082  -2.7896  -2.6921  -2.5472  -2.2315
    -1.7323  -1.5696  -1.3556  -1.0757   0.7146

          k = 0.0000 0.1925 0.0000 (  5797 PWs)   bands (ev):

    -7.2065  -5.0020  -3.2825  -3.1566  -2.8970  -2.4633  -2.4110  -2.2765
    -1.9681  -1.7626  -1.0677  -0.8048   1.9477

          k = 0.0000 0.2887 0.0000 (  5793 PWs)   bands (ev):

    -6.2580  -4.5102  -3.7511  -3.1455  -2.8657  -2.5825  -2.2892  -1.9782
    -1.8516  -1.5438  -1.0592  -0.0146   3.4398

          k = 0.0000 0.3849 0.0000 (  5834 PWs)   bands (ev):

    -5.4978  -4.5436  -4.1621  -3.1319  -2.4790  -2.3687  -2.0999  -1.5796
    -1.4247  -1.1132  -0.9942   1.1061   5.1831

          k = 0.0000 0.4811 0.0000 (  5844 PWs)   bands (ev):

    -5.1885  -4.7618  -4.4314  -3.2573  -2.4541  -2.0461  -1.6616  -1.2626
    -0.7991  -0.7159  -0.1708   2.4330   7.0440

          k = 0.0000-0.5774 0.0000 (  5856 PWs)   bands (ev):

    -5.1055  -4.8782  -4.5249  -3.3078  -2.4871  -1.9164  -1.5212  -1.2433
    -0.6757  -0.5683   1.1762   2.7103   6.9507

          k = 0.0833 0.1443 0.0000 (  5806 PWs)   bands (ev):

    -7.4276  -5.1620  -3.1672  -3.0460  -3.0123  -2.5048  -2.3652  -2.3386
    -1.9739  -1.6368  -1.2061  -0.8951   1.5918

          k = 0.0833 0.2406 0.0000 (  5797 PWs)   bands (ev):

    -6.5868  -4.5645  -3.5091  -3.2844  -3.0581  -2.6407  -2.2811  -1.9944
    -1.9442  -1.5702  -1.1565  -0.2759   2.8899

          k = 0.0833 0.3368 0.0000 (  5821 PWs)   bands (ev):

    -5.6870  -4.3244  -3.9375  -3.1118  -2.9747  -2.6408  -2.2921  -1.8569
    -1.5199  -1.1110  -1.0565   0.7160   4.4832

          k = 0.0833 0.4330 0.0000 (  5840 PWs)   bands (ev):

    -5.1826  -4.5235  -4.2633  -3.1792  -2.5445  -2.3590  -1.9856  -1.5100
    -1.3337  -0.9063  -0.1856   2.1089   6.3311

          k = 0.0833-0.6255 0.0000 (  5835 PWs)   bands (ev):

    -5.0232  -4.7182  -4.4361  -3.2550  -2.5854  -2.0241  -1.6991  -1.3211
    -1.0125  -0.7762   1.2902   3.1715   6.8791

          k = 0.1667 0.2887 0.0000 (  5822 PWs)   bands (ev):

    -5.7457  -4.0544  -3.7140  -3.4893  -3.1955  -2.8216  -2.3604  -1.8017
    -1.5787  -1.1756  -1.0091   0.6348   4.2502

          k = 0.1667 0.3849 0.0000 (  5824 PWs)   bands (ev):

    -5.0833  -4.0756  -4.0020  -3.1530  -3.0459  -2.7986  -2.4465  -1.6805
    -1.4903  -0.9758  -0.0166   2.0396   5.9498

          k = 0.1667-0.6736 0.0000 (  5846 PWs)   bands (ev):

    -4.8208  -4.3135  -4.1891  -3.1462  -2.7751  -2.5003  -2.2231  -1.5007
    -1.4440  -0.9088   1.4806   3.7223   7.7392

          k = 0.1667-0.5774 0.0000 (  5852 PWs)   bands (ev):

    -4.7565  -4.4190  -4.2573  -3.1452  -2.8436  -2.2136  -2.1497  -1.4988
    -1.1004  -1.0973   2.9320   4.0507   7.4186

          k = 0.2500-0.7217 0.0000 (  5860 PWs)   bands (ev):

    -4.6992  -3.9875  -3.9838  -3.1138  -2.9474  -2.7878  -2.6308  -1.6260
    -1.5285  -0.9209   1.5558   3.8753   7.7653

          k = 0.2500-0.6255 0.0000 (  5874 PWs)   bands (ev):

    -4.5337  -4.0426  -3.9844  -3.0610  -2.9531  -2.6972  -2.5526  -1.6616
    -1.3613  -1.0788   3.5699   5.4916   7.4873

          k = 0.3333-0.5774 0.0000 (  5850 PWs)   bands (ev):

    -4.4091  -3.8964  -3.8964  -3.0198  -2.9024  -2.9024  -2.7066  -1.7084
    -1.2654  -1.2654   5.7612   6.2144   6.2144

 ------ SPIN DOWN ----------


          k = 0.0000 0.0000 0.0000 (  5821 PWs)   bands (ev):

    -8.1722  -5.2652  -1.5008  -1.2296  -1.1829  -1.1829  -1.0718  -1.0718
    -0.0235   0.2160   0.2160   0.8230   0.8230

          k = 0.0000 0.0962 0.0000 (  5795 PWs)   bands (ev):

    -7.9246  -5.0304  -1.5110  -1.4592  -1.2919  -1.0577  -0.9605  -0.9552
    -0.4237   0.1719   0.2765   0.8315   1.4672

          k = 0.0000 0.1925 0.0000 (  5797 PWs)   bands (ev):

    -7.2158  -4.3863  -1.8833  -1.6770  -1.4875  -0.9783  -0.7533  -0.6387
    -0.6150   0.1086   0.5489   0.8416   2.5712

          k = 0.0000 0.2887 0.0000 (  5793 PWs)   bands (ev):

    -6.1730  -3.6296  -2.3981  -1.7889  -1.6107  -1.1452  -0.5733  -0.3525
    -0.1215   0.2587   0.8415   1.0710   3.9211

          k = 0.0000 0.3849 0.0000 (  5834 PWs)   bands (ev):

    -5.0958  -3.4262  -2.8599  -1.6052  -1.2531  -1.0891  -0.6253   0.1129
     0.4187   0.6837   0.8642   1.8436   5.5409

          k = 0.0000 0.4811 0.0000 (  5844 PWs)   bands (ev):

    -4.3659  -3.6570  -3.1688  -1.6852  -0.7122  -0.6185  -0.4462   0.6662
     0.8646   1.0386   1.1032   2.8235   7.3319

          k = 0.0000-0.5774 0.0000 (  5856 PWs)   bands (ev):

    -4.0007  -3.9237  -3.2767  -1.7311  -0.7474  -0.4069  -0.1054   0.6900
     1.1786   1.2682   1.6526   3.1585   7.5667

          k = 0.0833 0.1443 0.0000 (  5806 PWs)   bands (ev):

    -7.4452  -4.5857  -1.7103  -1.6276  -1.5072  -0.9466  -0.7809  -0.7601
    -0.6411   0.1959   0.3542   0.8634   2.2548

          k = 0.0833 0.2406 0.0000 (  5797 PWs)   bands (ev):

    -6.5589  -3.8253  -2.1271  -1.9120  -1.7063  -1.0746  -0.6143  -0.4635
    -0.2754   0.2614   0.6010   1.0295   3.4250

          k = 0.0833 0.3368 0.0000 (  5821 PWs)   bands (ev):

    -5.4648  -3.2613  -2.6077  -1.8157  -1.7157  -1.2303  -0.5786  -0.1851
     0.2893   0.6213   0.7704   1.6320   4.8931

          k = 0.0833 0.4330 0.0000 (  5840 PWs)   bands (ev):

    -4.5437  -3.3799  -2.9811  -1.6326  -1.1076  -1.0479  -0.6651   0.2464
     0.5738   0.8780   1.3313   2.6861   6.6402

          k = 0.0833-0.6255 0.0000 (  5835 PWs)   bands (ev):

    -4.0228  -3.6736  -3.1807  -1.6753  -0.8957  -0.5829  -0.4252   0.5829
     0.7465   1.0279   2.1832   3.6198   7.5655

          k = 0.1667 0.2887 0.0000 (  5822 PWs)   bands (ev):

    -5.5933  -3.0583  -2.3396  -2.2969  -1.9117  -1.2120  -0.6346  -0.2053
     0.2417   0.5809   0.7370   1.6206   4.6841

          k = 0.1667 0.3849 0.0000 (  5824 PWs)   bands (ev):

    -4.5966  -2.8618  -2.7051  -1.9471  -1.7998  -1.3191  -0.7658   0.0488
     0.3768   0.8259   1.5142   2.7443   6.2925

          k = 0.1667-0.6736 0.0000 (  5846 PWs)   bands (ev):

    -3.9236  -3.1887  -2.9238  -1.6044  -1.2621  -1.2213  -0.8728   0.3648
     0.3854   0.9232   2.6151   4.2255   8.1104

          k = 0.1667-0.5774 0.0000 (  5852 PWs)   bands (ev):

    -3.6279  -3.4171  -3.0049  -1.5592  -1.2409  -0.8743  -0.8704   0.3852
     0.7255   0.7362   3.6594   4.6942   7.9787

          k = 0.2500-0.7217 0.0000 (  5860 PWs)   bands (ev):

    -3.8490  -2.8017  -2.7188  -1.7623  -1.7259  -1.3562  -1.0230   0.2382
     0.2761   0.9243   2.7499   4.4263   8.0582

          k = 0.2500-0.6255 0.0000 (  5874 PWs)   bands (ev):

    -3.4216  -2.9440  -2.7531  -1.5984  -1.4428  -1.3502  -1.1915   0.2106
     0.4907   0.7789   4.4101   5.9965   8.0756

          k = 0.3333-0.5774 0.0000 (  5850 PWs)   bands (ev):

    -3.2340  -2.7294  -2.7294  -1.6901  -1.4127  -1.3848  -1.3848   0.1650
     0.6007   0.6007   6.4211   6.8096   6.8096

     the Fermi energy is    -0.2854 ev

!    total energy              =    -324.03769697 Ry
     total all-electron energy =     -5573.725049 Ry
     estimated scf accuracy    <          3.2E-09 Ry
     smearing contrib. (-TS)   =      -0.00066190 Ry
     internal energy E=F+TS    =    -324.03703507 Ry

     The total energy is F=E-TS. E is the sum of the following terms:
     one-electron contribution =    -729.90304342 Ry
     hartree contribution      =     381.83848655 Ry
     xc contribution           =     -65.24065769 Ry
     ewald contribution        =     262.39161889 Ry
     DFT-D3 Dispersion         =      -0.02204552 Ry
     one-center paw contrib.   =    -173.10139389 Ry

     total magnetization       =     3.20 Bohr mag/cell
     absolute magnetization    =     3.63 Bohr mag/cell

     convergence has been achieved in   5 iterations

     negative rho (up, down):  3.056E-06 9.109E-07

     Forces acting on atoms (cartesian axes, Ry/au):

     atom    1 type  1   force =     0.00000000    0.00000000    0.00191589
     atom    2 type  1   force =     0.00000000    0.00000000   -0.00191589
     The non-local contrib.  to forces
     atom    1 type  1   force =    -0.00000000    0.00000000   -0.08185351
     atom    2 type  1   force =    -0.00000000    0.00000000    0.08185351
     The ionic contribution  to forces
     atom    1 type  1   force =    -0.00000000   -0.00000000  -42.13318142
     atom    2 type  1   force =     0.00000000    0.00000000   42.13318142
     The local contribution  to forces
     atom    1 type  1   force =    -0.00000000   -0.00000000   42.20228705
     atom    2 type  1   force =     0.00000000    0.00000000  -42.20228705
     The core correction contribution to forces
     atom    1 type  1   force =    -0.00000000   -0.00000000    0.01429738
     atom    2 type  1   force =     0.00000000    0.00000000   -0.01429738
     The Hubbard contrib.    to forces
     atom    1 type  1   force =     0.00000000    0.00000000    0.00000000
     atom    2 type  1   force =     0.00000000    0.00000000    0.00000000
     The SCF correction term to forces
     atom    1 type  1   force =    -0.00000000    0.00000000   -0.00018728
     atom    2 type  1   force =    -0.00000000    0.00000000    0.00018728

     DFT-D3 dispersion contribution to forces:
     atom    1 type  1   force =     0.00000000    0.00000000    0.00055367
     atom    2 type  1   force =    -0.00000000   -0.00000000   -0.00055367

     Total force =     0.002709     Total SCF correction =     0.000265


     Computing stress (Cartesian axis) and pressure


     negative rho (up, down):  3.056E-06 9.109E-07
          total   stress  (Ry/bohr**3)                   (kbar)     P=       -8.93
  -0.00008322   0.00000000   0.00000000          -12.24        0.00        0.00
   0.00000000  -0.00008322   0.00000000            0.00      -12.24        0.00
   0.00000000   0.00000000  -0.00001561            0.00        0.00       -2.30

     Energy error            =      1.3E-05 Ry
     Gradient error          =      1.9E-03 Ry/Bohr

     number of scf cycles    =   4
     number of bfgs steps    =   3

     energy             old  =    -324.0376844674 Ry
     energy             new  =    -324.0376969739 Ry

     CASE: energy            _new < energy            _old

     new trust radius        =       0.0028964649 bohr
     new conv_thr            =       0.0000000100 Ry


ATOMIC_POSITIONS (crystal)
Co            0.6666666667        0.6666666667        0.4424507329
Co            0.0000000000        0.0000000000        0.5575492671



     Writing config-only to output data dir ./tmp/scf.save/
     NEW-OLD atomic charge density approx. for the potential

     negative rho (up, down):  3.136E-06 9.556E-07
     Generating pointlists ...

     total cpu time spent up to now is       19.7 secs

     Self-consistent Calculation

     iteration #  1     ecut=    70.00 Ry     beta= 0.70
     Davidson diagonalization with overlap
     ethr =  1.00E-06,  avg # of iterations =  3.0

     Threshold (ethr) on eigenvalues was too large:
     Diagonalizing with lowered threshold

     Davidson diagonalization with overlap
     ethr =  1.59E-08,  avg # of iterations =  4.2

     negative rho (up, down):  3.105E-06 9.102E-07

     total cpu time spent up to now is       20.8 secs

     total energy              =    -324.03770333 Ry
     estimated scf accuracy    <       0.00000544 Ry

     total magnetization       =     3.20 Bohr mag/cell
     absolute magnetization    =     3.63 Bohr mag/cell

     iteration #  2     ecut=    70.00 Ry     beta= 0.70
     Davidson diagonalization with overlap
     ethr =  3.02E-08,  avg # of iterations =  2.4

     negative rho (up, down):  3.106E-06 8.827E-07

     total cpu time spent up to now is       21.4 secs

     total energy              =    -324.03770195 Ry
     estimated scf accuracy    <       0.00002504 Ry

     total magnetization       =     3.20 Bohr mag/cell
     absolute magnetization    =     3.63 Bohr mag/cell

     iteration #  3     ecut=    70.00 Ry     beta= 0.70
     Davidson diagonalization with overlap
     ethr =  3.02E-08,  avg # of iterations =  2.1

     negative rho (up, down):  3.095E-06 8.892E-07

     total cpu time spent up to now is       22.0 secs

     total energy              =    -324.03770583 Ry
     estimated scf accuracy    <       0.00000142 Ry

     total magnetization       =     3.20 Bohr mag/cell
     absolute magnetization    =     3.63 Bohr mag/cell

     iteration #  4     ecut=    70.00 Ry     beta= 0.70
     Davidson diagonalization with overlap
     ethr =  7.92E-09,  avg # of iterations =  2.1

     negative rho (up, down):  3.066E-06 9.130E-07

     total cpu time spent up to now is       22.5 secs

     total energy              =    -324.03770612 Ry
     estimated scf accuracy    <       0.00000004 Ry

     total magnetization       =     3.20 Bohr mag/cell
     absolute magnetization    =     3.63 Bohr mag/cell

     iteration #  5     ecut=    70.00 Ry     beta= 0.70
     Davidson diagonalization with overlap
     ethr =  2.03E-10,  avg # of iterations =  2.5

     negative rho (up, down):  3.065E-06 9.156E-07
 
     Magnetic moment per site  (integrated on atomic sphere of radius R)
     atom   1 (R=0.410)  charge=  7.4576  magn=  1.6896
     atom   2 (R=0.410)  charge=  7.4576  magn=  1.6896

     total cpu time spent up to now is       23.0 secs

     End of self-consistent calculation

 ------ SPIN UP ------------


          k = 0.0000 0.0000 0.0000 (  5821 PWs)   bands (ev):

    -8.1469  -5.7606  -3.0929  -2.8058  -2.8058  -2.6488  -2.6488  -2.0680
    -1.6977  -1.6977  -1.0761  -1.0761   0.0312

          k = 0.0000 0.0962 0.0000 (  5795 PWs)   bands (ev):

    -7.9011  -5.5500  -3.0864  -2.9083  -2.7902  -2.6928  -2.5476  -2.2294
    -1.7309  -1.5660  -1.3531  -1.0705   0.7202

          k = 0.0000 0.1925 0.0000 (  5797 PWs)   bands (ev):

    -7.2090  -5.0030  -3.2849  -3.1543  -2.8950  -2.4602  -2.4126  -2.2773
    -1.9638  -1.7602  -1.0622  -0.8016   1.9535

          k = 0.0000 0.2887 0.0000 (  5793 PWs)   bands (ev):

    -6.2606  -4.5117  -3.7538  -3.1436  -2.8645  -2.5795  -2.2921  -1.9734
    -1.8517  -1.5408  -1.0533  -0.0098   3.4453

          k = 0.0000 0.3849 0.0000 (  5834 PWs)   bands (ev):

    -5.5006  -4.5450  -4.1649  -3.1282  -2.4791  -2.3715  -2.0977  -1.5756
    -1.4234  -1.1108  -0.9892   1.1120   5.1882

          k = 0.0000 0.4811 0.0000 (  5844 PWs)   bands (ev):

    -5.1915  -4.7634  -4.4338  -3.2532  -2.4569  -2.0444  -1.6595  -1.2581
    -0.7975  -0.7133  -0.1690   2.4384   7.0480

          k = 0.0000-0.5774 0.0000 (  5856 PWs)   bands (ev):

    -5.1089  -4.8797  -4.5272  -3.3035  -2.4899  -1.9139  -1.5193  -1.2381
    -0.6746  -0.5658   1.1772   2.7150   6.9539

          k = 0.0833 0.1443 0.0000 (  5806 PWs)   bands (ev):

    -7.4300  -5.1628  -3.1671  -3.0479  -3.0083  -2.5042  -2.3664  -2.3368
    -1.9704  -1.6337  -1.2024  -0.8910   1.5976

          k = 0.0833 0.2406 0.0000 (  5797 PWs)   bands (ev):

    -6.5894  -4.5661  -3.5116  -3.2844  -3.0555  -2.6377  -2.2813  -1.9927
    -1.9432  -1.5668  -1.1513  -0.2713   2.8956

          k = 0.0833 0.3368 0.0000 (  5821 PWs)   bands (ev):

    -5.6898  -4.3260  -3.9405  -3.1093  -2.9752  -2.6388  -2.2925  -1.8526
    -1.5187  -1.1066  -1.0534   0.7216   4.4885

          k = 0.0833 0.4330 0.0000 (  5840 PWs)   bands (ev):

    -5.1856  -4.5251  -4.2660  -3.1755  -2.5465  -2.3594  -1.9836  -1.5060
    -1.3294  -0.9032  -0.1838   2.1145   6.3358

          k = 0.0833-0.6255 0.0000 (  5835 PWs)   bands (ev):

    -5.0266  -4.7199  -4.4384  -3.2509  -2.5880  -2.0223  -1.6979  -1.3159
    -1.0098  -0.7732   1.2915   3.1759   6.8818

          k = 0.1667 0.2887 0.0000 (  5822 PWs)   bands (ev):

    -5.7486  -4.0575  -3.7162  -3.4904  -3.1932  -2.8183  -2.3595  -1.7981
    -1.5770  -1.1713  -1.0067   0.6402   4.2556

          k = 0.1667 0.3849 0.0000 (  5824 PWs)   bands (ev):

    -5.0866  -4.0778  -4.0053  -3.1527  -3.0449  -2.7970  -2.4452  -1.6759
    -1.4857  -0.9728  -0.0148   2.0449   5.9548

          k = 0.1667-0.6736 0.0000 (  5846 PWs)   bands (ev):

    -4.8245  -4.3156  -4.1918  -3.1433  -2.7763  -2.5004  -2.2214  -1.4953
    -1.4395  -0.9052   1.4821   3.7269   7.7429

          k = 0.1667-0.5774 0.0000 (  5852 PWs)   bands (ev):

    -4.7605  -4.4211  -4.2597  -3.1413  -2.8456  -2.2120  -2.1495  -1.4935
    -1.0960  -1.0936   2.9329   4.0543   7.4227

          k = 0.2500-0.7217 0.0000 (  5860 PWs)   bands (ev):

    -4.7031  -3.9901  -3.9873  -3.1131  -2.9484  -2.7852  -2.6286  -1.6203
    -1.5240  -0.9172   1.5575   3.8800   7.7699

          k = 0.2500-0.6255 0.0000 (  5874 PWs)   bands (ev):

    -4.5383  -4.0455  -3.9875  -3.0608  -2.9514  -2.6964  -2.5507  -1.6554
    -1.3568  -1.0747   3.5714   5.4947   7.4901

          k = 0.3333-0.5774 0.0000 (  5850 PWs)   bands (ev):

    -4.4144  -3.8998  -3.8998  -3.0200  -2.9010  -2.9010  -2.7037  -1.7014
    -1.2611  -1.2611   5.7620   6.2165   6.2165

 ------ SPIN DOWN ----------


          k = 0.0000 0.0000 0.0000 (  5821 PWs)   bands (ev):

    -8.1745  -5.2644  -1.4937  -1.2305  -1.1842  -1.1842  -1.0732  -1.0732
    -0.0188   0.2153   0.2153   0.8258   0.8258

          k = 0.0000 0.0962 0.0000 (  5795 PWs)   bands (ev):

    -7.9269  -5.0297  -1.5055  -1.4619  -1.2919  -1.0591  -0.9621  -0.9542
    -0.4208   0.1714   0.2760   0.8344   1.4714

          k = 0.0000 0.1925 0.0000 (  5797 PWs)   bands (ev):

    -7.2181  -4.3861  -1.8866  -1.6771  -1.4844  -0.9759  -0.7563  -0.6401
    -0.6121   0.1092   0.5495   0.8449   2.5760

          k = 0.0000 0.2887 0.0000 (  5793 PWs)   bands (ev):

    -6.1756  -3.6304  -2.4019  -1.7896  -1.6095  -1.1422  -0.5787  -0.3484
    -0.1225   0.2608   0.8453   1.0737   3.9258

          k = 0.0000 0.3849 0.0000 (  5834 PWs)   bands (ev):

    -5.0989  -3.4281  -2.8639  -1.6030  -1.2544  -1.0870  -0.6308   0.1171
     0.4183   0.6858   0.8680   1.8485   5.5453

          k = 0.0000 0.4811 0.0000 (  5844 PWs)   bands (ev):

    -4.3696  -3.6598  -3.1724  -1.6819  -0.7176  -0.6177  -0.4466   0.6688
     0.8682   1.0399   1.1047   2.8295   7.3351

          k = 0.0000-0.5774 0.0000 (  5856 PWs)   bands (ev):

    -4.0054  -3.9263  -3.2801  -1.7275  -0.7529  -0.4056  -0.1056   0.6934
     1.1790   1.2697   1.6554   3.1646   7.5685

          k = 0.0833 0.1443 0.0000 (  5806 PWs)   bands (ev):

    -7.4476  -4.5853  -1.7140  -1.6280  -1.5030  -0.9446  -0.7820  -0.7623
    -0.6385   0.1965   0.3539   0.8667   2.2595

          k = 0.0833 0.2406 0.0000 (  5797 PWs)   bands (ev):

    -6.5614  -3.8257  -2.1310  -1.9140  -1.7036  -1.0719  -0.6134  -0.4646
    -0.2764   0.2634   0.6028   1.0330   3.4298

          k = 0.0833 0.3368 0.0000 (  5821 PWs)   bands (ev):

    -5.4677  -3.2628  -2.6118  -1.8171  -1.7150  -1.2274  -0.5822  -0.1816
     0.2888   0.6237   0.7735   1.6364   4.8976

          k = 0.0833 0.4330 0.0000 (  5840 PWs)   bands (ev):

    -4.5473  -3.3824  -2.9850  -1.6305  -1.1087  -1.0480  -0.6680   0.2502
     0.5762   0.8802   1.3329   2.6913   6.6441

          k = 0.0833-0.6255 0.0000 (  5835 PWs)   bands (ev):

    -4.0270  -3.6768  -3.1841  -1.6720  -0.9006  -0.5824  -0.4257   0.5863
     0.7494   1.0304   2.1846   3.6249   7.5674

          k = 0.1667 0.2887 0.0000 (  5822 PWs)   bands (ev):

    -5.5961  -3.0598  -2.3429  -2.3005  -1.9101  -1.2095  -0.6346  -0.2041
     0.2414   0.5835   0.7393   1.6249   4.6886

          k = 0.1667 0.3849 0.0000 (  5824 PWs)   bands (ev):

    -4.6002  -2.8645  -2.7097  -1.9487  -1.7998  -1.3164  -0.7672   0.0524
     0.3795   0.8280   1.5158   2.7487   6.2967

          k = 0.1667-0.6736 0.0000 (  5846 PWs)   bands (ev):

    -3.9281  -3.1921  -2.9275  -1.6036  -1.2634  -1.2217  -0.8732   0.3686
     0.3892   0.9262   2.6165   4.2298   8.1140

          k = 0.1667-0.5774 0.0000 (  5852 PWs)   bands (ev):

    -3.6334  -3.4203  -3.0083  -1.5562  -1.2452  -0.8750  -0.8697   0.3889
     0.7298   0.7393   3.6605   4.6981   7.9818

          k = 0.2500-0.7217 0.0000 (  5860 PWs)   bands (ev):

    -3.8538  -2.8057  -2.7233  -1.7632  -1.7270  -1.3537  -1.0231   0.2422
     0.2800   0.9275   2.7513   4.4303   8.0621

          k = 0.2500-0.6255 0.0000 (  5874 PWs)   bands (ev):

    -3.4276  -2.9480  -2.7572  -1.6007  -1.4422  -1.3490  -1.1910   0.2155
     0.4947   0.7826   4.4116   5.9997   8.0781

          k = 0.3333-0.5774 0.0000 (  5850 PWs)   bands (ev):

    -3.2409  -2.7340  -2.7340  -1.6917  -1.4106  -1.3845  -1.3845   0.1709
     0.6045   0.6045   6.4222   6.8117   6.8117

     the Fermi energy is    -0.2834 ev

!    total energy              =    -324.03770613 Ry
     total all-electron energy =     -5573.725059 Ry
     estimated scf accuracy    <          3.9E-09 Ry
     smearing contrib. (-TS)   =      -0.00066027 Ry
     internal energy E=F+TS    =    -324.03704586 Ry

     The total energy is F=E-TS. E is the sum of the following terms:
     one-electron contribution =    -730.39047035 Ry
     hartree contribution      =     382.08319992 Ry
     xc contribution           =     -65.24196745 Ry
     ewald contribution        =     262.63573893 Ry
     DFT-D3 Dispersion         =      -0.02204873 Ry
     one-center paw contrib.   =    -173.10149818 Ry

     total magnetization       =     3.20 Bohr mag/cell
     absolute magnetization    =     3.63 Bohr mag/cell

     convergence has been achieved in   5 iterations

     negative rho (up, down):  3.065E-06 9.156E-07

     Forces acting on atoms (cartesian axes, Ry/au):

     atom    1 type  1   force =     0.00000000    0.00000000    0.00106789
     atom    2 type  1   force =     0.00000000    0.00000000   -0.00106789
     The non-local contrib.  to forces
     atom    1 type  1   force =     0.00000000    0.00000000   -0.08211499
     atom    2 type  1   force =     0.00000000   -0.00000000    0.08211499
     The ionic contribution  to forces
     atom    1 type  1   force =    -0.00000000   -0.00000000  -42.14887321
     atom    2 type  1   force =     0.00000000    0.00000000   42.14887321
     The local contribution  to forces
     atom    1 type  1   force =    -0.00000000   -0.00000000   42.21735788
     atom    2 type  1   force =     0.00000000    0.00000000  -42.21735788
     The core correction contribution to forces
     atom    1 type  1   force =    -0.00000000   -0.00000000    0.01436079
     atom    2 type  1   force =     0.00000000    0.00000000   -0.01436079
     The Hubbard contrib.    to forces
     atom    1 type  1   force =     0.00000000    0.00000000    0.00000000
     atom    2 type  1   force =     0.00000000    0.00000000    0.00000000
     The SCF correction term to forces
     atom    1 type  1   force =    -0.00000000    0.00000000   -0.00021717
     atom    2 type  1   force =    -0.00000000    0.00000000    0.00021717

     DFT-D3 dispersion contribution to forces:
     atom    1 type  1   force =     0.00000000    0.00000000    0.00055460
     atom    2 type  1   force =    -0.00000000   -0.00000000   -0.00055460

     Total force =     0.001510     Total SCF correction =     0.000307
     SCF correction compared to forces is large: reduce conv_thr to get better values


     Computing stress (Cartesian axis) and pressure


     negative rho (up, down):  3.065E-06 9.156E-07
          total   stress  (Ry/bohr**3)                   (kbar)     P=       -8.43
  -0.00008090   0.00000000   0.00000000          -11.90        0.00        0.00
   0.00000000  -0.00008090   0.00000000            0.00      -11.90        0.00
   0.00000000   0.00000000  -0.00001006            0.00        0.00       -1.48

     Energy error            =      9.2E-06 Ry
     Gradient error          =      1.1E-03 Ry/Bohr

     number of scf cycles    =   5
     number of bfgs steps    =   4

     energy             old  =    -324.0376969739 Ry
     energy             new  =    -324.0377061327 Ry

     CASE: energy            _new < energy            _old

     new trust radius        =       0.0036475305 bohr
     new conv_thr            =       0.0000000100 Ry


ATOMIC_POSITIONS (crystal)
Co            0.6666666667        0.6666666667        0.4425644749
Co            0.0000000000        0.0000000000        0.5574355251



     Writing config-only to output data dir ./tmp/scf.save/
     NEW-OLD atomic charge density approx. for the potential

     negative rho (up, down):  3.147E-06 9.848E-07
     Generating pointlists ...

     total cpu time spent up to now is       24.2 secs

     Self-consistent Calculation

     iteration #  1     ecut=    70.00 Ry     beta= 0.70
     Davidson diagonalization with overlap
     ethr =  1.00E-06,  avg # of iterations =  3.0

     Threshold (ethr) on eigenvalues was too large:
     Diagonalizing with lowered threshold

     Davidson diagonalization with overlap
     ethr =  2.56E-08,  avg # of iterations =  4.2

     negative rho (up, down):  3.106E-06 9.194E-07

     total cpu time spent up to now is       25.3 secs

     total energy              =    -324.03770626 Ry
     estimated scf accuracy    <       0.00000863 Ry

     total magnetization       =     3.20 Bohr mag/cell
     absolute magnetization    =     3.63 Bohr mag/cell

     iteration #  2     ecut=    70.00 Ry     beta= 0.70
     Davidson diagonalization with overlap
     ethr =  4.80E-08,  avg # of iterations =  2.4

     negative rho (up, down):  3.112E-06 8.894E-07

     total cpu time spent up to now is       25.9 secs

     total energy              =    -324.03770407 Ry
     estimated scf accuracy    <       0.00003991 Ry

     total magnetization       =     3.20 Bohr mag/cell
     absolute magnetization    =     3.63 Bohr mag/cell

     iteration #  3     ecut=    70.00 Ry     beta= 0.70
     Davidson diagonalization with overlap
     ethr =  4.80E-08,  avg # of iterations =  2.1

     negative rho (up, down):  3.103E-06 8.949E-07

     total cpu time spent up to now is       26.4 secs

     total energy              =    -324.03771025 Ry
     estimated scf accuracy    <       0.00000228 Ry

     total magnetization       =     3.20 Bohr mag/cell
     absolute magnetization    =     3.63 Bohr mag/cell

     iteration #  4     ecut=    70.00 Ry     beta= 0.70
     Davidson diagonalization with overlap
     ethr =  1.27E-08,  avg # of iterations =  2.1

     negative rho (up, down):  3.076E-06 9.179E-07

     total cpu time spent up to now is       27.0 secs

     total energy              =    -324.03771070 Ry
     estimated scf accuracy    <       0.00000006 Ry

     total magnetization       =     3.20 Bohr mag/cell
     absolute magnetization    =     3.63 Bohr mag/cell

     iteration #  5     ecut=    70.00 Ry     beta= 0.70
     Davidson diagonalization with overlap
     ethr =  3.15E-10,  avg # of iterations =  2.6

     negative rho (up, down):  3.077E-06 9.205E-07
 
     Magnetic moment per site  (integrated on atomic sphere of radius R)
     atom   1 (R=0.410)  charge=  7.4591  magn=  1.6881
     atom   2 (R=0.410)  charge=  7.4591  magn=  1.6881

     total cpu time spent up to now is       27.5 secs

     End of self-consistent calculation

 ------ SPIN UP ------------


          k = 0.0000 0.0000 0.0000 (  5821 PWs)   bands (ev):

    -8.1499  -5.7609  -3.0854  -2.8066  -2.8066  -2.6491  -2.6491  -2.0667
    -1.6961  -1.6961  -1.0697  -1.0697   0.0379

          k = 0.0000 0.0962 0.0000 (  5795 PWs)   bands (ev):

    -7.9041  -5.5506  -3.0803  -2.9085  -2.7911  -2.6936  -2.5482  -2.2266
    -1.7291  -1.5614  -1.3499  -1.0639   0.7273

          k = 0.0000 0.1925 0.0000 (  5797 PWs)   bands (ev):

    -7.2120  -5.0042  -3.2879  -3.1515  -2.8924  -2.4563  -2.4146  -2.2783
    -1.9584  -1.7571  -1.0552  -0.7977   1.9608

          k = 0.0000 0.2887 0.0000 (  5793 PWs)   bands (ev):

    -6.2639  -4.5136  -3.7573  -3.1412  -2.8631  -2.5756  -2.2960  -1.9674
    -1.8519  -1.5371  -1.0459  -0.0036   3.4524

          k = 0.0000 0.3849 0.0000 (  5834 PWs)   bands (ev):

    -5.5041  -4.5468  -4.1684  -3.1234  -2.4794  -2.3751  -2.0948  -1.5705
    -1.4218  -1.1078  -0.9829   1.1195   5.1947

          k = 0.0000 0.4811 0.0000 (  5844 PWs)   bands (ev):

    -5.1954  -4.7654  -4.4369  -3.2478  -2.4605  -2.0423  -1.6567  -1.2526
    -0.7954  -0.7099  -0.1666   2.4453   7.0531

          k = 0.0000-0.5774 0.0000 (  5856 PWs)   bands (ev):

    -5.1131  -4.8817  -4.5300  -3.2980  -2.4935  -1.9107  -1.5169  -1.2316
    -0.6731  -0.5626   1.1785   2.7208   6.9579

          k = 0.0833 0.1443 0.0000 (  5806 PWs)   bands (ev):

    -7.4330  -5.1638  -3.1672  -3.0503  -3.0031  -2.5035  -2.3679  -2.3344
    -1.9660  -1.6297  -1.1978  -0.8857   1.6049

          k = 0.0833 0.2406 0.0000 (  5797 PWs)   bands (ev):

    -6.5926  -4.5681  -3.5149  -3.2845  -3.0522  -2.6338  -2.2817  -1.9906
    -1.9417  -1.5625  -1.1448  -0.2655   2.9027

          k = 0.0833 0.3368 0.0000 (  5821 PWs)   bands (ev):

    -5.6933  -4.3281  -3.9442  -3.1062  -2.9758  -2.6364  -2.2931  -1.8471
    -1.5171  -1.1012  -1.0495   0.7286   4.4953

          k = 0.0833 0.4330 0.0000 (  5840 PWs)   bands (ev):

    -5.1895  -4.5271  -4.2695  -3.1708  -2.5491  -2.3599  -1.9812  -1.5010
    -1.3240  -0.8991  -0.1816   2.1215   6.3417

          k = 0.0833-0.6255 0.0000 (  5835 PWs)   bands (ev):

    -5.0310  -4.7220  -4.4414  -3.2456  -2.5913  -2.0201  -1.6965  -1.3094
    -1.0065  -0.7693   1.2931   3.1815   6.8851

          k = 0.1667 0.2887 0.0000 (  5822 PWs)   bands (ev):

    -5.7521  -4.0615  -3.7189  -3.4918  -3.1904  -2.8140  -2.3584  -1.7936
    -1.5748  -1.1659  -1.0037   0.6471   4.2624

          k = 0.1667 0.3849 0.0000 (  5824 PWs)   bands (ev):

    -5.0906  -4.0806  -4.0094  -3.1525  -3.0437  -2.7949  -2.4436  -1.6701
    -1.4799  -0.9689  -0.0125   2.0517   5.9611

          k = 0.1667-0.6736 0.0000 (  5846 PWs)   bands (ev):

    -4.8291  -4.3183  -4.1952  -3.1396  -2.7778  -2.5005  -2.2193  -1.4885
    -1.4338  -0.9007   1.4840   3.7327   7.7475

          k = 0.1667-0.5774 0.0000 (  5852 PWs)   bands (ev):

    -4.7656  -4.4237  -4.2628  -3.1364  -2.8482  -2.2099  -2.1494  -1.4867
    -1.0903  -1.0890   2.9341   4.0588   7.4278

          k = 0.2500-0.7217 0.0000 (  5860 PWs)   bands (ev):

    -4.7080  -3.9934  -3.9918  -3.1121  -2.9497  -2.7820  -2.6257  -1.6131
    -1.5183  -0.9126   1.5596   3.8859   7.7757

          k = 0.2500-0.6255 0.0000 (  5874 PWs)   bands (ev):

    -4.5442  -4.0491  -3.9914  -3.0605  -2.9493  -2.6955  -2.5482  -1.6476
    -1.3511  -1.0694   3.5732   5.4988   7.4936

          k = 0.3333-0.5774 0.0000 (  5850 PWs)   bands (ev):

    -4.4210  -3.9042  -3.9042  -3.0204  -2.8992  -2.8992  -2.7000  -1.6925
    -1.2557  -1.2557   5.7630   6.2191   6.2191

 ------ SPIN DOWN ----------


          k = 0.0000 0.0000 0.0000 (  5821 PWs)   bands (ev):

    -8.1773  -5.2633  -1.4849  -1.2315  -1.1858  -1.1858  -1.0749  -1.0749
    -0.0127   0.2145   0.2145   0.8294   0.8294

          k = 0.0000 0.0962 0.0000 (  5795 PWs)   bands (ev):

    -7.9298  -5.0288  -1.4987  -1.4653  -1.2917  -1.0609  -0.9640  -0.9530
    -0.4171   0.1709   0.2755   0.8382   1.4768

          k = 0.0000 0.1925 0.0000 (  5797 PWs)   bands (ev):

    -7.2211  -4.3859  -1.8909  -1.6772  -1.4803  -0.9727  -0.7602  -0.6418
    -0.6083   0.1100   0.5504   0.8493   2.5822

          k = 0.0000 0.2887 0.0000 (  5793 PWs)   bands (ev):

    -6.1789  -3.6314  -2.4068  -1.7904  -1.6078  -1.1383  -0.5854  -0.3433
    -0.1237   0.2635   0.8503   1.0772   3.9319

          k = 0.0000 0.3849 0.0000 (  5834 PWs)   bands (ev):

    -5.1029  -3.4304  -2.8689  -1.6002  -1.2560  -1.0843  -0.6378   0.1223
     0.4177   0.6884   0.8728   1.8548   5.5508

          k = 0.0000 0.4811 0.0000 (  5844 PWs)   bands (ev):

    -4.3743  -3.6634  -3.1769  -1.6777  -0.7245  -0.6166  -0.4470   0.6720
     0.8727   1.0416   1.1067   2.8371   7.3393

          k = 0.0000-0.5774 0.0000 (  5856 PWs)   bands (ev):

    -4.0112  -3.9295  -3.2842  -1.7230  -0.7598  -0.4039  -0.1058   0.6979
     1.1796   1.2717   1.6590   3.1722   7.5709

          k = 0.0833 0.1443 0.0000 (  5806 PWs)   bands (ev):

    -7.4505  -4.5848  -1.7186  -1.6286  -1.4973  -0.9421  -0.7834  -0.7650
    -0.6353   0.1972   0.3537   0.8710   2.2655

          k = 0.0833 0.2406 0.0000 (  5797 PWs)   bands (ev):

    -6.5645  -3.8261  -2.1359  -1.9166  -1.7001  -1.0685  -0.6124  -0.4657
    -0.2776   0.2660   0.6052   1.0376   3.4358

          k = 0.0833 0.3368 0.0000 (  5821 PWs)   bands (ev):

    -5.4713  -3.2648  -2.6171  -1.8189  -1.7139  -1.2236  -0.5866  -0.1772
     0.2881   0.6269   0.7775   1.6419   4.9033

          k = 0.0833 0.4330 0.0000 (  5840 PWs)   bands (ev):

    -4.5519  -3.3856  -2.9899  -1.6278  -1.1101  -1.0481  -0.6716   0.2551
     0.5793   0.8831   1.3350   2.6978   6.6492

          k = 0.0833-0.6255 0.0000 (  5835 PWs)   bands (ev):

    -4.0322  -3.6808  -3.1884  -1.6677  -0.9067  -0.5818  -0.4263   0.5907
     0.7532   1.0337   2.1865   3.6313   7.5699

          k = 0.1667 0.2887 0.0000 (  5822 PWs)   bands (ev):

    -5.5997  -3.0617  -2.3471  -2.3050  -1.9079  -1.2061  -0.6347  -0.2026
     0.2409   0.5869   0.7422   1.6305   4.6943

          k = 0.1667 0.3849 0.0000 (  5824 PWs)   bands (ev):

    -4.6047  -2.8680  -2.7155  -1.9506  -1.7997  -1.3129  -0.7688   0.0569
     0.3828   0.8306   1.5178   2.7545   6.3020

          k = 0.1667-0.6736 0.0000 (  5846 PWs)   bands (ev):

    -3.9338  -3.1965  -2.9322  -1.6026  -1.2650  -1.2221  -0.8737   0.3735
     0.3940   0.9301   2.6183   4.2352   8.1186

          k = 0.1667-0.5774 0.0000 (  5852 PWs)   bands (ev):

    -3.6404  -3.4242  -3.0126  -1.5525  -1.2506  -0.8759  -0.8688   0.3936
     0.7353   0.7434   3.6619   4.7031   7.9856

          k = 0.2500-0.7217 0.0000 (  5860 PWs)   bands (ev):

    -3.8598  -2.8106  -2.7290  -1.7643  -1.7284  -1.3506  -1.0233   0.2473
     0.2850   0.9315   2.7532   4.4354   8.0671

          k = 0.2500-0.6255 0.0000 (  5874 PWs)   bands (ev):

    -3.4353  -2.9530  -2.7624  -1.6036  -1.4416  -1.3474  -1.1902   0.2216
     0.4998   0.7873   4.4135   6.0037   8.0813

          k = 0.3333-0.5774 0.0000 (  5850 PWs)   bands (ev):

    -3.2496  -2.7398  -2.7398  -1.6937  -1.4079  -1.3842  -1.3842   0.1785
     0.6092   0.6092   6.4236   6.8144   6.8144

     the Fermi energy is    -0.2810 ev

!    total energy              =    -324.03771072 Ry
     total all-electron energy =     -5573.725063 Ry
     estimated scf accuracy    <          6.1E-09 Ry
     smearing contrib. (-TS)   =      -0.00065787 Ry
     internal energy E=F+TS    =    -324.03705285 Ry

     The total energy is F=E-TS. E is the sum of the following terms:
     one-electron contribution =    -731.00442792 Ry
     hartree contribution      =     382.39137924 Ry
     xc contribution           =     -65.24361140 Ry
     ewald contribution        =     262.94328944 Ry
     DFT-D3 Dispersion         =      -0.02205278 Ry
     one-center paw contrib.   =    -173.10162944 Ry

     total magnetization       =     3.20 Bohr mag/cell
     absolute magnetization    =     3.63 Bohr mag/cell

     convergence has been achieved in   5 iterations

     negative rho (up, down):  3.077E-06 9.205E-07

     Forces acting on atoms (cartesian axes, Ry/au):

     atom    1 type  1   force =     0.00000000    0.00000000   -0.00002566
     atom    2 type  1   force =     0.00000000    0.00000000    0.00002566
     The non-local contrib.  to forces
     atom    1 type  1   force =    -0.00000000    0.00000000   -0.08243271
     atom    2 type  1   force =     0.00000000   -0.00000000    0.08243271
     The ionic contribution  to forces
     atom    1 type  1   force =    -0.00000000   -0.00000000  -42.16857937
     atom    2 type  1   force =     0.00000000    0.00000000   42.16857937
     The local contribution  to forces
     atom    1 type  1   force =    -0.00000000   -0.00000000   42.23625975
     atom    2 type  1   force =     0.00000000    0.00000000  -42.23625975
     The core correction contribution to forces
     atom    1 type  1   force =    -0.00000000   -0.00000000    0.01444064
     atom    2 type  1   force =     0.00000000    0.00000000   -0.01444064
     The Hubbard contrib.    to forces
     atom    1 type  1   force =     0.00000000    0.00000000    0.00000000
     atom    2 type  1   force =     0.00000000    0.00000000    0.00000000
     The SCF correction term to forces
     atom    1 type  1   force =     0.00000000   -0.00000000   -0.00026974
     atom    2 type  1   force =     0.00000000   -0.00000000    0.00026974

     DFT-D3 dispersion contribution to forces:
     atom    1 type  1   force =     0.00000000    0.00000000    0.00055577
     atom    2 type  1   force =    -0.00000000   -0.00000000   -0.00055577

     Total force =     0.000036     Total SCF correction =     0.000381
     SCF correction compared to forces is large: reduce conv_thr to get better values


     Computing stress (Cartesian axis) and pressure


     negative rho (up, down):  3.077E-06 9.205E-07
          total   stress  (Ry/bohr**3)                   (kbar)     P=       -7.83
  -0.00007819   0.00000000   0.00000000          -11.50        0.00        0.00
   0.00000000  -0.00007819   0.00000000            0.00      -11.50        0.00
   0.00000000   0.00000000  -0.00000321            0.00        0.00       -0.47

     Energy error            =      4.6E-06 Ry
     Gradient error          =      2.6E-05 Ry/Bohr

     bfgs converged in   6 scf cycles and   5 bfgs steps
     (criteria: energy <  1.0E-04 Ry, force <  1.0E-03 Ry/Bohr)

     End of BFGS Geometry Optimization

     Final energy             =    -324.0377107219 Ry

     File ./tmp/scf.bfgs deleted, as requested
Begin final coordinates

ATOMIC_POSITIONS (crystal)
Co            0.6666666667        0.6666666667        0.4425644749
Co            0.0000000000        0.0000000000        0.5574355251
End final coordinates



     Writing all to output data dir ./tmp/scf.save/
 
     init_run     :      0.44s CPU      0.57s WALL (       1 calls)
     electrons    :     19.50s CPU     20.87s WALL (       6 calls)
     update_pot   :      1.32s CPU      1.56s WALL (       5 calls)
     forces       :      1.16s CPU      1.18s WALL (       6 calls)
     force_dftd3  :      0.19s CPU      0.19s WALL (       6 calls)
     stress       :      3.10s CPU      3.23s WALL (       6 calls)
     stres_dftd3  :      0.34s CPU      0.34s WALL (       6 calls)

     Called by init_run:
     wfcinit      :      0.10s CPU      0.12s WALL (       1 calls)
     potinit      :      0.12s CPU      0.15s WALL (       1 calls)
     hinit0       :      0.08s CPU      0.15s WALL (       1 calls)

     Called by electrons:
     c_bands      :     10.62s CPU     11.71s WALL (      37 calls)
     sum_band     :      3.88s CPU      3.95s WALL (      37 calls)
     v_of_rho     :      0.95s CPU      1.12s WALL (      39 calls)
     newd         :      1.39s CPU      1.41s WALL (      39 calls)
     PAW_pot      :      3.58s CPU      3.61s WALL (      44 calls)
     mix_rho      :      0.07s CPU      0.07s WALL (      37 calls)
     energy_dftd3 :      0.13s CPU      0.13s WALL (       6 calls)

     Called by c_bands:
     init_us_2    :      0.20s CPU      0.21s WALL (    3496 calls)
     init_us_2:cp :      0.20s CPU      0.21s WALL (    3496 calls)
     cegterg      :      9.32s CPU     10.38s WALL (    1406 calls)

     Called by *egterg:
     cdiaghg      :      0.71s CPU      0.74s WALL (    4961 calls)
     h_psi        :      7.98s CPU      8.97s WALL (    5341 calls)
     s_psi        :      0.11s CPU      0.12s WALL (    5341 calls)
     g_psi        :      0.03s CPU      0.03s WALL (    3897 calls)

     Called by h_psi:
     h_psi:calbec :      0.21s CPU      0.22s WALL (    5341 calls)
     vloc_psi     :      7.61s CPU      8.58s WALL (    5341 calls)
     add_vuspsi   :      0.12s CPU      0.13s WALL (    5341 calls)

     General routines
     calbec       :      0.37s CPU      0.39s WALL (    8077 calls)
     fft          :      1.18s CPU      1.64s WALL (    1216 calls)
     ffts         :      0.01s CPU      0.02s WALL (     152 calls)
     fftw         :      7.50s CPU      8.40s WALL (  122672 calls)
     interpolate  :      0.04s CPU      0.05s WALL (      78 calls)
 
     Parallel routines
 
     PWSCF        :     26.33s CPU     28.35s WALL

 
   This run was terminated on:   9:29:38  23Jul2025            

=------------------------------------------------------------------------------=
   JOB DONE.
=------------------------------------------------------------------------------=
