
     Program PWSCF v.7.2 starts on  5Jun2025 at 16:16:29 

     This program is part of the open-source Quantum ESPRESSO suite
     for quantum simulation of materials; please cite
         "P. Giannozzi et al., J. Phys.:Condens. Matter 21 395502 (2009);
         "P. Giannozzi et al., J. Phys.:Condens. Matter 29 465901 (2017);
         "P. Giannozzi et al., J. Chem. Phys. 152 154105 (2020);
          URL http://www.quantum-espresso.org", 
     in publications or presentations arising from this work. More details at
     http://www.quantum-espresso.org/quote

     Parallel version (MPI), running on    16 processors

     MPI processes distributed on     1 nodes
     37406 MiB available memory on the printing compute node when the environment starts
 
     Waiting for input...
     Reading input from standard input

     Current dimensions of program PWSCF are:
     Max number of different atomic species (ntypx) = 10
     Max number of k-points (npk) =  40000
     Max angular momentum in pseudopotentials (lmaxx) =  4
     file Co.pbe-n-kjpaw_psl.1.0.0.UPF: wavefunction(s)  4S 3D renormalized
     Message from routine setup:
     using ibrav=0 with symmetry is DISCOURAGED, use correct ibrav instead
 
     R & G space division:  proc/nbgrp/npool/nimage =      16
     Subspace diagonalization in iterative solution of the eigenvalue problem:
     a serial algorithm will be used

 
     Parallelization info
     --------------------
     sticks:   dense  smooth     PW     G-vecs:    dense   smooth      PW
     Min          22      22      7                 2340     2340     427
     Max          23      23      9                 2350     2350     437
     Sum         361     361    121                37539    37539    6881
 
     Using Slab Decomposition
 


     bravais-lattice index     =            0
     lattice parameter (alat)  =       4.6298  a.u.
     unit-cell volume          =     596.1396 (a.u.)^3
     number of atoms/cell      =            2
     number of atomic types    =            1
     number of electrons       =        18.00
     number of Kohn-Sham states=           13
     kinetic-energy cutoff     =      60.0000  Ry
     charge density cutoff     =     240.0000  Ry
     scf convergence threshold =      1.0E-06
     mixing beta               =       0.7000
     number of iterations used =            8  plain     mixing
     Exchange-correlation= SLA  PW   PBX  PBC
                           (   1   4   3   4   0   0   0)

     celldm(1)=   4.629829  celldm(2)=   0.000000  celldm(3)=   0.000000
     celldm(4)=   0.000000  celldm(5)=   0.000000  celldm(6)=   0.000000

     crystal axes: (cart. coord. in units of alat)
               a(1) = (   1.000000   0.000000   0.000000 )  
               a(2) = (   0.500000   0.866025   0.000000 )  
               a(3) = (   0.000000   0.000000   6.936214 )  

     reciprocal axes: (cart. coord. in units 2 pi/alat)
               b(1) = (  1.000000 -0.577350  0.000000 )  
               b(2) = (  0.000000  1.154701  0.000000 )  
               b(3) = (  0.000000  0.000000  0.144171 )  


     PseudoPot. # 1 for Co read from file:
     /shared/ESPRESSO/PSLIBRARY/1.0.0/pbe/PSEUDOPOTENTIALS/Co.pbe-n-kjpaw_psl.1.0.0.UPF
     MD5 check sum: 17e7ab8db721b244d1352252ea6cb8e7
     Pseudo is Projector augmented-wave + core cor, Zval =  9.0
     Generated using "atomic" code by A. Dal Corso  (Quantum ESPRESSO distribution)
     Shape of augmentation charge: PSQ
     Using radial grid of 1193 points,  6 beta functions with: 
                l(1) =   0
                l(2) =   0
                l(3) =   1
                l(4) =   1
                l(5) =   2
                l(6) =   2
     Q(r) pseudized with 0 coefficients 


     atomic species   valence    mass     pseudopotential
        Co             9.00    58.93320     Co( 1.00)

     12 Sym. Ops., with inversion, found ( 6 have fractional translation)



   Cartesian axes

     site n.     atom                  positions (alat units)
         1           Co  tau(   1) = (   1.0000000   0.5773503   3.0612245  )
         2           Co  tau(   2) = (   0.0000000   0.0000000   3.8749895  )

     number of k points=    30  Fermi-Dirac smearing, width (Ry)=  0.0070
                       cart. coord. in units 2pi/alat
        k(    1) = (   0.0000000   0.0000000   0.0000000), wk =   0.0078125
        k(    2) = (   0.0000000   0.0721688   0.0000000), wk =   0.0468750
        k(    3) = (   0.0000000   0.1443376   0.0000000), wk =   0.0468750
        k(    4) = (   0.0000000   0.2165064   0.0000000), wk =   0.0468750
        k(    5) = (   0.0000000   0.2886751   0.0000000), wk =   0.0468750
        k(    6) = (   0.0000000   0.3608439   0.0000000), wk =   0.0468750
        k(    7) = (   0.0000000   0.4330127   0.0000000), wk =   0.0468750
        k(    8) = (   0.0000000   0.5051815   0.0000000), wk =   0.0468750
        k(    9) = (   0.0000000  -0.5773503   0.0000000), wk =   0.0234375
        k(   10) = (   0.0625000   0.1082532   0.0000000), wk =   0.0468750
        k(   11) = (   0.0625000   0.1804220   0.0000000), wk =   0.0937500
        k(   12) = (   0.0625000   0.2525907   0.0000000), wk =   0.0937500
        k(   13) = (   0.0625000   0.3247595   0.0000000), wk =   0.0937500
        k(   14) = (   0.0625000   0.3969283   0.0000000), wk =   0.0937500
        k(   15) = (   0.0625000   0.4690971   0.0000000), wk =   0.0937500
        k(   16) = (   0.0625000  -0.6134347   0.0000000), wk =   0.0937500
        k(   17) = (   0.1250000   0.2165064   0.0000000), wk =   0.0468750
        k(   18) = (   0.1250000   0.2886751   0.0000000), wk =   0.0937500
        k(   19) = (   0.1250000   0.3608439   0.0000000), wk =   0.0937500
        k(   20) = (   0.1250000   0.4330127   0.0000000), wk =   0.0937500
        k(   21) = (   0.1250000  -0.6495191   0.0000000), wk =   0.0937500
        k(   22) = (   0.1250000  -0.5773503   0.0000000), wk =   0.0468750
        k(   23) = (   0.1875000   0.3247595   0.0000000), wk =   0.0468750
        k(   24) = (   0.1875000   0.3969283   0.0000000), wk =   0.0937500
        k(   25) = (   0.1875000  -0.6856034   0.0000000), wk =   0.0937500
        k(   26) = (   0.1875000  -0.6134347   0.0000000), wk =   0.0937500
        k(   27) = (   0.2500000  -0.7216878   0.0000000), wk =   0.0468750
        k(   28) = (   0.2500000  -0.6495191   0.0000000), wk =   0.0937500
        k(   29) = (   0.2500000  -0.5773503   0.0000000), wk =   0.0468750
        k(   30) = (   0.3125000  -0.6134347   0.0000000), wk =   0.0468750

     Dense  grid:    37539 G-vectors     FFT dimensions: (  24,  24, 160)

     Estimated max dynamical RAM per process >      11.77 MB

     Estimated total dynamical RAM >     188.37 MB

     Check: negative core charge=   -0.000001

     Initial potential from superposition of free atoms

     starting charge      17.9994, renormalised to      18.0000

     negative rho (up, down):  4.022E-04 0.000E+00
     Starting wfcs are   18 randomized atomic wfcs
     Checking if some PAW data can be deallocated... 

     total cpu time spent up to now is        0.4 secs

     Self-consistent Calculation

     iteration #  1     ecut=    60.00 Ry     beta= 0.70
     Davidson diagonalization with overlap
     ethr =  1.00E-02,  avg # of iterations =  2.2

     negative rho (up, down):  3.774E-04 0.000E+00

     total cpu time spent up to now is        0.7 secs

     total energy              =    -323.78552061 Ry
     estimated scf accuracy    <       0.29915080 Ry

     iteration #  2     ecut=    60.00 Ry     beta= 0.70
     Davidson diagonalization with overlap
     ethr =  1.66E-03,  avg # of iterations =  5.7

     total cpu time spent up to now is        1.1 secs

     total energy              =    -323.47236089 Ry
     estimated scf accuracy    <       3.45528377 Ry

     iteration #  3     ecut=    60.00 Ry     beta= 0.70
     Davidson diagonalization with overlap
     ethr =  1.66E-03,  avg # of iterations =  3.4

     total cpu time spent up to now is        1.4 secs

     total energy              =    -323.97610227 Ry
     estimated scf accuracy    <       0.02230188 Ry

     iteration #  4     ecut=    60.00 Ry     beta= 0.70
     Davidson diagonalization with overlap
     ethr =  1.24E-04,  avg # of iterations =  4.1

     negative rho (up, down):  7.726E-07 0.000E+00

     total cpu time spent up to now is        1.7 secs

     total energy              =    -323.97687706 Ry
     estimated scf accuracy    <       0.00897729 Ry

     iteration #  5     ecut=    60.00 Ry     beta= 0.70
     Davidson diagonalization with overlap
     ethr =  4.99E-05,  avg # of iterations =  2.2

     negative rho (up, down):  7.570E-06 0.000E+00

     total cpu time spent up to now is        2.0 secs

     total energy              =    -323.97718641 Ry
     estimated scf accuracy    <       0.00196255 Ry

     iteration #  6     ecut=    60.00 Ry     beta= 0.70
     Davidson diagonalization with overlap
     ethr =  1.09E-05,  avg # of iterations =  3.0

     negative rho (up, down):  6.258E-05 0.000E+00

     total cpu time spent up to now is        2.3 secs

     total energy              =    -323.97741565 Ry
     estimated scf accuracy    <       0.00037126 Ry

     iteration #  7     ecut=    60.00 Ry     beta= 0.70
     Davidson diagonalization with overlap
     ethr =  2.06E-06,  avg # of iterations =  4.7

     negative rho (up, down):  5.932E-04 0.000E+00

     total cpu time spent up to now is        2.7 secs

     total energy              =    -323.97742193 Ry
     estimated scf accuracy    <       0.00007840 Ry

     iteration #  8     ecut=    60.00 Ry     beta= 0.70
     Davidson diagonalization with overlap
     ethr =  4.36E-07,  avg # of iterations =  2.4

     negative rho (up, down):  4.852E-04 0.000E+00

     total cpu time spent up to now is        3.0 secs

     total energy              =    -323.97743884 Ry
     estimated scf accuracy    <       0.00000297 Ry

     iteration #  9     ecut=    60.00 Ry     beta= 0.70
     Davidson diagonalization with overlap
     ethr =  1.65E-08,  avg # of iterations =  3.2

     negative rho (up, down):  4.652E-04 0.000E+00

     total cpu time spent up to now is        3.3 secs

     End of self-consistent calculation

          k = 0.0000 0.0000 0.0000 (  4687 PWs)   bands (ev):

    -7.9892  -5.3651  -2.2449  -2.0079  -2.0079  -1.8810  -1.8810  -1.6050
    -0.7135  -0.7135  -0.1497  -0.1497   0.0134

          k = 0.0000 0.0722 0.0000 (  4670 PWs)   bands (ev):

    -7.8510  -5.2378  -2.2432  -2.0631  -1.9921  -1.9407  -1.8203  -1.5847
    -0.7382  -0.7354  -0.5928  -0.1466   0.6820

          k = 0.0000 0.1443 0.0000 (  4690 PWs)   bands (ev):

    -7.4473  -4.8761  -2.3094  -2.2780  -2.0959  -1.7497  -1.6481  -1.6284
    -1.1345  -0.7960  -0.3917  -0.1419   1.5348

          k = 0.0000 0.2165 0.0000 (  4700 PWs)   bands (ev):

    -6.8174  -4.3621  -2.6146  -2.4310  -2.1425  -1.7634  -1.4939  -1.3847
    -1.2695  -0.8302  -0.1423  -0.0299   2.5013

          k = 0.0000 0.2887 0.0000 (  4688 PWs)   bands (ev):

    -6.0501  -3.9279  -2.9668  -2.3976  -2.1689  -1.8855  -1.3576  -1.1516
    -1.0283  -0.7106  -0.1476   0.4592   3.5958

          k = 0.0000 0.3608 0.0000 (  4690 PWs)   bands (ev):

    -5.3163  -3.8553  -3.2890  -2.2643  -1.9352  -1.7449  -1.3824  -0.8765
    -0.6501  -0.4161  -0.1448   1.1116   4.8328

          k = 0.0000 0.4330 0.0000 (  4672 PWs)   bands (ev):

    -4.8086  -4.0029  -3.5426  -2.3595  -1.4531  -1.4480  -1.2456  -0.3770
    -0.3636  -0.0973  -0.0799   1.9608   6.2002

          k = 0.0000 0.5052 0.0000 (  4690 PWs)   bands (ev):

    -4.5366  -4.1807  -3.7041  -2.4401  -1.4993  -1.1702  -0.8406  -0.2992
     0.0733   0.1411   0.6061   2.7430   7.1899

          k = 0.0000-0.5774 0.0000 (  4696 PWs)   bands (ev):

    -4.4069  -4.3013  -3.7597  -2.4693  -1.5180  -1.0840  -0.7175  -0.2897
     0.1460   0.2293   1.3516   2.8484   7.1252

          k = 0.0625 0.1083 0.0000 (  4683 PWs)   bands (ev):

    -7.5797  -4.9922  -2.2789  -2.1670  -2.1348  -1.8023  -1.6987  -1.6022
    -1.0731  -0.7060  -0.5293  -0.1293   1.2961

          k = 0.0625 0.1804 0.0000 (  4681 PWs)   bands (ev):

    -7.0606  -4.5429  -2.4617  -2.4048  -2.1939  -1.7211  -1.5295  -1.4762
    -1.2947  -0.7540  -0.3220  -0.0404   2.1481

          k = 0.0625 0.2526 0.0000 (  4688 PWs)   bands (ev):

    -6.3530  -4.0225  -2.7879  -2.5283  -2.2525  -1.8610  -1.3740  -1.2279
    -1.1360  -0.7177  -0.2260   0.2979   3.1539

          k = 0.0625 0.3248 0.0000 (  4691 PWs)   bands (ev):

    -5.5827  -3.7523  -3.1193  -2.3478  -2.2370  -1.9360  -1.3467  -1.0549
    -0.7477  -0.4485  -0.2010   0.8717   4.3093

          k = 0.0625 0.3969 0.0000 (  4678 PWs)   bands (ev):

    -4.9514  -3.8365  -3.4013  -2.3061  -1.8225  -1.6868  -1.3807  -0.7797
    -0.4420  -0.1679   0.0030   1.6759   5.6147

          k = 0.0625 0.4691 0.0000 (  4680 PWs)   bands (ev):

    -4.5797  -4.0203  -3.6044  -2.3884  -1.5660  -1.3556  -1.1286  -0.4074
    -0.3207  -0.0103   0.6256   2.6245   7.0037

          k = 0.0625-0.6134 0.0000 (  4697 PWs)   bands (ev):

    -4.3860  -4.1846  -3.7107  -2.4383  -1.5868  -1.1621  -0.8651  -0.3404
    -0.0757   0.0922   1.5312   3.1270   7.0390

          k = 0.1250 0.2165 0.0000 (  4697 PWs)   bands (ev):

    -6.4573  -4.0494  -2.6667  -2.6151  -2.3457  -1.8397  -1.4255  -1.1947
    -1.1647  -0.6609  -0.3292   0.2754   3.0043

          k = 0.1250 0.2887 0.0000 (  4686 PWs)   bands (ev):

    -5.7222  -3.5758  -2.9434  -2.7161  -2.4184  -1.9723  -1.4117  -1.0404
    -0.7745  -0.3999  -0.3107   0.8027   4.0491

          k = 0.1250 0.3608 0.0000 (  4666 PWs)   bands (ev):

    -5.0191  -3.5235  -3.2149  -2.3891  -2.3427  -2.0230  -1.4422  -0.9077
    -0.5202  -0.2337   0.1178   1.5964   5.2676

          k = 0.1250 0.4330 0.0000 (  4673 PWs)   bands (ev):

    -4.5357  -3.7163  -3.4307  -2.3275  -1.8774  -1.8125  -1.4603  -0.6970
    -0.4658  -0.0775   0.8274   2.6433   6.6362

          k = 0.1250-0.6495 0.0000 (  4692 PWs)   bands (ev):

    -4.2819  -3.9064  -3.5703  -2.3619  -1.7636  -1.4596  -1.2867  -0.4626
    -0.4091  -0.0336   1.7997   3.6201   7.3939

          k = 0.1250-0.5774 0.0000 (  4680 PWs)   bands (ev):

    -4.1746  -4.0122  -3.6187  -2.3755  -1.7789  -1.3171  -1.1900  -0.4632
    -0.1746  -0.1272   2.5691   3.7352   7.3594

          k = 0.1875 0.3248 0.0000 (  4676 PWs)   bands (ev):

    -5.0371  -3.2123  -3.0990  -2.8012  -2.4814  -2.0696  -1.4955  -0.8895
    -0.5837  -0.2524   0.1597   1.5834   5.1536

          k = 0.1875 0.3969 0.0000 (  4671 PWs)   bands (ev):

    -4.4729  -3.3395  -3.2446  -2.4413  -2.3449  -2.0917  -1.6078  -0.7524
    -0.5972  -0.0886   0.9362   2.6738   6.4463

          k = 0.1875-0.6856 0.0000 (  4664 PWs)   bands (ev):

    -4.1375  -3.5428  -3.3673  -2.3064  -1.9955  -1.9659  -1.6514  -0.6293
    -0.5725  -0.0491   1.9735   3.9374   7.8496

          k = 0.1875-0.6134 0.0000 (  4676 PWs)   bands (ev):

    -3.9750  -3.6841  -3.4395  -2.2804  -2.0055  -1.6811  -1.5866  -0.6149
    -0.3738  -0.1502   3.1906   4.6387   7.4056

          k = 0.2500-0.7217 0.0000 (  4654 PWs)   bands (ev):

    -4.0661  -3.3120  -3.2367  -2.3424  -2.2814  -2.0828  -1.7809  -0.7032
    -0.6148  -0.0462   2.0308   4.0307   7.8111

          k = 0.2500-0.6495 0.0000 (  4648 PWs)   bands (ev):

    -3.8317  -3.3649  -3.2485  -2.2633  -2.1616  -2.0241  -1.8669  -0.7441
    -0.4856  -0.1304   3.3902   5.4027   7.9465

          k = 0.2500-0.5774 0.0000 (  4670 PWs)   bands (ev):

    -3.7499  -3.3999  -3.2577  -2.2231  -2.1743  -1.9582  -1.8737  -0.7444
    -0.3672  -0.2500   4.5898   5.3850   8.1650

          k = 0.3125-0.6134 0.0000 (  4636 PWs)   bands (ev):

    -3.6645  -3.2301  -3.1745  -2.3047  -2.1535  -2.0492  -2.0426  -0.7983
    -0.3952  -0.2639   5.0309   6.5387   7.0091

     the Fermi energy is    -0.4027 ev

!    total energy              =    -323.97743929 Ry
     total all-electron energy =     -5573.664792 Ry
     estimated scf accuracy    <       0.00000052 Ry
     smearing contrib. (-TS)   =      -0.01388234 Ry
     internal energy E=F+TS    =    -323.96355695 Ry

     The total energy is F=E-TS. E is the sum of the following terms:
     one-electron contribution =    -719.09321322 Ry
     hartree contribution      =     376.39387437 Ry
     xc contribution           =     -65.06260069 Ry
     ewald contribution        =     256.88906235 Ry
     one-center paw contrib.   =    -173.09067977 Ry

     convergence has been achieved in   9 iterations

     negative rho (up, down):  4.652E-04 0.000E+00

     Forces acting on atoms (cartesian axes, Ry/au):

     atom    1 type  1   force =     0.00000000    0.00000000    0.02384079
     atom    2 type  1   force =     0.00000000    0.00000000   -0.02384079
     The non-local contrib.  to forces
     atom    1 type  1   force =     0.00000000    0.00000000   -0.09320625
     atom    2 type  1   force =     0.00000000   -0.00000000    0.09320625
     The ionic contribution  to forces
     atom    1 type  1   force =    -0.00000000    0.00000000  -41.52793710
     atom    2 type  1   force =     0.00000000   -0.00000000   41.52793710
     The local contribution  to forces
     atom    1 type  1   force =    -0.00000000   -0.00000000   41.62764654
     atom    2 type  1   force =     0.00000000    0.00000000  -41.62764654
     The core correction contribution to forces
     atom    1 type  1   force =    -0.00000000   -0.00000000    0.01487363
     atom    2 type  1   force =     0.00000000    0.00000000   -0.01487363
     The Hubbard contrib.    to forces
     atom    1 type  1   force =     0.00000000    0.00000000    0.00000000
     atom    2 type  1   force =     0.00000000    0.00000000    0.00000000
     The SCF correction term to forces
     atom    1 type  1   force =     0.00000000    0.00000000    0.00246397
     atom    2 type  1   force =    -0.00000000    0.00000000   -0.00246397

     Total force =     0.033716     Total SCF correction =     0.003485
     SCF correction compared to forces is large: reduce conv_thr to get better values


     Computing stress (Cartesian axis) and pressure


     negative rho (up, down):  4.652E-04 0.000E+00
          total   stress  (Ry/bohr**3)                   (kbar)     P=      -37.91
  -0.00030636   0.00000000  -0.00000000          -45.07        0.00       -0.00
   0.00000000  -0.00030636  -0.00000000            0.00      -45.07       -0.00
   0.00000000   0.00000000  -0.00016031            0.00        0.00      -23.58


     Writing all to output data dir ./tmp/scf.save/
 
     init_run     :      0.21s CPU      0.28s WALL (       1 calls)
     electrons    :      2.65s CPU      2.91s WALL (       1 calls)
     forces       :      0.05s CPU      0.05s WALL (       1 calls)
     stress       :      0.23s CPU      0.24s WALL (       1 calls)

     Called by init_run:
     wfcinit      :      0.06s CPU      0.08s WALL (       1 calls)
     potinit      :      0.06s CPU      0.08s WALL (       1 calls)
     hinit0       :      0.06s CPU      0.10s WALL (       1 calls)

     Called by electrons:
     c_bands      :      1.72s CPU      1.89s WALL (       9 calls)
     sum_band     :      0.29s CPU      0.36s WALL (       9 calls)
     v_of_rho     :      0.01s CPU      0.02s WALL (      10 calls)
     newd         :      0.10s CPU      0.10s WALL (      10 calls)
     PAW_pot      :      0.58s CPU      0.59s WALL (      10 calls)
     mix_rho      :      0.00s CPU      0.01s WALL (       9 calls)

     Called by c_bands:
     init_us_2    :      0.03s CPU      0.03s WALL (     630 calls)
     init_us_2:cp :      0.03s CPU      0.03s WALL (     630 calls)
     cegterg      :      1.33s CPU      1.50s WALL (     270 calls)

     Called by *egterg:
     cdiaghg      :      0.15s CPU      0.17s WALL (    1201 calls)
     h_psi        :      1.07s CPU      1.20s WALL (    1231 calls)
     s_psi        :      0.02s CPU      0.02s WALL (    1231 calls)
     g_psi        :      0.00s CPU      0.00s WALL (     931 calls)

     Called by h_psi:
     h_psi:calbec :      0.05s CPU      0.05s WALL (    1231 calls)
     vloc_psi     :      0.99s CPU      1.12s WALL (    1231 calls)
     add_vuspsi   :      0.02s CPU      0.02s WALL (    1231 calls)

     General routines
     calbec       :      0.14s CPU      0.15s WALL (    1651 calls)
     fft          :      0.03s CPU      0.08s WALL (     135 calls)
     ffts         :      0.00s CPU      0.00s WALL (       9 calls)
     fftw         :      1.08s CPU      1.23s WALL (   23086 calls)
 
     Parallel routines
 
     PWSCF        :      3.31s CPU      3.70s WALL

 
   This run was terminated on:  16:16:33   5Jun2025            

=------------------------------------------------------------------------------=
   JOB DONE.
=------------------------------------------------------------------------------=
