
     Program PWSCF v.7.2 starts on  5Jun2025 at 16:16:35 

     This program is part of the open-source Quantum ESPRESSO suite
     for quantum simulation of materials; please cite
         "P. Giannozzi et al., J. Phys.:Condens. Matter 21 395502 (2009);
         "P. Giannozzi et al., J. Phys.:Condens. Matter 29 465901 (2017);
         "P. Giannozzi et al., J. Chem. Phys. 152 154105 (2020);
          URL http://www.quantum-espresso.org", 
     in publications or presentations arising from this work. More details at
     http://www.quantum-espresso.org/quote

     Parallel version (MPI), running on    16 processors

     MPI processes distributed on     1 nodes
     37552 MiB available memory on the printing compute node when the environment starts
 
     Waiting for input...
     Reading input from standard input

     Current dimensions of program PWSCF are:
     Max number of different atomic species (ntypx) = 10
     Max number of k-points (npk) =  40000
     Max angular momentum in pseudopotentials (lmaxx) =  4
     file Co.pbe-n-kjpaw_psl.1.0.0.UPF: wavefunction(s)  4S 3D renormalized
     Message from routine setup:
     using ibrav=0 with symmetry is DISCOURAGED, use correct ibrav instead
 
     R & G space division:  proc/nbgrp/npool/nimage =      16
     Subspace diagonalization in iterative solution of the eigenvalue problem:
     a serial algorithm will be used

 
     Parallelization info
     --------------------
     sticks:   dense  smooth     PW     G-vecs:    dense   smooth      PW
     Min          26      26      7                 2952     2952     498
     Max          27      27      9                 2973     2973     532
     Sum         421     421    127                47343    47343    8275
 
     Using Slab Decomposition
 


     bravais-lattice index     =            0
     lattice parameter (alat)  =       4.6298  a.u.
     unit-cell volume          =     596.1396 (a.u.)^3
     number of atoms/cell      =            2
     number of atomic types    =            1
     number of electrons       =        18.00
     number of Kohn-Sham states=           13
     kinetic-energy cutoff     =      70.0000  Ry
     charge density cutoff     =     280.0000  Ry
     scf convergence threshold =      1.0E-06
     mixing beta               =       0.7000
     number of iterations used =            8  plain     mixing
     Exchange-correlation= SLA  PW   PBX  PBC
                           (   1   4   3   4   0   0   0)

     celldm(1)=   4.629829  celldm(2)=   0.000000  celldm(3)=   0.000000
     celldm(4)=   0.000000  celldm(5)=   0.000000  celldm(6)=   0.000000

     crystal axes: (cart. coord. in units of alat)
               a(1) = (   1.000000   0.000000   0.000000 )  
               a(2) = (   0.500000   0.866025   0.000000 )  
               a(3) = (   0.000000   0.000000   6.936214 )  

     reciprocal axes: (cart. coord. in units 2 pi/alat)
               b(1) = (  1.000000 -0.577350  0.000000 )  
               b(2) = (  0.000000  1.154701  0.000000 )  
               b(3) = (  0.000000  0.000000  0.144171 )  


     PseudoPot. # 1 for Co read from file:
     /shared/ESPRESSO/PSLIBRARY/1.0.0/pbe/PSEUDOPOTENTIALS/Co.pbe-n-kjpaw_psl.1.0.0.UPF
     MD5 check sum: 17e7ab8db721b244d1352252ea6cb8e7
     Pseudo is Projector augmented-wave + core cor, Zval =  9.0
     Generated using "atomic" code by A. Dal Corso  (Quantum ESPRESSO distribution)
     Shape of augmentation charge: PSQ
     Using radial grid of 1193 points,  6 beta functions with: 
                l(1) =   0
                l(2) =   0
                l(3) =   1
                l(4) =   1
                l(5) =   2
                l(6) =   2
     Q(r) pseudized with 0 coefficients 


     atomic species   valence    mass     pseudopotential
        Co             9.00    58.93320     Co( 1.00)

     12 Sym. Ops., with inversion, found ( 6 have fractional translation)



   Cartesian axes

     site n.     atom                  positions (alat units)
         1           Co  tau(   1) = (   1.0000000   0.5773503   3.0612245  )
         2           Co  tau(   2) = (   0.0000000   0.0000000   3.8749895  )

     number of k points=    30  Fermi-Dirac smearing, width (Ry)=  0.0070
                       cart. coord. in units 2pi/alat
        k(    1) = (   0.0000000   0.0000000   0.0000000), wk =   0.0078125
        k(    2) = (   0.0000000   0.0721688   0.0000000), wk =   0.0468750
        k(    3) = (   0.0000000   0.1443376   0.0000000), wk =   0.0468750
        k(    4) = (   0.0000000   0.2165064   0.0000000), wk =   0.0468750
        k(    5) = (   0.0000000   0.2886751   0.0000000), wk =   0.0468750
        k(    6) = (   0.0000000   0.3608439   0.0000000), wk =   0.0468750
        k(    7) = (   0.0000000   0.4330127   0.0000000), wk =   0.0468750
        k(    8) = (   0.0000000   0.5051815   0.0000000), wk =   0.0468750
        k(    9) = (   0.0000000  -0.5773503   0.0000000), wk =   0.0234375
        k(   10) = (   0.0625000   0.1082532   0.0000000), wk =   0.0468750
        k(   11) = (   0.0625000   0.1804220   0.0000000), wk =   0.0937500
        k(   12) = (   0.0625000   0.2525907   0.0000000), wk =   0.0937500
        k(   13) = (   0.0625000   0.3247595   0.0000000), wk =   0.0937500
        k(   14) = (   0.0625000   0.3969283   0.0000000), wk =   0.0937500
        k(   15) = (   0.0625000   0.4690971   0.0000000), wk =   0.0937500
        k(   16) = (   0.0625000  -0.6134347   0.0000000), wk =   0.0937500
        k(   17) = (   0.1250000   0.2165064   0.0000000), wk =   0.0468750
        k(   18) = (   0.1250000   0.2886751   0.0000000), wk =   0.0937500
        k(   19) = (   0.1250000   0.3608439   0.0000000), wk =   0.0937500
        k(   20) = (   0.1250000   0.4330127   0.0000000), wk =   0.0937500
        k(   21) = (   0.1250000  -0.6495191   0.0000000), wk =   0.0937500
        k(   22) = (   0.1250000  -0.5773503   0.0000000), wk =   0.0468750
        k(   23) = (   0.1875000   0.3247595   0.0000000), wk =   0.0468750
        k(   24) = (   0.1875000   0.3969283   0.0000000), wk =   0.0937500
        k(   25) = (   0.1875000  -0.6856034   0.0000000), wk =   0.0937500
        k(   26) = (   0.1875000  -0.6134347   0.0000000), wk =   0.0937500
        k(   27) = (   0.2500000  -0.7216878   0.0000000), wk =   0.0468750
        k(   28) = (   0.2500000  -0.6495191   0.0000000), wk =   0.0937500
        k(   29) = (   0.2500000  -0.5773503   0.0000000), wk =   0.0468750
        k(   30) = (   0.3125000  -0.6134347   0.0000000), wk =   0.0468750

     Dense  grid:    47343 G-vectors     FFT dimensions: (  27,  27, 180)

     Estimated max dynamical RAM per process >      14.76 MB

     Estimated total dynamical RAM >     236.22 MB

     Check: negative core charge=   -0.000001

     Initial potential from superposition of free atoms

     starting charge      17.9994, renormalised to      18.0000

     negative rho (up, down):  5.456E-05 0.000E+00
     Starting wfcs are   18 randomized atomic wfcs
     Checking if some PAW data can be deallocated... 

     total cpu time spent up to now is        0.4 secs

     Self-consistent Calculation

     iteration #  1     ecut=    70.00 Ry     beta= 0.70
     Davidson diagonalization with overlap
     ethr =  1.00E-02,  avg # of iterations =  2.3

     negative rho (up, down):  5.842E-06 0.000E+00

     total cpu time spent up to now is        0.8 secs

     total energy              =    -323.78536852 Ry
     estimated scf accuracy    <       0.29907360 Ry

     iteration #  2     ecut=    70.00 Ry     beta= 0.70
     Davidson diagonalization with overlap
     ethr =  1.66E-03,  avg # of iterations =  5.5

     total cpu time spent up to now is        1.3 secs

     total energy              =    -323.48369275 Ry
     estimated scf accuracy    <       3.39150454 Ry

     iteration #  3     ecut=    70.00 Ry     beta= 0.70
     Davidson diagonalization with overlap
     ethr =  1.66E-03,  avg # of iterations =  3.2

     total cpu time spent up to now is        1.7 secs

     total energy              =    -323.97578596 Ry
     estimated scf accuracy    <       0.02114937 Ry

     iteration #  4     ecut=    70.00 Ry     beta= 0.70
     Davidson diagonalization with overlap
     ethr =  1.17E-04,  avg # of iterations =  4.5

     total cpu time spent up to now is        2.2 secs

     total energy              =    -323.97706520 Ry
     estimated scf accuracy    <       0.00866571 Ry

     iteration #  5     ecut=    70.00 Ry     beta= 0.70
     Davidson diagonalization with overlap
     ethr =  4.81E-05,  avg # of iterations =  2.4

     total cpu time spent up to now is        2.6 secs

     total energy              =    -323.97729751 Ry
     estimated scf accuracy    <       0.00198651 Ry

     iteration #  6     ecut=    70.00 Ry     beta= 0.70
     Davidson diagonalization with overlap
     ethr =  1.10E-05,  avg # of iterations =  2.7

     total cpu time spent up to now is        3.0 secs

     total energy              =    -323.97750420 Ry
     estimated scf accuracy    <       0.00035269 Ry

     iteration #  7     ecut=    70.00 Ry     beta= 0.70
     Davidson diagonalization with overlap
     ethr =  1.96E-06,  avg # of iterations =  5.0

     negative rho (up, down):  2.031E-04 0.000E+00

     total cpu time spent up to now is        3.5 secs

     total energy              =    -323.97752730 Ry
     estimated scf accuracy    <       0.00007325 Ry

     iteration #  8     ecut=    70.00 Ry     beta= 0.70
     Davidson diagonalization with overlap
     ethr =  4.07E-07,  avg # of iterations =  2.4

     negative rho (up, down):  5.056E-05 0.000E+00

     total cpu time spent up to now is        3.9 secs

     total energy              =    -323.97754195 Ry
     estimated scf accuracy    <       0.00000320 Ry

     iteration #  9     ecut=    70.00 Ry     beta= 0.70
     Davidson diagonalization with overlap
     ethr =  1.78E-08,  avg # of iterations =  2.6

     negative rho (up, down):  3.775E-05 0.000E+00

     total cpu time spent up to now is        4.4 secs

     End of self-consistent calculation

          k = 0.0000 0.0000 0.0000 (  5893 PWs)   bands (ev):

    -7.9860  -5.3620  -2.2420  -2.0050  -2.0050  -1.8781  -1.8781  -1.6017
    -0.7106  -0.7106  -0.1468  -0.1468   0.0186

          k = 0.0000 0.0722 0.0000 (  5885 PWs)   bands (ev):

    -7.8477  -5.2348  -2.2403  -2.0602  -1.9892  -1.9378  -1.8173  -1.5816
    -0.7352  -0.7321  -0.5896  -0.1437   0.6871

          k = 0.0000 0.1443 0.0000 (  5869 PWs)   bands (ev):

    -7.4441  -4.8730  -2.3065  -2.2751  -2.0929  -1.7467  -1.6452  -1.6254
    -1.1314  -0.7931  -0.3885  -0.1390   1.5411

          k = 0.0000 0.2165 0.0000 (  5865 PWs)   bands (ev):

    -6.8142  -4.3591  -2.6117  -2.4280  -2.1395  -1.7605  -1.4909  -1.3817
    -1.2666  -0.8272  -0.1394  -0.0267   2.5092

          k = 0.0000 0.2887 0.0000 (  5857 PWs)   bands (ev):

    -6.0469  -3.9248  -2.9639  -2.3946  -2.1660  -1.8826  -1.3547  -1.1487
    -1.0253  -0.7076  -0.1446   0.4623   3.6051

          k = 0.0000 0.3608 0.0000 (  5897 PWs)   bands (ev):

    -5.3131  -3.8523  -3.2860  -2.2614  -1.9323  -1.7420  -1.3795  -0.8736
    -0.6471  -0.4132  -0.1418   1.1146   4.8431

          k = 0.0000 0.4330 0.0000 (  5900 PWs)   bands (ev):

    -4.8055  -4.0000  -3.5396  -2.3566  -1.4501  -1.4451  -1.2427  -0.3741
    -0.3606  -0.0944  -0.0770   1.9638   6.2103

          k = 0.0000 0.5052 0.0000 (  5924 PWs)   bands (ev):

    -4.5336  -4.1777  -3.7012  -2.4372  -1.4964  -1.1673  -0.8377  -0.2963
     0.0762   0.1440   0.6091   2.7460   7.1939

          k = 0.0000-0.5774 0.0000 (  5932 PWs)   bands (ev):

    -4.4039  -4.2983  -3.7567  -2.4664  -1.5151  -1.0811  -0.7146  -0.2868
     0.1489   0.2322   1.3546   2.8514   7.1291

          k = 0.0625 0.1083 0.0000 (  5861 PWs)   bands (ev):

    -7.5765  -4.9891  -2.2760  -2.1640  -2.1318  -1.7993  -1.6957  -1.5992
    -1.0700  -0.7030  -0.5262  -0.1263   1.3021

          k = 0.0625 0.1804 0.0000 (  5867 PWs)   bands (ev):

    -7.0574  -4.5398  -2.4588  -2.4018  -2.1910  -1.7181  -1.5266  -1.4732
    -1.2917  -0.7511  -0.3189  -0.0373   2.1555

          k = 0.0625 0.2526 0.0000 (  5870 PWs)   bands (ev):

    -6.3498  -4.0195  -2.7850  -2.5254  -2.2495  -1.8581  -1.3710  -1.2249
    -1.1331  -0.7148  -0.2231   0.3011   3.1628

          k = 0.0625 0.3248 0.0000 (  5890 PWs)   bands (ev):

    -5.5795  -3.7493  -3.1164  -2.3448  -2.2341  -1.9331  -1.3438  -1.0520
    -0.7448  -0.4456  -0.1980   0.8748   4.3193

          k = 0.0625 0.3969 0.0000 (  5906 PWs)   bands (ev):

    -4.9483  -3.8336  -3.3983  -2.3032  -1.8195  -1.6839  -1.3778  -0.7768
    -0.4391  -0.1650   0.0060   1.6789   5.6251

          k = 0.0625 0.4691 0.0000 (  5918 PWs)   bands (ev):

    -4.5766  -4.0174  -3.6014  -2.3855  -1.5631  -1.3526  -1.1257  -0.4045
    -0.3177  -0.0073   0.6286   2.6275   7.0135

          k = 0.0625-0.6134 0.0000 (  5914 PWs)   bands (ev):

    -4.3829  -4.1816  -3.7077  -2.4354  -1.5838  -1.1592  -0.8622  -0.3375
    -0.0728   0.0951   1.5342   3.1300   7.0428

          k = 0.1250 0.2165 0.0000 (  5862 PWs)   bands (ev):

    -6.4541  -4.0463  -2.6638  -2.6122  -2.3427  -1.8368  -1.4225  -1.1918
    -1.1617  -0.6580  -0.3263   0.2786   3.0129

          k = 0.1250 0.2887 0.0000 (  5871 PWs)   bands (ev):

    -5.7190  -3.5728  -2.9405  -2.7132  -2.4154  -1.9694  -1.4088  -1.0375
    -0.7716  -0.3970  -0.3078   0.8058   4.0590

          k = 0.1250 0.3608 0.0000 (  5890 PWs)   bands (ev):

    -5.0160  -3.5205  -3.2120  -2.3862  -2.3397  -2.0201  -1.4392  -0.9048
    -0.5172  -0.2307   0.1207   1.5995   5.2783

          k = 0.1250 0.4330 0.0000 (  5893 PWs)   bands (ev):

    -4.5325  -3.7134  -3.4278  -2.3246  -1.8744  -1.8096  -1.4574  -0.6941
    -0.4628  -0.0746   0.8304   2.6464   6.6466

          k = 0.1250-0.6495 0.0000 (  5921 PWs)   bands (ev):

    -4.2789  -3.9034  -3.5673  -2.3590  -1.7607  -1.4566  -1.2838  -0.4596
    -0.4061  -0.0307   1.8027   3.6231   7.3978

          k = 0.1250-0.5774 0.0000 (  5892 PWs)   bands (ev):

    -4.1716  -4.0092  -3.6157  -2.3726  -1.7759  -1.3142  -1.1870  -0.4603
    -0.1717  -0.1243   2.5720   3.7382   7.3635

          k = 0.1875 0.3248 0.0000 (  5890 PWs)   bands (ev):

    -5.0339  -3.2093  -3.0960  -2.7982  -2.4785  -2.0666  -1.4925  -0.8867
    -0.5807  -0.2495   0.1626   1.5865   5.1643

          k = 0.1875 0.3969 0.0000 (  5899 PWs)   bands (ev):

    -4.4698  -3.3365  -3.2417  -2.4384  -2.3420  -2.0888  -1.6049  -0.7496
    -0.5943  -0.0857   0.9392   2.6769   6.4573

          k = 0.1875-0.6856 0.0000 (  5902 PWs)   bands (ev):

    -4.1345  -3.5398  -3.3643  -2.3035  -1.9926  -1.9629  -1.6484  -0.6263
    -0.5696  -0.0462   1.9765   3.9404   7.8596

          k = 0.1875-0.6134 0.0000 (  5912 PWs)   bands (ev):

    -3.9719  -3.6811  -3.4365  -2.2775  -2.0026  -1.6781  -1.5836  -0.6120
    -0.3709  -0.1473   3.1935   4.6417   7.4088

          k = 0.2500-0.7217 0.0000 (  5908 PWs)   bands (ev):

    -4.0630  -3.3090  -3.2337  -2.3395  -2.2784  -2.0798  -1.7780  -0.7003
    -0.6119  -0.0433   2.0338   4.0337   7.8216

          k = 0.2500-0.6495 0.0000 (  5918 PWs)   bands (ev):

    -3.8287  -3.3619  -3.2455  -2.2604  -2.1586  -2.0211  -1.8639  -0.7411
    -0.4827  -0.1275   3.3932   5.4056   7.9497

          k = 0.2500-0.5774 0.0000 (  5910 PWs)   bands (ev):

    -3.7469  -3.3969  -3.2547  -2.2202  -2.1713  -1.9553  -1.8707  -0.7415
    -0.3642  -0.2471   4.5927   5.3880   8.1683

          k = 0.3125-0.6134 0.0000 (  5926 PWs)   bands (ev):

    -3.6614  -3.2271  -3.1715  -2.3018  -2.1505  -2.0463  -2.0397  -0.7954
    -0.3923  -0.2610   5.0338   6.5412   7.0120

     the Fermi energy is    -0.3997 ev

!    total energy              =    -323.97754239 Ry
     total all-electron energy =     -5573.664895 Ry
     estimated scf accuracy    <       0.00000048 Ry
     smearing contrib. (-TS)   =      -0.01388245 Ry
     internal energy E=F+TS    =    -323.96365994 Ry

     The total energy is F=E-TS. E is the sum of the following terms:
     one-electron contribution =    -719.09899821 Ry
     hartree contribution      =     376.39916716 Ry
     xc contribution           =     -65.06238678 Ry
     ewald contribution        =     256.88906237 Ry
     one-center paw contrib.   =    -173.09050447 Ry

     convergence has been achieved in   9 iterations

     negative rho (up, down):  3.775E-05 0.000E+00

     Forces acting on atoms (cartesian axes, Ry/au):

     atom    1 type  1   force =     0.00000000   -0.00000000    0.02381465
     atom    2 type  1   force =     0.00000000    0.00000000   -0.02381465
     The non-local contrib.  to forces
     atom    1 type  1   force =     0.00000000    0.00000000   -0.09329224
     atom    2 type  1   force =     0.00000000    0.00000000    0.09329224
     The ionic contribution  to forces
     atom    1 type  1   force =    -0.00000000    0.00000000  -41.52793710
     atom    2 type  1   force =     0.00000000    0.00000000   41.52793710
     The local contribution  to forces
     atom    1 type  1   force =    -0.00000000   -0.00000000   41.62783372
     atom    2 type  1   force =     0.00000000    0.00000000  -41.62783372
     The core correction contribution to forces
     atom    1 type  1   force =    -0.00000000   -0.00000000    0.01490251
     atom    2 type  1   force =     0.00000000    0.00000000   -0.01490251
     The Hubbard contrib.    to forces
     atom    1 type  1   force =     0.00000000    0.00000000    0.00000000
     atom    2 type  1   force =     0.00000000    0.00000000    0.00000000
     The SCF correction term to forces
     atom    1 type  1   force =    -0.00000000    0.00000000    0.00230776
     atom    2 type  1   force =    -0.00000000    0.00000000   -0.00230776

     Total force =     0.033679     Total SCF correction =     0.003264


     Computing stress (Cartesian axis) and pressure


     negative rho (up, down):  3.775E-05 0.000E+00
          total   stress  (Ry/bohr**3)                   (kbar)     P=      -37.99
  -0.00030687   0.00000000   0.00000000          -45.14        0.00        0.00
   0.00000000  -0.00030687   0.00000000            0.00      -45.14        0.00
   0.00000000   0.00000000  -0.00016108            0.00        0.00      -23.70


     Writing all to output data dir ./tmp/scf.save/
 
     init_run     :      0.23s CPU      0.28s WALL (       1 calls)
     electrons    :      3.63s CPU      3.99s WALL (       1 calls)
     forces       :      0.07s CPU      0.07s WALL (       1 calls)
     stress       :      0.28s CPU      0.30s WALL (       1 calls)

     Called by init_run:
     wfcinit      :      0.11s CPU      0.13s WALL (       1 calls)
     potinit      :      0.05s CPU      0.06s WALL (       1 calls)
     hinit0       :      0.04s CPU      0.07s WALL (       1 calls)

     Called by electrons:
     c_bands      :      2.54s CPU      2.83s WALL (       9 calls)
     sum_band     :      0.47s CPU      0.51s WALL (       9 calls)
     v_of_rho     :      0.03s CPU      0.03s WALL (      10 calls)
     newd         :      0.10s CPU      0.10s WALL (      10 calls)
     PAW_pot      :      0.54s CPU      0.56s WALL (      10 calls)
     mix_rho      :      0.01s CPU      0.01s WALL (       9 calls)

     Called by c_bands:
     init_us_2    :      0.05s CPU      0.05s WALL (     630 calls)
     init_us_2:cp :      0.04s CPU      0.05s WALL (     630 calls)
     cegterg      :      2.09s CPU      2.36s WALL (     270 calls)

     Called by *egterg:
     cdiaghg      :      0.19s CPU      0.20s WALL (    1189 calls)
     h_psi        :      1.79s CPU      2.03s WALL (    1219 calls)
     s_psi        :      0.02s CPU      0.03s WALL (    1219 calls)
     g_psi        :      0.01s CPU      0.01s WALL (     919 calls)

     Called by h_psi:
     h_psi:calbec :      0.06s CPU      0.07s WALL (    1219 calls)
     vloc_psi     :      1.70s CPU      1.92s WALL (    1219 calls)
     add_vuspsi   :      0.03s CPU      0.03s WALL (    1219 calls)

     General routines
     calbec       :      0.16s CPU      0.18s WALL (    1639 calls)
     fft          :      0.04s CPU      0.07s WALL (     135 calls)
     ffts         :      0.00s CPU      0.00s WALL (       9 calls)
     fftw         :      1.84s CPU      2.08s WALL (   23018 calls)
 
     Parallel routines
 
     PWSCF        :      4.33s CPU      4.80s WALL

 
   This run was terminated on:  16:16:40   5Jun2025            

=------------------------------------------------------------------------------=
   JOB DONE.
=------------------------------------------------------------------------------=
