
     Program PWSCF v.7.2 starts on  5Jun2025 at 16:16: 6 

     This program is part of the open-source Quantum ESPRESSO suite
     for quantum simulation of materials; please cite
         "P. Giannozzi et al., J. Phys.:Condens. Matter 21 395502 (2009);
         "P. Giannozzi et al., J. Phys.:Condens. Matter 29 465901 (2017);
         "P. Giannozzi et al., J. Chem. Phys. 152 154105 (2020);
          URL http://www.quantum-espresso.org", 
     in publications or presentations arising from this work. More details at
     http://www.quantum-espresso.org/quote

     Parallel version (MPI), running on    16 processors

     MPI processes distributed on     1 nodes
     36888 MiB available memory on the printing compute node when the environment starts
 
     Waiting for input...
     Reading input from standard input

     Current dimensions of program PWSCF are:
     Max number of different atomic species (ntypx) = 10
     Max number of k-points (npk) =  40000
     Max angular momentum in pseudopotentials (lmaxx) =  4
     file Co.pbe-n-kjpaw_psl.1.0.0.UPF: wavefunction(s)  4S 3D renormalized
     Message from routine setup:
     using ibrav=0 with symmetry is DISCOURAGED, use correct ibrav instead
 
     R & G space division:  proc/nbgrp/npool/nimage =      16
     Subspace diagonalization in iterative solution of the eigenvalue problem:
     a serial algorithm will be used

 
     Parallelization info
     --------------------
     sticks:   dense  smooth     PW     G-vecs:    dense   smooth      PW
     Min           9       9      3                  623      623     131
     Max          10      10      4                  644      644     148
     Sum         151     151     55                10141    10141    2251
 
     Using Slab Decomposition
 


     bravais-lattice index     =            0
     lattice parameter (alat)  =       4.6298  a.u.
     unit-cell volume          =     596.1396 (a.u.)^3
     number of atoms/cell      =            2
     number of atomic types    =            1
     number of electrons       =        18.00
     number of Kohn-Sham states=           13
     kinetic-energy cutoff     =      25.0000  Ry
     charge density cutoff     =     100.0000  Ry
     scf convergence threshold =      1.0E-06
     mixing beta               =       0.7000
     number of iterations used =            8  plain     mixing
     Exchange-correlation= SLA  PW   PBX  PBC
                           (   1   4   3   4   0   0   0)

     celldm(1)=   4.629829  celldm(2)=   0.000000  celldm(3)=   0.000000
     celldm(4)=   0.000000  celldm(5)=   0.000000  celldm(6)=   0.000000

     crystal axes: (cart. coord. in units of alat)
               a(1) = (   1.000000   0.000000   0.000000 )  
               a(2) = (   0.500000   0.866025   0.000000 )  
               a(3) = (   0.000000   0.000000   6.936214 )  

     reciprocal axes: (cart. coord. in units 2 pi/alat)
               b(1) = (  1.000000 -0.577350  0.000000 )  
               b(2) = (  0.000000  1.154701  0.000000 )  
               b(3) = (  0.000000  0.000000  0.144171 )  


     PseudoPot. # 1 for Co read from file:
     /shared/ESPRESSO/PSLIBRARY/1.0.0/pbe/PSEUDOPOTENTIALS/Co.pbe-n-kjpaw_psl.1.0.0.UPF
     MD5 check sum: 17e7ab8db721b244d1352252ea6cb8e7
     Pseudo is Projector augmented-wave + core cor, Zval =  9.0
     Generated using "atomic" code by A. Dal Corso  (Quantum ESPRESSO distribution)
     Shape of augmentation charge: PSQ
     Using radial grid of 1193 points,  6 beta functions with: 
                l(1) =   0
                l(2) =   0
                l(3) =   1
                l(4) =   1
                l(5) =   2
                l(6) =   2
     Q(r) pseudized with 0 coefficients 


     atomic species   valence    mass     pseudopotential
        Co             9.00    58.93320     Co( 1.00)

     12 Sym. Ops., with inversion, found ( 6 have fractional translation)



   Cartesian axes

     site n.     atom                  positions (alat units)
         1           Co  tau(   1) = (   1.0000000   0.5773503   3.0612245  )
         2           Co  tau(   2) = (   0.0000000   0.0000000   3.8749895  )

     number of k points=    30  Fermi-Dirac smearing, width (Ry)=  0.0070
                       cart. coord. in units 2pi/alat
        k(    1) = (   0.0000000   0.0000000   0.0000000), wk =   0.0078125
        k(    2) = (   0.0000000   0.0721688   0.0000000), wk =   0.0468750
        k(    3) = (   0.0000000   0.1443376   0.0000000), wk =   0.0468750
        k(    4) = (   0.0000000   0.2165064   0.0000000), wk =   0.0468750
        k(    5) = (   0.0000000   0.2886751   0.0000000), wk =   0.0468750
        k(    6) = (   0.0000000   0.3608439   0.0000000), wk =   0.0468750
        k(    7) = (   0.0000000   0.4330127   0.0000000), wk =   0.0468750
        k(    8) = (   0.0000000   0.5051815   0.0000000), wk =   0.0468750
        k(    9) = (   0.0000000  -0.5773503   0.0000000), wk =   0.0234375
        k(   10) = (   0.0625000   0.1082532   0.0000000), wk =   0.0468750
        k(   11) = (   0.0625000   0.1804220   0.0000000), wk =   0.0937500
        k(   12) = (   0.0625000   0.2525907   0.0000000), wk =   0.0937500
        k(   13) = (   0.0625000   0.3247595   0.0000000), wk =   0.0937500
        k(   14) = (   0.0625000   0.3969283   0.0000000), wk =   0.0937500
        k(   15) = (   0.0625000   0.4690971   0.0000000), wk =   0.0937500
        k(   16) = (   0.0625000  -0.6134347   0.0000000), wk =   0.0937500
        k(   17) = (   0.1250000   0.2165064   0.0000000), wk =   0.0468750
        k(   18) = (   0.1250000   0.2886751   0.0000000), wk =   0.0937500
        k(   19) = (   0.1250000   0.3608439   0.0000000), wk =   0.0937500
        k(   20) = (   0.1250000   0.4330127   0.0000000), wk =   0.0937500
        k(   21) = (   0.1250000  -0.6495191   0.0000000), wk =   0.0937500
        k(   22) = (   0.1250000  -0.5773503   0.0000000), wk =   0.0468750
        k(   23) = (   0.1875000   0.3247595   0.0000000), wk =   0.0468750
        k(   24) = (   0.1875000   0.3969283   0.0000000), wk =   0.0937500
        k(   25) = (   0.1875000  -0.6856034   0.0000000), wk =   0.0937500
        k(   26) = (   0.1875000  -0.6134347   0.0000000), wk =   0.0937500
        k(   27) = (   0.2500000  -0.7216878   0.0000000), wk =   0.0468750
        k(   28) = (   0.2500000  -0.6495191   0.0000000), wk =   0.0937500
        k(   29) = (   0.2500000  -0.5773503   0.0000000), wk =   0.0468750
        k(   30) = (   0.3125000  -0.6134347   0.0000000), wk =   0.0468750

     Dense  grid:    10141 G-vectors     FFT dimensions: (  15,  15, 108)

     Estimated max dynamical RAM per process >       3.67 MB

     Estimated total dynamical RAM >      58.73 MB

     Check: negative core charge=   -0.000006

     Initial potential from superposition of free atoms

     starting charge      17.9994, renormalised to      18.0000

     negative rho (up, down):  4.111E-03 0.000E+00
     Starting wfcs are   18 randomized atomic wfcs
     Checking if some PAW data can be deallocated... 

     total cpu time spent up to now is        0.7 secs

     Self-consistent Calculation

     iteration #  1     ecut=    25.00 Ry     beta= 0.70
     Davidson diagonalization with overlap
     ethr =  1.00E-02,  avg # of iterations =  2.1

     negative rho (up, down):  9.425E-03 0.000E+00

     total cpu time spent up to now is        0.9 secs

     total energy              =    -323.67716589 Ry
     estimated scf accuracy    <       0.23493888 Ry

     iteration #  2     ecut=    25.00 Ry     beta= 0.70
     Davidson diagonalization with overlap
     ethr =  1.31E-03,  avg # of iterations =  3.7

     negative rho (up, down):  7.074E-03 0.000E+00

     total cpu time spent up to now is        1.1 secs

     total energy              =    -323.59540404 Ry
     estimated scf accuracy    <       1.19862619 Ry

     iteration #  3     ecut=    25.00 Ry     beta= 0.70
     Davidson diagonalization with overlap
     ethr =  1.31E-03,  avg # of iterations =  2.7

     negative rho (up, down):  8.302E-03 0.000E+00

     total cpu time spent up to now is        1.3 secs

     total energy              =    -323.79607013 Ry
     estimated scf accuracy    <       0.04848978 Ry

     iteration #  4     ecut=    25.00 Ry     beta= 0.70
     Davidson diagonalization with overlap
     ethr =  2.69E-04,  avg # of iterations =  3.1

     negative rho (up, down):  1.076E-02 0.000E+00

     total cpu time spent up to now is        1.6 secs

     total energy              =    -323.80449770 Ry
     estimated scf accuracy    <       0.00440063 Ry

     iteration #  5     ecut=    25.00 Ry     beta= 0.70
     Davidson diagonalization with overlap
     ethr =  2.44E-05,  avg # of iterations =  4.0

     negative rho (up, down):  1.060E-02 0.000E+00

     total cpu time spent up to now is        1.8 secs

     total energy              =    -323.80572694 Ry
     estimated scf accuracy    <       0.00014970 Ry

     iteration #  6     ecut=    25.00 Ry     beta= 0.70
     Davidson diagonalization with overlap
     ethr =  8.32E-07,  avg # of iterations =  5.6

     negative rho (up, down):  1.061E-02 0.000E+00

     total cpu time spent up to now is        2.0 secs

     total energy              =    -323.80579282 Ry
     estimated scf accuracy    <       0.00001249 Ry

     iteration #  7     ecut=    25.00 Ry     beta= 0.70
     Davidson diagonalization with overlap
     ethr =  6.94E-08,  avg # of iterations =  2.1

     negative rho (up, down):  1.067E-02 0.000E+00

     total cpu time spent up to now is        2.2 secs

     total energy              =    -323.80579551 Ry
     estimated scf accuracy    <       0.00000151 Ry

     iteration #  8     ecut=    25.00 Ry     beta= 0.70
     Davidson diagonalization with overlap
     ethr =  8.41E-09,  avg # of iterations =  2.7

     negative rho (up, down):  1.065E-02 0.000E+00

     total cpu time spent up to now is        2.4 secs

     End of self-consistent calculation

          k = 0.0000 0.0000 0.0000 (  1287 PWs)   bands (ev):

    -7.9184  -5.3849  -2.3992  -2.2335  -2.2335  -2.0792  -2.0792  -1.6810
    -0.9106  -0.9106  -0.2789  -0.2789  -0.0152

          k = 0.0000 0.0722 0.0000 (  1285 PWs)   bands (ev):

    -7.7804  -5.2598  -2.4053  -2.2765  -2.1724  -2.1596  -2.0078  -1.6965
    -0.9419  -0.8661  -0.7199  -0.2785   0.6156

          k = 0.0000 0.1443 0.0000 (  1279 PWs)   bands (ev):

    -7.3778  -4.8998  -2.4938  -2.4406  -2.2605  -1.9656  -1.8332  -1.7825
    -1.2237  -0.9979  -0.5254  -0.2610   1.4674

          k = 0.0000 0.2165 0.0000 (  1269 PWs)   bands (ev):

    -6.7524  -4.4020  -2.7652  -2.5798  -2.2740  -1.9379  -1.6899  -1.5661
    -1.3751  -1.0231  -0.2555  -0.1271   2.4169

          k = 0.0000 0.2887 0.0000 (  1250 PWs)   bands (ev):

    -5.9991  -4.0045  -3.1069  -2.5054  -2.2894  -2.0427  -1.5345  -1.2472
    -1.1779  -0.8557  -0.2406   0.4065   3.5109

          k = 0.0000 0.3608 0.0000 (  1242 PWs)   bands (ev):

    -5.3013  -3.9688  -3.4210  -2.4240  -2.0051  -1.8352  -1.5718  -0.9478
    -0.7685  -0.5097  -0.2259   1.0994   4.7502

          k = 0.0000 0.4330 0.0000 (  1246 PWs)   bands (ev):

    -4.8489  -4.1215  -3.6719  -2.5342  -1.6406  -1.5257  -1.2927  -0.5023
    -0.4044  -0.1853  -0.1184   1.9721   6.1224

          k = 0.0000 0.5052 0.0000 (  1260 PWs)   bands (ev):

    -4.6280  -4.2959  -3.8310  -2.6231  -1.6977  -1.2624  -0.8969  -0.4342
     0.0040   0.0771   0.6118   2.7736   7.2504

          k = 0.0000-0.5774 0.0000 (  1262 PWs)   bands (ev):

    -4.5306  -4.3994  -3.8808  -2.6470  -1.7190  -1.1786  -0.7752  -0.4240
     0.0717   0.1706   1.3771   2.8728   7.1549

          k = 0.0625 0.1083 0.0000 (  1281 PWs)   bands (ev):

    -7.5098  -5.0163  -2.4616  -2.3315  -2.3168  -2.0194  -1.8776  -1.7490
    -1.1878  -0.8710  -0.6789  -0.2515   1.2256

          k = 0.0625 0.1804 0.0000 (  1275 PWs)   bands (ev):

    -6.9932  -4.5727  -2.6308  -2.5667  -2.3407  -1.8983  -1.7214  -1.6539
    -1.4095  -0.9423  -0.4450  -0.1516   2.0727

          k = 0.0625 0.2526 0.0000 (  1262 PWs)   bands (ev):

    -6.2937  -4.0788  -2.9357  -2.6667  -2.3770  -2.0386  -1.5348  -1.3554
    -1.2943  -0.8860  -0.3426   0.2204   3.0660

          k = 0.0625 0.3248 0.0000 (  1247 PWs)   bands (ev):

    -5.5472  -3.8531  -3.2566  -2.4472  -2.3633  -2.0793  -1.5275  -1.1549
    -0.8715  -0.5400  -0.3039   0.8389   4.2227

          k = 0.0625 0.3969 0.0000 (  1248 PWs)   bands (ev):

    -4.9649  -3.9597  -3.5317  -2.4789  -1.9015  -1.7840  -1.5443  -0.8579
    -0.5774  -0.2200  -0.0783   1.6754   5.5298

          k = 0.0625 0.4691 0.0000 (  1253 PWs)   bands (ev):

    -4.6448  -4.1363  -3.7295  -2.5694  -1.7560  -1.4381  -1.1893  -0.4971
    -0.4464  -0.0566   0.6004   2.6481   6.9388

          k = 0.0625-0.6134 0.0000 (  1264 PWs)   bands (ev):

    -4.4992  -4.2918  -3.8347  -2.6212  -1.7870  -1.2546  -0.9307  -0.4747
    -0.1370   0.0216   1.5465   3.1620   7.0828

          k = 0.1250 0.2165 0.0000 (  1259 PWs)   bands (ev):

    -6.3954  -4.0913  -2.8227  -2.7529  -2.4789  -2.0115  -1.5694  -1.3315
    -1.3251  -0.8264  -0.4294   0.1898   2.9187

          k = 0.1250 0.2887 0.0000 (  1251 PWs)   bands (ev):

    -5.6747  -3.6548  -3.0831  -2.8389  -2.5457  -2.1501  -1.5698  -1.1665
    -0.9197  -0.4962  -0.3977   0.7504   3.9605

          k = 0.1250 0.3608 0.0000 (  1250 PWs)   bands (ev):

    -5.0076  -3.6429  -3.3438  -2.4966  -2.4620  -2.1660  -1.6123  -1.0138
    -0.6690  -0.2987   0.0320   1.5798   5.1796

          k = 0.1250 0.4330 0.0000 (  1256 PWs)   bands (ev):

    -4.5803  -3.8398  -3.5575  -2.5074  -1.9874  -1.9213  -1.5973  -0.7913
    -0.6103  -0.1405   0.7936   2.6522   6.5515

          k = 0.1250-0.6495 0.0000 (  1256 PWs)   bands (ev):

    -4.3737  -4.0132  -3.6937  -2.5435  -1.9413  -1.5301  -1.3675  -0.5971
    -0.4886  -0.0919   1.8027   3.6651   7.4697

          k = 0.1250-0.5774 0.0000 (  1250 PWs)   bands (ev):

    -4.2927  -4.0985  -3.7389  -2.5503  -1.9555  -1.3858  -1.2537  -0.5943
    -0.2147  -0.1799   2.6113   3.7885   7.4192

          k = 0.1875 0.3248 0.0000 (  1260 PWs)   bands (ev):

    -5.0160  -3.3250  -3.2445  -2.9006  -2.6081  -2.2446  -1.6677  -1.0054
    -0.7647  -0.3346   0.0663   1.5562   5.0615

          k = 0.1875 0.3969 0.0000 (  1254 PWs)   bands (ev):

    -4.4980  -3.4658  -3.3611  -2.5712  -2.4545  -2.2317  -1.7726  -0.8557
    -0.7571  -0.1575   0.9058   2.6714   6.3577

          k = 0.1875-0.6856 0.0000 (  1255 PWs)   bands (ev):

    -4.2113  -3.6468  -3.4848  -2.4763  -2.1217  -2.0725  -1.7709  -0.7951
    -0.6645  -0.1114   1.9882   3.9661   7.7862

          k = 0.1875-0.6134 0.0000 (  1257 PWs)   bands (ev):

    -4.0848  -3.7754  -3.5568  -2.4587  -2.1667  -1.7733  -1.6678  -0.7613
    -0.4487  -0.2088   3.2226   4.7064   7.4742

          k = 0.2500-0.7217 0.0000 (  1238 PWs)   bands (ev):

    -4.1273  -3.4140  -3.3375  -2.4849  -2.3782  -2.1896  -1.9261  -0.8623
    -0.6880  -0.0707   2.0749   4.0646   7.7408

          k = 0.2500-0.6495 0.0000 (  1260 PWs)   bands (ev):

    -3.9339  -3.4596  -3.3577  -2.4246  -2.2985  -2.1379  -1.9877  -0.9150
    -0.5664  -0.2050   3.4253   5.4568   8.0535

          k = 0.2500-0.5774 0.0000 (  1256 PWs)   bands (ev):

    -3.8623  -3.4764  -3.3703  -2.3678  -2.3364  -2.0825  -1.9560  -0.9258
    -0.4458  -0.3007   4.6650   5.4818   8.1578

          k = 0.3125-0.6134 0.0000 (  1260 PWs)   bands (ev):

    -3.7828  -3.3233  -3.2735  -2.4268  -2.3196  -2.1932  -2.1428  -0.9874
    -0.4637  -0.3335   5.1131   6.6263   7.1237

     the Fermi energy is    -0.5091 ev

!    total energy              =    -323.80579583 Ry
     total all-electron energy =     -5573.493148 Ry
     estimated scf accuracy    <       0.00000005 Ry
     smearing contrib. (-TS)   =      -0.01268851 Ry
     internal energy E=F+TS    =    -323.79310732 Ry

     The total energy is F=E-TS. E is the sum of the following terms:
     one-electron contribution =    -718.79627854 Ry
     hartree contribution      =     376.02674121 Ry
     xc contribution           =     -64.89208078 Ry
     ewald contribution        =     256.88906235 Ry
     one-center paw contrib.   =    -173.02055155 Ry

     convergence has been achieved in   8 iterations

     negative rho (up, down):  1.065E-02 0.000E+00

     Forces acting on atoms (cartesian axes, Ry/au):

     atom    1 type  1   force =     0.00000000   -0.00000000    0.03207906
     atom    2 type  1   force =     0.00000000    0.00000000   -0.03207906
     The non-local contrib.  to forces
     atom    1 type  1   force =     0.00000000    0.00000000   -0.08677368
     atom    2 type  1   force =     0.00000000    0.00000000    0.08677368
     The ionic contribution  to forces
     atom    1 type  1   force =    -0.00000000    0.00000000  -41.52793710
     atom    2 type  1   force =     0.00000000    0.00000000   41.52793710
     The local contribution  to forces
     atom    1 type  1   force =    -0.00000000   -0.00000000   41.63266370
     atom    2 type  1   force =     0.00000000    0.00000000  -41.63266370
     The core correction contribution to forces
     atom    1 type  1   force =    -0.00000000   -0.00000000    0.01476280
     atom    2 type  1   force =     0.00000000    0.00000000   -0.01476280
     The Hubbard contrib.    to forces
     atom    1 type  1   force =     0.00000000    0.00000000    0.00000000
     atom    2 type  1   force =     0.00000000    0.00000000    0.00000000
     The SCF correction term to forces
     atom    1 type  1   force =    -0.00000000    0.00000000   -0.00063666
     atom    2 type  1   force =    -0.00000000    0.00000000    0.00063666

     Total force =     0.045367     Total SCF correction =     0.000900


     Computing stress (Cartesian axis) and pressure


     negative rho (up, down):  1.065E-02 0.000E+00
          total   stress  (Ry/bohr**3)                   (kbar)     P=     -313.65
  -0.00216181   0.00000000   0.00000000         -318.01        0.00        0.00
   0.00000000  -0.00216181   0.00000000            0.00     -318.01        0.00
  -0.00000000   0.00000000  -0.00207289           -0.00        0.00     -304.93


     Writing all to output data dir ./tmp/scf.save/
 
     init_run     :      0.14s CPU      0.16s WALL (       1 calls)
     electrons    :      1.57s CPU      1.78s WALL (       1 calls)
     forces       :      0.01s CPU      0.02s WALL (       1 calls)
     stress       :      0.05s CPU      0.05s WALL (       1 calls)

     Called by init_run:
     wfcinit      :      0.05s CPU      0.05s WALL (       1 calls)
     potinit      :      0.06s CPU      0.07s WALL (       1 calls)
     hinit0       :      0.01s CPU      0.02s WALL (       1 calls)

     Called by electrons:
     c_bands      :      1.00s CPU      1.12s WALL (       8 calls)
     sum_band     :      0.13s CPU      0.15s WALL (       8 calls)
     v_of_rho     :      0.01s CPU      0.01s WALL (       9 calls)
     newd         :      0.02s CPU      0.02s WALL (       9 calls)
     PAW_pot      :      0.46s CPU      0.54s WALL (       9 calls)
     mix_rho      :      0.00s CPU      0.00s WALL (       8 calls)

     Called by c_bands:
     init_us_2    :      0.01s CPU      0.02s WALL (     570 calls)
     init_us_2:cp :      0.01s CPU      0.01s WALL (     570 calls)
     cegterg      :      0.92s CPU      1.03s WALL (     240 calls)

     Called by *egterg:
     cdiaghg      :      0.17s CPU      0.20s WALL (    1020 calls)
     h_psi        :      0.71s CPU      0.79s WALL (    1050 calls)
     s_psi        :      0.01s CPU      0.01s WALL (    1050 calls)
     g_psi        :      0.00s CPU      0.00s WALL (     780 calls)

     Called by h_psi:
     h_psi:calbec :      0.02s CPU      0.02s WALL (    1050 calls)
     vloc_psi     :      0.67s CPU      0.74s WALL (    1050 calls)
     add_vuspsi   :      0.01s CPU      0.01s WALL (    1050 calls)

     General routines
     calbec       :      0.03s CPU      0.03s WALL (    1440 calls)
     fft          :      0.01s CPU      0.01s WALL (     124 calls)
     ffts         :      0.00s CPU      0.00s WALL (       8 calls)
     fftw         :      0.71s CPU      0.79s WALL (   21178 calls)
 
     Parallel routines
 
     PWSCF        :      2.17s CPU      2.55s WALL

 
   This run was terminated on:  16:16: 9   5Jun2025            

=------------------------------------------------------------------------------=
   JOB DONE.
=------------------------------------------------------------------------------=
