
     Program PWSCF v.7.2 starts on  5Jun2025 at 16:16:23 

     This program is part of the open-source Quantum ESPRESSO suite
     for quantum simulation of materials; please cite
         "P. Giannozzi et al., J. Phys.:Condens. Matter 21 395502 (2009);
         "P. Giannozzi et al., J. Phys.:Condens. Matter 29 465901 (2017);
         "P. Giannozzi et al., J. Chem. Phys. 152 154105 (2020);
          URL http://www.quantum-espresso.org", 
     in publications or presentations arising from this work. More details at
     http://www.quantum-espresso.org/quote

     Parallel version (MPI), running on    16 processors

     MPI processes distributed on     1 nodes
     37284 MiB available memory on the printing compute node when the environment starts
 
     Waiting for input...
     Reading input from standard input

     Current dimensions of program PWSCF are:
     Max number of different atomic species (ntypx) = 10
     Max number of k-points (npk) =  40000
     Max angular momentum in pseudopotentials (lmaxx) =  4
     file Co.pbe-n-kjpaw_psl.1.0.0.UPF: wavefunction(s)  4S 3D renormalized
     Message from routine setup:
     using ibrav=0 with symmetry is DISCOURAGED, use correct ibrav instead
 
     R & G space division:  proc/nbgrp/npool/nimage =      16
     Subspace diagonalization in iterative solution of the eigenvalue problem:
     a serial algorithm will be used

 
     Parallelization info
     --------------------
     sticks:   dense  smooth     PW     G-vecs:    dense   smooth      PW
     Min          18      18      5                 1778     1778     311
     Max          19      19      6                 1795     1795     348
     Sum         301     301     91                28597    28597    5285
 
     Using Slab Decomposition
 


     bravais-lattice index     =            0
     lattice parameter (alat)  =       4.6298  a.u.
     unit-cell volume          =     596.1396 (a.u.)^3
     number of atoms/cell      =            2
     number of atomic types    =            1
     number of electrons       =        18.00
     number of Kohn-Sham states=           13
     kinetic-energy cutoff     =      50.0000  Ry
     charge density cutoff     =     200.0000  Ry
     scf convergence threshold =      1.0E-06
     mixing beta               =       0.7000
     number of iterations used =            8  plain     mixing
     Exchange-correlation= SLA  PW   PBX  PBC
                           (   1   4   3   4   0   0   0)

     celldm(1)=   4.629829  celldm(2)=   0.000000  celldm(3)=   0.000000
     celldm(4)=   0.000000  celldm(5)=   0.000000  celldm(6)=   0.000000

     crystal axes: (cart. coord. in units of alat)
               a(1) = (   1.000000   0.000000   0.000000 )  
               a(2) = (   0.500000   0.866025   0.000000 )  
               a(3) = (   0.000000   0.000000   6.936214 )  

     reciprocal axes: (cart. coord. in units 2 pi/alat)
               b(1) = (  1.000000 -0.577350  0.000000 )  
               b(2) = (  0.000000  1.154701  0.000000 )  
               b(3) = (  0.000000  0.000000  0.144171 )  


     PseudoPot. # 1 for Co read from file:
     /shared/ESPRESSO/PSLIBRARY/1.0.0/pbe/PSEUDOPOTENTIALS/Co.pbe-n-kjpaw_psl.1.0.0.UPF
     MD5 check sum: 17e7ab8db721b244d1352252ea6cb8e7
     Pseudo is Projector augmented-wave + core cor, Zval =  9.0
     Generated using "atomic" code by A. Dal Corso  (Quantum ESPRESSO distribution)
     Shape of augmentation charge: PSQ
     Using radial grid of 1193 points,  6 beta functions with: 
                l(1) =   0
                l(2) =   0
                l(3) =   1
                l(4) =   1
                l(5) =   2
                l(6) =   2
     Q(r) pseudized with 0 coefficients 


     atomic species   valence    mass     pseudopotential
        Co             9.00    58.93320     Co( 1.00)

     12 Sym. Ops., with inversion, found ( 6 have fractional translation)



   Cartesian axes

     site n.     atom                  positions (alat units)
         1           Co  tau(   1) = (   1.0000000   0.5773503   3.0612245  )
         2           Co  tau(   2) = (   0.0000000   0.0000000   3.8749895  )

     number of k points=    30  Fermi-Dirac smearing, width (Ry)=  0.0070
                       cart. coord. in units 2pi/alat
        k(    1) = (   0.0000000   0.0000000   0.0000000), wk =   0.0078125
        k(    2) = (   0.0000000   0.0721688   0.0000000), wk =   0.0468750
        k(    3) = (   0.0000000   0.1443376   0.0000000), wk =   0.0468750
        k(    4) = (   0.0000000   0.2165064   0.0000000), wk =   0.0468750
        k(    5) = (   0.0000000   0.2886751   0.0000000), wk =   0.0468750
        k(    6) = (   0.0000000   0.3608439   0.0000000), wk =   0.0468750
        k(    7) = (   0.0000000   0.4330127   0.0000000), wk =   0.0468750
        k(    8) = (   0.0000000   0.5051815   0.0000000), wk =   0.0468750
        k(    9) = (   0.0000000  -0.5773503   0.0000000), wk =   0.0234375
        k(   10) = (   0.0625000   0.1082532   0.0000000), wk =   0.0468750
        k(   11) = (   0.0625000   0.1804220   0.0000000), wk =   0.0937500
        k(   12) = (   0.0625000   0.2525907   0.0000000), wk =   0.0937500
        k(   13) = (   0.0625000   0.3247595   0.0000000), wk =   0.0937500
        k(   14) = (   0.0625000   0.3969283   0.0000000), wk =   0.0937500
        k(   15) = (   0.0625000   0.4690971   0.0000000), wk =   0.0937500
        k(   16) = (   0.0625000  -0.6134347   0.0000000), wk =   0.0937500
        k(   17) = (   0.1250000   0.2165064   0.0000000), wk =   0.0468750
        k(   18) = (   0.1250000   0.2886751   0.0000000), wk =   0.0937500
        k(   19) = (   0.1250000   0.3608439   0.0000000), wk =   0.0937500
        k(   20) = (   0.1250000   0.4330127   0.0000000), wk =   0.0937500
        k(   21) = (   0.1250000  -0.6495191   0.0000000), wk =   0.0937500
        k(   22) = (   0.1250000  -0.5773503   0.0000000), wk =   0.0468750
        k(   23) = (   0.1875000   0.3247595   0.0000000), wk =   0.0468750
        k(   24) = (   0.1875000   0.3969283   0.0000000), wk =   0.0937500
        k(   25) = (   0.1875000  -0.6856034   0.0000000), wk =   0.0937500
        k(   26) = (   0.1875000  -0.6134347   0.0000000), wk =   0.0937500
        k(   27) = (   0.2500000  -0.7216878   0.0000000), wk =   0.0468750
        k(   28) = (   0.2500000  -0.6495191   0.0000000), wk =   0.0937500
        k(   29) = (   0.2500000  -0.5773503   0.0000000), wk =   0.0468750
        k(   30) = (   0.3125000  -0.6134347   0.0000000), wk =   0.0468750

     Dense  grid:    28597 G-vectors     FFT dimensions: (  24,  24, 150)

     Estimated max dynamical RAM per process >       9.21 MB

     Estimated total dynamical RAM >     147.38 MB

     Check: negative core charge=   -0.000003

     Initial potential from superposition of free atoms

     starting charge      17.9994, renormalised to      18.0000

     negative rho (up, down):  3.539E-05 0.000E+00
     Starting wfcs are   18 randomized atomic wfcs
     Checking if some PAW data can be deallocated... 

     total cpu time spent up to now is        0.3 secs

     Self-consistent Calculation

     iteration #  1     ecut=    50.00 Ry     beta= 0.70
     Davidson diagonalization with overlap
     ethr =  1.00E-02,  avg # of iterations =  2.2

     negative rho (up, down):  7.699E-06 0.000E+00

     total cpu time spent up to now is        0.6 secs

     total energy              =    -323.78464129 Ry
     estimated scf accuracy    <       0.29855155 Ry

     iteration #  2     ecut=    50.00 Ry     beta= 0.70
     Davidson diagonalization with overlap
     ethr =  1.66E-03,  avg # of iterations =  5.8

     total cpu time spent up to now is        0.9 secs

     total energy              =    -323.46353945 Ry
     estimated scf accuracy    <       3.48317568 Ry

     iteration #  3     ecut=    50.00 Ry     beta= 0.70
     Davidson diagonalization with overlap
     ethr =  1.66E-03,  avg # of iterations =  3.5

     total cpu time spent up to now is        1.2 secs

     total energy              =    -323.97428253 Ry
     estimated scf accuracy    <       0.02282999 Ry

     iteration #  4     ecut=    50.00 Ry     beta= 0.70
     Davidson diagonalization with overlap
     ethr =  1.27E-04,  avg # of iterations =  4.5

     total cpu time spent up to now is        1.5 secs

     total energy              =    -323.97516707 Ry
     estimated scf accuracy    <       0.00946052 Ry

     iteration #  5     ecut=    50.00 Ry     beta= 0.70
     Davidson diagonalization with overlap
     ethr =  5.26E-05,  avg # of iterations =  2.2

     total cpu time spent up to now is        1.7 secs

     total energy              =    -323.97530072 Ry
     estimated scf accuracy    <       0.00235394 Ry

     iteration #  6     ecut=    50.00 Ry     beta= 0.70
     Davidson diagonalization with overlap
     ethr =  1.31E-05,  avg # of iterations =  2.8

     total cpu time spent up to now is        2.0 secs

     total energy              =    -323.97553041 Ry
     estimated scf accuracy    <       0.00042773 Ry

     iteration #  7     ecut=    50.00 Ry     beta= 0.70
     Davidson diagonalization with overlap
     ethr =  2.38E-06,  avg # of iterations =  5.8

     negative rho (up, down):  1.037E-04 0.000E+00

     total cpu time spent up to now is        2.3 secs

     total energy              =    -323.97559194 Ry
     estimated scf accuracy    <       0.00008389 Ry

     iteration #  8     ecut=    50.00 Ry     beta= 0.70
     Davidson diagonalization with overlap
     ethr =  4.66E-07,  avg # of iterations =  2.3

     negative rho (up, down):  5.373E-05 0.000E+00

     total cpu time spent up to now is        2.6 secs

     total energy              =    -323.97560666 Ry
     estimated scf accuracy    <       0.00000291 Ry

     iteration #  9     ecut=    50.00 Ry     beta= 0.70
     Davidson diagonalization with overlap
     ethr =  1.61E-08,  avg # of iterations =  3.2

     negative rho (up, down):  4.439E-05 0.000E+00

     total cpu time spent up to now is        2.9 secs

     End of self-consistent calculation

          k = 0.0000 0.0000 0.0000 (  3541 PWs)   bands (ev):

    -7.9895  -5.3653  -2.2447  -2.0076  -2.0076  -1.8805  -1.8805  -1.6048
    -0.7133  -0.7133  -0.1499  -0.1499   0.0144

          k = 0.0000 0.0722 0.0000 (  3539 PWs)   bands (ev):

    -7.8512  -5.2380  -2.2429  -2.0628  -1.9917  -1.9403  -1.8197  -1.5845
    -0.7381  -0.7353  -0.5926  -0.1468   0.6829

          k = 0.0000 0.1443 0.0000 (  3547 PWs)   bands (ev):

    -7.4475  -4.8763  -2.3093  -2.2777  -2.0957  -1.7494  -1.6477  -1.6282
    -1.1345  -0.7959  -0.3914  -0.1422   1.5362

          k = 0.0000 0.2165 0.0000 (  3555 PWs)   bands (ev):

    -6.8176  -4.3623  -2.6146  -2.4309  -2.1425  -1.7633  -1.4937  -1.3843
    -1.2695  -0.8301  -0.1426  -0.0297   2.5033

          k = 0.0000 0.2887 0.0000 (  3555 PWs)   bands (ev):

    -6.0503  -3.9280  -2.9669  -2.3975  -2.1690  -1.8855  -1.3574  -1.1516
    -1.0281  -0.7105  -0.1477   0.4593   3.5985

          k = 0.0000 0.3608 0.0000 (  3567 PWs)   bands (ev):

    -5.3166  -3.8555  -3.2891  -2.2643  -1.9354  -1.7450  -1.3821  -0.8766
    -0.6501  -0.4162  -0.1449   1.1116   4.8358

          k = 0.0000 0.4330 0.0000 (  3581 PWs)   bands (ev):

    -4.8089  -4.0032  -3.5428  -2.3596  -1.4532  -1.4478  -1.2458  -0.3772
    -0.3637  -0.0976  -0.0801   1.9608   6.2033

          k = 0.0000 0.5052 0.0000 (  3585 PWs)   bands (ev):

    -4.5369  -4.1809  -3.7044  -2.4401  -1.4992  -1.1703  -0.8408  -0.2994
     0.0730   0.1408   0.6060   2.7430   7.1902

          k = 0.0000-0.5774 0.0000 (  3592 PWs)   bands (ev):

    -4.4074  -4.3014  -3.7600  -2.4693  -1.5178  -1.0842  -0.7178  -0.2899
     0.1457   0.2289   1.3516   2.8485   7.1253

          k = 0.0625 0.1083 0.0000 (  3555 PWs)   bands (ev):

    -7.5800  -4.9924  -2.2787  -2.1669  -2.1346  -1.8020  -1.6983  -1.6021
    -1.0731  -0.7058  -0.5291  -0.1294   1.2974

          k = 0.0625 0.1804 0.0000 (  3549 PWs)   bands (ev):

    -7.0609  -4.5430  -2.4618  -2.4047  -2.1938  -1.7210  -1.5292  -1.4757
    -1.2947  -0.7539  -0.3219  -0.0404   2.1500

          k = 0.0625 0.2526 0.0000 (  3555 PWs)   bands (ev):

    -6.3532  -4.0227  -2.7880  -2.5284  -2.2525  -1.8610  -1.3738  -1.2277
    -1.1358  -0.7176  -0.2261   0.2980   3.1563

          k = 0.0625 0.3248 0.0000 (  3568 PWs)   bands (ev):

    -5.5829  -3.7525  -3.1194  -2.3478  -2.2371  -1.9361  -1.3466  -1.0549
    -0.7477  -0.4486  -0.2011   0.8718   4.3122

          k = 0.0625 0.3969 0.0000 (  3574 PWs)   bands (ev):

    -4.9517  -3.8367  -3.4014  -2.3061  -1.8226  -1.6869  -1.3806  -0.7798
    -0.4422  -0.1681   0.0028   1.6759   5.6177

          k = 0.0625 0.4691 0.0000 (  3564 PWs)   bands (ev):

    -4.5799  -4.0205  -3.6045  -2.3884  -1.5659  -1.3557  -1.1288  -0.4076
    -0.3208  -0.0105   0.6255   2.6245   7.0064

          k = 0.0625-0.6134 0.0000 (  3583 PWs)   bands (ev):

    -4.3862  -4.1847  -3.7108  -2.4383  -1.5867  -1.1622  -0.8653  -0.3407
    -0.0760   0.0918   1.5312   3.1271   7.0390

          k = 0.1250 0.2165 0.0000 (  3561 PWs)   bands (ev):

    -6.4575  -4.0495  -2.6670  -2.6152  -2.3456  -1.8397  -1.4253  -1.1945
    -1.1645  -0.6608  -0.3293   0.2755   3.0067

          k = 0.1250 0.2887 0.0000 (  3559 PWs)   bands (ev):

    -5.7224  -3.5758  -2.9436  -2.7162  -2.4184  -1.9723  -1.4116  -1.0403
    -0.7745  -0.4000  -0.3108   0.8028   4.0519

          k = 0.1250 0.3608 0.0000 (  3568 PWs)   bands (ev):

    -5.0194  -3.5236  -3.2151  -2.3893  -2.3427  -2.0231  -1.4422  -0.9077
    -0.5203  -0.2338   0.1176   1.5964   5.2707

          k = 0.1250 0.4330 0.0000 (  3559 PWs)   bands (ev):

    -4.5359  -3.7164  -3.4308  -2.3275  -1.8775  -1.8126  -1.4604  -0.6971
    -0.4658  -0.0777   0.8273   2.6434   6.6393

          k = 0.1250-0.6495 0.0000 (  3557 PWs)   bands (ev):

    -4.2821  -3.9065  -3.5703  -2.3620  -1.7635  -1.4597  -1.2869  -0.4626
    -0.4092  -0.0338   1.7996   3.6202   7.3945

          k = 0.1250-0.5774 0.0000 (  3562 PWs)   bands (ev):

    -4.1748  -4.0122  -3.6187  -2.3756  -1.7788  -1.3173  -1.1903  -0.4633
    -0.1748  -0.1275   2.5690   3.7353   7.3597

          k = 0.1875 0.3248 0.0000 (  3537 PWs)   bands (ev):

    -5.0373  -3.2123  -3.0991  -2.8013  -2.4813  -2.0695  -1.4952  -0.8894
    -0.5837  -0.2525   0.1597   1.5836   5.1567

          k = 0.1875 0.3969 0.0000 (  3555 PWs)   bands (ev):

    -4.4731  -3.3396  -3.2447  -2.4414  -2.3449  -2.0918  -1.6078  -0.7524
    -0.5973  -0.0888   0.9362   2.6740   6.4496

          k = 0.1875-0.6856 0.0000 (  3559 PWs)   bands (ev):

    -4.1378  -3.5429  -3.3674  -2.3065  -1.9956  -1.9659  -1.6515  -0.6293
    -0.5725  -0.0493   1.9735   3.9375   7.8522

          k = 0.1875-0.6134 0.0000 (  3561 PWs)   bands (ev):

    -3.9752  -3.6842  -3.4396  -2.2805  -2.0056  -1.6813  -1.5868  -0.6150
    -0.3738  -0.1504   3.1906   4.6389   7.4060

          k = 0.2500-0.7217 0.0000 (  3535 PWs)   bands (ev):

    -4.0663  -3.3120  -3.2367  -2.3425  -2.2814  -2.0828  -1.7808  -0.7032
    -0.6147  -0.0464   2.0309   4.0308   7.8151

          k = 0.2500-0.6495 0.0000 (  3548 PWs)   bands (ev):

    -3.8320  -3.3650  -3.2485  -2.2634  -2.1617  -2.0241  -1.8670  -0.7440
    -0.4855  -0.1305   3.3903   5.4029   7.9470

          k = 0.2500-0.5774 0.0000 (  3557 PWs)   bands (ev):

    -3.7502  -3.4000  -3.2578  -2.2233  -2.1743  -1.9585  -1.8739  -0.7445
    -0.3671  -0.2501   4.5899   5.3853   8.1646

          k = 0.3125-0.6134 0.0000 (  3527 PWs)   bands (ev):

    -3.6647  -3.2301  -3.1745  -2.3048  -2.1536  -2.0493  -2.0427  -0.7983
    -0.3950  -0.2639   5.0310   6.5385   7.0093

     the Fermi energy is    -0.4027 ev

!    total energy              =    -323.97560743 Ry
     total all-electron energy =     -5573.662960 Ry
     estimated scf accuracy    <       0.00000048 Ry
     smearing contrib. (-TS)   =      -0.01388610 Ry
     internal energy E=F+TS    =    -323.96172133 Ry

     The total energy is F=E-TS. E is the sum of the following terms:
     one-electron contribution =    -719.09486176 Ry
     hartree contribution      =     376.39799725 Ry
     xc contribution           =     -65.06303336 Ry
     ewald contribution        =     256.88906234 Ry
     one-center paw contrib.   =    -173.09088580 Ry

     convergence has been achieved in   9 iterations

     negative rho (up, down):  4.439E-05 0.000E+00

     Forces acting on atoms (cartesian axes, Ry/au):

     atom    1 type  1   force =     0.00000000    0.00000000    0.02364427
     atom    2 type  1   force =     0.00000000    0.00000000   -0.02364427
     The non-local contrib.  to forces
     atom    1 type  1   force =     0.00000000    0.00000000   -0.09337111
     atom    2 type  1   force =     0.00000000   -0.00000000    0.09337111
     The ionic contribution  to forces
     atom    1 type  1   force =    -0.00000000    0.00000000  -41.52793710
     atom    2 type  1   force =     0.00000000   -0.00000000   41.52793710
     The local contribution  to forces
     atom    1 type  1   force =    -0.00000000   -0.00000000   41.62783379
     atom    2 type  1   force =     0.00000000    0.00000000  -41.62783379
     The core correction contribution to forces
     atom    1 type  1   force =    -0.00000000   -0.00000000    0.01489953
     atom    2 type  1   force =     0.00000000    0.00000000   -0.01489953
     The Hubbard contrib.    to forces
     atom    1 type  1   force =     0.00000000    0.00000000    0.00000000
     atom    2 type  1   force =     0.00000000    0.00000000    0.00000000
     The SCF correction term to forces
     atom    1 type  1   force =    -0.00000000    0.00000000    0.00221917
     atom    2 type  1   force =    -0.00000000    0.00000000   -0.00221917

     Total force =     0.033438     Total SCF correction =     0.003138


     Computing stress (Cartesian axis) and pressure


     negative rho (up, down):  4.439E-05 0.000E+00
          total   stress  (Ry/bohr**3)                   (kbar)     P=      -40.25
  -0.00032248  -0.00000000   0.00000000          -47.44       -0.00        0.00
  -0.00000000  -0.00032248   0.00000000           -0.00      -47.44        0.00
   0.00000000   0.00000000  -0.00017587            0.00        0.00      -25.87


     Writing all to output data dir ./tmp/scf.save/
 
     init_run     :      0.18s CPU      0.24s WALL (       1 calls)
     electrons    :      2.27s CPU      2.53s WALL (       1 calls)
     forces       :      0.04s CPU      0.04s WALL (       1 calls)
     stress       :      0.18s CPU      0.18s WALL (       1 calls)

     Called by init_run:
     wfcinit      :      0.05s CPU      0.06s WALL (       1 calls)
     potinit      :      0.06s CPU      0.07s WALL (       1 calls)
     hinit0       :      0.05s CPU      0.09s WALL (       1 calls)

     Called by electrons:
     c_bands      :      1.43s CPU      1.64s WALL (       9 calls)
     sum_band     :      0.25s CPU      0.28s WALL (       9 calls)
     v_of_rho     :      0.02s CPU      0.02s WALL (      10 calls)
     newd         :      0.06s CPU      0.07s WALL (      10 calls)
     PAW_pot      :      0.56s CPU      0.58s WALL (      10 calls)
     mix_rho      :      0.00s CPU      0.00s WALL (       9 calls)

     Called by c_bands:
     init_us_2    :      0.02s CPU      0.03s WALL (     630 calls)
     init_us_2:cp :      0.02s CPU      0.02s WALL (     630 calls)
     cegterg      :      1.15s CPU      1.34s WALL (     270 calls)

     Called by *egterg:
     cdiaghg      :      0.15s CPU      0.17s WALL (    1243 calls)
     h_psi        :      0.90s CPU      1.05s WALL (    1273 calls)
     s_psi        :      0.01s CPU      0.02s WALL (    1273 calls)
     g_psi        :      0.00s CPU      0.00s WALL (     973 calls)

     Called by h_psi:
     h_psi:calbec :      0.04s CPU      0.05s WALL (    1273 calls)
     vloc_psi     :      0.84s CPU      0.98s WALL (    1273 calls)
     add_vuspsi   :      0.02s CPU      0.02s WALL (    1273 calls)

     General routines
     calbec       :      0.11s CPU      0.12s WALL (    1693 calls)
     fft          :      0.03s CPU      0.06s WALL (     135 calls)
     ffts         :      0.00s CPU      0.00s WALL (       9 calls)
     fftw         :      0.91s CPU      1.06s WALL (   23148 calls)
 
     Parallel routines
 
     PWSCF        :      2.78s CPU      3.14s WALL

 
   This run was terminated on:  16:16:26   5Jun2025            

=------------------------------------------------------------------------------=
   JOB DONE.
=------------------------------------------------------------------------------=
