
     Program PWSCF v.7.2 starts on  5Jun2025 at 16:16: 6 

     This program is part of the open-source Quantum ESPRESSO suite
     for quantum simulation of materials; please cite
         "P. Giannozzi et al., J. Phys.:Condens. Matter 21 395502 (2009);
         "P. Giannozzi et al., J. Phys.:Condens. Matter 29 465901 (2017);
         "P. Giannozzi et al., J. Chem. Phys. 152 154105 (2020);
          URL http://www.quantum-espresso.org", 
     in publications or presentations arising from this work. More details at
     http://www.quantum-espresso.org/quote

     Parallel version (MPI), running on    16 processors

     MPI processes distributed on     1 nodes
     36681 MiB available memory on the printing compute node when the environment starts
 
     Waiting for input...
     Reading input from standard input

     Current dimensions of program PWSCF are:
     Max number of different atomic species (ntypx) = 10
     Max number of k-points (npk) =  40000
     Max angular momentum in pseudopotentials (lmaxx) =  4
     file Co.pbe-n-kjpaw_psl.1.0.0.UPF: wavefunction(s)  4S 3D renormalized
     Message from routine setup:
     using ibrav=0 with symmetry is DISCOURAGED, use correct ibrav instead
 
     R & G space division:  proc/nbgrp/npool/nimage =      16
     Subspace diagonalization in iterative solution of the eigenvalue problem:
     a serial algorithm will be used

 
     Parallelization info
     --------------------
     sticks:   dense  smooth     PW     G-vecs:    dense   smooth      PW
     Min           7       7      2                  447      447      90
     Max           8       8      3                  468      468     115
     Sum         121     121     43                 7315     7315    1623
 
     Using Slab Decomposition
 


     bravais-lattice index     =            0
     lattice parameter (alat)  =       4.6298  a.u.
     unit-cell volume          =     596.1396 (a.u.)^3
     number of atoms/cell      =            2
     number of atomic types    =            1
     number of electrons       =        18.00
     number of Kohn-Sham states=           13
     kinetic-energy cutoff     =      20.0000  Ry
     charge density cutoff     =      80.0000  Ry
     scf convergence threshold =      1.0E-06
     mixing beta               =       0.7000
     number of iterations used =            8  plain     mixing
     Exchange-correlation= SLA  PW   PBX  PBC
                           (   1   4   3   4   0   0   0)

     celldm(1)=   4.629829  celldm(2)=   0.000000  celldm(3)=   0.000000
     celldm(4)=   0.000000  celldm(5)=   0.000000  celldm(6)=   0.000000

     crystal axes: (cart. coord. in units of alat)
               a(1) = (   1.000000   0.000000   0.000000 )  
               a(2) = (   0.500000   0.866025   0.000000 )  
               a(3) = (   0.000000   0.000000   6.936214 )  

     reciprocal axes: (cart. coord. in units 2 pi/alat)
               b(1) = (  1.000000 -0.577350  0.000000 )  
               b(2) = (  0.000000  1.154701  0.000000 )  
               b(3) = (  0.000000  0.000000  0.144171 )  


     PseudoPot. # 1 for Co read from file:
     /shared/ESPRESSO/PSLIBRARY/1.0.0/pbe/PSEUDOPOTENTIALS/Co.pbe-n-kjpaw_psl.1.0.0.UPF
     MD5 check sum: 17e7ab8db721b244d1352252ea6cb8e7
     Pseudo is Projector augmented-wave + core cor, Zval =  9.0
     Generated using "atomic" code by A. Dal Corso  (Quantum ESPRESSO distribution)
     Shape of augmentation charge: PSQ
     Using radial grid of 1193 points,  6 beta functions with: 
                l(1) =   0
                l(2) =   0
                l(3) =   1
                l(4) =   1
                l(5) =   2
                l(6) =   2
     Q(r) pseudized with 0 coefficients 


     atomic species   valence    mass     pseudopotential
        Co             9.00    58.93320     Co( 1.00)

     12 Sym. Ops., with inversion, found ( 6 have fractional translation)



   Cartesian axes

     site n.     atom                  positions (alat units)
         1           Co  tau(   1) = (   1.0000000   0.5773503   3.0612245  )
         2           Co  tau(   2) = (   0.0000000   0.0000000   3.8749895  )

     number of k points=    30  Fermi-Dirac smearing, width (Ry)=  0.0070
                       cart. coord. in units 2pi/alat
        k(    1) = (   0.0000000   0.0000000   0.0000000), wk =   0.0078125
        k(    2) = (   0.0000000   0.0721688   0.0000000), wk =   0.0468750
        k(    3) = (   0.0000000   0.1443376   0.0000000), wk =   0.0468750
        k(    4) = (   0.0000000   0.2165064   0.0000000), wk =   0.0468750
        k(    5) = (   0.0000000   0.2886751   0.0000000), wk =   0.0468750
        k(    6) = (   0.0000000   0.3608439   0.0000000), wk =   0.0468750
        k(    7) = (   0.0000000   0.4330127   0.0000000), wk =   0.0468750
        k(    8) = (   0.0000000   0.5051815   0.0000000), wk =   0.0468750
        k(    9) = (   0.0000000  -0.5773503   0.0000000), wk =   0.0234375
        k(   10) = (   0.0625000   0.1082532   0.0000000), wk =   0.0468750
        k(   11) = (   0.0625000   0.1804220   0.0000000), wk =   0.0937500
        k(   12) = (   0.0625000   0.2525907   0.0000000), wk =   0.0937500
        k(   13) = (   0.0625000   0.3247595   0.0000000), wk =   0.0937500
        k(   14) = (   0.0625000   0.3969283   0.0000000), wk =   0.0937500
        k(   15) = (   0.0625000   0.4690971   0.0000000), wk =   0.0937500
        k(   16) = (   0.0625000  -0.6134347   0.0000000), wk =   0.0937500
        k(   17) = (   0.1250000   0.2165064   0.0000000), wk =   0.0468750
        k(   18) = (   0.1250000   0.2886751   0.0000000), wk =   0.0937500
        k(   19) = (   0.1250000   0.3608439   0.0000000), wk =   0.0937500
        k(   20) = (   0.1250000   0.4330127   0.0000000), wk =   0.0937500
        k(   21) = (   0.1250000  -0.6495191   0.0000000), wk =   0.0937500
        k(   22) = (   0.1250000  -0.5773503   0.0000000), wk =   0.0468750
        k(   23) = (   0.1875000   0.3247595   0.0000000), wk =   0.0468750
        k(   24) = (   0.1875000   0.3969283   0.0000000), wk =   0.0937500
        k(   25) = (   0.1875000  -0.6856034   0.0000000), wk =   0.0937500
        k(   26) = (   0.1875000  -0.6134347   0.0000000), wk =   0.0937500
        k(   27) = (   0.2500000  -0.7216878   0.0000000), wk =   0.0468750
        k(   28) = (   0.2500000  -0.6495191   0.0000000), wk =   0.0937500
        k(   29) = (   0.2500000  -0.5773503   0.0000000), wk =   0.0468750
        k(   30) = (   0.3125000  -0.6134347   0.0000000), wk =   0.0468750

     Dense  grid:     7315 G-vectors     FFT dimensions: (  15,  15,  96)

     Estimated max dynamical RAM per process >       2.75 MB

     Estimated total dynamical RAM >      44.02 MB

     Check: negative core charge=   -0.000044

     Initial potential from superposition of free atoms

     starting charge      17.9994, renormalised to      18.0000

     negative rho (up, down):  7.380E-04 0.000E+00
     Starting wfcs are   18 randomized atomic wfcs
     Checking if some PAW data can be deallocated... 

     total cpu time spent up to now is        0.5 secs

     Self-consistent Calculation

     iteration #  1     ecut=    20.00 Ry     beta= 0.70
     Davidson diagonalization with overlap
     ethr =  1.00E-02,  avg # of iterations =  2.1

     negative rho (up, down):  9.941E-03 0.000E+00

     total cpu time spent up to now is        0.7 secs

     total energy              =    -322.76446290 Ry
     estimated scf accuracy    <       0.47229389 Ry

     iteration #  2     ecut=    20.00 Ry     beta= 0.70
     Davidson diagonalization with overlap
     ethr =  2.62E-03,  avg # of iterations =  2.1

     negative rho (up, down):  1.131E-02 0.000E+00

     total cpu time spent up to now is        1.0 secs

     total energy              =    -322.86421646 Ry
     estimated scf accuracy    <       0.36571807 Ry

     iteration #  3     ecut=    20.00 Ry     beta= 0.70
     Davidson diagonalization with overlap
     ethr =  2.03E-03,  avg # of iterations =  2.0

     negative rho (up, down):  1.290E-02 0.000E+00

     total cpu time spent up to now is        1.2 secs

     total energy              =    -322.93630764 Ry
     estimated scf accuracy    <       0.03069970 Ry

     iteration #  4     ecut=    20.00 Ry     beta= 0.70
     Davidson diagonalization with overlap
     ethr =  1.71E-04,  avg # of iterations =  2.2

     negative rho (up, down):  1.663E-02 0.000E+00

     total cpu time spent up to now is        1.4 secs

     total energy              =    -322.94505180 Ry
     estimated scf accuracy    <       0.03029833 Ry

     iteration #  5     ecut=    20.00 Ry     beta= 0.70
     Davidson diagonalization with overlap
     ethr =  1.68E-04,  avg # of iterations =  2.1

     negative rho (up, down):  1.836E-02 0.000E+00

     total cpu time spent up to now is        1.6 secs

     total energy              =    -322.94940366 Ry
     estimated scf accuracy    <       0.00020428 Ry

     iteration #  6     ecut=    20.00 Ry     beta= 0.70
     Davidson diagonalization with overlap
     ethr =  1.13E-06,  avg # of iterations =  7.6

     negative rho (up, down):  2.008E-02 0.000E+00

     total cpu time spent up to now is        1.9 secs

     total energy              =    -322.94973129 Ry
     estimated scf accuracy    <       0.00003443 Ry

     iteration #  7     ecut=    20.00 Ry     beta= 0.70
     Davidson diagonalization with overlap
     ethr =  1.91E-07,  avg # of iterations =  1.4

     negative rho (up, down):  2.087E-02 0.000E+00

     total cpu time spent up to now is        2.1 secs

     total energy              =    -322.94973495 Ry
     estimated scf accuracy    <       0.00000369 Ry

     iteration #  8     ecut=    20.00 Ry     beta= 0.70
     Davidson diagonalization with overlap
     ethr =  2.05E-08,  avg # of iterations =  2.4

     negative rho (up, down):  2.095E-02 0.000E+00

     total cpu time spent up to now is        2.3 secs

     End of self-consistent calculation

          k = 0.0000 0.0000 0.0000 (   927 PWs)   bands (ev):

    -7.7368  -5.4552  -2.7248  -2.5254  -2.5254  -2.4444  -2.4444  -1.7943
    -1.3655  -1.3655  -0.4785  -0.4785   0.0248

          k = 0.0000 0.0722 0.0000 (   921 PWs)   bands (ev):

    -7.5987  -5.3286  -2.7055  -2.5648  -2.4827  -2.4631  -2.3470  -1.8897
    -1.3498  -1.1039  -0.8677  -0.4847   0.5999

          k = 0.0000 0.1443 0.0000 (   915 PWs)   bands (ev):

    -7.1988  -4.9804  -2.7580  -2.7182  -2.4765  -2.2774  -2.1054  -2.0181
    -1.3761  -1.3748  -0.7182  -0.4314   1.4254

          k = 0.0000 0.2165 0.0000 (   910 PWs)   bands (ev):

    -6.5835  -4.5161  -3.0222  -2.9017  -2.4934  -2.1842  -1.9151  -1.7408
    -1.5727  -1.3347  -0.4935  -0.2390   2.3815

          k = 0.0000 0.2887 0.0000 (   902 PWs)   bands (ev):

    -5.8725  -4.2109  -3.4048  -2.7676  -2.5193  -2.2726  -1.7862  -1.4333
    -1.3712  -0.9774  -0.5599   0.3517   3.4335

          k = 0.0000 0.3608 0.0000 (   884 PWs)   bands (ev):

    -5.2769  -4.1980  -3.6797  -2.6558  -2.1862  -1.9815  -1.7311  -1.0776
    -0.9305  -0.5977  -0.3851   1.1211   4.6864

          k = 0.0000 0.4330 0.0000 (   894 PWs)   bands (ev):

    -5.0183  -4.3904  -3.9493  -2.7741  -1.7980  -1.7157  -1.4484  -0.8022
    -0.5447  -0.5088  -0.2787   2.0405   6.0836

          k = 0.0000 0.5052 0.0000 (   912 PWs)   bands (ev):

    -4.9616  -4.6068  -4.1707  -2.9638  -1.9276  -1.4868  -1.1387  -0.8399
    -0.3943  -0.2184   0.5778   2.8582   7.3160

          k = 0.0000-0.5774 0.0000 (   910 PWs)   bands (ev):

    -4.9683  -4.6787  -4.2123  -2.9514  -1.8777  -1.4039  -1.0533  -0.8027
    -0.2772  -0.1967   1.4304   2.9716   7.2333

          k = 0.0625 0.1083 0.0000 (   917 PWs)   bands (ev):

    -7.3295  -5.0909  -2.7272  -2.6105  -2.5547  -2.3098  -2.2111  -1.9725
    -1.4276  -1.1486  -0.8760  -0.4667   1.1854

          k = 0.0625 0.1804 0.0000 (   906 PWs)   bands (ev):

    -6.8183  -4.6528  -2.8511  -2.7904  -2.5613  -2.1200  -1.9920  -1.8318
    -1.6140  -1.2006  -0.5709  -0.3174   2.0307

          k = 0.0625 0.2526 0.0000 (   902 PWs)   bands (ev):

    -6.1399  -4.2214  -3.2098  -2.9935  -2.5670  -2.2803  -1.6944  -1.5782
    -1.4539  -1.0714  -0.5517   0.1530   3.0186

          k = 0.0625 0.3248 0.0000 (   898 PWs)   bands (ev):

    -5.4625  -4.1184  -3.5475  -2.6974  -2.5746  -2.3131  -1.7360  -1.2977
    -1.1334  -0.7369  -0.5280   0.8170   4.1560

          k = 0.0625 0.3969 0.0000 (   899 PWs)   bands (ev):

    -5.0519  -4.2702  -3.8461  -2.7367  -2.0871  -1.9845  -1.7528  -1.0343
    -0.9106  -0.4473  -0.2701   1.7128   5.4758

          k = 0.0625 0.4691 0.0000 (   899 PWs)   bands (ev):

    -4.8872  -4.4496  -4.0133  -2.8292  -1.9703  -1.6078  -1.3705  -0.8410
    -0.6623  -0.3512   0.4660   2.7347   6.9121

          k = 0.0625-0.6134 0.0000 (   902 PWs)   bands (ev):

    -4.8454  -4.5702  -4.1152  -2.9114  -1.9871  -1.4408  -1.1496  -0.8185
    -0.4460  -0.2782   1.5518   3.2647   7.1622

          k = 0.1250 0.2165 0.0000 (   893 PWs)   bands (ev):

    -6.2320  -4.2020  -3.0792  -2.9741  -2.6661  -2.2216  -1.7837  -1.4534
    -1.4469  -0.9847  -0.5673   0.1269   2.8841

          k = 0.1250 0.2887 0.0000 (   903 PWs)   bands (ev):

    -5.5583  -3.8637  -3.3872  -3.0674  -2.7792  -2.4192  -1.8364  -1.3895
    -1.1836  -0.7157  -0.6053   0.7029   3.8914

          k = 0.1250 0.3608 0.0000 (   904 PWs)   bands (ev):

    -5.0064  -3.9865  -3.6217  -2.7174  -2.7015  -2.4196  -1.8785  -1.2363
    -1.0045  -0.5738  -0.1800   1.5819   5.1164

          k = 0.1250 0.4330 0.0000 (   899 PWs)   bands (ev):

    -4.7412  -4.1554  -3.8068  -2.8171  -2.2205  -2.1048  -1.8112  -1.0144
    -0.9236  -0.4395   0.6618   2.7188   6.5054

          k = 0.1250-0.6495 0.0000 (   900 PWs)   bands (ev):

    -4.6603  -4.3030  -3.9505  -2.8595  -2.2317  -1.7778  -1.5746  -0.9247
    -0.7537  -0.3915   1.7594   3.7438   7.5603

          k = 0.1250-0.5774 0.0000 (   898 PWs)   bands (ev):

    -4.6412  -4.3552  -3.9940  -2.8584  -2.2565  -1.6252  -1.4782  -0.9363
    -0.5101  -0.4803   2.6633   3.8635   7.4994

          k = 0.1875 0.3248 0.0000 (   897 PWs)   bands (ev):

    -4.9796  -3.5291  -3.5086  -3.0638  -2.8616  -2.4383  -1.9086  -1.2243
    -1.1006  -0.5897  -0.1239   1.5640   4.9918

          k = 0.1875 0.3969 0.0000 (   899 PWs)   bands (ev):

    -4.6150  -3.7642  -3.6090  -2.8112  -2.7177  -2.4478  -2.0472  -1.1041
    -1.0472  -0.4456   0.7442   2.7105   6.2982

          k = 0.1875-0.6856 0.0000 (   896 PWs)   bands (ev):

    -4.4595  -3.9286  -3.7511  -2.7882  -2.3576  -2.2779  -2.0413  -1.0937
    -0.8896  -0.4043   1.9088   4.0459   7.7617

          k = 0.1875-0.6134 0.0000 (   896 PWs)   bands (ev):

    -4.4133  -4.0366  -3.8264  -2.7959  -2.4053  -2.0248  -1.9479  -1.0775
    -0.7100  -0.4880   3.2744   4.8082   7.5719

          k = 0.2500-0.7217 0.0000 (   897 PWs)   bands (ev):

    -4.3633  -3.7293  -3.5929  -2.7867  -2.5915  -2.4455  -2.2486  -1.1498
    -0.9502  -0.4001   1.9581   4.1077   7.7011

          k = 0.2500-0.6495 0.0000 (   896 PWs)   bands (ev):

    -4.2435  -3.7214  -3.6025  -2.7511  -2.5534  -2.4196  -2.2923  -1.2398
    -0.7996  -0.4742   3.4545   5.5687   8.2290

          k = 0.2500-0.5774 0.0000 (   892 PWs)   bands (ev):

    -4.2005  -3.7196  -3.6314  -2.6414  -2.6370  -2.3535  -2.2616  -1.2076
    -0.6993  -0.5290   4.7800   5.6058   8.3666

          k = 0.3125-0.6134 0.0000 (   889 PWs)   bands (ev):

    -4.1030  -3.5386  -3.4896  -2.6652  -2.6366  -2.5350  -2.4491  -1.2595
    -0.6637  -0.5727   5.2371   6.8155   7.3426

     the Fermi energy is    -0.7618 ev

!    total energy              =    -322.94973579 Ry
     total all-electron energy =     -5572.637088 Ry
     estimated scf accuracy    <       0.00000057 Ry
     smearing contrib. (-TS)   =      -0.01185365 Ry
     internal energy E=F+TS    =    -322.93788214 Ry

     The total energy is F=E-TS. E is the sum of the following terms:
     one-electron contribution =    -717.41515533 Ry
     hartree contribution      =     374.78872975 Ry
     xc contribution           =     -64.33592136 Ry
     ewald contribution        =     256.88906232 Ry
     one-center paw contrib.   =    -172.86459751 Ry

     convergence has been achieved in   8 iterations

     negative rho (up, down):  2.095E-02 0.000E+00

     Forces acting on atoms (cartesian axes, Ry/au):

     atom    1 type  1   force =     0.00000000    0.00000000   -0.01272261
     atom    2 type  1   force =     0.00000000    0.00000000    0.01272261
     The non-local contrib.  to forces
     atom    1 type  1   force =     0.00000000    0.00000000   -0.12764868
     atom    2 type  1   force =    -0.00000000    0.00000000    0.12764868
     The ionic contribution  to forces
     atom    1 type  1   force =    -0.00000000    0.00000000  -41.52793709
     atom    2 type  1   force =     0.00000000    0.00000000   41.52793709
     The local contribution  to forces
     atom    1 type  1   force =    -0.00000000   -0.00000000   41.63431630
     atom    2 type  1   force =     0.00000000    0.00000000  -41.63431630
     The core correction contribution to forces
     atom    1 type  1   force =    -0.00000000   -0.00000000    0.01196011
     atom    2 type  1   force =     0.00000000    0.00000000   -0.01196011
     The Hubbard contrib.    to forces
     atom    1 type  1   force =     0.00000000    0.00000000    0.00000000
     atom    2 type  1   force =     0.00000000    0.00000000    0.00000000
     The SCF correction term to forces
     atom    1 type  1   force =     0.00000000   -0.00000000   -0.00341325
     atom    2 type  1   force =     0.00000000   -0.00000000    0.00341325

     Total force =     0.017992     Total SCF correction =     0.004827
     SCF correction compared to forces is large: reduce conv_thr to get better values


     Computing stress (Cartesian axis) and pressure


     negative rho (up, down):  2.095E-02 0.000E+00
          total   stress  (Ry/bohr**3)                   (kbar)     P=    -1124.38
  -0.00762291  -0.00000000   0.00000000        -1121.37       -0.00        0.00
  -0.00000000  -0.00762291   0.00000000           -0.00    -1121.37        0.00
  -0.00000000  -0.00000000  -0.00768429           -0.00       -0.00    -1130.40


     Writing all to output data dir ./tmp/scf.save/
 
     init_run     :      0.29s CPU      0.38s WALL (       1 calls)
     electrons    :      1.55s CPU      1.79s WALL (       1 calls)
     forces       :      0.02s CPU      0.02s WALL (       1 calls)
     stress       :      0.05s CPU      0.05s WALL (       1 calls)

     Called by init_run:
     wfcinit      :      0.04s CPU      0.06s WALL (       1 calls)
     potinit      :      0.22s CPU      0.28s WALL (       1 calls)
     hinit0       :      0.02s CPU      0.03s WALL (       1 calls)

     Called by electrons:
     c_bands      :      0.92s CPU      1.09s WALL (       8 calls)
     sum_band     :      0.13s CPU      0.16s WALL (       8 calls)
     v_of_rho     :      0.01s CPU      0.01s WALL (       9 calls)
     newd         :      0.01s CPU      0.02s WALL (       9 calls)
     PAW_pot      :      0.69s CPU      0.79s WALL (       9 calls)
     mix_rho      :      0.00s CPU      0.00s WALL (       8 calls)

     Called by c_bands:
     init_us_2    :      0.01s CPU      0.01s WALL (     570 calls)
     init_us_2:cp :      0.01s CPU      0.01s WALL (     570 calls)
     cegterg      :      0.87s CPU      1.03s WALL (     240 calls)

     Called by *egterg:
     cdiaghg      :      0.14s CPU      0.20s WALL (     898 calls)
     h_psi        :      0.70s CPU      0.81s WALL (     928 calls)
     s_psi        :      0.01s CPU      0.01s WALL (     928 calls)
     g_psi        :      0.00s CPU      0.00s WALL (     658 calls)

     Called by h_psi:
     h_psi:calbec :      0.02s CPU      0.02s WALL (     928 calls)
     vloc_psi     :      0.66s CPU      0.77s WALL (     928 calls)
     add_vuspsi   :      0.01s CPU      0.01s WALL (     928 calls)

     General routines
     calbec       :      0.03s CPU      0.04s WALL (    1318 calls)
     fft          :      0.01s CPU      0.01s WALL (     124 calls)
     ffts         :      0.00s CPU      0.00s WALL (       8 calls)
     fftw         :      0.71s CPU      0.83s WALL (   21176 calls)
 
     Parallel routines
 
     PWSCF        :      2.05s CPU      2.44s WALL

 
   This run was terminated on:  16:16: 9   5Jun2025            

=------------------------------------------------------------------------------=
   JOB DONE.
=------------------------------------------------------------------------------=
