
     Program PWSCF v.7.2 starts on  5Jun2025 at 16:16:37 

     This program is part of the open-source Quantum ESPRESSO suite
     for quantum simulation of materials; please cite
         "P. Giannozzi et al., J. Phys.:Condens. Matter 21 395502 (2009);
         "P. Giannozzi et al., J. Phys.:Condens. Matter 29 465901 (2017);
         "P. Giannozzi et al., J. Chem. Phys. 152 154105 (2020);
          URL http://www.quantum-espresso.org", 
     in publications or presentations arising from this work. More details at
     http://www.quantum-espresso.org/quote

     Parallel version (MPI), running on    16 processors

     MPI processes distributed on     1 nodes
     36308 MiB available memory on the printing compute node when the environment starts
 
     Waiting for input...
     Reading input from standard input

     Current dimensions of program PWSCF are:
     Max number of different atomic species (ntypx) = 10
     Max number of k-points (npk) =  40000
     Max angular momentum in pseudopotentials (lmaxx) =  4
     file Co.pbe-n-kjpaw_psl.1.0.0.UPF: wavefunction(s)  4S 3D renormalized
     Message from routine setup:
     using ibrav=0 with symmetry is DISCOURAGED, use correct ibrav instead
 
     R & G space division:  proc/nbgrp/npool/nimage =      16
     Subspace diagonalization in iterative solution of the eigenvalue problem:
     a serial algorithm will be used

 
     Parallelization info
     --------------------
     sticks:   dense  smooth     PW     G-vecs:    dense   smooth      PW
     Min          27      27      8                 3261     3261     564
     Max          28      28      9                 3294     3294     583
     Sum         439     439    139                52347    52347    9153
 
     Using Slab Decomposition
 


     bravais-lattice index     =            0
     lattice parameter (alat)  =       4.6298  a.u.
     unit-cell volume          =     596.1396 (a.u.)^3
     number of atoms/cell      =            2
     number of atomic types    =            1
     number of electrons       =        18.00
     number of Kohn-Sham states=           13
     kinetic-energy cutoff     =      75.0000  Ry
     charge density cutoff     =     300.0000  Ry
     scf convergence threshold =      1.0E-06
     mixing beta               =       0.7000
     number of iterations used =            8  plain     mixing
     Exchange-correlation= SLA  PW   PBX  PBC
                           (   1   4   3   4   0   0   0)

     celldm(1)=   4.629829  celldm(2)=   0.000000  celldm(3)=   0.000000
     celldm(4)=   0.000000  celldm(5)=   0.000000  celldm(6)=   0.000000

     crystal axes: (cart. coord. in units of alat)
               a(1) = (   1.000000   0.000000   0.000000 )  
               a(2) = (   0.500000   0.866025   0.000000 )  
               a(3) = (   0.000000   0.000000   6.936214 )  

     reciprocal axes: (cart. coord. in units 2 pi/alat)
               b(1) = (  1.000000 -0.577350  0.000000 )  
               b(2) = (  0.000000  1.154701  0.000000 )  
               b(3) = (  0.000000  0.000000  0.144171 )  


     PseudoPot. # 1 for Co read from file:
     /shared/ESPRESSO/PSLIBRARY/1.0.0/pbe/PSEUDOPOTENTIALS/Co.pbe-n-kjpaw_psl.1.0.0.UPF
     MD5 check sum: 17e7ab8db721b244d1352252ea6cb8e7
     Pseudo is Projector augmented-wave + core cor, Zval =  9.0
     Generated using "atomic" code by A. Dal Corso  (Quantum ESPRESSO distribution)
     Shape of augmentation charge: PSQ
     Using radial grid of 1193 points,  6 beta functions with: 
                l(1) =   0
                l(2) =   0
                l(3) =   1
                l(4) =   1
                l(5) =   2
                l(6) =   2
     Q(r) pseudized with 0 coefficients 


     atomic species   valence    mass     pseudopotential
        Co             9.00    58.93320     Co( 1.00)

     12 Sym. Ops., with inversion, found ( 6 have fractional translation)



   Cartesian axes

     site n.     atom                  positions (alat units)
         1           Co  tau(   1) = (   1.0000000   0.5773503   3.0612245  )
         2           Co  tau(   2) = (   0.0000000   0.0000000   3.8749895  )

     number of k points=    30  Fermi-Dirac smearing, width (Ry)=  0.0070
                       cart. coord. in units 2pi/alat
        k(    1) = (   0.0000000   0.0000000   0.0000000), wk =   0.0078125
        k(    2) = (   0.0000000   0.0721688   0.0000000), wk =   0.0468750
        k(    3) = (   0.0000000   0.1443376   0.0000000), wk =   0.0468750
        k(    4) = (   0.0000000   0.2165064   0.0000000), wk =   0.0468750
        k(    5) = (   0.0000000   0.2886751   0.0000000), wk =   0.0468750
        k(    6) = (   0.0000000   0.3608439   0.0000000), wk =   0.0468750
        k(    7) = (   0.0000000   0.4330127   0.0000000), wk =   0.0468750
        k(    8) = (   0.0000000   0.5051815   0.0000000), wk =   0.0468750
        k(    9) = (   0.0000000  -0.5773503   0.0000000), wk =   0.0234375
        k(   10) = (   0.0625000   0.1082532   0.0000000), wk =   0.0468750
        k(   11) = (   0.0625000   0.1804220   0.0000000), wk =   0.0937500
        k(   12) = (   0.0625000   0.2525907   0.0000000), wk =   0.0937500
        k(   13) = (   0.0625000   0.3247595   0.0000000), wk =   0.0937500
        k(   14) = (   0.0625000   0.3969283   0.0000000), wk =   0.0937500
        k(   15) = (   0.0625000   0.4690971   0.0000000), wk =   0.0937500
        k(   16) = (   0.0625000  -0.6134347   0.0000000), wk =   0.0937500
        k(   17) = (   0.1250000   0.2165064   0.0000000), wk =   0.0468750
        k(   18) = (   0.1250000   0.2886751   0.0000000), wk =   0.0937500
        k(   19) = (   0.1250000   0.3608439   0.0000000), wk =   0.0937500
        k(   20) = (   0.1250000   0.4330127   0.0000000), wk =   0.0937500
        k(   21) = (   0.1250000  -0.6495191   0.0000000), wk =   0.0937500
        k(   22) = (   0.1250000  -0.5773503   0.0000000), wk =   0.0468750
        k(   23) = (   0.1875000   0.3247595   0.0000000), wk =   0.0468750
        k(   24) = (   0.1875000   0.3969283   0.0000000), wk =   0.0937500
        k(   25) = (   0.1875000  -0.6856034   0.0000000), wk =   0.0937500
        k(   26) = (   0.1875000  -0.6134347   0.0000000), wk =   0.0937500
        k(   27) = (   0.2500000  -0.7216878   0.0000000), wk =   0.0468750
        k(   28) = (   0.2500000  -0.6495191   0.0000000), wk =   0.0937500
        k(   29) = (   0.2500000  -0.5773503   0.0000000), wk =   0.0468750
        k(   30) = (   0.3125000  -0.6134347   0.0000000), wk =   0.0468750

     Dense  grid:    52347 G-vectors     FFT dimensions: (  27,  27, 180)

     Estimated max dynamical RAM per process >      16.12 MB

     Estimated total dynamical RAM >     257.87 MB

     Initial potential from superposition of free atoms

     starting charge      17.9994, renormalised to      18.0000

     negative rho (up, down):  1.793E-04 0.000E+00
     Starting wfcs are   18 randomized atomic wfcs
     Checking if some PAW data can be deallocated... 

     total cpu time spent up to now is        0.6 secs

     Self-consistent Calculation

     iteration #  1     ecut=    75.00 Ry     beta= 0.70
     Davidson diagonalization with overlap
     ethr =  1.00E-02,  avg # of iterations =  2.4

     negative rho (up, down):  1.277E-04 0.000E+00

     total cpu time spent up to now is        1.1 secs

     total energy              =    -323.78648603 Ry
     estimated scf accuracy    <       0.29850054 Ry

     iteration #  2     ecut=    75.00 Ry     beta= 0.70
     Davidson diagonalization with overlap
     ethr =  1.66E-03,  avg # of iterations =  5.4

     total cpu time spent up to now is        1.6 secs

     total energy              =    -323.51855236 Ry
     estimated scf accuracy    <       3.15916761 Ry

     iteration #  3     ecut=    75.00 Ry     beta= 0.70
     Davidson diagonalization with overlap
     ethr =  1.66E-03,  avg # of iterations =  2.9

     total cpu time spent up to now is        2.2 secs

     total energy              =    -323.97321389 Ry
     estimated scf accuracy    <       0.02062682 Ry

     iteration #  4     ecut=    75.00 Ry     beta= 0.70
     Davidson diagonalization with overlap
     ethr =  1.15E-04,  avg # of iterations =  5.0

     total cpu time spent up to now is        2.6 secs

     total energy              =    -323.97717883 Ry
     estimated scf accuracy    <       0.00670903 Ry

     iteration #  5     ecut=    75.00 Ry     beta= 0.70
     Davidson diagonalization with overlap
     ethr =  3.73E-05,  avg # of iterations =  2.9

     negative rho (up, down):  6.910E-08 0.000E+00

     total cpu time spent up to now is        2.9 secs

     total energy              =    -323.97758739 Ry
     estimated scf accuracy    <       0.00127335 Ry

     iteration #  6     ecut=    75.00 Ry     beta= 0.70
     Davidson diagonalization with overlap
     ethr =  7.07E-06,  avg # of iterations =  3.0

     negative rho (up, down):  1.134E-05 0.000E+00

     total cpu time spent up to now is        3.2 secs

     total energy              =    -323.97776808 Ry
     estimated scf accuracy    <       0.00023367 Ry

     iteration #  7     ecut=    75.00 Ry     beta= 0.70
     Davidson diagonalization with overlap
     ethr =  1.30E-06,  avg # of iterations =  3.9

     negative rho (up, down):  2.662E-04 0.000E+00

     total cpu time spent up to now is        3.6 secs

     total energy              =    -323.97777477 Ry
     estimated scf accuracy    <       0.00004978 Ry

     iteration #  8     ecut=    75.00 Ry     beta= 0.70
     Davidson diagonalization with overlap
     ethr =  2.77E-07,  avg # of iterations =  2.5

     negative rho (up, down):  2.189E-04 0.000E+00

     total cpu time spent up to now is        3.9 secs

     total energy              =    -323.97778525 Ry
     estimated scf accuracy    <       0.00000188 Ry

     iteration #  9     ecut=    75.00 Ry     beta= 0.70
     Davidson diagonalization with overlap
     ethr =  1.05E-08,  avg # of iterations =  2.7

     negative rho (up, down):  2.057E-04 0.000E+00

     total cpu time spent up to now is        4.3 secs

     End of self-consistent calculation

          k = 0.0000 0.0000 0.0000 (  6533 PWs)   bands (ev):

    -7.9872  -5.3632  -2.2432  -2.0063  -2.0063  -1.8793  -1.8793  -1.6024
    -0.7117  -0.7117  -0.1479  -0.1479   0.0182

          k = 0.0000 0.0722 0.0000 (  6555 PWs)   bands (ev):

    -7.8489  -5.2359  -2.2415  -2.0615  -1.9904  -1.9390  -1.8185  -1.5824
    -0.7364  -0.7331  -0.5906  -0.1449   0.6865

          k = 0.0000 0.1443 0.0000 (  6591 PWs)   bands (ev):

    -7.4453  -4.8742  -2.3078  -2.2763  -2.0942  -1.7480  -1.6464  -1.6265
    -1.1323  -0.7943  -0.3895  -0.1402   1.5406

          k = 0.0000 0.2165 0.0000 (  6593 PWs)   bands (ev):

    -6.8154  -4.3602  -2.6129  -2.4293  -2.1407  -1.7616  -1.4922  -1.3830
    -1.2676  -0.8284  -0.1405  -0.0275   2.5089

          k = 0.0000 0.2887 0.0000 (  6547 PWs)   bands (ev):

    -6.0482  -3.9261  -2.9651  -2.3958  -2.1671  -1.8838  -1.3559  -1.1498
    -1.0266  -0.7088  -0.1458   0.4615   3.6051

          k = 0.0000 0.3608 0.0000 (  6543 PWs)   bands (ev):

    -5.3144  -3.8536  -3.2873  -2.2626  -1.9334  -1.7430  -1.3807  -0.8747
    -0.6483  -0.4144  -0.1430   1.1139   4.8431

          k = 0.0000 0.4330 0.0000 (  6541 PWs)   bands (ev):

    -4.8068  -4.0013  -3.5409  -2.3578  -1.4512  -1.4463  -1.2437  -0.3752
    -0.3618  -0.0955  -0.0781   1.9630   6.2105

          k = 0.0000 0.5052 0.0000 (  6537 PWs)   bands (ev):

    -4.5349  -4.1790  -3.7025  -2.4384  -1.4976  -1.1684  -0.8387  -0.2974
     0.0751   0.1429   0.6080   2.7450   7.1933

          k = 0.0000-0.5774 0.0000 (  6546 PWs)   bands (ev):

    -4.4052  -4.2996  -3.7580  -2.4676  -1.5163  -1.0822  -0.7156  -0.2879
     0.1478   0.2310   1.3536   2.8503   7.1281

          k = 0.0625 0.1083 0.0000 (  6569 PWs)   bands (ev):

    -7.5777  -4.9903  -2.2773  -2.1652  -2.1331  -1.8006  -1.6970  -1.6002
    -1.0709  -0.7041  -0.5272  -0.1274   1.3016

          k = 0.0625 0.1804 0.0000 (  6578 PWs)   bands (ev):

    -7.0586  -4.5410  -2.4601  -2.4031  -2.1922  -1.7193  -1.5278  -1.4745
    -1.2927  -0.7522  -0.3199  -0.0383   2.1552

          k = 0.0625 0.2526 0.0000 (  6564 PWs)   bands (ev):

    -6.3510  -4.0207  -2.7863  -2.5266  -2.2507  -1.8593  -1.3722  -1.2260
    -1.1343  -0.7160  -0.2242   0.3002   3.1626

          k = 0.0625 0.3248 0.0000 (  6562 PWs)   bands (ev):

    -5.5807  -3.7506  -3.1176  -2.3461  -2.2352  -1.9343  -1.3450  -1.0531
    -0.7460  -0.4468  -0.1991   0.8740   4.3194

          k = 0.0625 0.3969 0.0000 (  6550 PWs)   bands (ev):

    -4.9496  -3.8349  -3.3996  -2.3044  -1.8207  -1.6850  -1.3789  -0.7779
    -0.4402  -0.1661   0.0048   1.6781   5.6253

          k = 0.0625 0.4691 0.0000 (  6531 PWs)   bands (ev):

    -4.5779  -4.0186  -3.6027  -2.3867  -1.5643  -1.3537  -1.1268  -0.4056
    -0.3189  -0.0085   0.6275   2.6267   7.0132

          k = 0.0625-0.6134 0.0000 (  6523 PWs)   bands (ev):

    -4.3842  -4.1829  -3.7091  -2.4366  -1.5850  -1.1603  -0.8632  -0.3386
    -0.0739   0.0940   1.5331   3.1290   7.0416

          k = 0.1250 0.2165 0.0000 (  6581 PWs)   bands (ev):

    -6.4553  -4.0475  -2.6651  -2.6134  -2.3439  -1.8380  -1.4237  -1.1929
    -1.1630  -0.6591  -0.3274   0.2777   3.0128

          k = 0.1250 0.2887 0.0000 (  6560 PWs)   bands (ev):

    -5.7203  -3.5740  -2.9418  -2.7144  -2.4166  -1.9706  -1.4100  -1.0386
    -0.7728  -0.3981  -0.3089   0.8050   4.0593

          k = 0.1250 0.3608 0.0000 (  6545 PWs)   bands (ev):

    -5.0173  -3.5218  -3.2133  -2.3873  -2.3409  -2.0213  -1.4404  -0.9059
    -0.5184  -0.2318   0.1195   1.5987   5.2784

          k = 0.1250 0.4330 0.0000 (  6524 PWs)   bands (ev):

    -4.5338  -3.7146  -3.4291  -2.3258  -1.8756  -1.8107  -1.4586  -0.6953
    -0.4640  -0.0757   0.8293   2.6455   6.6467

          k = 0.1250-0.6495 0.0000 (  6498 PWs)   bands (ev):

    -4.2801  -3.9046  -3.5686  -2.3602  -1.7619  -1.4578  -1.2849  -0.4607
    -0.4073  -0.0318   1.8016   3.6222   7.3970

          k = 0.1250-0.5774 0.0000 (  6520 PWs)   bands (ev):

    -4.1729  -4.0104  -3.6170  -2.3738  -1.7772  -1.3153  -1.1882  -0.4614
    -0.1728  -0.1255   2.5709   3.7371   7.3623

          k = 0.1875 0.3248 0.0000 (  6551 PWs)   bands (ev):

    -5.0352  -3.2106  -3.0973  -2.7994  -2.4796  -2.0679  -1.4937  -0.8877
    -0.5819  -0.2506   0.1615   1.5857   5.1645

          k = 0.1875 0.3969 0.0000 (  6532 PWs)   bands (ev):

    -4.4711  -3.3378  -3.2430  -2.4395  -2.3431  -2.0900  -1.6061  -0.7507
    -0.5954  -0.0868   0.9381   2.6761   6.4575

          k = 0.1875-0.6856 0.0000 (  6527 PWs)   bands (ev):

    -4.1358  -3.5410  -3.3657  -2.3047  -1.9937  -1.9641  -1.6496  -0.6275
    -0.5707  -0.0473   1.9754   3.9395   7.8590

          k = 0.1875-0.6134 0.0000 (  6499 PWs)   bands (ev):

    -3.9732  -3.6823  -3.4378  -2.2787  -2.0038  -1.6792  -1.5847  -0.6131
    -0.3720  -0.1484   3.1924   4.6406   7.4084

          k = 0.2500-0.7217 0.0000 (  6528 PWs)   bands (ev):

    -4.0643  -3.3103  -3.2350  -2.3407  -2.2796  -2.0811  -1.7791  -0.7014
    -0.6130  -0.0444   2.0327   4.0329   7.8218

          k = 0.2500-0.6495 0.0000 (  6499 PWs)   bands (ev):

    -3.8300  -3.3631  -3.2468  -2.2615  -2.1598  -2.0223  -1.8651  -0.7423
    -0.4838  -0.1286   3.3921   5.4047   7.9488

          k = 0.2500-0.5774 0.0000 (  6486 PWs)   bands (ev):

    -3.7482  -3.3982  -3.2560  -2.2214  -2.1725  -1.9564  -1.8718  -0.7427
    -0.3654  -0.2482   4.5916   5.3869   8.1668

          k = 0.3125-0.6134 0.0000 (  6496 PWs)   bands (ev):

    -3.6627  -3.2284  -3.1728  -2.3030  -2.1517  -2.0474  -2.0408  -0.7966
    -0.3934  -0.2621   5.0327   6.5400   7.0109

     the Fermi energy is    -0.4008 ev

!    total energy              =    -323.97778553 Ry
     total all-electron energy =     -5573.665138 Ry
     estimated scf accuracy    <       0.00000025 Ry
     smearing contrib. (-TS)   =      -0.01388192 Ry
     internal energy E=F+TS    =    -323.96390362 Ry

     The total energy is F=E-TS. E is the sum of the following terms:
     one-electron contribution =    -719.10258867 Ry
     hartree contribution      =     376.40197882 Ry
     xc contribution           =     -65.06205890 Ry
     ewald contribution        =     256.88906237 Ry
     one-center paw contrib.   =    -173.09029724 Ry

     convergence has been achieved in   9 iterations

     negative rho (up, down):  2.057E-04 0.000E+00

     Forces acting on atoms (cartesian axes, Ry/au):

     atom    1 type  1   force =     0.00000000    0.00000000    0.02341974
     atom    2 type  1   force =     0.00000000    0.00000000   -0.02341974
     The non-local contrib.  to forces
     atom    1 type  1   force =     0.00000000   -0.00000000   -0.09358700
     atom    2 type  1   force =     0.00000000    0.00000000    0.09358700
     The ionic contribution  to forces
     atom    1 type  1   force =    -0.00000000    0.00000000  -41.52793710
     atom    2 type  1   force =     0.00000000   -0.00000000   41.52793710
     The local contribution  to forces
     atom    1 type  1   force =    -0.00000000   -0.00000000   41.62845953
     atom    2 type  1   force =     0.00000000    0.00000000  -41.62845953
     The core correction contribution to forces
     atom    1 type  1   force =    -0.00000000   -0.00000000    0.01490306
     atom    2 type  1   force =     0.00000000    0.00000000   -0.01490306
     The Hubbard contrib.    to forces
     atom    1 type  1   force =     0.00000000    0.00000000    0.00000000
     atom    2 type  1   force =     0.00000000    0.00000000    0.00000000
     The SCF correction term to forces
     atom    1 type  1   force =    -0.00000000    0.00000000    0.00158125
     atom    2 type  1   force =     0.00000000   -0.00000000   -0.00158125

     Total force =     0.033121     Total SCF correction =     0.002236


     Computing stress (Cartesian axis) and pressure


     negative rho (up, down):  2.057E-04 0.000E+00
          total   stress  (Ry/bohr**3)                   (kbar)     P=      -37.69
  -0.00030524   0.00000000  -0.00000000          -44.90        0.00       -0.00
   0.00000000  -0.00030524  -0.00000000            0.00      -44.90       -0.00
   0.00000000   0.00000000  -0.00015818            0.00        0.00      -23.27


     Writing all to output data dir ./tmp/scf.save/
 
     init_run     :      0.33s CPU      0.39s WALL (       1 calls)
     electrons    :      3.40s CPU      3.72s WALL (       1 calls)
     forces       :      0.07s CPU      0.07s WALL (       1 calls)
     stress       :      0.30s CPU      0.30s WALL (       1 calls)

     Called by init_run:
     wfcinit      :      0.13s CPU      0.14s WALL (       1 calls)
     potinit      :      0.08s CPU      0.09s WALL (       1 calls)
     hinit0       :      0.08s CPU      0.12s WALL (       1 calls)

     Called by electrons:
     c_bands      :      2.42s CPU      2.69s WALL (       9 calls)
     sum_band     :      0.41s CPU      0.45s WALL (       9 calls)
     v_of_rho     :      0.03s CPU      0.03s WALL (      10 calls)
     newd         :      0.10s CPU      0.11s WALL (      10 calls)
     PAW_pot      :      0.50s CPU      0.52s WALL (      10 calls)
     mix_rho      :      0.01s CPU      0.01s WALL (       9 calls)

     Called by c_bands:
     init_us_2    :      0.05s CPU      0.05s WALL (     630 calls)
     init_us_2:cp :      0.04s CPU      0.05s WALL (     630 calls)
     cegterg      :      1.96s CPU      2.20s WALL (     270 calls)

     Called by *egterg:
     cdiaghg      :      0.17s CPU      0.18s WALL (    1191 calls)
     h_psi        :      1.69s CPU      1.91s WALL (    1221 calls)
     s_psi        :      0.02s CPU      0.03s WALL (    1221 calls)
     g_psi        :      0.01s CPU      0.01s WALL (     921 calls)

     Called by h_psi:
     h_psi:calbec :      0.06s CPU      0.07s WALL (    1221 calls)
     vloc_psi     :      1.60s CPU      1.80s WALL (    1221 calls)
     add_vuspsi   :      0.03s CPU      0.03s WALL (    1221 calls)

     General routines
     calbec       :      0.09s CPU      0.10s WALL (    1641 calls)
     fft          :      0.04s CPU      0.08s WALL (     135 calls)
     ffts         :      0.00s CPU      0.00s WALL (       9 calls)
     fftw         :      1.71s CPU      1.93s WALL (   23148 calls)
 
     Parallel routines
 
     PWSCF        :      4.33s CPU      4.80s WALL

 
   This run was terminated on:  16:16:42   5Jun2025            

=------------------------------------------------------------------------------=
   JOB DONE.
=------------------------------------------------------------------------------=
