
     Program PWSCF v.7.2 starts on  5Jun2025 at 16:16:43 

     This program is part of the open-source Quantum ESPRESSO suite
     for quantum simulation of materials; please cite
         "P. Giannozzi et al., J. Phys.:Condens. Matter 21 395502 (2009);
         "P. Giannozzi et al., J. Phys.:Condens. Matter 29 465901 (2017);
         "P. Giannozzi et al., J. Chem. Phys. 152 154105 (2020);
          URL http://www.quantum-espresso.org", 
     in publications or presentations arising from this work. More details at
     http://www.quantum-espresso.org/quote

     Parallel version (MPI), running on    16 processors

     MPI processes distributed on     1 nodes
     37698 MiB available memory on the printing compute node when the environment starts
 
     Waiting for input...
     Reading input from standard input

     Current dimensions of program PWSCF are:
     Max number of different atomic species (ntypx) = 10
     Max number of k-points (npk) =  40000
     Max angular momentum in pseudopotentials (lmaxx) =  4
     file Co.pbe-n-kjpaw_psl.1.0.0.UPF: wavefunction(s)  4S 3D renormalized
     Message from routine setup:
     using ibrav=0 with symmetry is DISCOURAGED, use correct ibrav instead
 
     R & G space division:  proc/nbgrp/npool/nimage =      16
     Subspace diagonalization in iterative solution of the eigenvalue problem:
     a serial algorithm will be used

 
     Parallelization info
     --------------------
     sticks:   dense  smooth     PW     G-vecs:    dense   smooth      PW
     Min          29      29      9                 3589     3589     623
     Max          30      30     10                 3608     3608     642
     Sum         475     475    151                57633    57633   10129
 
     Using Slab Decomposition
 


     bravais-lattice index     =            0
     lattice parameter (alat)  =       4.6298  a.u.
     unit-cell volume          =     596.1396 (a.u.)^3
     number of atoms/cell      =            2
     number of atomic types    =            1
     number of electrons       =        18.00
     number of Kohn-Sham states=           13
     kinetic-energy cutoff     =      80.0000  Ry
     charge density cutoff     =     320.0000  Ry
     scf convergence threshold =      1.0E-06
     mixing beta               =       0.7000
     number of iterations used =            8  plain     mixing
     Exchange-correlation= SLA  PW   PBX  PBC
                           (   1   4   3   4   0   0   0)

     celldm(1)=   4.629829  celldm(2)=   0.000000  celldm(3)=   0.000000
     celldm(4)=   0.000000  celldm(5)=   0.000000  celldm(6)=   0.000000

     crystal axes: (cart. coord. in units of alat)
               a(1) = (   1.000000   0.000000   0.000000 )  
               a(2) = (   0.500000   0.866025   0.000000 )  
               a(3) = (   0.000000   0.000000   6.936214 )  

     reciprocal axes: (cart. coord. in units 2 pi/alat)
               b(1) = (  1.000000 -0.577350  0.000000 )  
               b(2) = (  0.000000  1.154701  0.000000 )  
               b(3) = (  0.000000  0.000000  0.144171 )  


     PseudoPot. # 1 for Co read from file:
     /shared/ESPRESSO/PSLIBRARY/1.0.0/pbe/PSEUDOPOTENTIALS/Co.pbe-n-kjpaw_psl.1.0.0.UPF
     MD5 check sum: 17e7ab8db721b244d1352252ea6cb8e7
     Pseudo is Projector augmented-wave + core cor, Zval =  9.0
     Generated using "atomic" code by A. Dal Corso  (Quantum ESPRESSO distribution)
     Shape of augmentation charge: PSQ
     Using radial grid of 1193 points,  6 beta functions with: 
                l(1) =   0
                l(2) =   0
                l(3) =   1
                l(4) =   1
                l(5) =   2
                l(6) =   2
     Q(r) pseudized with 0 coefficients 


     atomic species   valence    mass     pseudopotential
        Co             9.00    58.93320     Co( 1.00)

     12 Sym. Ops., with inversion, found ( 6 have fractional translation)



   Cartesian axes

     site n.     atom                  positions (alat units)
         1           Co  tau(   1) = (   1.0000000   0.5773503   3.0612245  )
         2           Co  tau(   2) = (   0.0000000   0.0000000   3.8749895  )

     number of k points=    30  Fermi-Dirac smearing, width (Ry)=  0.0070
                       cart. coord. in units 2pi/alat
        k(    1) = (   0.0000000   0.0000000   0.0000000), wk =   0.0078125
        k(    2) = (   0.0000000   0.0721688   0.0000000), wk =   0.0468750
        k(    3) = (   0.0000000   0.1443376   0.0000000), wk =   0.0468750
        k(    4) = (   0.0000000   0.2165064   0.0000000), wk =   0.0468750
        k(    5) = (   0.0000000   0.2886751   0.0000000), wk =   0.0468750
        k(    6) = (   0.0000000   0.3608439   0.0000000), wk =   0.0468750
        k(    7) = (   0.0000000   0.4330127   0.0000000), wk =   0.0468750
        k(    8) = (   0.0000000   0.5051815   0.0000000), wk =   0.0468750
        k(    9) = (   0.0000000  -0.5773503   0.0000000), wk =   0.0234375
        k(   10) = (   0.0625000   0.1082532   0.0000000), wk =   0.0468750
        k(   11) = (   0.0625000   0.1804220   0.0000000), wk =   0.0937500
        k(   12) = (   0.0625000   0.2525907   0.0000000), wk =   0.0937500
        k(   13) = (   0.0625000   0.3247595   0.0000000), wk =   0.0937500
        k(   14) = (   0.0625000   0.3969283   0.0000000), wk =   0.0937500
        k(   15) = (   0.0625000   0.4690971   0.0000000), wk =   0.0937500
        k(   16) = (   0.0625000  -0.6134347   0.0000000), wk =   0.0937500
        k(   17) = (   0.1250000   0.2165064   0.0000000), wk =   0.0468750
        k(   18) = (   0.1250000   0.2886751   0.0000000), wk =   0.0937500
        k(   19) = (   0.1250000   0.3608439   0.0000000), wk =   0.0937500
        k(   20) = (   0.1250000   0.4330127   0.0000000), wk =   0.0937500
        k(   21) = (   0.1250000  -0.6495191   0.0000000), wk =   0.0937500
        k(   22) = (   0.1250000  -0.5773503   0.0000000), wk =   0.0468750
        k(   23) = (   0.1875000   0.3247595   0.0000000), wk =   0.0468750
        k(   24) = (   0.1875000   0.3969283   0.0000000), wk =   0.0937500
        k(   25) = (   0.1875000  -0.6856034   0.0000000), wk =   0.0937500
        k(   26) = (   0.1875000  -0.6134347   0.0000000), wk =   0.0937500
        k(   27) = (   0.2500000  -0.7216878   0.0000000), wk =   0.0468750
        k(   28) = (   0.2500000  -0.6495191   0.0000000), wk =   0.0937500
        k(   29) = (   0.2500000  -0.5773503   0.0000000), wk =   0.0468750
        k(   30) = (   0.3125000  -0.6134347   0.0000000), wk =   0.0468750

     Dense  grid:    57633 G-vectors     FFT dimensions: (  27,  27, 192)

     Estimated max dynamical RAM per process >      17.62 MB

     Estimated total dynamical RAM >     281.87 MB

     Initial potential from superposition of free atoms

     starting charge      17.9994, renormalised to      18.0000

     negative rho (up, down):  1.901E-04 0.000E+00
     Starting wfcs are   18 randomized atomic wfcs
     Checking if some PAW data can be deallocated... 

     total cpu time spent up to now is        0.3 secs

     Self-consistent Calculation

     iteration #  1     ecut=    80.00 Ry     beta= 0.70
     Davidson diagonalization with overlap
     ethr =  1.00E-02,  avg # of iterations =  2.3

     negative rho (up, down):  1.512E-04 0.000E+00

     total cpu time spent up to now is        0.7 secs

     total energy              =    -323.78574532 Ry
     estimated scf accuracy    <       0.29951544 Ry

     iteration #  2     ecut=    80.00 Ry     beta= 0.70
     Davidson diagonalization with overlap
     ethr =  1.66E-03,  avg # of iterations =  5.1

     total cpu time spent up to now is        1.1 secs

     total energy              =    -323.51340725 Ry
     estimated scf accuracy    <       3.19343255 Ry

     iteration #  3     ecut=    80.00 Ry     beta= 0.70
     Davidson diagonalization with overlap
     ethr =  1.66E-03,  avg # of iterations =  3.1

     total cpu time spent up to now is        1.5 secs

     total energy              =    -323.97533232 Ry
     estimated scf accuracy    <       0.01934905 Ry

     iteration #  4     ecut=    80.00 Ry     beta= 0.70
     Davidson diagonalization with overlap
     ethr =  1.07E-04,  avg # of iterations =  4.8

     negative rho (up, down):  1.958E-07 0.000E+00

     total cpu time spent up to now is        1.8 secs

     total energy              =    -323.97728861 Ry
     estimated scf accuracy    <       0.00722545 Ry

     iteration #  5     ecut=    80.00 Ry     beta= 0.70
     Davidson diagonalization with overlap
     ethr =  4.01E-05,  avg # of iterations =  2.1

     negative rho (up, down):  7.029E-07 0.000E+00

     total cpu time spent up to now is        2.1 secs

     total energy              =    -323.97775068 Ry
     estimated scf accuracy    <       0.00130030 Ry

     iteration #  6     ecut=    80.00 Ry     beta= 0.70
     Davidson diagonalization with overlap
     ethr =  7.22E-06,  avg # of iterations =  3.1

     negative rho (up, down):  2.725E-05 0.000E+00

     total cpu time spent up to now is        2.5 secs

     total energy              =    -323.97797185 Ry
     estimated scf accuracy    <       0.00022472 Ry

     iteration #  7     ecut=    80.00 Ry     beta= 0.70
     Davidson diagonalization with overlap
     ethr =  1.25E-06,  avg # of iterations =  4.2

     negative rho (up, down):  3.034E-04 0.000E+00

     total cpu time spent up to now is        2.8 secs

     total energy              =    -323.97799734 Ry
     estimated scf accuracy    <       0.00004667 Ry

     iteration #  8     ecut=    80.00 Ry     beta= 0.70
     Davidson diagonalization with overlap
     ethr =  2.59E-07,  avg # of iterations =  2.8

     negative rho (up, down):  2.345E-04 0.000E+00

     total cpu time spent up to now is        3.2 secs

     total energy              =    -323.97801070 Ry
     estimated scf accuracy    <       0.00000167 Ry

     iteration #  9     ecut=    80.00 Ry     beta= 0.70
     Davidson diagonalization with overlap
     ethr =  9.28E-09,  avg # of iterations =  2.9

     negative rho (up, down):  2.322E-04 0.000E+00

     total cpu time spent up to now is        3.5 secs

     End of self-consistent calculation

          k = 0.0000 0.0000 0.0000 (  7315 PWs)   bands (ev):

    -7.9891  -5.3652  -2.2455  -2.0086  -2.0086  -1.8816  -1.8816  -1.6046
    -0.7141  -0.7141  -0.1502  -0.1502   0.0157

          k = 0.0000 0.0722 0.0000 (  7279 PWs)   bands (ev):

    -7.8508  -5.2380  -2.2438  -2.0637  -1.9927  -1.9413  -1.8209  -1.5846
    -0.7387  -0.7354  -0.5929  -0.1471   0.6839

          k = 0.0000 0.1443 0.0000 (  7255 PWs)   bands (ev):

    -7.4471  -4.8763  -2.3100  -2.2786  -2.0964  -1.7503  -1.6487  -1.6287
    -1.1346  -0.7966  -0.3918  -0.1424   1.5377

          k = 0.0000 0.2165 0.0000 (  7249 PWs)   bands (ev):

    -6.8173  -4.3624  -2.6151  -2.4316  -2.1429  -1.7638  -1.4945  -1.3853
    -1.2698  -0.8307  -0.1428  -0.0298   2.5056

          k = 0.0000 0.2887 0.0000 (  7217 PWs)   bands (ev):

    -6.0500  -3.9282  -2.9673  -2.3981  -2.1693  -1.8860  -1.3582  -1.1521
    -1.0288  -0.7111  -0.1481   0.4593   3.6012

          k = 0.0000 0.3608 0.0000 (  7216 PWs)   bands (ev):

    -5.3163  -3.8558  -3.2895  -2.2649  -1.9356  -1.7452  -1.3830  -0.8770
    -0.6506  -0.4166  -0.1453   1.1117   4.8390

          k = 0.0000 0.4330 0.0000 (  7160 PWs)   bands (ev):

    -4.8088  -4.0035  -3.5431  -2.3601  -1.4535  -1.4486  -1.2459  -0.3775
    -0.3640  -0.0978  -0.0804   1.9609   6.2064

          k = 0.0000 0.5052 0.0000 (  7156 PWs)   bands (ev):

    -4.5370  -4.1812  -3.7047  -2.4406  -1.4999  -1.1706  -0.8409  -0.2997
     0.0728   0.1406   0.6059   2.7430   7.1916

          k = 0.0000-0.5774 0.0000 (  7182 PWs)   bands (ev):

    -4.4074  -4.3018  -3.7602  -2.4698  -1.5186  -1.0844  -0.7178  -0.2902
     0.1455   0.2288   1.3515   2.8483   7.1259

          k = 0.0625 0.1083 0.0000 (  7269 PWs)   bands (ev):

    -7.5796  -4.9924  -2.2795  -2.1675  -2.1353  -1.8029  -1.6993  -1.6024
    -1.0731  -0.7064  -0.5295  -0.1297   1.2987

          k = 0.0625 0.1804 0.0000 (  7232 PWs)   bands (ev):

    -7.0605  -4.5431  -2.4623  -2.4053  -2.1944  -1.7215  -1.5301  -1.4768
    -1.2949  -0.7545  -0.3222  -0.0406   2.1519

          k = 0.0625 0.2526 0.0000 (  7228 PWs)   bands (ev):

    -6.3529  -4.0228  -2.7885  -2.5288  -2.2529  -1.8615  -1.3745  -1.2283
    -1.1366  -0.7182  -0.2265   0.2980   3.1589

          k = 0.0625 0.3248 0.0000 (  7190 PWs)   bands (ev):

    -5.5826  -3.7527  -3.1198  -2.3483  -2.2374  -1.9365  -1.3472  -1.0553
    -0.7483  -0.4490  -0.2014   0.8719   4.3153

          k = 0.0625 0.3969 0.0000 (  7205 PWs)   bands (ev):

    -4.9515  -3.8371  -3.4018  -2.3066  -1.8229  -1.6871  -1.3812  -0.7801
    -0.4425  -0.1684   0.0025   1.6760   5.6210

          k = 0.0625 0.4691 0.0000 (  7178 PWs)   bands (ev):

    -4.5800  -4.0208  -3.6049  -2.3890  -1.5666  -1.3560  -1.1289  -0.4079
    -0.3212  -0.0107   0.6253   2.6246   7.0095

          k = 0.0625-0.6134 0.0000 (  7176 PWs)   bands (ev):

    -4.3864  -4.1851  -3.7112  -2.4388  -1.5873  -1.1625  -0.8655  -0.3409
    -0.0762   0.0917   1.5311   3.1270   7.0395

          k = 0.1250 0.2165 0.0000 (  7217 PWs)   bands (ev):

    -6.4572  -4.0496  -2.6673  -2.6156  -2.3461  -1.8402  -1.4259  -1.1951
    -1.1652  -0.6614  -0.3296   0.2755   3.0091

          k = 0.1250 0.2887 0.0000 (  7211 PWs)   bands (ev):

    -5.7221  -3.5761  -2.9440  -2.7166  -2.4188  -1.9728  -1.4122  -1.0408
    -0.7751  -0.4004  -0.3112   0.8029   4.0550

          k = 0.1250 0.3608 0.0000 (  7210 PWs)   bands (ev):

    -5.0192  -3.5240  -3.2155  -2.3895  -2.3431  -2.0235  -1.4427  -0.9081
    -0.5207  -0.2341   0.1173   1.5965   5.2742

          k = 0.1250 0.4330 0.0000 (  7186 PWs)   bands (ev):

    -4.5359  -3.7169  -3.4313  -2.3280  -1.8778  -1.8130  -1.4608  -0.6975
    -0.4663  -0.0780   0.8271   2.6435   6.6425

          k = 0.1250-0.6495 0.0000 (  7189 PWs)   bands (ev):

    -4.2823  -3.9068  -3.5708  -2.3625  -1.7641  -1.4600  -1.2871  -0.4630
    -0.4096  -0.0341   1.7995   3.6202   7.3947

          k = 0.1250-0.5774 0.0000 (  7188 PWs)   bands (ev):

    -4.1751  -4.0126  -3.6192  -2.3761  -1.7794  -1.3175  -1.1904  -0.4637
    -0.1751  -0.1277   2.5689   3.7351   7.3601

          k = 0.1875 0.3248 0.0000 (  7195 PWs)   bands (ev):

    -5.0371  -3.2128  -3.0995  -2.8016  -2.4819  -2.0701  -1.4960  -0.8900
    -0.5842  -0.2529   0.1592   1.5836   5.1601

          k = 0.1875 0.3969 0.0000 (  7192 PWs)   bands (ev):

    -4.4730  -3.3400  -3.2452  -2.4417  -2.3454  -2.0923  -1.6084  -0.7529
    -0.5977  -0.0890   0.9359   2.6740   6.4531

          k = 0.1875-0.6856 0.0000 (  7193 PWs)   bands (ev):

    -4.1378  -3.5432  -3.3679  -2.3069  -1.9960  -1.9663  -1.6518  -0.6297
    -0.5730  -0.0495   1.9733   3.9375   7.8557

          k = 0.1875-0.6134 0.0000 (  7198 PWs)   bands (ev):

    -3.9754  -3.6845  -3.4401  -2.2810  -2.0061  -1.6815  -1.5870  -0.6154
    -0.3743  -0.1507   3.1904   4.6386   7.4063

          k = 0.2500-0.7217 0.0000 (  7195 PWs)   bands (ev):

    -4.0663  -3.3125  -3.2372  -2.3429  -2.2818  -2.0833  -1.7814  -0.7037
    -0.6153  -0.0467   2.0306   4.0309   7.8176

          k = 0.2500-0.6495 0.0000 (  7197 PWs)   bands (ev):

    -3.8321  -3.3653  -3.2490  -2.2638  -2.1621  -2.0245  -1.8673  -0.7445
    -0.4861  -0.1309   3.3900   5.4027   7.9468

          k = 0.2500-0.5774 0.0000 (  7176 PWs)   bands (ev):

    -3.7504  -3.4003  -3.2582  -2.2237  -2.1748  -1.9587  -1.8741  -0.7449
    -0.3676  -0.2504   4.5896   5.3849   8.1653

          k = 0.3125-0.6134 0.0000 (  7180 PWs)   bands (ev):

    -3.6649  -3.2306  -3.1749  -2.3052  -2.1540  -2.0497  -2.0431  -0.7988
    -0.3957  -0.2644   5.0307   6.5380   7.0089

     the Fermi energy is    -0.4031 ev

!    total energy              =    -323.97801104 Ry
     total all-electron energy =     -5573.665363 Ry
     estimated scf accuracy    <       0.00000026 Ry
     smearing contrib. (-TS)   =      -0.01388168 Ry
     internal energy E=F+TS    =    -323.96412936 Ry

     The total energy is F=E-TS. E is the sum of the following terms:
     one-electron contribution =    -719.10197201 Ry
     hartree contribution      =     376.40090475 Ry
     xc contribution           =     -65.06195673 Ry
     ewald contribution        =     256.88906237 Ry
     one-center paw contrib.   =    -173.09016774 Ry

     convergence has been achieved in   9 iterations

     negative rho (up, down):  2.322E-04 0.000E+00

     Forces acting on atoms (cartesian axes, Ry/au):

     atom    1 type  1   force =     0.00000000    0.00000000    0.02357329
     atom    2 type  1   force =     0.00000000    0.00000000   -0.02357329
     The non-local contrib.  to forces
     atom    1 type  1   force =     0.00000000    0.00000000   -0.09352608
     atom    2 type  1   force =     0.00000000    0.00000000    0.09352608
     The ionic contribution  to forces
     atom    1 type  1   force =    -0.00000000    0.00000000  -41.52793710
     atom    2 type  1   force =     0.00000000    0.00000000   41.52793710
     The local contribution  to forces
     atom    1 type  1   force =    -0.00000000   -0.00000000   41.62839945
     atom    2 type  1   force =     0.00000000    0.00000000  -41.62839945
     The core correction contribution to forces
     atom    1 type  1   force =    -0.00000000   -0.00000000    0.01488851
     atom    2 type  1   force =     0.00000000    0.00000000   -0.01488851
     The Hubbard contrib.    to forces
     atom    1 type  1   force =     0.00000000    0.00000000    0.00000000
     atom    2 type  1   force =     0.00000000    0.00000000    0.00000000
     The SCF correction term to forces
     atom    1 type  1   force =    -0.00000000    0.00000000    0.00174851
     atom    2 type  1   force =     0.00000000    0.00000000   -0.00174851

     Total force =     0.033338     Total SCF correction =     0.002473


     Computing stress (Cartesian axis) and pressure


     negative rho (up, down):  2.322E-04 0.000E+00
          total   stress  (Ry/bohr**3)                   (kbar)     P=      -37.25
  -0.00030214   0.00000000   0.00000000          -44.45        0.00        0.00
   0.00000000  -0.00030214   0.00000000            0.00      -44.45        0.00
   0.00000000   0.00000000  -0.00015536            0.00        0.00      -22.85


     Writing all to output data dir ./tmp/scf.save/
 
     init_run     :      0.18s CPU      0.26s WALL (       1 calls)
     electrons    :      2.84s CPU      3.15s WALL (       1 calls)
     forces       :      0.05s CPU      0.05s WALL (       1 calls)
     stress       :      0.22s CPU      0.22s WALL (       1 calls)

     Called by init_run:
     wfcinit      :      0.08s CPU      0.09s WALL (       1 calls)
     potinit      :      0.05s CPU      0.06s WALL (       1 calls)
     hinit0       :      0.04s CPU      0.08s WALL (       1 calls)

     Called by electrons:
     c_bands      :      2.05s CPU      2.33s WALL (       9 calls)
     sum_band     :      0.35s CPU      0.36s WALL (       9 calls)
     v_of_rho     :      0.02s CPU      0.02s WALL (      10 calls)
     newd         :      0.08s CPU      0.09s WALL (      10 calls)
     PAW_pot      :      0.38s CPU      0.39s WALL (      10 calls)
     mix_rho      :      0.01s CPU      0.01s WALL (       9 calls)

     Called by c_bands:
     init_us_2    :      0.04s CPU      0.04s WALL (     630 calls)
     init_us_2:cp :      0.04s CPU      0.04s WALL (     630 calls)
     cegterg      :      1.77s CPU      2.04s WALL (     270 calls)

     Called by *egterg:
     cdiaghg      :      0.15s CPU      0.16s WALL (    1183 calls)
     h_psi        :      1.52s CPU      1.78s WALL (    1213 calls)
     s_psi        :      0.03s CPU      0.03s WALL (    1213 calls)
     g_psi        :      0.01s CPU      0.01s WALL (     913 calls)

     Called by h_psi:
     h_psi:calbec :      0.04s CPU      0.05s WALL (    1213 calls)
     vloc_psi     :      1.44s CPU      1.70s WALL (    1213 calls)
     add_vuspsi   :      0.03s CPU      0.03s WALL (    1213 calls)

     General routines
     calbec       :      0.07s CPU      0.08s WALL (    1633 calls)
     fft          :      0.02s CPU      0.06s WALL (     135 calls)
     ffts         :      0.00s CPU      0.00s WALL (       9 calls)
     fftw         :      1.52s CPU      1.78s WALL (   23408 calls)
 
     Parallel routines
 
     PWSCF        :      3.38s CPU      3.84s WALL

 
   This run was terminated on:  16:16:47   5Jun2025            

=------------------------------------------------------------------------------=
   JOB DONE.
=------------------------------------------------------------------------------=
