
     Program PWSCF v.7.2 starts on  5Jun2025 at 16:16:24 

     This program is part of the open-source Quantum ESPRESSO suite
     for quantum simulation of materials; please cite
         "P. Giannozzi et al., J. Phys.:Condens. Matter 21 395502 (2009);
         "P. Giannozzi et al., J. Phys.:Condens. Matter 29 465901 (2017);
         "P. Giannozzi et al., J. Chem. Phys. 152 154105 (2020);
          URL http://www.quantum-espresso.org", 
     in publications or presentations arising from this work. More details at
     http://www.quantum-espresso.org/quote

     Parallel version (MPI), running on    16 processors

     MPI processes distributed on     1 nodes
     36403 MiB available memory on the printing compute node when the environment starts
 
     Waiting for input...
     Reading input from standard input

     Current dimensions of program PWSCF are:
     Max number of different atomic species (ntypx) = 10
     Max number of k-points (npk) =  40000
     Max angular momentum in pseudopotentials (lmaxx) =  4
     file Co.pbe-n-kjpaw_psl.1.0.0.UPF: wavefunction(s)  4S 3D renormalized
     Message from routine setup:
     using ibrav=0 with symmetry is DISCOURAGED, use correct ibrav instead
 
     R & G space division:  proc/nbgrp/npool/nimage =      16
     Subspace diagonalization in iterative solution of the eigenvalue problem:
     a serial algorithm will be used

 
     Parallelization info
     --------------------
     sticks:   dense  smooth     PW     G-vecs:    dense   smooth      PW
     Min          19      19      6                 2025     2025     374
     Max          20      20      7                 2062     2062     391
     Sum         313     313    109                32695    32695    6111
 
     Using Slab Decomposition
 


     bravais-lattice index     =            0
     lattice parameter (alat)  =       4.6298  a.u.
     unit-cell volume          =     596.1396 (a.u.)^3
     number of atoms/cell      =            2
     number of atomic types    =            1
     number of electrons       =        18.00
     number of Kohn-Sham states=           13
     kinetic-energy cutoff     =      55.0000  Ry
     charge density cutoff     =     220.0000  Ry
     scf convergence threshold =      1.0E-06
     mixing beta               =       0.7000
     number of iterations used =            8  plain     mixing
     Exchange-correlation= SLA  PW   PBX  PBC
                           (   1   4   3   4   0   0   0)

     celldm(1)=   4.629829  celldm(2)=   0.000000  celldm(3)=   0.000000
     celldm(4)=   0.000000  celldm(5)=   0.000000  celldm(6)=   0.000000

     crystal axes: (cart. coord. in units of alat)
               a(1) = (   1.000000   0.000000   0.000000 )  
               a(2) = (   0.500000   0.866025   0.000000 )  
               a(3) = (   0.000000   0.000000   6.936214 )  

     reciprocal axes: (cart. coord. in units 2 pi/alat)
               b(1) = (  1.000000 -0.577350  0.000000 )  
               b(2) = (  0.000000  1.154701  0.000000 )  
               b(3) = (  0.000000  0.000000  0.144171 )  


     PseudoPot. # 1 for Co read from file:
     /shared/ESPRESSO/PSLIBRARY/1.0.0/pbe/PSEUDOPOTENTIALS/Co.pbe-n-kjpaw_psl.1.0.0.UPF
     MD5 check sum: 17e7ab8db721b244d1352252ea6cb8e7
     Pseudo is Projector augmented-wave + core cor, Zval =  9.0
     Generated using "atomic" code by A. Dal Corso  (Quantum ESPRESSO distribution)
     Shape of augmentation charge: PSQ
     Using radial grid of 1193 points,  6 beta functions with: 
                l(1) =   0
                l(2) =   0
                l(3) =   1
                l(4) =   1
                l(5) =   2
                l(6) =   2
     Q(r) pseudized with 0 coefficients 


     atomic species   valence    mass     pseudopotential
        Co             9.00    58.93320     Co( 1.00)

     12 Sym. Ops., with inversion, found ( 6 have fractional translation)



   Cartesian axes

     site n.     atom                  positions (alat units)
         1           Co  tau(   1) = (   1.0000000   0.5773503   3.0612245  )
         2           Co  tau(   2) = (   0.0000000   0.0000000   3.8749895  )

     number of k points=    30  Fermi-Dirac smearing, width (Ry)=  0.0070
                       cart. coord. in units 2pi/alat
        k(    1) = (   0.0000000   0.0000000   0.0000000), wk =   0.0078125
        k(    2) = (   0.0000000   0.0721688   0.0000000), wk =   0.0468750
        k(    3) = (   0.0000000   0.1443376   0.0000000), wk =   0.0468750
        k(    4) = (   0.0000000   0.2165064   0.0000000), wk =   0.0468750
        k(    5) = (   0.0000000   0.2886751   0.0000000), wk =   0.0468750
        k(    6) = (   0.0000000   0.3608439   0.0000000), wk =   0.0468750
        k(    7) = (   0.0000000   0.4330127   0.0000000), wk =   0.0468750
        k(    8) = (   0.0000000   0.5051815   0.0000000), wk =   0.0468750
        k(    9) = (   0.0000000  -0.5773503   0.0000000), wk =   0.0234375
        k(   10) = (   0.0625000   0.1082532   0.0000000), wk =   0.0468750
        k(   11) = (   0.0625000   0.1804220   0.0000000), wk =   0.0937500
        k(   12) = (   0.0625000   0.2525907   0.0000000), wk =   0.0937500
        k(   13) = (   0.0625000   0.3247595   0.0000000), wk =   0.0937500
        k(   14) = (   0.0625000   0.3969283   0.0000000), wk =   0.0937500
        k(   15) = (   0.0625000   0.4690971   0.0000000), wk =   0.0937500
        k(   16) = (   0.0625000  -0.6134347   0.0000000), wk =   0.0937500
        k(   17) = (   0.1250000   0.2165064   0.0000000), wk =   0.0468750
        k(   18) = (   0.1250000   0.2886751   0.0000000), wk =   0.0937500
        k(   19) = (   0.1250000   0.3608439   0.0000000), wk =   0.0937500
        k(   20) = (   0.1250000   0.4330127   0.0000000), wk =   0.0937500
        k(   21) = (   0.1250000  -0.6495191   0.0000000), wk =   0.0937500
        k(   22) = (   0.1250000  -0.5773503   0.0000000), wk =   0.0468750
        k(   23) = (   0.1875000   0.3247595   0.0000000), wk =   0.0468750
        k(   24) = (   0.1875000   0.3969283   0.0000000), wk =   0.0937500
        k(   25) = (   0.1875000  -0.6856034   0.0000000), wk =   0.0937500
        k(   26) = (   0.1875000  -0.6134347   0.0000000), wk =   0.0937500
        k(   27) = (   0.2500000  -0.7216878   0.0000000), wk =   0.0468750
        k(   28) = (   0.2500000  -0.6495191   0.0000000), wk =   0.0937500
        k(   29) = (   0.2500000  -0.5773503   0.0000000), wk =   0.0468750
        k(   30) = (   0.3125000  -0.6134347   0.0000000), wk =   0.0468750

     Dense  grid:    32695 G-vectors     FFT dimensions: (  24,  24, 160)

     Estimated max dynamical RAM per process >      10.48 MB

     Estimated total dynamical RAM >     167.73 MB

     Initial potential from superposition of free atoms

     starting charge      17.9994, renormalised to      18.0000

     negative rho (up, down):  3.614E-04 0.000E+00
     Starting wfcs are   18 randomized atomic wfcs
     Checking if some PAW data can be deallocated... 

     total cpu time spent up to now is        1.5 secs

     Self-consistent Calculation

     iteration #  1     ecut=    55.00 Ry     beta= 0.70
     Davidson diagonalization with overlap
     ethr =  1.00E-02,  avg # of iterations =  2.2

     negative rho (up, down):  2.895E-04 0.000E+00

     total cpu time spent up to now is        1.8 secs

     total energy              =    -323.78463855 Ry
     estimated scf accuracy    <       0.29937160 Ry

     iteration #  2     ecut=    55.00 Ry     beta= 0.70
     Davidson diagonalization with overlap
     ethr =  1.66E-03,  avg # of iterations =  5.6

     total cpu time spent up to now is        2.1 secs

     total energy              =    -323.45672948 Ry
     estimated scf accuracy    <       3.55973395 Ry

     iteration #  3     ecut=    55.00 Ry     beta= 0.70
     Davidson diagonalization with overlap
     ethr =  1.66E-03,  avg # of iterations =  3.2

     total cpu time spent up to now is        2.5 secs

     total energy              =    -323.97621815 Ry
     estimated scf accuracy    <       0.02198572 Ry

     iteration #  4     ecut=    55.00 Ry     beta= 0.70
     Davidson diagonalization with overlap
     ethr =  1.22E-04,  avg # of iterations =  4.5

     total cpu time spent up to now is        2.8 secs

     total energy              =    -323.97662598 Ry
     estimated scf accuracy    <       0.00990658 Ry

     iteration #  5     ecut=    55.00 Ry     beta= 0.70
     Davidson diagonalization with overlap
     ethr =  5.50E-05,  avg # of iterations =  2.3

     negative rho (up, down):  2.837E-08 0.000E+00

     total cpu time spent up to now is        3.0 secs

     total energy              =    -323.97685633 Ry
     estimated scf accuracy    <       0.00211206 Ry

     iteration #  6     ecut=    55.00 Ry     beta= 0.70
     Davidson diagonalization with overlap
     ethr =  1.17E-05,  avg # of iterations =  3.4

     negative rho (up, down):  2.618E-06 0.000E+00

     total cpu time spent up to now is        3.2 secs

     total energy              =    -323.97705457 Ry
     estimated scf accuracy    <       0.00047733 Ry

     iteration #  7     ecut=    55.00 Ry     beta= 0.70
     Davidson diagonalization with overlap
     ethr =  2.65E-06,  avg # of iterations =  4.4

     negative rho (up, down):  5.716E-04 0.000E+00

     total cpu time spent up to now is        3.5 secs

     total energy              =    -323.97706954 Ry
     estimated scf accuracy    <       0.00010975 Ry

     iteration #  8     ecut=    55.00 Ry     beta= 0.70
     Davidson diagonalization with overlap
     ethr =  6.10E-07,  avg # of iterations =  2.7

     negative rho (up, down):  3.740E-04 0.000E+00

     total cpu time spent up to now is        3.7 secs

     total energy              =    -323.97709119 Ry
     estimated scf accuracy    <       0.00000343 Ry

     iteration #  9     ecut=    55.00 Ry     beta= 0.70
     Davidson diagonalization with overlap
     ethr =  1.91E-08,  avg # of iterations =  2.9

     negative rho (up, down):  3.654E-04 0.000E+00

     total cpu time spent up to now is        3.9 secs

     End of self-consistent calculation

          k = 0.0000 0.0000 0.0000 (  4191 PWs)   bands (ev):

    -7.9875  -5.3635  -2.2434  -2.0063  -2.0063  -1.8794  -1.8794  -1.6032
    -0.7119  -0.7119  -0.1480  -0.1480   0.0171

          k = 0.0000 0.0722 0.0000 (  4183 PWs)   bands (ev):

    -7.8492  -5.2362  -2.2417  -2.0615  -1.9905  -1.9391  -1.8187  -1.5829
    -0.7365  -0.7334  -0.5909  -0.1449   0.6857

          k = 0.0000 0.1443 0.0000 (  4157 PWs)   bands (ev):

    -7.4455  -4.8745  -2.3078  -2.2764  -2.0943  -1.7480  -1.6465  -1.6268
    -1.1327  -0.7944  -0.3898  -0.1402   1.5396

          k = 0.0000 0.2165 0.0000 (  4137 PWs)   bands (ev):

    -6.8156  -4.3605  -2.6130  -2.4294  -2.1409  -1.7618  -1.4922  -1.3830
    -1.2679  -0.8285  -0.1406  -0.0280   2.5076

          k = 0.0000 0.2887 0.0000 (  4129 PWs)   bands (ev):

    -6.0483  -3.9263  -2.9652  -2.3959  -2.1673  -1.8840  -1.3559  -1.1501
    -1.0266  -0.7089  -0.1459   0.4610   3.6034

          k = 0.0000 0.3608 0.0000 (  4124 PWs)   bands (ev):

    -5.3145  -3.8537  -3.2874  -2.2628  -1.9336  -1.7433  -1.3807  -0.8750
    -0.6484  -0.4144  -0.1431   1.1133   4.8413

          k = 0.0000 0.4330 0.0000 (  4098 PWs)   bands (ev):

    -4.8069  -4.0013  -3.5410  -2.3580  -1.4515  -1.4463  -1.2441  -0.3753
    -0.3620  -0.0956  -0.0782   1.9625   6.2086

          k = 0.0000 0.5052 0.0000 (  4064 PWs)   bands (ev):

    -4.5349  -4.1790  -3.7025  -2.4385  -1.4977  -1.1686  -0.8390  -0.2975
     0.0751   0.1429   0.6078   2.7446   7.1928

          k = 0.0000-0.5774 0.0000 (  4064 PWs)   bands (ev):

    -4.4053  -4.2997  -3.7581  -2.4677  -1.5164  -1.0824  -0.7159  -0.2880
     0.1479   0.2311   1.3533   2.8501   7.1277

          k = 0.0625 0.1083 0.0000 (  4169 PWs)   bands (ev):

    -7.5779  -4.9906  -2.2773  -2.1654  -2.1332  -1.8007  -1.6971  -1.6006
    -1.0712  -0.7043  -0.5275  -0.1275   1.3007

          k = 0.0625 0.1804 0.0000 (  4148 PWs)   bands (ev):

    -7.0588  -4.5412  -2.4601  -2.4032  -2.1923  -1.7195  -1.5279  -1.4746
    -1.2930  -0.7524  -0.3202  -0.0385   2.1539

          k = 0.0625 0.2526 0.0000 (  4132 PWs)   bands (ev):

    -6.3512  -4.0209  -2.7863  -2.5267  -2.2509  -1.8595  -1.3723  -1.2263
    -1.1344  -0.7161  -0.2243   0.2998   3.1610

          k = 0.0625 0.3248 0.0000 (  4101 PWs)   bands (ev):

    -5.5809  -3.7507  -3.1177  -2.3462  -2.2354  -1.9344  -1.3450  -1.0533
    -0.7460  -0.4468  -0.1992   0.8735   4.3175

          k = 0.0625 0.3969 0.0000 (  4099 PWs)   bands (ev):

    -4.9497  -3.8349  -3.3997  -2.3045  -1.8209  -1.6852  -1.3790  -0.7781
    -0.4403  -0.1662   0.0047   1.6776   5.6234

          k = 0.0625 0.4691 0.0000 (  4084 PWs)   bands (ev):

    -4.5780  -4.0187  -3.6028  -2.3868  -1.5644  -1.3540  -1.1270  -0.4058
    -0.3190  -0.0085   0.6274   2.6262   7.0117

          k = 0.0625-0.6134 0.0000 (  4064 PWs)   bands (ev):

    -4.3843  -4.1830  -3.7091  -2.4367  -1.5851  -1.1605  -0.8635  -0.3388
    -0.0740   0.0940   1.5329   3.1287   7.0416

          k = 0.1250 0.2165 0.0000 (  4113 PWs)   bands (ev):

    -6.4555  -4.0478  -2.6651  -2.6135  -2.3441  -1.8381  -1.4239  -1.1931
    -1.1630  -0.6592  -0.3275   0.2773   3.0113

          k = 0.1250 0.2887 0.0000 (  4119 PWs)   bands (ev):

    -5.7204  -3.5742  -2.9418  -2.7145  -2.4168  -1.9707  -1.4101  -1.0388
    -0.7729  -0.3982  -0.3090   0.8045   4.0572

          k = 0.1250 0.3608 0.0000 (  4118 PWs)   bands (ev):

    -5.0174  -3.5219  -3.2133  -2.3875  -2.3411  -2.0214  -1.4406  -0.9061
    -0.5185  -0.2320   0.1194   1.5981   5.2764

          k = 0.1250 0.4330 0.0000 (  4095 PWs)   bands (ev):

    -4.5339  -3.7147  -3.4291  -2.3259  -1.8758  -1.8109  -1.4587  -0.6955
    -0.4641  -0.0758   0.8292   2.6450   6.6448

          k = 0.1250-0.6495 0.0000 (  4096 PWs)   bands (ev):

    -4.2802  -3.9047  -3.5687  -2.3603  -1.7620  -1.4580  -1.2851  -0.4609
    -0.4075  -0.0319   1.8015   3.6218   7.3972

          k = 0.1250-0.5774 0.0000 (  4078 PWs)   bands (ev):

    -4.1730  -4.0105  -3.6171  -2.3739  -1.7772  -1.3155  -1.1883  -0.4615
    -0.1729  -0.1255   2.5708   3.7370   7.3620

          k = 0.1875 0.3248 0.0000 (  4125 PWs)   bands (ev):

    -5.0353  -3.2107  -3.0973  -2.7996  -2.4799  -2.0680  -1.4939  -0.8880
    -0.5820  -0.2508   0.1614   1.5852   5.1625

          k = 0.1875 0.3969 0.0000 (  4100 PWs)   bands (ev):

    -4.4711  -3.3379  -3.2430  -2.4397  -2.3434  -2.0901  -1.6062  -0.7509
    -0.5955  -0.0868   0.9380   2.6756   6.4556

          k = 0.1875-0.6856 0.0000 (  4084 PWs)   bands (ev):

    -4.1358  -3.5411  -3.3657  -2.3048  -1.9939  -1.9642  -1.6497  -0.6276
    -0.5709  -0.0473   1.9753   3.9391   7.8571

          k = 0.1875-0.6134 0.0000 (  4086 PWs)   bands (ev):

    -3.9733  -3.6824  -3.4379  -2.2788  -2.0039  -1.6794  -1.5850  -0.6132
    -0.3721  -0.1485   3.1923   4.6405   7.4078

          k = 0.2500-0.7217 0.0000 (  4097 PWs)   bands (ev):

    -4.0644  -3.3104  -3.2351  -2.3409  -2.2798  -2.0812  -1.7793  -0.7015
    -0.6132  -0.0445   2.0326   4.0325   7.8199

          k = 0.2500-0.6495 0.0000 (  4098 PWs)   bands (ev):

    -3.8301  -3.3632  -3.2469  -2.2617  -2.1599  -2.0224  -1.8653  -0.7424
    -0.4840  -0.1287   3.3920   5.4044   7.9485

          k = 0.2500-0.5774 0.0000 (  4078 PWs)   bands (ev):

    -3.7483  -3.3982  -3.2561  -2.2215  -2.1726  -1.9566  -1.8720  -0.7427
    -0.3655  -0.2483   4.5916   5.3869   8.1647

          k = 0.3125-0.6134 0.0000 (  4092 PWs)   bands (ev):

    -3.6628  -3.2284  -3.1728  -2.3031  -2.1519  -2.0476  -2.0411  -0.7966
    -0.3936  -0.2623   5.0327   6.5397   7.0109

     the Fermi energy is    -0.4010 ev

!    total energy              =    -323.97709170 Ry
     total all-electron energy =     -5573.664444 Ry
     estimated scf accuracy    <       0.00000051 Ry
     smearing contrib. (-TS)   =      -0.01388099 Ry
     internal energy E=F+TS    =    -323.96321071 Ry

     The total energy is F=E-TS. E is the sum of the following terms:
     one-electron contribution =    -719.09682364 Ry
     hartree contribution      =     376.39753427 Ry
     xc contribution           =     -65.06240033 Ry
     ewald contribution        =     256.88906235 Ry
     one-center paw contrib.   =    -173.09058335 Ry

     convergence has been achieved in   9 iterations

     negative rho (up, down):  3.654E-04 0.000E+00

     Forces acting on atoms (cartesian axes, Ry/au):

     atom    1 type  1   force =     0.00000000    0.00000000    0.02387597
     atom    2 type  1   force =     0.00000000    0.00000000   -0.02387597
     The non-local contrib.  to forces
     atom    1 type  1   force =     0.00000000    0.00000000   -0.09319388
     atom    2 type  1   force =     0.00000000    0.00000000    0.09319388
     The ionic contribution  to forces
     atom    1 type  1   force =    -0.00000000    0.00000000  -41.52793710
     atom    2 type  1   force =     0.00000000    0.00000000   41.52793710
     The local contribution  to forces
     atom    1 type  1   force =    -0.00000000   -0.00000000   41.62750756
     atom    2 type  1   force =     0.00000000    0.00000000  -41.62750756
     The core correction contribution to forces
     atom    1 type  1   force =    -0.00000000   -0.00000000    0.01490086
     atom    2 type  1   force =     0.00000000    0.00000000   -0.01490086
     The Hubbard contrib.    to forces
     atom    1 type  1   force =     0.00000000    0.00000000    0.00000000
     atom    2 type  1   force =     0.00000000    0.00000000    0.00000000
     The SCF correction term to forces
     atom    1 type  1   force =     0.00000000   -0.00000000    0.00259854
     atom    2 type  1   force =    -0.00000000    0.00000000   -0.00259854

     Total force =     0.033766     Total SCF correction =     0.003675
     SCF correction compared to forces is large: reduce conv_thr to get better values


     Computing stress (Cartesian axis) and pressure


     negative rho (up, down):  3.654E-04 0.000E+00
          total   stress  (Ry/bohr**3)                   (kbar)     P=      -38.82
  -0.00031267   0.00000000   0.00000000          -46.00        0.00        0.00
   0.00000000  -0.00031267   0.00000000            0.00      -46.00        0.00
   0.00000000  -0.00000000  -0.00016643            0.00       -0.00      -24.48


     Writing all to output data dir ./tmp/scf.save/
 
     init_run     :      0.19s CPU      1.26s WALL (       1 calls)
     electrons    :      2.24s CPU      2.44s WALL (       1 calls)
     forces       :      0.04s CPU      0.04s WALL (       1 calls)
     stress       :      0.13s CPU      0.13s WALL (       1 calls)

     Called by init_run:
     wfcinit      :      0.07s CPU      0.09s WALL (       1 calls)
     potinit      :      0.06s CPU      1.06s WALL (       1 calls)
     hinit0       :      0.04s CPU      0.08s WALL (       1 calls)

     Called by electrons:
     c_bands      :      1.50s CPU      1.65s WALL (       9 calls)
     sum_band     :      0.24s CPU      0.26s WALL (       9 calls)
     v_of_rho     :      0.01s CPU      0.02s WALL (      10 calls)
     newd         :      0.06s CPU      0.07s WALL (      10 calls)
     PAW_pot      :      0.48s CPU      1.48s WALL (      10 calls)
     mix_rho      :      0.00s CPU      0.00s WALL (       9 calls)

     Called by c_bands:
     init_us_2    :      0.03s CPU      0.03s WALL (     630 calls)
     init_us_2:cp :      0.03s CPU      0.03s WALL (     630 calls)
     cegterg      :      1.04s CPU      1.17s WALL (     270 calls)

     Called by *egterg:
     cdiaghg      :      0.15s CPU      0.17s WALL (    1204 calls)
     h_psi        :      0.82s CPU      0.92s WALL (    1234 calls)
     s_psi        :      0.02s CPU      0.02s WALL (    1234 calls)
     g_psi        :      0.00s CPU      0.00s WALL (     934 calls)

     Called by h_psi:
     h_psi:calbec :      0.04s CPU      0.05s WALL (    1234 calls)
     vloc_psi     :      0.75s CPU      0.85s WALL (    1234 calls)
     add_vuspsi   :      0.02s CPU      0.02s WALL (    1234 calls)

     General routines
     calbec       :      0.05s CPU      0.06s WALL (    1654 calls)
     fft          :      0.01s CPU      0.06s WALL (     135 calls)
     ffts         :      0.00s CPU      0.00s WALL (       9 calls)
     fftw         :      0.80s CPU      0.90s WALL (   22994 calls)
 
     Parallel routines
 
     PWSCF        :      2.80s CPU      4.14s WALL

 
   This run was terminated on:  16:16:28   5Jun2025            

=------------------------------------------------------------------------------=
   JOB DONE.
=------------------------------------------------------------------------------=
