
     Program PWSCF v.7.2 starts on  5Jun2025 at 16:16:17 

     This program is part of the open-source Quantum ESPRESSO suite
     for quantum simulation of materials; please cite
         "P. Giannozzi et al., J. Phys.:Condens. Matter 21 395502 (2009);
         "P. Giannozzi et al., J. Phys.:Condens. Matter 29 465901 (2017);
         "P. Giannozzi et al., J. Chem. Phys. 152 154105 (2020);
          URL http://www.quantum-espresso.org", 
     in publications or presentations arising from this work. More details at
     http://www.quantum-espresso.org/quote

     Parallel version (MPI), running on    16 processors

     MPI processes distributed on     1 nodes
     37246 MiB available memory on the printing compute node when the environment starts
 
     Waiting for input...
     Reading input from standard input

     Current dimensions of program PWSCF are:
     Max number of different atomic species (ntypx) = 10
     Max number of k-points (npk) =  40000
     Max angular momentum in pseudopotentials (lmaxx) =  4
     file Co.pbe-n-kjpaw_psl.1.0.0.UPF: wavefunction(s)  4S 3D renormalized
     Message from routine setup:
     using ibrav=0 with symmetry is DISCOURAGED, use correct ibrav instead
 
     R & G space division:  proc/nbgrp/npool/nimage =      16
     Subspace diagonalization in iterative solution of the eigenvalue problem:
     a serial algorithm will be used

 
     Parallelization info
     --------------------
     sticks:   dense  smooth     PW     G-vecs:    dense   smooth      PW
     Min          15      15      5                 1273     1273     251
     Max          16      16      6                 1290     1290     266
     Sum         241     241     85                20457    20457    4119
 
     Using Slab Decomposition
 


     bravais-lattice index     =            0
     lattice parameter (alat)  =       4.6298  a.u.
     unit-cell volume          =     596.1396 (a.u.)^3
     number of atoms/cell      =            2
     number of atomic types    =            1
     number of electrons       =        18.00
     number of Kohn-Sham states=           13
     kinetic-energy cutoff     =      40.0000  Ry
     charge density cutoff     =     160.0000  Ry
     scf convergence threshold =      1.0E-06
     mixing beta               =       0.7000
     number of iterations used =            8  plain     mixing
     Exchange-correlation= SLA  PW   PBX  PBC
                           (   1   4   3   4   0   0   0)

     celldm(1)=   4.629829  celldm(2)=   0.000000  celldm(3)=   0.000000
     celldm(4)=   0.000000  celldm(5)=   0.000000  celldm(6)=   0.000000

     crystal axes: (cart. coord. in units of alat)
               a(1) = (   1.000000   0.000000   0.000000 )  
               a(2) = (   0.500000   0.866025   0.000000 )  
               a(3) = (   0.000000   0.000000   6.936214 )  

     reciprocal axes: (cart. coord. in units 2 pi/alat)
               b(1) = (  1.000000 -0.577350  0.000000 )  
               b(2) = (  0.000000  1.154701  0.000000 )  
               b(3) = (  0.000000  0.000000  0.144171 )  


     PseudoPot. # 1 for Co read from file:
     /shared/ESPRESSO/PSLIBRARY/1.0.0/pbe/PSEUDOPOTENTIALS/Co.pbe-n-kjpaw_psl.1.0.0.UPF
     MD5 check sum: 17e7ab8db721b244d1352252ea6cb8e7
     Pseudo is Projector augmented-wave + core cor, Zval =  9.0
     Generated using "atomic" code by A. Dal Corso  (Quantum ESPRESSO distribution)
     Shape of augmentation charge: PSQ
     Using radial grid of 1193 points,  6 beta functions with: 
                l(1) =   0
                l(2) =   0
                l(3) =   1
                l(4) =   1
                l(5) =   2
                l(6) =   2
     Q(r) pseudized with 0 coefficients 


     atomic species   valence    mass     pseudopotential
        Co             9.00    58.93320     Co( 1.00)

     12 Sym. Ops., with inversion, found ( 6 have fractional translation)



   Cartesian axes

     site n.     atom                  positions (alat units)
         1           Co  tau(   1) = (   1.0000000   0.5773503   3.0612245  )
         2           Co  tau(   2) = (   0.0000000   0.0000000   3.8749895  )

     number of k points=    30  Fermi-Dirac smearing, width (Ry)=  0.0070
                       cart. coord. in units 2pi/alat
        k(    1) = (   0.0000000   0.0000000   0.0000000), wk =   0.0078125
        k(    2) = (   0.0000000   0.0721688   0.0000000), wk =   0.0468750
        k(    3) = (   0.0000000   0.1443376   0.0000000), wk =   0.0468750
        k(    4) = (   0.0000000   0.2165064   0.0000000), wk =   0.0468750
        k(    5) = (   0.0000000   0.2886751   0.0000000), wk =   0.0468750
        k(    6) = (   0.0000000   0.3608439   0.0000000), wk =   0.0468750
        k(    7) = (   0.0000000   0.4330127   0.0000000), wk =   0.0468750
        k(    8) = (   0.0000000   0.5051815   0.0000000), wk =   0.0468750
        k(    9) = (   0.0000000  -0.5773503   0.0000000), wk =   0.0234375
        k(   10) = (   0.0625000   0.1082532   0.0000000), wk =   0.0468750
        k(   11) = (   0.0625000   0.1804220   0.0000000), wk =   0.0937500
        k(   12) = (   0.0625000   0.2525907   0.0000000), wk =   0.0937500
        k(   13) = (   0.0625000   0.3247595   0.0000000), wk =   0.0937500
        k(   14) = (   0.0625000   0.3969283   0.0000000), wk =   0.0937500
        k(   15) = (   0.0625000   0.4690971   0.0000000), wk =   0.0937500
        k(   16) = (   0.0625000  -0.6134347   0.0000000), wk =   0.0937500
        k(   17) = (   0.1250000   0.2165064   0.0000000), wk =   0.0468750
        k(   18) = (   0.1250000   0.2886751   0.0000000), wk =   0.0937500
        k(   19) = (   0.1250000   0.3608439   0.0000000), wk =   0.0937500
        k(   20) = (   0.1250000   0.4330127   0.0000000), wk =   0.0937500
        k(   21) = (   0.1250000  -0.6495191   0.0000000), wk =   0.0937500
        k(   22) = (   0.1250000  -0.5773503   0.0000000), wk =   0.0468750
        k(   23) = (   0.1875000   0.3247595   0.0000000), wk =   0.0468750
        k(   24) = (   0.1875000   0.3969283   0.0000000), wk =   0.0937500
        k(   25) = (   0.1875000  -0.6856034   0.0000000), wk =   0.0937500
        k(   26) = (   0.1875000  -0.6134347   0.0000000), wk =   0.0937500
        k(   27) = (   0.2500000  -0.7216878   0.0000000), wk =   0.0468750
        k(   28) = (   0.2500000  -0.6495191   0.0000000), wk =   0.0937500
        k(   29) = (   0.2500000  -0.5773503   0.0000000), wk =   0.0468750
        k(   30) = (   0.3125000  -0.6134347   0.0000000), wk =   0.0468750

     Dense  grid:    20457 G-vectors     FFT dimensions: (  24,  24, 135)

     Estimated max dynamical RAM per process >       6.91 MB

     Estimated total dynamical RAM >     110.60 MB

     Check: negative core charge=   -0.000002

     Initial potential from superposition of free atoms

     starting charge      17.9994, renormalised to      18.0000

     negative rho (up, down):  1.072E-03 0.000E+00
     Starting wfcs are   18 randomized atomic wfcs
     Checking if some PAW data can be deallocated... 

     total cpu time spent up to now is        0.5 secs

     Self-consistent Calculation

     iteration #  1     ecut=    40.00 Ry     beta= 0.70
     Davidson diagonalization with overlap
     ethr =  1.00E-02,  avg # of iterations =  2.3

     negative rho (up, down):  1.080E-03 0.000E+00

     total cpu time spent up to now is        0.8 secs

     total energy              =    -323.77579880 Ry
     estimated scf accuracy    <       0.30125506 Ry

     iteration #  2     ecut=    40.00 Ry     beta= 0.70
     Davidson diagonalization with overlap
     ethr =  1.67E-03,  avg # of iterations =  5.6

     total cpu time spent up to now is        1.1 secs

     total energy              =    -323.40834364 Ry
     estimated scf accuracy    <       3.86247160 Ry

     iteration #  3     ecut=    40.00 Ry     beta= 0.70
     Davidson diagonalization with overlap
     ethr =  1.67E-03,  avg # of iterations =  3.6

     negative rho (up, down):  8.999E-08 0.000E+00

     total cpu time spent up to now is        1.4 secs

     total energy              =    -323.96983661 Ry
     estimated scf accuracy    <       0.02412518 Ry

     iteration #  4     ecut=    40.00 Ry     beta= 0.70
     Davidson diagonalization with overlap
     ethr =  1.34E-04,  avg # of iterations =  4.4

     negative rho (up, down):  5.350E-06 0.000E+00

     total cpu time spent up to now is        1.7 secs

     total energy              =    -323.96934127 Ry
     estimated scf accuracy    <       0.01142636 Ry

     iteration #  5     ecut=    40.00 Ry     beta= 0.70
     Davidson diagonalization with overlap
     ethr =  6.35E-05,  avg # of iterations =  2.4

     negative rho (up, down):  2.355E-05 0.000E+00

     total cpu time spent up to now is        1.9 secs

     total energy              =    -323.96948764 Ry
     estimated scf accuracy    <       0.00274116 Ry

     iteration #  6     ecut=    40.00 Ry     beta= 0.70
     Davidson diagonalization with overlap
     ethr =  1.52E-05,  avg # of iterations =  2.1

     negative rho (up, down):  1.537E-04 0.000E+00

     total cpu time spent up to now is        2.2 secs

     total energy              =    -323.96966502 Ry
     estimated scf accuracy    <       0.00065627 Ry

     iteration #  7     ecut=    40.00 Ry     beta= 0.70
     Davidson diagonalization with overlap
     ethr =  3.65E-06,  avg # of iterations =  5.1

     negative rho (up, down):  1.121E-03 0.000E+00

     total cpu time spent up to now is        2.5 secs

     total energy              =    -323.96965472 Ry
     estimated scf accuracy    <       0.00017897 Ry

     iteration #  8     ecut=    40.00 Ry     beta= 0.70
     Davidson diagonalization with overlap
     ethr =  9.94E-07,  avg # of iterations =  3.1

     negative rho (up, down):  1.190E-03 0.000E+00

     total cpu time spent up to now is        2.7 secs

     total energy              =    -323.96968992 Ry
     estimated scf accuracy    <       0.00000300 Ry

     iteration #  9     ecut=    40.00 Ry     beta= 0.70
     Davidson diagonalization with overlap
     ethr =  1.67E-08,  avg # of iterations =  3.8

     negative rho (up, down):  1.138E-03 0.000E+00

     total cpu time spent up to now is        3.0 secs

     End of self-consistent calculation

          k = 0.0000 0.0000 0.0000 (  2585 PWs)   bands (ev):

    -8.0008  -5.3722  -2.2465  -2.0085  -2.0085  -1.8815  -1.8815  -1.6093
    -0.7133  -0.7133  -0.1492  -0.1492   0.0031

          k = 0.0000 0.0722 0.0000 (  2562 PWs)   bands (ev):

    -7.8625  -5.2447  -2.2446  -2.0638  -1.9931  -1.9411  -1.8206  -1.5878
    -0.7380  -0.7375  -0.5942  -0.1461   0.6750

          k = 0.0000 0.1443 0.0000 (  2574 PWs)   bands (ev):

    -7.4588  -4.8827  -2.3104  -2.2794  -2.0972  -1.7501  -1.6484  -1.6303
    -1.1369  -0.7959  -0.3935  -0.1414   1.5262

          k = 0.0000 0.2165 0.0000 (  2574 PWs)   bands (ev):

    -6.8287  -4.3681  -2.6161  -2.4324  -2.1442  -1.7646  -1.4942  -1.3848
    -1.2710  -0.8301  -0.1418  -0.0327   2.4908

          k = 0.0000 0.2887 0.0000 (  2548 PWs)   bands (ev):

    -6.0608  -3.9324  -2.9685  -2.3996  -2.1709  -1.8869  -1.3577  -1.1523
    -1.0283  -0.7105  -0.1470   0.4554   3.5834

          k = 0.0000 0.3608 0.0000 (  2556 PWs)   bands (ev):

    -5.3254  -3.8585  -3.2909  -2.2656  -1.9380  -1.7479  -1.3825  -0.8772
    -0.6501  -0.4160  -0.1443   1.1066   4.8192

          k = 0.0000 0.4330 0.0000 (  2558 PWs)   bands (ev):

    -4.8153  -4.0057  -3.5447  -2.3605  -1.4553  -1.4481  -1.2493  -0.3768
    -0.3658  -0.0972  -0.0796   1.9545   6.1867

          k = 0.0000 0.5052 0.0000 (  2540 PWs)   bands (ev):

    -4.5409  -4.1834  -3.7063  -2.4410  -1.4994  -1.1718  -0.8429  -0.2988
     0.0735   0.1413   0.6007   2.7358   7.1822

          k = 0.0000-0.5774 0.0000 (  2556 PWs)   bands (ev):

    -4.4101  -4.3047  -3.7619  -2.4703  -1.5182  -1.0856  -0.7193  -0.2892
     0.1461   0.2295   1.3448   2.8413   7.1190

          k = 0.0625 0.1083 0.0000 (  2569 PWs)   bands (ev):

    -7.5913  -4.9990  -2.2800  -2.1682  -2.1359  -1.8027  -1.6990  -1.6044
    -1.0752  -0.7063  -0.5305  -0.1288   1.2881

          k = 0.0625 0.1804 0.0000 (  2555 PWs)   bands (ev):

    -7.0720  -4.5491  -2.4628  -2.4060  -2.1955  -1.7222  -1.5300  -1.4765
    -1.2962  -0.7541  -0.3230  -0.0412   2.1383

          k = 0.0625 0.2526 0.0000 (  2556 PWs)   bands (ev):

    -6.3640  -4.0278  -2.7895  -2.5300  -2.2543  -1.8620  -1.3743  -1.2287
    -1.1363  -0.7177  -0.2258   0.2949   3.1422

          k = 0.0625 0.3248 0.0000 (  2556 PWs)   bands (ev):

    -5.5926  -3.7559  -3.1211  -2.3501  -2.2391  -1.9376  -1.3469  -1.0554
    -0.7479  -0.4486  -0.2006   0.8673   4.2961

          k = 0.0625 0.3969 0.0000 (  2553 PWs)   bands (ev):

    -4.9593  -3.8394  -3.4032  -2.3072  -1.8250  -1.6895  -1.3815  -0.7801
    -0.4420  -0.1677   0.0023   1.6702   5.6007

          k = 0.0625 0.4691 0.0000 (  2549 PWs)   bands (ev):

    -4.5851  -4.0230  -3.6064  -2.3893  -1.5666  -1.3573  -1.1316  -0.4078
    -0.3208  -0.0102   0.6228   2.6179   6.9906

          k = 0.0625-0.6134 0.0000 (  2552 PWs)   bands (ev):

    -4.3895  -4.1876  -3.7129  -2.4392  -1.5870  -1.1637  -0.8673  -0.3401
    -0.0761   0.0921   1.5258   3.1202   7.0321

          k = 0.1250 0.2165 0.0000 (  2553 PWs)   bands (ev):

    -6.4685  -4.0550  -2.6681  -2.6166  -2.3475  -1.8406  -1.4260  -1.1954
    -1.1651  -0.6610  -0.3293   0.2728   2.9928

          k = 0.1250 0.2887 0.0000 (  2550 PWs)   bands (ev):

    -5.7327  -3.5801  -2.9451  -2.7182  -2.4201  -1.9731  -1.4120  -1.0410
    -0.7748  -0.4001  -0.3105   0.7987   4.0361

          k = 0.1250 0.3608 0.0000 (  2553 PWs)   bands (ev):

    -5.0280  -3.5263  -3.2168  -2.3919  -2.3444  -2.0244  -1.4426  -0.9082
    -0.5202  -0.2335   0.1168   1.5912   5.2536

          k = 0.1250 0.4330 0.0000 (  2544 PWs)   bands (ev):

    -4.5421  -3.7189  -3.4326  -2.3285  -1.8795  -1.8145  -1.4616  -0.6973
    -0.4656  -0.0776   0.8251   2.6373   6.6221

          k = 0.1250-0.6495 0.0000 (  2540 PWs)   bands (ev):

    -4.2861  -3.9091  -3.5723  -2.3628  -1.7642  -1.4614  -1.2891  -0.4623
    -0.4093  -0.0338   1.7954   3.6137   7.3878

          k = 0.1250-0.5774 0.0000 (  2534 PWs)   bands (ev):

    -4.1777  -4.0154  -3.6208  -2.3765  -1.7793  -1.3188  -1.1922  -0.4629
    -0.1749  -0.1275   2.5636   3.7291   7.3529

          k = 0.1875 0.3248 0.0000 (  2539 PWs)   bands (ev):

    -5.0463  -3.2149  -3.1009  -2.8041  -2.4833  -2.0702  -1.4958  -0.8901
    -0.5837  -0.2523   0.1587   1.5785   5.1395

          k = 0.1875 0.3969 0.0000 (  2564 PWs)   bands (ev):

    -4.4802  -3.3418  -3.2466  -2.4437  -2.3470  -2.0930  -1.6084  -0.7529
    -0.5971  -0.0887   0.9340   2.6682   6.4324

          k = 0.1875-0.6856 0.0000 (  2531 PWs)   bands (ev):

    -4.1425  -3.5452  -3.3692  -2.3074  -1.9971  -1.9677  -1.6527  -0.6291
    -0.5727  -0.0492   1.9698   3.9314   7.8361

          k = 0.1875-0.6134 0.0000 (  2531 PWs)   bands (ev):

    -3.9783  -3.6871  -3.4415  -2.2814  -2.0063  -1.6829  -1.5884  -0.6147
    -0.3740  -0.1504   3.1855   4.6328   7.3991

          k = 0.2500-0.7217 0.0000 (  2541 PWs)   bands (ev):

    -4.0713  -3.3144  -3.2386  -2.3441  -2.2833  -2.0842  -1.7817  -0.7031
    -0.6151  -0.0464   2.0273   4.0248   7.7971

          k = 0.2500-0.6495 0.0000 (  2516 PWs)   bands (ev):

    -3.8355  -3.3676  -3.2505  -2.2643  -2.1627  -2.0255  -1.8681  -0.7439
    -0.4857  -0.1306   3.3854   5.3969   7.9405

          k = 0.2500-0.5774 0.0000 (  2512 PWs)   bands (ev):

    -3.7531  -3.4029  -3.2598  -2.2240  -2.1752  -1.9597  -1.8751  -0.7444
    -0.3673  -0.2501   4.5845   5.3793   8.1574

          k = 0.3125-0.6134 0.0000 (  2499 PWs)   bands (ev):

    -3.6676  -3.2329  -3.1768  -2.3057  -2.1544  -2.0504  -2.0436  -0.7983
    -0.3953  -0.2640   5.0256   6.5326   7.0037

     the Fermi energy is    -0.4028 ev

!    total energy              =    -323.96969085 Ry
     total all-electron energy =     -5573.657043 Ry
     estimated scf accuracy    <       0.00000099 Ry
     smearing contrib. (-TS)   =      -0.01387855 Ry
     internal energy E=F+TS    =    -323.95581231 Ry

     The total energy is F=E-TS. E is the sum of the following terms:
     one-electron contribution =    -719.06552190 Ry
     hartree contribution      =     376.38500998 Ry
     xc contribution           =     -65.06885016 Ry
     ewald contribution        =     256.88906235 Ry
     one-center paw contrib.   =    -173.09551257 Ry

     convergence has been achieved in   9 iterations

     negative rho (up, down):  1.138E-03 0.000E+00

     Forces acting on atoms (cartesian axes, Ry/au):

     atom    1 type  1   force =     0.00000000    0.00000000    0.02430738
     atom    2 type  1   force =     0.00000000    0.00000000   -0.02430738
     The non-local contrib.  to forces
     atom    1 type  1   force =     0.00000000    0.00000000   -0.09219045
     atom    2 type  1   force =     0.00000000    0.00000000    0.09219045
     The ionic contribution  to forces
     atom    1 type  1   force =    -0.00000000    0.00000000  -41.52793710
     atom    2 type  1   force =     0.00000000    0.00000000   41.52793710
     The local contribution  to forces
     atom    1 type  1   force =    -0.00000000   -0.00000000   41.62640605
     atom    2 type  1   force =     0.00000000    0.00000000  -41.62640605
     The core correction contribution to forces
     atom    1 type  1   force =    -0.00000000   -0.00000000    0.01486203
     atom    2 type  1   force =     0.00000000    0.00000000   -0.01486203
     The Hubbard contrib.    to forces
     atom    1 type  1   force =     0.00000000    0.00000000    0.00000000
     atom    2 type  1   force =     0.00000000    0.00000000    0.00000000
     The SCF correction term to forces
     atom    1 type  1   force =     0.00000000    0.00000000    0.00316685
     atom    2 type  1   force =    -0.00000000    0.00000000   -0.00316685

     Total force =     0.034376     Total SCF correction =     0.004479
     SCF correction compared to forces is large: reduce conv_thr to get better values


     Computing stress (Cartesian axis) and pressure


     negative rho (up, down):  1.138E-03 0.000E+00
          total   stress  (Ry/bohr**3)                   (kbar)     P=      -40.47
  -0.00032357  -0.00000000   0.00000000          -47.60       -0.00        0.00
  -0.00000000  -0.00032357   0.00000000           -0.00      -47.60        0.00
   0.00000000   0.00000000  -0.00017810            0.00        0.00      -26.20


     Writing all to output data dir ./tmp/scf.save/
 
     init_run     :      0.22s CPU      0.40s WALL (       1 calls)
     electrons    :      2.34s CPU      2.53s WALL (       1 calls)
     forces       :      0.03s CPU      0.03s WALL (       1 calls)
     stress       :      0.13s CPU      0.14s WALL (       1 calls)

     Called by init_run:
     wfcinit      :      0.05s CPU      0.06s WALL (       1 calls)
     potinit      :      0.07s CPU      0.20s WALL (       1 calls)
     hinit0       :      0.08s CPU      0.12s WALL (       1 calls)

     Called by electrons:
     c_bands      :      1.50s CPU      1.63s WALL (       9 calls)
     sum_band     :      0.25s CPU      0.25s WALL (       9 calls)
     v_of_rho     :      0.02s CPU      0.02s WALL (      10 calls)
     newd         :      0.03s CPU      0.05s WALL (      10 calls)
     PAW_pot      :      0.61s CPU      0.76s WALL (      10 calls)
     mix_rho      :      0.00s CPU      0.00s WALL (       9 calls)

     Called by c_bands:
     init_us_2    :      0.03s CPU      0.03s WALL (     630 calls)
     init_us_2:cp :      0.03s CPU      0.03s WALL (     630 calls)
     cegterg      :      1.20s CPU      1.31s WALL (     270 calls)

     Called by *egterg:
     cdiaghg      :      0.21s CPU      0.23s WALL (    1240 calls)
     h_psi        :      0.89s CPU      0.98s WALL (    1270 calls)
     s_psi        :      0.02s CPU      0.02s WALL (    1270 calls)
     g_psi        :      0.00s CPU      0.00s WALL (     970 calls)

     Called by h_psi:
     h_psi:calbec :      0.04s CPU      0.04s WALL (    1270 calls)
     vloc_psi     :      0.82s CPU      0.91s WALL (    1270 calls)
     add_vuspsi   :      0.02s CPU      0.02s WALL (    1270 calls)

     General routines
     calbec       :      0.06s CPU      0.06s WALL (    1690 calls)
     fft          :      0.04s CPU      0.08s WALL (     135 calls)
     ffts         :      0.00s CPU      0.00s WALL (       9 calls)
     fftw         :      0.84s CPU      0.92s WALL (   23284 calls)
 
     Parallel routines
 
     PWSCF        :      2.85s CPU      3.27s WALL

 
   This run was terminated on:  16:16:21   5Jun2025            

=------------------------------------------------------------------------------=
   JOB DONE.
=------------------------------------------------------------------------------=
