
     Program PWSCF v.7.2 starts on  5Jun2025 at 16:16:12 

     This program is part of the open-source Quantum ESPRESSO suite
     for quantum simulation of materials; please cite
         "P. Giannozzi et al., J. Phys.:Condens. Matter 21 395502 (2009);
         "P. Giannozzi et al., J. Phys.:Condens. Matter 29 465901 (2017);
         "P. Giannozzi et al., J. Chem. Phys. 152 154105 (2020);
          URL http://www.quantum-espresso.org", 
     in publications or presentations arising from this work. More details at
     http://www.quantum-espresso.org/quote

     Parallel version (MPI), running on    16 processors

     MPI processes distributed on     1 nodes
     36704 MiB available memory on the printing compute node when the environment starts
 
     Waiting for input...
     Reading input from standard input

     Current dimensions of program PWSCF are:
     Max number of different atomic species (ntypx) = 10
     Max number of k-points (npk) =  40000
     Max angular momentum in pseudopotentials (lmaxx) =  4
     file Co.pbe-n-kjpaw_psl.1.0.0.UPF: wavefunction(s)  4S 3D renormalized
     Message from routine setup:
     using ibrav=0 with symmetry is DISCOURAGED, use correct ibrav instead
 
     R & G space division:  proc/nbgrp/npool/nimage =      16
     Subspace diagonalization in iterative solution of the eigenvalue problem:
     a serial algorithm will be used

 
     Parallelization info
     --------------------
     sticks:   dense  smooth     PW     G-vecs:    dense   smooth      PW
     Min          12      12      4                 1022     1022     202
     Max          15      15      6                 1055     1055     215
     Sum         211     211     73                16579    16579    3359
 
     Using Slab Decomposition
 


     bravais-lattice index     =            0
     lattice parameter (alat)  =       4.6298  a.u.
     unit-cell volume          =     596.1396 (a.u.)^3
     number of atoms/cell      =            2
     number of atomic types    =            1
     number of electrons       =        18.00
     number of Kohn-Sham states=           13
     kinetic-energy cutoff     =      35.0000  Ry
     charge density cutoff     =     140.0000  Ry
     scf convergence threshold =      1.0E-06
     mixing beta               =       0.7000
     number of iterations used =            8  plain     mixing
     Exchange-correlation= SLA  PW   PBX  PBC
                           (   1   4   3   4   0   0   0)

     celldm(1)=   4.629829  celldm(2)=   0.000000  celldm(3)=   0.000000
     celldm(4)=   0.000000  celldm(5)=   0.000000  celldm(6)=   0.000000

     crystal axes: (cart. coord. in units of alat)
               a(1) = (   1.000000   0.000000   0.000000 )  
               a(2) = (   0.500000   0.866025   0.000000 )  
               a(3) = (   0.000000   0.000000   6.936214 )  

     reciprocal axes: (cart. coord. in units 2 pi/alat)
               b(1) = (  1.000000 -0.577350  0.000000 )  
               b(2) = (  0.000000  1.154701  0.000000 )  
               b(3) = (  0.000000  0.000000  0.144171 )  


     PseudoPot. # 1 for Co read from file:
     /shared/ESPRESSO/PSLIBRARY/1.0.0/pbe/PSEUDOPOTENTIALS/Co.pbe-n-kjpaw_psl.1.0.0.UPF
     MD5 check sum: 17e7ab8db721b244d1352252ea6cb8e7
     Pseudo is Projector augmented-wave + core cor, Zval =  9.0
     Generated using "atomic" code by A. Dal Corso  (Quantum ESPRESSO distribution)
     Shape of augmentation charge: PSQ
     Using radial grid of 1193 points,  6 beta functions with: 
                l(1) =   0
                l(2) =   0
                l(3) =   1
                l(4) =   1
                l(5) =   2
                l(6) =   2
     Q(r) pseudized with 0 coefficients 


     atomic species   valence    mass     pseudopotential
        Co             9.00    58.93320     Co( 1.00)

     12 Sym. Ops., with inversion, found ( 6 have fractional translation)



   Cartesian axes

     site n.     atom                  positions (alat units)
         1           Co  tau(   1) = (   1.0000000   0.5773503   3.0612245  )
         2           Co  tau(   2) = (   0.0000000   0.0000000   3.8749895  )

     number of k points=    30  Fermi-Dirac smearing, width (Ry)=  0.0070
                       cart. coord. in units 2pi/alat
        k(    1) = (   0.0000000   0.0000000   0.0000000), wk =   0.0078125
        k(    2) = (   0.0000000   0.0721688   0.0000000), wk =   0.0468750
        k(    3) = (   0.0000000   0.1443376   0.0000000), wk =   0.0468750
        k(    4) = (   0.0000000   0.2165064   0.0000000), wk =   0.0468750
        k(    5) = (   0.0000000   0.2886751   0.0000000), wk =   0.0468750
        k(    6) = (   0.0000000   0.3608439   0.0000000), wk =   0.0468750
        k(    7) = (   0.0000000   0.4330127   0.0000000), wk =   0.0468750
        k(    8) = (   0.0000000   0.5051815   0.0000000), wk =   0.0468750
        k(    9) = (   0.0000000  -0.5773503   0.0000000), wk =   0.0234375
        k(   10) = (   0.0625000   0.1082532   0.0000000), wk =   0.0468750
        k(   11) = (   0.0625000   0.1804220   0.0000000), wk =   0.0937500
        k(   12) = (   0.0625000   0.2525907   0.0000000), wk =   0.0937500
        k(   13) = (   0.0625000   0.3247595   0.0000000), wk =   0.0937500
        k(   14) = (   0.0625000   0.3969283   0.0000000), wk =   0.0937500
        k(   15) = (   0.0625000   0.4690971   0.0000000), wk =   0.0937500
        k(   16) = (   0.0625000  -0.6134347   0.0000000), wk =   0.0937500
        k(   17) = (   0.1250000   0.2165064   0.0000000), wk =   0.0468750
        k(   18) = (   0.1250000   0.2886751   0.0000000), wk =   0.0937500
        k(   19) = (   0.1250000   0.3608439   0.0000000), wk =   0.0937500
        k(   20) = (   0.1250000   0.4330127   0.0000000), wk =   0.0937500
        k(   21) = (   0.1250000  -0.6495191   0.0000000), wk =   0.0937500
        k(   22) = (   0.1250000  -0.5773503   0.0000000), wk =   0.0468750
        k(   23) = (   0.1875000   0.3247595   0.0000000), wk =   0.0468750
        k(   24) = (   0.1875000   0.3969283   0.0000000), wk =   0.0937500
        k(   25) = (   0.1875000  -0.6856034   0.0000000), wk =   0.0937500
        k(   26) = (   0.1875000  -0.6134347   0.0000000), wk =   0.0937500
        k(   27) = (   0.2500000  -0.7216878   0.0000000), wk =   0.0468750
        k(   28) = (   0.2500000  -0.6495191   0.0000000), wk =   0.0937500
        k(   29) = (   0.2500000  -0.5773503   0.0000000), wk =   0.0468750
        k(   30) = (   0.3125000  -0.6134347   0.0000000), wk =   0.0468750

     Dense  grid:    16579 G-vectors     FFT dimensions: (  18,  18, 125)

     Estimated max dynamical RAM per process >       5.56 MB

     Estimated total dynamical RAM >      89.00 MB

     Check: negative core charge=   -0.000006

     Initial potential from superposition of free atoms

     starting charge      17.9994, renormalised to      18.0000

     negative rho (up, down):  3.457E-04 0.000E+00
     Starting wfcs are   18 randomized atomic wfcs
     Checking if some PAW data can be deallocated... 

     total cpu time spent up to now is        0.5 secs

     Self-consistent Calculation

     iteration #  1     ecut=    35.00 Ry     beta= 0.70
     Davidson diagonalization with overlap
     ethr =  1.00E-02,  avg # of iterations =  2.2

     negative rho (up, down):  1.117E-03 0.000E+00

     total cpu time spent up to now is        0.7 secs

     total energy              =    -323.77666493 Ry
     estimated scf accuracy    <       0.29997501 Ry

     iteration #  2     ecut=    35.00 Ry     beta= 0.70
     Davidson diagonalization with overlap
     ethr =  1.67E-03,  avg # of iterations =  5.8

     total cpu time spent up to now is        1.1 secs

     total energy              =    -323.43125081 Ry
     estimated scf accuracy    <       3.68148301 Ry

     iteration #  3     ecut=    35.00 Ry     beta= 0.70
     Davidson diagonalization with overlap
     ethr =  1.67E-03,  avg # of iterations =  3.7

     negative rho (up, down):  7.030E-08 0.000E+00

     total cpu time spent up to now is        1.3 secs

     total energy              =    -323.96860375 Ry
     estimated scf accuracy    <       0.02364090 Ry

     iteration #  4     ecut=    35.00 Ry     beta= 0.70
     Davidson diagonalization with overlap
     ethr =  1.31E-04,  avg # of iterations =  4.0

     negative rho (up, down):  6.368E-06 0.000E+00

     total cpu time spent up to now is        1.6 secs

     total energy              =    -323.96841032 Ry
     estimated scf accuracy    <       0.01051599 Ry

     iteration #  5     ecut=    35.00 Ry     beta= 0.70
     Davidson diagonalization with overlap
     ethr =  5.84E-05,  avg # of iterations =  2.6

     negative rho (up, down):  2.129E-05 0.000E+00

     total cpu time spent up to now is        1.8 secs

     total energy              =    -323.96862539 Ry
     estimated scf accuracy    <       0.00250717 Ry

     iteration #  6     ecut=    35.00 Ry     beta= 0.70
     Davidson diagonalization with overlap
     ethr =  1.39E-05,  avg # of iterations =  2.3

     negative rho (up, down):  1.682E-04 0.000E+00

     total cpu time spent up to now is        2.1 secs

     total energy              =    -323.96882413 Ry
     estimated scf accuracy    <       0.00054853 Ry

     iteration #  7     ecut=    35.00 Ry     beta= 0.70
     Davidson diagonalization with overlap
     ethr =  3.05E-06,  avg # of iterations =  5.5

     negative rho (up, down):  9.821E-04 0.000E+00

     total cpu time spent up to now is        2.3 secs

     total energy              =    -323.96883783 Ry
     estimated scf accuracy    <       0.00013173 Ry

     iteration #  8     ecut=    35.00 Ry     beta= 0.70
     Davidson diagonalization with overlap
     ethr =  7.32E-07,  avg # of iterations =  2.6

     negative rho (up, down):  1.050E-03 0.000E+00

     total cpu time spent up to now is        2.6 secs

     total energy              =    -323.96886183 Ry
     estimated scf accuracy    <       0.00000179 Ry

     iteration #  9     ecut=    35.00 Ry     beta= 0.70
     Davidson diagonalization with overlap
     ethr =  9.93E-09,  avg # of iterations =  4.5

     negative rho (up, down):  1.012E-03 0.000E+00

     total cpu time spent up to now is        2.9 secs

     End of self-consistent calculation

          k = 0.0000 0.0000 0.0000 (  2131 PWs)   bands (ev):

    -8.0008  -5.3697  -2.2410  -2.0054  -2.0054  -1.8770  -1.8770  -1.6054
    -0.7124  -0.7124  -0.1463  -0.1463   0.0064

          k = 0.0000 0.0722 0.0000 (  2141 PWs)   bands (ev):

    -7.8625  -5.2423  -2.2394  -2.0608  -1.9889  -1.9382  -1.8162  -1.5844
    -0.7371  -0.7352  -0.5925  -0.1433   0.6789

          k = 0.0000 0.1443 0.0000 (  2111 PWs)   bands (ev):

    -7.4587  -4.8802  -2.3066  -2.2753  -2.0936  -1.7471  -1.6438  -1.6277
    -1.1337  -0.7948  -0.3911  -0.1384   1.5311

          k = 0.0000 0.2165 0.0000 (  2103 PWs)   bands (ev):

    -6.8285  -4.3655  -2.6129  -2.4284  -2.1412  -1.7626  -1.4911  -1.3807
    -1.2669  -0.8288  -0.1392  -0.0298   2.4967

          k = 0.0000 0.2887 0.0000 (  2074 PWs)   bands (ev):

    -6.0604  -3.9294  -2.9654  -2.3956  -2.1689  -1.8850  -1.3548  -1.1475
    -1.0249  -0.7076  -0.1441   0.4586   3.5907

          k = 0.0000 0.3608 0.0000 (  2076 PWs)   bands (ev):

    -5.3244  -3.8553  -3.2876  -2.2629  -1.9352  -1.7458  -1.3804  -0.8719
    -0.6472  -0.4121  -0.1409   1.1094   4.8275

          k = 0.0000 0.4330 0.0000 (  2064 PWs)   bands (ev):

    -4.8134  -4.0026  -3.5412  -2.3586  -1.4516  -1.4462  -1.2467  -0.3748
    -0.3610  -0.0925  -0.0749   1.9567   6.1950

          k = 0.0000 0.5052 0.0000 (  2074 PWs)   bands (ev):

    -4.5388  -4.1804  -3.7027  -2.4393  -1.4977  -1.1678  -0.8387  -0.2974
     0.0781   0.1465   0.6037   2.7376   7.1902

          k = 0.0000-0.5774 0.0000 (  2048 PWs)   bands (ev):

    -4.4080  -4.3014  -3.7583  -2.4684  -1.5164  -1.0811  -0.7145  -0.2877
     0.1513   0.2351   1.3470   2.8433   7.1254

          k = 0.0625 0.1083 0.0000 (  2129 PWs)   bands (ev):

    -7.5912  -4.9965  -2.2756  -2.1641  -2.1327  -1.7998  -1.6944  -1.6016
    -1.0726  -0.7052  -0.5284  -0.1260   1.2926

          k = 0.0625 0.1804 0.0000 (  2105 PWs)   bands (ev):

    -7.0719  -4.5466  -2.4598  -2.4020  -2.1921  -1.7201  -1.5268  -1.4721
    -1.2928  -0.7530  -0.3202  -0.0383   2.1440

          k = 0.0625 0.2526 0.0000 (  2082 PWs)   bands (ev):

    -6.3638  -4.0250  -2.7864  -2.5263  -2.2515  -1.8602  -1.3705  -1.2247
    -1.1328  -0.7156  -0.2229   0.2981   3.1490

          k = 0.0625 0.3248 0.0000 (  2085 PWs)   bands (ev):

    -5.5920  -3.7528  -3.1179  -2.3460  -2.2375  -1.9356  -1.3445  -1.0506
    -0.7450  -0.4449  -0.1975   0.8705   4.3040

          k = 0.0625 0.3969 0.0000 (  2073 PWs)   bands (ev):

    -4.9579  -3.8362  -3.3998  -2.3051  -1.8217  -1.6870  -1.3800  -0.7748
    -0.4403  -0.1623   0.0062   1.6729   5.6093

          k = 0.0625 0.4691 0.0000 (  2076 PWs)   bands (ev):

    -4.5831  -4.0200  -3.6029  -2.3876  -1.5645  -1.3534  -1.1293  -0.4029
    -0.3194  -0.0046   0.6266   2.6201   6.9988

          k = 0.0625-0.6134 0.0000 (  2070 PWs)   bands (ev):

    -4.3875  -4.1846  -3.7092  -2.4375  -1.5852  -1.1596  -0.8637  -0.3384
    -0.0712   0.0972   1.5285   3.1225   7.0397

          k = 0.1250 0.2165 0.0000 (  2099 PWs)   bands (ev):

    -6.4683  -4.0523  -2.6654  -2.6129  -2.3442  -1.8388  -1.4218  -1.1912
    -1.1624  -0.6596  -0.3262   0.2759   2.9994

          k = 0.1250 0.2887 0.0000 (  2082 PWs)   bands (ev):

    -5.7322  -3.5770  -2.9422  -2.7150  -2.4172  -1.9713  -1.4084  -1.0372
    -0.7725  -0.3967  -0.3070   0.8019   4.0438

          k = 0.1250 0.3608 0.0000 (  2088 PWs)   bands (ev):

    -5.0270  -3.5231  -3.2134  -2.3894  -2.3415  -2.0222  -1.4403  -0.9036
    -0.5191  -0.2279   0.1208   1.5942   5.2622

          k = 0.1250 0.4330 0.0000 (  2075 PWs)   bands (ev):

    -4.5405  -3.7158  -3.4290  -2.3269  -1.8762  -1.8116  -1.4601  -0.6921
    -0.4643  -0.0719   0.8291   2.6402   6.6313

          k = 0.1250-0.6495 0.0000 (  2078 PWs)   bands (ev):

    -4.2843  -3.9061  -3.5686  -2.3612  -1.7620  -1.4576  -1.2871  -0.4605
    -0.4043  -0.0283   1.7989   3.6166   7.3959

          k = 0.1250-0.5774 0.0000 (  2080 PWs)   bands (ev):

    -4.1761  -4.0121  -3.6169  -2.3748  -1.7774  -1.3149  -1.1898  -0.4614
    -0.1690  -0.1227   2.5665   3.7325   7.3598

          k = 0.1875 0.3248 0.0000 (  2094 PWs)   bands (ev):

    -5.0455  -3.2109  -3.0982  -2.8015  -2.4805  -2.0684  -1.4930  -0.8860
    -0.5830  -0.2466   0.1626   1.5815   5.1485

          k = 0.1875 0.3969 0.0000 (  2096 PWs)   bands (ev):

    -4.4788  -3.3387  -3.2426  -2.4420  -2.3438  -2.0903  -1.6064  -0.7481
    -0.5961  -0.0830   0.9380   2.6712   6.4411

          k = 0.1875-0.6856 0.0000 (  2081 PWs)   bands (ev):

    -4.1410  -3.5423  -3.3653  -2.3061  -1.9940  -1.9644  -1.6510  -0.6277
    -0.5676  -0.0436   1.9737   3.9347   7.8452

          k = 0.1875-0.6134 0.0000 (  2078 PWs)   bands (ev):

    -3.9770  -3.6838  -3.4375  -2.2797  -2.0039  -1.6801  -1.5857  -0.6137
    -0.3683  -0.1445   3.1894   4.6370   7.4059

          k = 0.2500-0.7217 0.0000 (  2096 PWs)   bands (ev):

    -4.0700  -3.3113  -3.2346  -2.3429  -2.2802  -2.0805  -1.7803  -0.7022
    -0.6097  -0.0408   2.0313   4.0281   7.8066

          k = 0.2500-0.6495 0.0000 (  2071 PWs)   bands (ev):

    -3.8343  -3.3644  -3.2466  -2.2625  -2.1602  -2.0223  -1.8664  -0.7431
    -0.4798  -0.1246   3.3900   5.4015   7.9487

          k = 0.2500-0.5774 0.0000 (  2074 PWs)   bands (ev):

    -3.7520  -3.3995  -3.2559  -2.2211  -2.1735  -1.9582  -1.8718  -0.7436
    -0.3615  -0.2437   4.5894   5.3850   8.0653

          k = 0.3125-0.6134 0.0000 (  2068 PWs)   bands (ev):

    -3.6666  -3.2294  -3.1732  -2.3020  -2.1534  -2.0467  -2.0427  -0.7978
    -0.3891  -0.2577   5.0316   6.5387   7.0120

     the Fermi energy is    -0.3994 ev

!    total energy              =    -323.96886282 Ry
     total all-electron energy =     -5573.656215 Ry
     estimated scf accuracy    <       0.00000060 Ry
     smearing contrib. (-TS)   =      -0.01383310 Ry
     internal energy E=F+TS    =    -323.95502971 Ry

     The total energy is F=E-TS. E is the sum of the following terms:
     one-electron contribution =    -719.06868884 Ry
     hartree contribution      =     376.39042728 Ry
     xc contribution           =     -65.06955654 Ry
     ewald contribution        =     256.88906234 Ry
     one-center paw contrib.   =    -173.09627395 Ry

     convergence has been achieved in   9 iterations

     negative rho (up, down):  1.012E-03 0.000E+00

     Forces acting on atoms (cartesian axes, Ry/au):

     atom    1 type  1   force =     0.00000000    0.00000000    0.02400226
     atom    2 type  1   force =     0.00000000    0.00000000   -0.02400226
     The non-local contrib.  to forces
     atom    1 type  1   force =     0.00000000    0.00000000   -0.09213792
     atom    2 type  1   force =     0.00000000   -0.00000000    0.09213792
     The ionic contribution  to forces
     atom    1 type  1   force =    -0.00000000    0.00000000  -41.52793710
     atom    2 type  1   force =     0.00000000    0.00000000   41.52793710
     The local contribution  to forces
     atom    1 type  1   force =    -0.00000000   -0.00000000   41.62656196
     atom    2 type  1   force =     0.00000000    0.00000000  -41.62656196
     The core correction contribution to forces
     atom    1 type  1   force =    -0.00000000   -0.00000000    0.01484056
     atom    2 type  1   force =     0.00000000    0.00000000   -0.01484056
     The Hubbard contrib.    to forces
     atom    1 type  1   force =     0.00000000    0.00000000    0.00000000
     atom    2 type  1   force =     0.00000000    0.00000000    0.00000000
     The SCF correction term to forces
     atom    1 type  1   force =     0.00000000   -0.00000000    0.00267477
     atom    2 type  1   force =     0.00000000    0.00000000   -0.00267477

     Total force =     0.033944     Total SCF correction =     0.003783
     SCF correction compared to forces is large: reduce conv_thr to get better values


     Computing stress (Cartesian axis) and pressure


     negative rho (up, down):  1.012E-03 0.000E+00
          total   stress  (Ry/bohr**3)                   (kbar)     P=      -38.64
  -0.00031126   0.00000000   0.00000000          -45.79        0.00        0.00
   0.00000000  -0.00031126   0.00000000            0.00      -45.79        0.00
  -0.00000000  -0.00000000  -0.00016555           -0.00       -0.00      -24.35


     Writing all to output data dir ./tmp/scf.save/
 
     init_run     :      0.17s CPU      0.22s WALL (       1 calls)
     electrons    :      2.18s CPU      2.37s WALL (       1 calls)
     forces       :      0.02s CPU      0.02s WALL (       1 calls)
     stress       :      0.07s CPU      0.07s WALL (       1 calls)

     Called by init_run:
     wfcinit      :      0.06s CPU      0.06s WALL (       1 calls)
     potinit      :      0.06s CPU      0.07s WALL (       1 calls)
     hinit0       :      0.05s CPU      0.07s WALL (       1 calls)

     Called by electrons:
     c_bands      :      1.40s CPU      1.52s WALL (       9 calls)
     sum_band     :      0.22s CPU      0.22s WALL (       9 calls)
     v_of_rho     :      0.01s CPU      0.01s WALL (      10 calls)
     newd         :      0.03s CPU      0.05s WALL (      10 calls)
     PAW_pot      :      0.56s CPU      0.63s WALL (      10 calls)
     mix_rho      :      0.00s CPU      0.00s WALL (       9 calls)

     Called by c_bands:
     init_us_2    :      0.02s CPU      0.02s WALL (     630 calls)
     init_us_2:cp :      0.02s CPU      0.02s WALL (     630 calls)
     cegterg      :      1.26s CPU      1.36s WALL (     270 calls)

     Called by *egterg:
     cdiaghg      :      0.21s CPU      0.23s WALL (    1265 calls)
     h_psi        :      0.98s CPU      1.06s WALL (    1295 calls)
     s_psi        :      0.02s CPU      0.02s WALL (    1295 calls)
     g_psi        :      0.00s CPU      0.00s WALL (     995 calls)

     Called by h_psi:
     h_psi:calbec :      0.03s CPU      0.04s WALL (    1295 calls)
     vloc_psi     :      0.92s CPU      0.99s WALL (    1295 calls)
     add_vuspsi   :      0.02s CPU      0.02s WALL (    1295 calls)

     General routines
     calbec       :      0.05s CPU      0.05s WALL (    1715 calls)
     fft          :      0.03s CPU      0.04s WALL (     135 calls)
     ffts         :      0.00s CPU      0.00s WALL (       9 calls)
     fftw         :      0.99s CPU      1.06s WALL (   23586 calls)
 
     Parallel routines
 
     PWSCF        :      2.62s CPU      3.00s WALL

 
   This run was terminated on:  16:16:15   5Jun2025            

=------------------------------------------------------------------------------=
   JOB DONE.
=------------------------------------------------------------------------------=
