
     Program PWSCF v.7.2 starts on 30May2025 at 13:49:32 

     This program is part of the open-source Quantum ESPRESSO suite
     for quantum simulation of materials; please cite
         "P. Giannozzi et al., J. Phys.:Condens. Matter 21 395502 (2009);
         "P. Giannozzi et al., J. Phys.:Condens. Matter 29 465901 (2017);
         "P. Giannozzi et al., J. Chem. Phys. 152 154105 (2020);
          URL http://www.quantum-espresso.org", 
     in publications or presentations arising from this work. More details at
     http://www.quantum-espresso.org/quote

     Parallel version (MPI), running on    16 processors

     MPI processes distributed on     1 nodes
     23626 MiB available memory on the printing compute node when the environment starts
 
     Waiting for input...
     Reading input from standard input

     Current dimensions of program PWSCF are:
     Max number of different atomic species (ntypx) = 10
     Max number of k-points (npk) =  40000
     Max angular momentum in pseudopotentials (lmaxx) =  4
     file Co.pbe-n-kjpaw_psl.1.0.0.UPF: wavefunction(s)  4S 3D renormalized
     Message from routine setup:
     using ibrav=0 with symmetry is DISCOURAGED, use correct ibrav instead
 
     R & G space division:  proc/nbgrp/npool/nimage =      16
     Subspace diagonalization in iterative solution of the eigenvalue problem:
     a serial algorithm will be used

 
     Parallelization info
     --------------------
     sticks:   dense  smooth     PW     G-vecs:    dense   smooth      PW
     Min          23      23      7                  627      627     107
     Max          24      24      8                  636      636     112
     Sum         379     379    121                10137    10137    1761
 
     Using Slab Decomposition
 


     bravais-lattice index     =            0
     lattice parameter (alat)  =       4.6676  a.u.
     unit-cell volume          =     143.3333 (a.u.)^3
     number of atoms/cell      =            2
     number of atomic types    =            1
     number of electrons       =        18.00
     number of Kohn-Sham states=           13
     kinetic-energy cutoff     =      65.0000  Ry
     charge density cutoff     =     260.0000  Ry
     scf convergence threshold =      1.0E-06
     mixing beta               =       0.7000
     number of iterations used =            8  plain     mixing
     Exchange-correlation= SLA  PW   PBX  PBC
                           (   1   4   3   4   0   0   0)

     celldm(1)=   4.667624  celldm(2)=   0.000000  celldm(3)=   0.000000
     celldm(4)=   0.000000  celldm(5)=   0.000000  celldm(6)=   0.000000

     crystal axes: (cart. coord. in units of alat)
               a(1) = (   1.000000   0.000000   0.000000 )  
               a(2) = (  -0.500000   0.866025   0.000000 )  
               a(3) = (   0.000000   0.000000   1.627530 )  

     reciprocal axes: (cart. coord. in units 2 pi/alat)
               b(1) = (  1.000000  0.577350  0.000000 )  
               b(2) = (  0.000000  1.154701  0.000000 )  
               b(3) = (  0.000000  0.000000  0.614428 )  


     PseudoPot. # 1 for Co read from file:
     /shared/ESPRESSO/PSLIBRARY/1.0.0/pbe/PSEUDOPOTENTIALS/Co.pbe-n-kjpaw_psl.1.0.0.UPF
     MD5 check sum: 17e7ab8db721b244d1352252ea6cb8e7
     Pseudo is Projector augmented-wave + core cor, Zval =  9.0
     Generated using "atomic" code by A. Dal Corso  (Quantum ESPRESSO distribution)
     Shape of augmentation charge: PSQ
     Using radial grid of 1193 points,  6 beta functions with: 
                l(1) =   0
                l(2) =   0
                l(3) =   1
                l(4) =   1
                l(5) =   2
                l(6) =   2
     Q(r) pseudized with 0 coefficients 


     atomic species   valence    mass     pseudopotential
        Co             9.00    58.93320     Co( 1.00)

     24 Sym. Ops., with inversion, found (12 have fractional translation)



   Cartesian axes

     site n.     atom                  positions (alat units)
         1           Co  tau(   1) = (   0.0000000   0.0000000   0.0000000  )
         2           Co  tau(   2) = (  -0.0000000   0.5773503   0.8137652  )

     number of k points=    84  Fermi-Dirac smearing, width (Ry)=  0.0070
                       cart. coord. in units 2pi/alat
        k(    1) = (   0.0000000   0.0000000   0.0000000), wk =   0.0020000
        k(    2) = (   0.0000000   0.0000000   0.0614428), wk =   0.0040000
        k(    3) = (   0.0000000   0.0000000   0.1228856), wk =   0.0040000
        k(    4) = (   0.0000000   0.0000000   0.1843284), wk =   0.0040000
        k(    5) = (   0.0000000   0.0000000   0.2457711), wk =   0.0040000
        k(    6) = (   0.0000000   0.0000000  -0.3072139), wk =   0.0020000
        k(    7) = (   0.0000000   0.1154701   0.0000000), wk =   0.0120000
        k(    8) = (   0.0000000   0.1154701   0.0614428), wk =   0.0240000
        k(    9) = (   0.0000000   0.1154701   0.1228856), wk =   0.0240000
        k(   10) = (   0.0000000   0.1154701   0.1843284), wk =   0.0240000
        k(   11) = (   0.0000000   0.1154701   0.2457711), wk =   0.0240000
        k(   12) = (   0.0000000   0.1154701  -0.3072139), wk =   0.0120000
        k(   13) = (   0.0000000   0.2309401   0.0000000), wk =   0.0120000
        k(   14) = (   0.0000000   0.2309401   0.0614428), wk =   0.0240000
        k(   15) = (   0.0000000   0.2309401   0.1228856), wk =   0.0240000
        k(   16) = (   0.0000000   0.2309401   0.1843284), wk =   0.0240000
        k(   17) = (   0.0000000   0.2309401   0.2457711), wk =   0.0240000
        k(   18) = (   0.0000000   0.2309401  -0.3072139), wk =   0.0120000
        k(   19) = (   0.0000000   0.3464102   0.0000000), wk =   0.0120000
        k(   20) = (   0.0000000   0.3464102   0.0614428), wk =   0.0240000
        k(   21) = (   0.0000000   0.3464102   0.1228856), wk =   0.0240000
        k(   22) = (   0.0000000   0.3464102   0.1843284), wk =   0.0240000
        k(   23) = (   0.0000000   0.3464102   0.2457711), wk =   0.0240000
        k(   24) = (   0.0000000   0.3464102  -0.3072139), wk =   0.0120000
        k(   25) = (   0.0000000   0.4618802   0.0000000), wk =   0.0120000
        k(   26) = (   0.0000000   0.4618802   0.0614428), wk =   0.0240000
        k(   27) = (   0.0000000   0.4618802   0.1228856), wk =   0.0240000
        k(   28) = (   0.0000000   0.4618802   0.1843284), wk =   0.0240000
        k(   29) = (   0.0000000   0.4618802   0.2457711), wk =   0.0240000
        k(   30) = (   0.0000000   0.4618802  -0.3072139), wk =   0.0120000
        k(   31) = (   0.0000000  -0.5773503   0.0000000), wk =   0.0060000
        k(   32) = (   0.0000000  -0.5773503   0.0614428), wk =   0.0120000
        k(   33) = (   0.0000000  -0.5773503   0.1228856), wk =   0.0120000
        k(   34) = (   0.0000000  -0.5773503   0.1843284), wk =   0.0120000
        k(   35) = (   0.0000000  -0.5773503   0.2457711), wk =   0.0120000
        k(   36) = (   0.0000000  -0.5773503  -0.3072139), wk =   0.0060000
        k(   37) = (   0.1000000   0.1732051   0.0000000), wk =   0.0120000
        k(   38) = (   0.1000000   0.1732051   0.0614428), wk =   0.0240000
        k(   39) = (   0.1000000   0.1732051   0.1228856), wk =   0.0240000
        k(   40) = (   0.1000000   0.1732051   0.1843284), wk =   0.0240000
        k(   41) = (   0.1000000   0.1732051   0.2457711), wk =   0.0240000
        k(   42) = (   0.1000000   0.1732051  -0.3072139), wk =   0.0120000
        k(   43) = (   0.1000000   0.2886751   0.0000000), wk =   0.0240000
        k(   44) = (   0.1000000   0.2886751   0.0614428), wk =   0.0480000
        k(   45) = (   0.1000000   0.2886751   0.1228856), wk =   0.0480000
        k(   46) = (   0.1000000   0.2886751   0.1843284), wk =   0.0480000
        k(   47) = (   0.1000000   0.2886751   0.2457711), wk =   0.0480000
        k(   48) = (   0.1000000   0.2886751  -0.3072139), wk =   0.0240000
        k(   49) = (   0.1000000   0.4041452   0.0000000), wk =   0.0240000
        k(   50) = (   0.1000000   0.4041452   0.0614428), wk =   0.0480000
        k(   51) = (   0.1000000   0.4041452   0.1228856), wk =   0.0480000
        k(   52) = (   0.1000000   0.4041452   0.1843284), wk =   0.0480000
        k(   53) = (   0.1000000   0.4041452   0.2457711), wk =   0.0480000
        k(   54) = (   0.1000000   0.4041452  -0.3072139), wk =   0.0240000
        k(   55) = (   0.1000000   0.5196152   0.0000000), wk =   0.0240000
        k(   56) = (   0.1000000   0.5196152   0.0614428), wk =   0.0480000
        k(   57) = (   0.1000000   0.5196152   0.1228856), wk =   0.0480000
        k(   58) = (   0.1000000   0.5196152   0.1843284), wk =   0.0480000
        k(   59) = (   0.1000000   0.5196152   0.2457711), wk =   0.0480000
        k(   60) = (   0.1000000   0.5196152  -0.3072139), wk =   0.0240000
        k(   61) = (   0.2000000   0.3464102   0.0000000), wk =   0.0120000
        k(   62) = (   0.2000000   0.3464102   0.0614428), wk =   0.0240000
        k(   63) = (   0.2000000   0.3464102   0.1228856), wk =   0.0240000
        k(   64) = (   0.2000000   0.3464102   0.1843284), wk =   0.0240000
        k(   65) = (   0.2000000   0.3464102   0.2457711), wk =   0.0240000
        k(   66) = (   0.2000000   0.3464102  -0.3072139), wk =   0.0120000
        k(   67) = (   0.2000000   0.4618802   0.0000000), wk =   0.0240000
        k(   68) = (   0.2000000   0.4618802   0.0614428), wk =   0.0480000
        k(   69) = (   0.2000000   0.4618802   0.1228856), wk =   0.0480000
        k(   70) = (   0.2000000   0.4618802   0.1843284), wk =   0.0480000
        k(   71) = (   0.2000000   0.4618802   0.2457711), wk =   0.0480000
        k(   72) = (   0.2000000   0.4618802  -0.3072139), wk =   0.0240000
        k(   73) = (   0.2000000   0.5773503   0.0000000), wk =   0.0120000
        k(   74) = (   0.2000000   0.5773503   0.0614428), wk =   0.0240000
        k(   75) = (   0.2000000   0.5773503   0.1228856), wk =   0.0240000
        k(   76) = (   0.2000000   0.5773503   0.1843284), wk =   0.0240000
        k(   77) = (   0.2000000   0.5773503   0.2457711), wk =   0.0240000
        k(   78) = (   0.2000000   0.5773503  -0.3072139), wk =   0.0120000
        k(   79) = (   0.3000000   0.5196152   0.0000000), wk =   0.0120000
        k(   80) = (   0.3000000   0.5196152   0.0614428), wk =   0.0240000
        k(   81) = (   0.3000000   0.5196152   0.1228856), wk =   0.0240000
        k(   82) = (   0.3000000   0.5196152   0.1843284), wk =   0.0240000
        k(   83) = (   0.3000000   0.5196152   0.2457711), wk =   0.0240000
        k(   84) = (   0.3000000   0.5196152  -0.3072139), wk =   0.0120000

     Dense  grid:    10137 G-vectors     FFT dimensions: (  24,  24,  40)

     Estimated max dynamical RAM per process >       4.98 MB

     Estimated total dynamical RAM >      79.67 MB

     Initial potential from superposition of free atoms

     starting charge      17.9994, renormalised to      18.0000
     Starting wfcs are   18 randomized atomic wfcs
     Checking if some PAW data can be deallocated... 

     total cpu time spent up to now is        0.4 secs

     Self-consistent Calculation

     iteration #  1     ecut=    65.00 Ry     beta= 0.70
     Davidson diagonalization with overlap
     ethr =  1.00E-02,  avg # of iterations =  2.3

     Threshold (ethr) on eigenvalues was too large:
     Diagonalizing with lowered threshold

     Davidson diagonalization with overlap
     ethr =  3.32E-05,  avg # of iterations =  7.3

     total cpu time spent up to now is        1.1 secs

     total energy              =    -324.08028930 Ry
     estimated scf accuracy    <       0.02412614 Ry

     iteration #  2     ecut=    65.00 Ry     beta= 0.70
     Davidson diagonalization with overlap
     ethr =  1.34E-04,  avg # of iterations =  2.3

     total cpu time spent up to now is        1.4 secs

     total energy              =    -324.08078578 Ry
     estimated scf accuracy    <       0.06403804 Ry

     iteration #  3     ecut=    65.00 Ry     beta= 0.70
     Davidson diagonalization with overlap
     ethr =  1.34E-04,  avg # of iterations =  2.0

     total cpu time spent up to now is        1.7 secs

     total energy              =    -324.09221417 Ry
     estimated scf accuracy    <       0.00008815 Ry

     iteration #  4     ecut=    65.00 Ry     beta= 0.70
     Davidson diagonalization with overlap
     ethr =  4.90E-07,  avg # of iterations =  5.0

     total cpu time spent up to now is        2.1 secs

     total energy              =    -324.09226779 Ry
     estimated scf accuracy    <       0.00010707 Ry

     iteration #  5     ecut=    65.00 Ry     beta= 0.70
     Davidson diagonalization with overlap
     ethr =  4.90E-07,  avg # of iterations =  2.0

     total cpu time spent up to now is        2.4 secs

     End of self-consistent calculation

          k = 0.0000 0.0000 0.0000 (  1261 PWs)   bands (ev):

     5.1589   9.4678  12.3837  12.4516  12.4516  12.7949  12.7949  13.2196
    13.2196  14.0147  14.3959  14.3959  21.1752

          k = 0.0000 0.0000 0.0614 (  1261 PWs)   bands (ev):

     5.2604   9.4241  12.3535  12.4236  12.4236  12.7652  12.7652  13.2863
    13.2863  13.6780  14.3905  14.3905  21.7344

          k = 0.0000 0.0000 0.1229 (  1255 PWs)   bands (ev):

     5.5610   9.2547  12.2688  12.3708  12.3708  12.6859  12.6859  12.9655
    13.4511  13.4511  14.3672  14.3672  23.1490

          k = 0.0000 0.0000 0.1843 (  1232 PWs)   bands (ev):

     6.0477   8.8655  12.1477  12.3364  12.3366  12.3366  12.5803  12.5803
    13.6589  13.6589  14.3109  14.3109  25.0410

          k = 0.0000 0.0000 0.2458 (  1220 PWs)   bands (ev):

     6.6944   8.2246  12.0118  12.0229  12.3416  12.3416  12.4743  12.4743
    13.8707  13.8707  14.2095  14.2095  27.2004

          k = 0.0000 0.0000-0.3072 (  1244 PWs)   bands (ev):

     7.4512   7.4512  11.9481  11.9481  12.3897  12.3897  12.3897  12.3897
    14.0601  14.0601  14.0601  14.0601  29.5184

          k = 0.0000 0.1155 0.0000 (  1265 PWs)   bands (ev):

     5.5143   9.6965  12.1137  12.6294  12.6374  12.7160  12.7341  12.9525
    13.1081  13.2094  14.4416  15.9311  21.2191

          k = 0.0000 0.1155 0.0614 (  1259 PWs)   bands (ev):

     5.6137   9.6613  12.1163  12.4798  12.5596  12.5878  12.8537  12.9155
    13.1981  13.2610  14.4319  15.6490  21.8292

          k = 0.0000 0.1155 0.1229 (  1255 PWs)   bands (ev):

     5.9080   9.5126  12.1294  12.1495  12.3779  12.5190  12.8151  12.8327
    13.3892  13.4303  14.3970  15.1393  23.3146

          k = 0.0000 0.1155 0.1843 (  1247 PWs)   bands (ev):

     6.3844   9.1432  11.8439  12.1386  12.1956  12.4784  12.6732  12.7262
    13.6137  13.6649  14.3249  14.7308  25.2485

          k = 0.0000 0.1155 0.2458 (  1241 PWs)   bands (ev):

     7.0170   8.5159  11.7252  11.9531  12.2484  12.4830  12.5084  12.6192
    13.8387  13.9177  14.2067  14.4309  27.4300

          k = 0.0000 0.1155-0.3072 (  1242 PWs)   bands (ev):

     7.7577   7.7577  11.7888  11.7888  12.3607  12.3607  12.5329  12.5329
    14.0418  14.0418  14.1717  14.1717  29.7607

          k = 0.0000 0.2309 0.0000 (  1262 PWs)   bands (ev):

     6.5283  10.2127  11.6541  11.7420  12.4528  12.8528  12.9736  13.1009
    13.1185  13.3814  14.5265  17.9314  21.3897

          k = 0.0000 0.2309 0.0614 (  1260 PWs)   bands (ev):

     6.6193  10.2039  11.5554  11.7611  12.4154  12.8176  12.8506  13.1819
    13.2604  13.3677  14.5081  17.3827  22.1809

          k = 0.0000 0.2309 0.1229 (  1258 PWs)   bands (ev):

     6.8881  10.1209  11.3500  11.8124  12.2795  12.7311  12.7753  13.2120
    13.4276  13.4916  14.4507  16.4313  23.8568

          k = 0.0000 0.2309 0.1843 (  1263 PWs)   bands (ev):

     7.3212   9.8084  11.2452  11.8802  12.0887  12.6053  12.7707  13.1187
    13.6134  13.7607  14.3506  15.5930  25.8761

          k = 0.0000 0.2309 0.2458 (  1261 PWs)   bands (ev):

     7.8923   9.2373  11.3331  11.7659  12.0920  12.4383  12.8112  13.0008
    13.8239  14.0796  14.2076  14.9508  28.0754

          k = 0.0000 0.2309-0.3072 (  1264 PWs)   bands (ev):

     8.5564   8.5564  11.5325  11.5325  12.2532  12.2532  12.8920  12.8920
    14.0279  14.0279  14.4647  14.4647  30.3060

          k = 0.0000 0.3464 0.0000 (  1272 PWs)   bands (ev):

     7.9911  10.4232  10.8921  11.6050  12.4272  12.5799  12.7139  13.7760
    13.7780  13.9527  14.5917  20.1803  21.6507

          k = 0.0000 0.3464 0.0614 (  1268 PWs)   bands (ev):

     8.0569  10.4340  10.8616  11.6116  12.3517  12.6097  12.7853  13.7854
    13.7893  13.9219  14.5676  19.1371  22.8428

          k = 0.0000 0.3464 0.1229 (  1262 PWs)   bands (ev):

     8.2489  10.3935  10.8295  11.6337  12.2457  12.6971  12.8673  13.7791
    13.8372  13.8809  14.5005  17.7715  24.5882

          k = 0.0000 0.3464 0.1843 (  1267 PWs)   bands (ev):

     8.5501  10.1608  10.9290  11.6322  12.2158  12.8362  12.8495  13.6357
    13.9455  14.0041  14.4023  16.5749  25.8505

          k = 0.0000 0.3464 0.2458 (  1263 PWs)   bands (ev):

     8.9331   9.7884  11.1231  11.5301  12.3220  12.7173  13.0171  13.4390
    14.0470  14.2864  14.3373  15.6014  26.5554

          k = 0.0000 0.3464-0.3072 (  1254 PWs)   bands (ev):

     9.3607   9.3607  11.3413  11.3413  12.5179  12.5179  13.2246  13.2246
    14.1644  14.1644  14.8611  14.8611  27.2592

          k = 0.0000 0.4619 0.0000 (  1274 PWs)   bands (ev):

     9.3280  10.1992  10.4428  11.7959  12.3805  12.5093  12.6927  14.3403
    14.4793  14.6255  14.8998  20.2556  22.5782

          k = 0.0000 0.4619 0.0614 (  1271 PWs)   bands (ev):

     9.3198  10.1857  10.5411  11.6043  12.4233  12.6680  12.7934  14.3442
    14.4204  14.6175  14.8439  19.7572  22.4689

          k = 0.0000 0.4619 0.1229 (  1258 PWs)   bands (ev):

     9.3191  10.1571  10.7261  11.3797  12.5494  12.6655  13.2917  14.2337
    14.3733  14.5964  14.6810  18.6749  22.5304

          k = 0.0000 0.4619 0.1843 (  1262 PWs)   bands (ev):

     9.3640  10.0523  10.8671  11.3315  12.7515  12.7532  13.8279  13.9706
    14.4021  14.4611  14.5652  17.4956  22.8015

          k = 0.0000 0.4619 0.2458 (  1274 PWs)   bands (ev):

     9.4733   9.8565  11.0094  11.3013  13.0168  13.0346  13.6553  13.8717
    14.4405  14.5263  14.7148  16.4065  23.2317

          k = 0.0000 0.4619-0.3072 (  1262 PWs)   bands (ev):

     9.6451   9.6451  11.1750  11.1750  13.3266  13.3266  13.4603  13.4603
    14.4834  14.4834  15.4704  15.4704  23.8018

          k = 0.0000-0.5774 0.0000 (  1268 PWs)   bands (ev):

     9.8631   9.9908  10.2951  12.0605  12.3080  12.4321  12.8142  14.5536
    14.6353  14.7110  16.1907  18.1510  24.2517

          k = 0.0000-0.5774 0.0614 (  1260 PWs)   bands (ev):

     9.7332  10.0077  10.5022  11.6465  12.3542  12.8053  12.9355  14.5138
    14.6077  14.7080  16.0866  18.0751  23.9016

          k = 0.0000-0.5774 0.1229 (  1268 PWs)   bands (ev):

     9.5819  10.0348  10.8516  11.2173  12.4904  12.8141  13.6476  14.3304
    14.6015  14.6993  15.7813  17.8367  23.2242

          k = 0.0000-0.5774 0.1843 (  1270 PWs)   bands (ev):

     9.5173   9.9952  10.9857  11.1252  12.7089  12.9537  14.0393  14.3851
    14.6127  14.6855  15.3252  17.4164  22.6284

          k = 0.0000-0.5774 0.2458 (  1272 PWs)   bands (ev):

     9.5498   9.8447  10.9882  11.1959  12.9965  13.3397  13.6929  14.5337
    14.6296  14.6682  15.3574  16.8199  22.2852

          k = 0.0000-0.5774-0.3072 (  1276 PWs)   bands (ev):

     9.6697   9.6697  11.1061  11.1061  13.3336  13.3336  13.9228  13.9228
    14.6488  14.6488  16.0986  16.0986  22.1401

          k = 0.1000 0.1732 0.0000 (  1262 PWs)   bands (ev):

     6.2012  10.0859  11.8028  11.9346  12.5494  12.7942  12.8648  12.9904
    13.1632  13.3028  14.4858  17.3750  21.3329

          k = 0.1000 0.1732 0.0614 (  1268 PWs)   bands (ev):

     6.2955  10.0688  11.8074  11.8171  12.5918  12.6032  12.8952  13.0234
    13.2696  13.3128  14.4719  16.9131  22.0583

          k = 0.1000 0.1732 0.1229 (  1256 PWs)   bands (ev):

     6.5744   9.9647  11.5509  11.8619  12.3670  12.6342  12.7710  13.0698
    13.4420  13.4439  14.4265  16.0820  23.6754

          k = 0.1000 0.1732 0.1843 (  1256 PWs)   bands (ev):

     7.0249   9.6323  11.3863  11.9335  12.1252  12.5670  12.7203  12.9924
    13.6369  13.7001  14.3421  15.3528  25.6747

          k = 0.1000 0.1732 0.2458 (  1260 PWs)   bands (ev):

     7.6215   9.0348  11.4248  11.8326  12.0901  12.4109  12.7420  12.8909
    13.8413  14.0021  14.2206  14.8001  27.8831

          k = 0.1000 0.1732-0.3072 (  1270 PWs)   bands (ev):

     8.3185   8.3185  11.6004  11.6004  12.2393  12.2393  12.8015  12.8015
    14.0329  14.0329  14.3769  14.3769  30.2170

          k = 0.1000 0.2887 0.0000 (  1263 PWs)   bands (ev):

     7.4619  10.5381  11.1683  11.4521  12.4173  12.4858  12.9633  13.2379
    13.6127  13.9317  14.5302  19.3828  21.6410

          k = 0.1000 0.2887 0.0614 (  1266 PWs)   bands (ev):

     7.5412  10.5552  11.0950  11.4775  12.3409  12.5437  12.9071  13.2792
    13.6659  13.9014  14.5199  18.5692  22.6514

          k = 0.1000 0.2887 0.1229 (  1264 PWs)   bands (ev):

     7.7743  10.5281  10.9640  11.5440  12.2135  12.5840  12.8197  13.3722
    13.7899  13.8417  14.4854  17.3473  24.4595

          k = 0.1000 0.2887 0.1843 (  1261 PWs)   bands (ev):

     8.1456  10.2298  11.0201  11.6320  12.0607  12.4923  12.8483  13.4066
    13.8829  13.9490  14.4231  16.2672  26.4862

          k = 0.1000 0.2887 0.2458 (  1269 PWs)   bands (ev):

     8.6273   9.7365  11.2139  11.6337  11.9920  12.3127  12.9708  13.2933
    14.0479  14.1975  14.3613  15.3981  28.4290

          k = 0.1000 0.2887-0.3072 (  1270 PWs)   bands (ev):

     9.1770   9.1770  11.4457  11.4457  12.1215  12.1215  13.1293  13.1293
    14.1849  14.1849  14.7366  14.7366  29.3791

          k = 0.1000 0.4041 0.0000 (  1269 PWs)   bands (ev):

     8.9438  10.4654  10.6384  11.4701  12.2869  12.5756  12.6791  13.8324
    14.2307  14.5599  14.7736  21.6280  21.6879

          k = 0.1000 0.4041 0.0614 (  1271 PWs)   bands (ev):

     8.9798  10.4753  10.6475  11.4588  12.2881  12.6131  12.6991  13.8256
    14.2600  14.4492  14.8164  20.1250  23.0156

          k = 0.1000 0.4041 0.1229 (  1265 PWs)   bands (ev):

     9.0851  10.4258  10.7194  11.4729  12.2629  12.6785  12.8003  13.8155
    14.2368  14.3420  14.8530  18.6756  23.7726

          k = 0.1000 0.4041 0.1843 (  1268 PWs)   bands (ev):

     9.2528  10.2488  10.8843  11.5236  12.2431  12.7134  12.9541  13.7546
    14.1176  14.4589  14.8645  17.3839  24.3027

          k = 0.1000 0.4041 0.2458 (  1267 PWs)   bands (ev):

     9.4720   9.9980  11.0996  11.4869  12.3359  12.6782  13.0934  13.5210
    14.2945  14.5504  14.9708  16.2919  24.8928

          k = 0.1000 0.4041-0.3072 (  1274 PWs)   bands (ev):

     9.7277   9.7277  11.3206  11.3206  12.5267  12.5267  13.2764  13.2764
    14.4898  14.4898  15.4517  15.4517  25.5822

          k = 0.1000 0.5196 0.0000 (  1277 PWs)   bands (ev):

     9.8843  10.2163  10.3747  11.7659  12.2348  12.4415  12.8123  14.4152
    14.5580  14.5720  16.0438  19.1626  24.0187

          k = 0.1000 0.5196 0.0614 (  1273 PWs)   bands (ev):

     9.8029  10.2100  10.5549  11.5355  12.2628  12.6846  12.8340  14.3934
    14.5042  14.5776  16.0176  19.0425  23.3321

          k = 0.1000 0.5196 0.1229 (  1276 PWs)   bands (ev):

     9.6953  10.2304  10.8435  11.2611  12.2622  12.9153  13.1081  14.2333
    14.4269  14.6275  15.9555  18.6595  22.6277

          k = 0.1000 0.5196 0.1843 (  1277 PWs)   bands (ev):

     9.6579  10.1808  10.9479  11.2981  12.2925  13.1020  13.4070  13.9613
    14.4029  14.6846  15.9385  18.0339  22.3216

          k = 0.1000 0.5196 0.2458 (  1273 PWs)   bands (ev):

     9.7069  10.0166  11.0452  11.3411  12.5089  13.2373  13.4285  13.8066
    14.4339  14.6611  16.1386  17.3043  22.3782

          k = 0.1000 0.5196-0.3072 (  1270 PWs)   bands (ev):

     9.8353   9.8353  11.2129  11.2129  12.8886  12.8886  13.6524  13.6524
    14.5424  14.5424  16.6283  16.6283  22.7068

          k = 0.2000 0.3464 0.0000 (  1268 PWs)   bands (ev):

     8.8093  10.7661  10.8500  11.0581  12.1753  12.5403  12.7874  13.4619
    14.2294  14.4961  14.8145  21.3958  22.2090

          k = 0.2000 0.3464 0.0614 (  1275 PWs)   bands (ev):

     8.8619  10.7087  10.9139  11.0809  12.1864  12.5334  12.7403  13.4833
    14.2710  14.3824  14.8748  20.1191  23.6161

          k = 0.2000 0.3464 0.1229 (  1269 PWs)   bands (ev):

     9.0140  10.5913  11.0381  11.1508  12.1903  12.4702  12.6811  13.5643
    14.1654  14.3705  14.9577  18.6711  25.3897

          k = 0.2000 0.3464 0.1843 (  1269 PWs)   bands (ev):

     9.2488  10.4076  11.2013  11.2666  12.1346  12.2929  12.7442  13.6219
    14.0611  14.4816  15.0243  17.3949  26.7232

          k = 0.2000 0.3464 0.2458 (  1267 PWs)   bands (ev):

     9.5398  10.1545  11.3775  11.4078  12.0221  12.0880  12.9080  13.4154
    14.3193  14.5621  15.1390  16.3290  26.9845

          k = 0.2000 0.3464-0.3072 (  1272 PWs)   bands (ev):

     9.8538   9.8538  11.4826  11.4826  11.9628  11.9628  13.1441  13.1441
    14.5476  14.5476  15.5351  15.5351  27.6146

          k = 0.2000 0.4619 0.0000 (  1267 PWs)   bands (ev):

    10.0269  10.5250  10.6492  11.1813  12.0624  12.4930  12.8132  13.8865
    14.4667  14.5523  16.0661  21.2646  23.7487

          k = 0.2000 0.4619 0.0614 (  1272 PWs)   bands (ev):

    10.0147  10.5484  10.6847  11.1923  12.0984  12.4557  12.8258  13.8931
    14.3773  14.5816  16.1027  20.9324  23.0397

          k = 0.2000 0.4619 0.1229 (  1278 PWs)   bands (ev):

    10.0037  10.5532  10.7866  11.2841  12.1176  12.3933  12.8714  13.9097
    14.1700  14.6489  16.2017  20.0004  22.9049

          k = 0.2000 0.4619 0.1843 (  1275 PWs)   bands (ev):

    10.0270  10.4702  10.9604  11.4874  11.9968  12.3679  12.9521  13.7493
    14.1536  14.7061  16.3672  18.9050  23.1898

          k = 0.2000 0.4619 0.2458 (  1276 PWs)   bands (ev):

    10.0958  10.3392  11.1872  11.6271  11.9111  12.2909  13.0564  13.4552
    14.3625  14.6970  16.6562  17.9206  23.6915

          k = 0.2000 0.4619-0.3072 (  1274 PWs)   bands (ev):

    10.2053  10.2053  11.4358  11.4358  12.1128  12.1128  13.2138  13.2138
    14.5786  14.5786  17.1583  17.1583  24.3403

          k = 0.2000 0.5774 0.0000 (  1282 PWs)   bands (ev):

    10.4078  10.4469  10.5143  11.4112  12.1056  12.2916  12.9540  14.2673
    14.4556  14.4904  17.5424  18.9681  23.9284

          k = 0.2000 0.5774 0.0614 (  1272 PWs)   bands (ev):

    10.2408  10.5451  10.6881  11.3108  12.0815  12.3650  12.9759  14.2702
    14.3584  14.5152  17.5934  18.9566  23.8992

          k = 0.2000 0.5774 0.1229 (  1286 PWs)   bands (ev):

    10.1351  10.6184  11.0114  11.1126  11.9987  12.4924  13.0474  14.1150
    14.2834  14.5625  17.7334  18.9172  23.5726

          k = 0.2000 0.5774 0.1843 (  1281 PWs)   bands (ev):

    10.1099  10.6174  11.0256  11.3822  11.8481  12.5506  13.1635  13.8140
    14.3190  14.5944  17.9402  18.8346  22.9757

          k = 0.2000 0.5774 0.2458 (  1279 PWs)   bands (ev):

    10.1622  10.4558  11.1687  11.6210  11.7977  12.4490  13.2919  13.5648
    14.3905  14.5709  18.1949  18.6857  22.5201

          k = 0.2000 0.5774-0.3072 (  1276 PWs)   bands (ev):

    10.2837  10.2837  11.3940  11.3940  12.1678  12.1678  13.4116  13.4116
    14.4891  14.4891  18.4616  18.4616  22.3808

          k = 0.3000 0.5196 0.0000 (  1270 PWs)   bands (ev):

    10.5145  10.6537  10.8794  11.0089  12.0295  12.2240  13.0543  14.0881
    14.3978  14.4396  17.9830  20.8624  20.8712

          k = 0.3000 0.5196 0.0614 (  1275 PWs)   bands (ev):

    10.5244  10.6718  10.9248  11.0042  12.0446  12.1795  13.0482  14.1043
    14.3020  14.4596  18.0609  20.8479  20.9578

          k = 0.3000 0.5196 0.1229 (  1279 PWs)   bands (ev):

    10.5548  10.7123  11.0092  11.0492  12.0624  12.0707  13.0362  14.0363
    14.1736  14.5041  18.2694  20.7355  21.2397

          k = 0.3000 0.5196 0.1843 (  1284 PWs)   bands (ev):

    10.6015  10.7374  11.0663  11.2187  11.9153  12.0662  13.0375  13.7235
    14.2596  14.5386  18.5710  20.4400  21.6895

          k = 0.3000 0.5196 0.2458 (  1289 PWs)   bands (ev):

    10.6530  10.7284  11.1846  11.3516  11.8173  11.9987  13.0825  13.4247
    14.3712  14.5321  18.9564  19.9599  22.2655

          k = 0.3000 0.5196-0.3072 (  1296 PWs)   bands (ev):

    10.6976  10.6976  11.3162  11.3162  11.8787  11.8787  13.2050  13.2050
    14.4723  14.4723  19.4296  19.4296  22.8758

     the Fermi energy is    14.2835 ev

!    total energy              =    -324.09228688 Ry
     total all-electron energy =     -5573.779639 Ry
     estimated scf accuracy    <       0.00000016 Ry
     smearing contrib. (-TS)   =      -0.01212051 Ry
     internal energy E=F+TS    =    -324.08016637 Ry

     The total energy is F=E-TS. E is the sum of the following terms:
     one-electron contribution =       0.93188448 Ry
     hartree contribution      =      25.94097115 Ry
     xc contribution           =     -65.20681763 Ry
     ewald contribution        =    -112.64113270 Ry
     one-center paw contrib.   =    -173.10507167 Ry

     convergence has been achieved in   5 iterations

     Forces acting on atoms (cartesian axes, Ry/au):

     atom    1 type  1   force =     0.00000000    0.00000000    0.00000000
     atom    2 type  1   force =    -0.00000000    0.00000000    0.00000000
     The non-local contrib.  to forces
     atom    1 type  1   force =    -0.00000000   -0.00000000    0.00000000
     atom    2 type  1   force =     0.00000000    0.00000000    0.00000000
     The ionic contribution  to forces
     atom    1 type  1   force =    -0.00000000    0.00000000   -0.00000000
     atom    2 type  1   force =    -0.00000000    0.00000000    0.00000000
     The local contribution  to forces
     atom    1 type  1   force =    -0.00000000    0.00000000   -0.00000000
     atom    2 type  1   force =     0.00000000   -0.00000000    0.00000000
     The core correction contribution to forces
     atom    1 type  1   force =     0.00000000    0.00000000    0.00000000
     atom    2 type  1   force =     0.00000000   -0.00000000   -0.00000000
     The Hubbard contrib.    to forces
     atom    1 type  1   force =     0.00000000    0.00000000    0.00000000
     atom    2 type  1   force =     0.00000000    0.00000000    0.00000000
     The SCF correction term to forces
     atom    1 type  1   force =    -0.00000000   -0.00000000   -0.00000000
     atom    2 type  1   force =    -0.00000000    0.00000000   -0.00000000

     Total force =     0.000000     Total SCF correction =     0.000000


     Computing stress (Cartesian axis) and pressure

          total   stress  (Ry/bohr**3)                   (kbar)     P=      -53.60
  -0.00031271   0.00000000   0.00000000          -46.00        0.00        0.00
   0.00000000  -0.00031271   0.00000000            0.00      -46.00        0.00
   0.00000000   0.00000000  -0.00046758            0.00        0.00      -68.78


     Writing all to output data dir ./tmp/scf.save/
 
     init_run     :      0.13s CPU      0.21s WALL (       1 calls)
     electrons    :      1.87s CPU      2.02s WALL (       1 calls)
     forces       :      0.01s CPU      0.02s WALL (       1 calls)
     stress       :      0.08s CPU      0.08s WALL (       1 calls)

     Called by init_run:
     wfcinit      :      0.08s CPU      0.09s WALL (       1 calls)
     potinit      :      0.04s CPU      0.05s WALL (       1 calls)
     hinit0       :      0.01s CPU      0.06s WALL (       1 calls)

     Called by electrons:
     c_bands      :      1.52s CPU      1.62s WALL (       6 calls)
     sum_band     :      0.15s CPU      0.17s WALL (       6 calls)
     v_of_rho     :      0.00s CPU      0.00s WALL (       6 calls)
     newd         :      0.01s CPU      0.01s WALL (       6 calls)
     PAW_pot      :      0.22s CPU      0.25s WALL (       6 calls)
     mix_rho      :      0.00s CPU      0.00s WALL (       6 calls)

     Called by c_bands:
     init_us_2    :      0.02s CPU      0.02s WALL (    1260 calls)
     init_us_2:cp :      0.02s CPU      0.02s WALL (    1260 calls)
     cegterg      :      1.25s CPU      1.33s WALL (     504 calls)

     Called by *egterg:
     cdiaghg      :      0.29s CPU      0.31s WALL (    2185 calls)
     h_psi        :      0.90s CPU      0.97s WALL (    2353 calls)
     s_psi        :      0.02s CPU      0.02s WALL (    2353 calls)
     g_psi        :      0.00s CPU      0.00s WALL (    1765 calls)

     Called by h_psi:
     h_psi:calbec :      0.03s CPU      0.03s WALL (    2353 calls)
     vloc_psi     :      0.85s CPU      0.91s WALL (    2353 calls)
     add_vuspsi   :      0.02s CPU      0.02s WALL (    2353 calls)

     General routines
     calbec       :      0.04s CPU      0.05s WALL (    3277 calls)
     fft          :      0.00s CPU      0.05s WALL (      92 calls)
     ffts         :      0.00s CPU      0.00s WALL (       6 calls)
     fftw         :      0.88s CPU      0.96s WALL (   51382 calls)
 
     Parallel routines
 
     PWSCF        :      2.27s CPU      2.54s WALL

 
   This run was terminated on:  13:49:35  30May2025            

=------------------------------------------------------------------------------=
   JOB DONE.
=------------------------------------------------------------------------------=
