
     Program PWSCF v.7.2 starts on 12Jun2025 at 14:12:22 

     This program is part of the open-source Quantum ESPRESSO suite
     for quantum simulation of materials; please cite
         "P. Giannozzi et al., J. Phys.:Condens. Matter 21 395502 (2009);
         "P. Giannozzi et al., J. Phys.:Condens. Matter 29 465901 (2017);
         "P. Giannozzi et al., J. Chem. Phys. 152 154105 (2020);
          URL http://www.quantum-espresso.org", 
     in publications or presentations arising from this work. More details at
     http://www.quantum-espresso.org/quote

     Parallel version (MPI), running on    16 processors

     MPI processes distributed on     1 nodes
     15962 MiB available memory on the printing compute node when the environment starts
 
     Waiting for input...
     Reading input from standard input

     Current dimensions of program PWSCF are:
     Max number of different atomic species (ntypx) = 10
     Max number of k-points (npk) =  40000
     Max angular momentum in pseudopotentials (lmaxx) =  4
     file Mo.pbe-spn-kjpaw_psl.1.0.0.UPF: wavefunction(s)  4S 4D renormalized
     file S.pbe-n-kjpaw_psl.1.0.0.UPF: wavefunction(s)  3S 3P renormalized
     file Co.pbe-n-kjpaw_psl.1.0.0.UPF: wavefunction(s)  4S 3D renormalized
     Message from routine setup:
     using ibrav=0 with symmetry is DISCOURAGED, use correct ibrav instead
 
     R & G space division:  proc/nbgrp/npool/nimage =      16
     Subspace diagonalization in iterative solution of the eigenvalue problem:
     a serial algorithm will be used

 
     Parallelization info
     --------------------
     sticks:   dense  smooth     PW     G-vecs:    dense   smooth      PW
     Min          49      49     13                 6439     6439     975
     Max          50      50     14                 6452     6452     996
     Sum         793     793    223               103119   103119   15795
 
     Using Slab Decomposition
 


     bravais-lattice index     =            0
     lattice parameter (alat)  =       5.9876  a.u.
     unit-cell volume          =    1067.2529 (a.u.)^3
     number of atoms/cell      =            4
     number of atomic types    =            3
     number of electrons       =        35.00
     number of Kohn-Sham states=           22
     kinetic-energy cutoff     =      80.0000  Ry
     charge density cutoff     =     320.0000  Ry
     scf convergence threshold =      1.0E-06
     mixing beta               =       0.7000
     number of iterations used =            8  plain     mixing
     energy convergence thresh.=      1.0E-04
     force convergence thresh. =      1.0E-03
     Exchange-correlation= SLA  PW   PBX  PBC
                           (   1   4   3   4   0   0   0)
     nstep                     =          100


     celldm(1)=   5.987597  celldm(2)=   0.000000  celldm(3)=   0.000000
     celldm(4)=   0.000000  celldm(5)=   0.000000  celldm(6)=   0.000000

     crystal axes: (cart. coord. in units of alat)
               a(1) = (   1.000000   0.000000   0.000000 )  
               a(2) = (  -0.500000   0.866025   0.000000 )  
               a(3) = (   0.000000   0.000000   5.740887 )  

     reciprocal axes: (cart. coord. in units 2 pi/alat)
               b(1) = (  1.000000  0.577350  0.000000 )  
               b(2) = (  0.000000  1.154701  0.000000 )  
               b(3) = (  0.000000  0.000000  0.174189 )  


     PseudoPot. # 1 for Mo read from file:
     /shared/ESPRESSO/PSLIBRARY/1.0.0/pbe/PSEUDOPOTENTIALS/Mo.pbe-spn-kjpaw_psl.1.0.0.UPF
     MD5 check sum: 4396e0c640fcce5c25f020efccf1ab12
     Pseudo is Projector augmented-wave + core cor, Zval = 14.0
     Generated using &quot;atomic&quot; code by A. Dal Corso  v.6.3
     Shape of augmentation charge: PSQ
     Using radial grid of 1229 points,  6 beta functions with: 
                l(1) =   0
                l(2) =   0
                l(3) =   1
                l(4) =   1
                l(5) =   2
                l(6) =   2
     Q(r) pseudized with 0 coefficients 


     PseudoPot. # 2 for S  read from file:
     /shared/ESPRESSO/PSLIBRARY/1.0.0/pbe/PSEUDOPOTENTIALS/S.pbe-n-kjpaw_psl.1.0.0.UPF
     MD5 check sum: c08f931834bcc19553f8bde8f1a3adc5
     Pseudo is Projector augmented-wave + core cor, Zval =  6.0
     Generated using "atomic" code by A. Dal Corso  (Quantum ESPRESSO distribution)
     Shape of augmentation charge: PSQ
     Using radial grid of 1151 points,  6 beta functions with: 
                l(1) =   0
                l(2) =   0
                l(3) =   1
                l(4) =   1
                l(5) =   2
                l(6) =   2
     Q(r) pseudized with 0 coefficients 


     PseudoPot. # 3 for Co read from file:
     /shared/ESPRESSO/PSLIBRARY/1.0.0/pbe/PSEUDOPOTENTIALS/Co.pbe-n-kjpaw_psl.1.0.0.UPF
     MD5 check sum: 17e7ab8db721b244d1352252ea6cb8e7
     Pseudo is Projector augmented-wave + core cor, Zval =  9.0
     Generated using "atomic" code by A. Dal Corso  (Quantum ESPRESSO distribution)
     Shape of augmentation charge: PSQ
     Using radial grid of 1193 points,  6 beta functions with: 
                l(1) =   0
                l(2) =   0
                l(3) =   1
                l(4) =   1
                l(5) =   2
                l(6) =   2
     Q(r) pseudized with 0 coefficients 


     atomic species   valence    mass     pseudopotential
        Mo            14.00    95.94000     Mo( 1.00)
        S              6.00    32.06500     S ( 1.00)
        Co             9.00    58.93320     Co( 1.00)

      6 Sym. Ops. (no inversion) found



   Cartesian axes

     site n.     atom                  positions (alat units)
         1           Mo  tau(   1) = (   0.0000000   0.0000000   2.8704434  )
         2           S   tau(   2) = (   0.5000000   0.2886751   3.3738362  )
         3           S   tau(   3) = (   0.5000000   0.2886751   2.3670507  )
         4           Co  tau(   4) = (   0.0000000   0.0000000   4.0050497  )

     number of k points=    14  Fermi-Dirac smearing, width (Ry)=  0.0070
                       cart. coord. in units 2pi/alat
        k(    1) = (   0.0000000   0.0000000   0.0000000), wk =   0.0200000
        k(    2) = (   0.0000000   0.1154701   0.0000000), wk =   0.1200000
        k(    3) = (   0.0000000   0.2309401   0.0000000), wk =   0.1200000
        k(    4) = (   0.0000000   0.3464102   0.0000000), wk =   0.1200000
        k(    5) = (   0.0000000   0.4618802   0.0000000), wk =   0.1200000
        k(    6) = (   0.0000000  -0.5773503   0.0000000), wk =   0.0600000
        k(    7) = (   0.1000000   0.1732051   0.0000000), wk =   0.1200000
        k(    8) = (   0.1000000   0.2886751   0.0000000), wk =   0.2400000
        k(    9) = (   0.1000000   0.4041452   0.0000000), wk =   0.2400000
        k(   10) = (   0.1000000   0.5196152   0.0000000), wk =   0.2400000
        k(   11) = (   0.2000000   0.3464102   0.0000000), wk =   0.1200000
        k(   12) = (   0.2000000   0.4618802   0.0000000), wk =   0.2400000
        k(   13) = (   0.2000000   0.5773503   0.0000000), wk =   0.1200000
        k(   14) = (   0.3000000   0.5196152   0.0000000), wk =   0.1200000

     Dense  grid:   103119 G-vectors     FFT dimensions: (  36,  36, 200)

     Estimated max dynamical RAM per process >      33.26 MB

     Estimated total dynamical RAM >     532.13 MB

     Initial potential from superposition of free atoms

     starting charge      34.9988, renormalised to      35.0000

     negative rho (up, down):  3.769E-04 0.000E+00
     Starting wfcs are   27 randomized atomic wfcs
     Checking if some PAW data can be deallocated... 

     total cpu time spent up to now is        1.2 secs

     Self-consistent Calculation

     iteration #  1     ecut=    80.00 Ry     beta= 0.70
     Davidson diagonalization with overlap
     ethr =  1.00E-02,  avg # of iterations =  2.1

     negative rho (up, down):  3.456E-04 0.000E+00

     total cpu time spent up to now is        1.9 secs

     total energy              =    -656.25147986 Ry
     estimated scf accuracy    <       2.70905923 Ry

     iteration #  2     ecut=    80.00 Ry     beta= 0.70
     Davidson diagonalization with overlap
     ethr =  7.74E-03,  avg # of iterations =  7.2

     negative rho (up, down):  2.535E-04 0.000E+00

     total cpu time spent up to now is        3.0 secs

     total energy              =    -654.88145191 Ry
     estimated scf accuracy    <     227.28742669 Ry

     iteration #  3     ecut=    80.00 Ry     beta= 0.70
     Davidson diagonalization with overlap
     ethr =  7.74E-03,  avg # of iterations =  7.9

     negative rho (up, down):  1.661E-04 0.000E+00

     total cpu time spent up to now is        4.2 secs

     total energy              =    -656.95502306 Ry
     estimated scf accuracy    <      33.16545420 Ry

     iteration #  4     ecut=    80.00 Ry     beta= 0.70
     Davidson diagonalization with overlap
     ethr =  7.74E-03,  avg # of iterations =  5.6

     negative rho (up, down):  1.396E-04 0.000E+00

     total cpu time spent up to now is        5.1 secs

     total energy              =    -658.29000101 Ry
     estimated scf accuracy    <       1.73761154 Ry

     iteration #  5     ecut=    80.00 Ry     beta= 0.70
     Davidson diagonalization with overlap
     ethr =  4.96E-03,  avg # of iterations =  1.9

     negative rho (up, down):  1.762E-04 0.000E+00

     total cpu time spent up to now is        5.8 secs

     total energy              =    -658.44371905 Ry
     estimated scf accuracy    <       0.53640297 Ry

     iteration #  6     ecut=    80.00 Ry     beta= 0.70
     Davidson diagonalization with overlap
     ethr =  1.53E-03,  avg # of iterations =  2.6

     negative rho (up, down):  3.086E-04 0.000E+00

     total cpu time spent up to now is        6.6 secs

     total energy              =    -658.46725091 Ry
     estimated scf accuracy    <       0.05018896 Ry

     iteration #  7     ecut=    80.00 Ry     beta= 0.70
     Davidson diagonalization with overlap
     ethr =  1.43E-04,  avg # of iterations =  8.4

     negative rho (up, down):  3.301E-04 0.000E+00

     total cpu time spent up to now is        7.5 secs

     total energy              =    -658.51205591 Ry
     estimated scf accuracy    <       0.05417067 Ry

     iteration #  8     ecut=    80.00 Ry     beta= 0.70
     Davidson diagonalization with overlap
     ethr =  1.43E-04,  avg # of iterations =  1.1

     negative rho (up, down):  3.367E-04 0.000E+00

     total cpu time spent up to now is        8.3 secs

     total energy              =    -658.50828599 Ry
     estimated scf accuracy    <       0.03518287 Ry

     iteration #  9     ecut=    80.00 Ry     beta= 0.70
     Davidson diagonalization with overlap
     ethr =  1.01E-04,  avg # of iterations =  1.7

     negative rho (up, down):  3.779E-04 0.000E+00

     total cpu time spent up to now is        9.0 secs

     total energy              =    -658.51109512 Ry
     estimated scf accuracy    <       0.00955990 Ry

     iteration # 10     ecut=    80.00 Ry     beta= 0.70
     Davidson diagonalization with overlap
     ethr =  2.73E-05,  avg # of iterations =  1.9

     negative rho (up, down):  4.669E-04 0.000E+00

     total cpu time spent up to now is        9.7 secs

     total energy              =    -658.51106305 Ry
     estimated scf accuracy    <       0.00140004 Ry

     iteration # 11     ecut=    80.00 Ry     beta= 0.70
     Davidson diagonalization with overlap
     ethr =  4.00E-06,  avg # of iterations =  3.4

     negative rho (up, down):  4.434E-04 0.000E+00

     total cpu time spent up to now is       10.5 secs

     total energy              =    -658.51128268 Ry
     estimated scf accuracy    <       0.00187297 Ry

     iteration # 12     ecut=    80.00 Ry     beta= 0.70
     Davidson diagonalization with overlap
     ethr =  4.00E-06,  avg # of iterations =  1.1

     negative rho (up, down):  4.380E-04 0.000E+00

     total cpu time spent up to now is       11.2 secs

     total energy              =    -658.51134994 Ry
     estimated scf accuracy    <       0.00001741 Ry

     iteration # 13     ecut=    80.00 Ry     beta= 0.70
     Davidson diagonalization with overlap
     ethr =  4.98E-08,  avg # of iterations =  5.9

     negative rho (up, down):  4.400E-04 0.000E+00

     total cpu time spent up to now is       12.1 secs

     total energy              =    -658.51136008 Ry
     estimated scf accuracy    <       0.00001960 Ry

     iteration # 14     ecut=    80.00 Ry     beta= 0.70
     Davidson diagonalization with overlap
     ethr =  4.98E-08,  avg # of iterations =  1.4

     negative rho (up, down):  4.405E-04 0.000E+00

     total cpu time spent up to now is       12.8 secs

     total energy              =    -658.51136068 Ry
     estimated scf accuracy    <       0.00000212 Ry

     iteration # 15     ecut=    80.00 Ry     beta= 0.70
     Davidson diagonalization with overlap
     ethr =  6.06E-09,  avg # of iterations =  2.3

     negative rho (up, down):  4.407E-04 0.000E+00

     total cpu time spent up to now is       13.6 secs

     End of self-consistent calculation

          k = 0.0000 0.0000 0.0000 ( 12991 PWs)   bands (ev):

   -59.8489 -34.0306 -33.7617 -33.7617 -13.5046 -12.1561  -5.2756  -2.2734
    -1.5863  -1.5863  -0.5535  -0.5535  -0.0109   1.1395   1.3563   1.3563
     1.8334   1.8334   1.8727   3.5534   3.5534   3.8482

          k = 0.0000 0.1155 0.0000 ( 12953 PWs)   bands (ev):

   -59.8452 -34.0233 -33.7994 -33.7703 -13.3626 -12.0783  -5.1158  -2.3317
    -1.9491  -1.4621  -0.8299  -0.7699   0.1781   0.9518   1.3846   1.4166
     1.6279   1.8130   2.2195   3.3185   3.5366   3.6011

          k = 0.0000 0.2309 0.0000 ( 12929 PWs)   bands (ev):

   -59.8353 -34.0039 -33.8971 -33.7927 -12.9697 -11.8592  -4.7376  -2.8348
    -2.5657  -1.4164  -1.1404  -0.9513   0.1880   0.5844   1.3687   1.5716
     1.6358   1.7813   2.3243   3.1608   3.3721   3.5804

          k = 0.0000 0.3464 0.0000 ( 12915 PWs)   bands (ev):

   -59.8232 -34.0157 -33.9799 -33.8203 -12.4314 -11.5455  -4.5580  -3.6241
    -3.0653  -1.8511  -1.4273  -0.5911  -0.1384   0.6236   1.4269   1.7070
     1.7280   1.8671   2.3386   3.2025   3.4823   4.1893

          k = 0.0000 0.4619 0.0000 ( 12872 PWs)   bands (ev):

   -59.8133 -34.1101 -33.9605 -33.8424 -11.9432 -11.2300  -4.9807  -4.0885
    -3.3711  -2.1802  -1.6686  -0.3312  -0.1093   0.6920   1.5928   1.7848
     1.8182   2.0469   2.9058   3.2294   3.9363   4.7181

          k = 0.0000-0.5774 0.0000 ( 12854 PWs)   bands (ev):

   -59.8095 -34.1459 -33.9530 -33.8509 -11.7443 -11.0821  -5.2564  -4.2783
    -3.4684  -2.2968  -1.7566  -0.2564   0.0387   0.7070   1.6713   1.8222
     1.8435   2.1225   3.3030   3.4938   4.1266   4.9424

          k = 0.1000 0.1732 0.0000 ( 12937 PWs)   bands (ev):

   -59.8384 -34.0099 -33.8643 -33.7886 -13.0948 -11.9295  -4.8408  -2.5115
    -2.4922  -1.4772  -1.1692  -0.8422   0.2797   0.6889   1.3240   1.5624
     1.6212   1.7626   2.3524   3.1579   3.3664   3.4227

          k = 0.1000 0.2887 0.0000 ( 12944 PWs)   bands (ev):

   -59.8274 -33.9883 -33.9658 -33.8202 -12.6261 -11.6601  -4.5167  -3.2467
    -2.8499  -2.1356  -1.1733  -0.7535   0.0736   0.6359   1.2792   1.6444
     1.7092   1.8201   2.2566   3.1794   3.3489   3.8034

          k = 0.1000 0.4041 0.0000 ( 12898 PWs)   bands (ev):

   -59.8163 -34.0654 -33.9665 -33.8520 -12.1033 -11.3350  -4.6695  -3.8074
    -3.2962  -2.4003  -1.4306  -0.8390   0.0297   0.7690   1.4443   1.6862
     1.8013   1.9886   2.4601   3.3705   3.6646   4.4605

          k = 0.1000 0.5196 0.0000 ( 12858 PWs)   bands (ev):

   -59.8095 -34.1261 -33.9531 -33.8715 -11.7506 -11.0824  -5.0713  -4.1928
    -3.4859  -2.4128  -1.7146  -0.8885   0.2548   0.7817   1.5857   1.7843
     1.8673   2.0744   3.0885   3.5337   4.1753   4.6657

          k = 0.2000 0.3464 0.0000 ( 12917 PWs)   bands (ev):

   -59.8175 -34.0357 -33.9688 -33.8684 -12.1651 -11.3717  -4.4879  -3.4674
    -3.3303  -2.6808  -1.5586  -0.8626   0.0519   0.9514   1.2225   1.5555
     1.8388   1.9734   2.3232   3.3824   3.5163   4.2866

          k = 0.2000 0.4619 0.0000 ( 12869 PWs)   bands (ev):

   -59.8095 -34.0845 -33.9531 -33.9146 -11.7610 -11.0822  -4.7098  -4.0392
    -3.4243  -2.6901  -1.9934  -1.2598   0.2703   1.0445   1.4204   1.5822
     1.9026   1.9888   2.8202   3.5644   3.9141   4.7171

          k = 0.2000 0.5774 0.0000 ( 12850 PWs)   bands (ev):

   -59.8064 -34.1016 -33.9471 -33.9337 -11.5999 -10.9503  -4.8459  -4.2436
    -3.5506  -2.5169  -2.2152  -1.4763   0.4732   1.0157   1.5115   1.6596
     1.9303   2.0018   3.0223   3.7660   4.1051   4.8452

          k = 0.3000 0.5196 0.0000 ( 12860 PWs)   bands (ev):

   -59.8053 -34.0667 -33.9832 -33.9448 -11.5435 -10.8976  -4.6686  -4.2138
    -3.3524  -3.0687  -2.3610  -1.6001   0.5624   1.2598   1.4065   1.5522
     1.9279   1.9609   2.8301   3.6844   4.1705   5.2589

     the Fermi energy is     2.0102 ev

!    total energy              =    -658.51136069 Ry
     total all-electron energy =    -12481.685252 Ry
     estimated scf accuracy    <       0.00000031 Ry
     smearing contrib. (-TS)   =      -0.01607498 Ry
     internal energy E=F+TS    =    -658.49528571 Ry

     The total energy is F=E-TS. E is the sum of the following terms:
     one-electron contribution =   -1219.91575293 Ry
     hartree contribution      =     623.68074093 Ry
     xc contribution           =     -62.17451212 Ry
     ewald contribution        =     406.04285440 Ry
     one-center paw contrib.   =    -406.12861598 Ry

     convergence has been achieved in  15 iterations

     negative rho (up, down):  4.407E-04 0.000E+00

     Forces acting on atoms (cartesian axes, Ry/au):

     atom    1 type  1   force =     0.00000000    0.00000000   -0.02032595
     atom    2 type  2   force =     0.00000000    0.00000000    0.05672919
     atom    3 type  2   force =     0.00000000    0.00000000    0.01738502
     atom    4 type  3   force =     0.00000000    0.00000000   -0.05378827
     The non-local contrib.  to forces
     atom    1 type  1   force =     0.00000000    0.00000000   -0.02047870
     atom    2 type  2   force =     0.00000000   -0.00000000   -0.02588855
     atom    3 type  2   force =     0.00000000    0.00000000    0.27806617
     atom    4 type  3   force =     0.00000000    0.00000000   -0.02207152
     The ionic contribution  to forces
     atom    1 type  1   force =     0.00000000   -0.00000000  -30.92093446
     atom    2 type  2   force =    -0.00000000    0.00000000   18.78039525
     atom    3 type  2   force =    -0.00000000    0.00000000  -44.58057647
     atom    4 type  3   force =     0.00000000   -0.00000000   56.72111567
     The local contribution  to forces
     atom    1 type  1   force =     0.00000000   -0.00000000   30.91958157
     atom    2 type  2   force =    -0.00000000    0.00000000  -18.69546860
     atom    3 type  2   force =    -0.00000000    0.00000000   44.32260940
     atom    4 type  3   force =     0.00000000    0.00000000  -56.74059651
     The core correction contribution to forces
     atom    1 type  1   force =    -0.00000000    0.00000000    0.00163918
     atom    2 type  2   force =     0.00000000   -0.00000000   -0.00307276
     atom    3 type  2   force =     0.00000000   -0.00000000   -0.00265551
     atom    4 type  3   force =     0.00000000    0.00000000   -0.01314408
     The Hubbard contrib.    to forces
     atom    1 type  1   force =     0.00000000    0.00000000    0.00000000
     atom    2 type  2   force =     0.00000000    0.00000000    0.00000000
     atom    3 type  2   force =     0.00000000    0.00000000    0.00000000
     atom    4 type  3   force =     0.00000000    0.00000000    0.00000000
     The SCF correction term to forces
     atom    1 type  1   force =     0.00000000    0.00000000   -0.00007522
     atom    2 type  2   force =    -0.00000000   -0.00000000    0.00082218
     atom    3 type  2   force =    -0.00000000    0.00000000   -0.00000026
     atom    4 type  3   force =    -0.00000000    0.00000000    0.00096648

     Total force =     0.082624     Total SCF correction =     0.001271


     Computing stress (Cartesian axis) and pressure


     negative rho (up, down):  4.407E-04 0.000E+00
          total   stress  (Ry/bohr**3)                   (kbar)     P=      -34.93
  -0.00023569   0.00000000   0.00000000          -34.67        0.00        0.00
   0.00000000  -0.00023569   0.00000000            0.00      -34.67        0.00
   0.00000000  -0.00000000  -0.00024093            0.00       -0.00      -35.44


     BFGS Geometry Optimization
     Energy error            =      0.0E+00 Ry
     Gradient error          =      5.7E-02 Ry/Bohr

     number of scf cycles    =   1
     number of bfgs steps    =   0

     energy             new  =    -658.5113606852 Ry

     new trust radius        =       0.0567291944 bohr
     new conv_thr            =       0.0000010000 Ry


ATOMIC_POSITIONS (crystal)
Mo            0.0000000000        0.0000000000        0.4994086846
S             0.6666666667        0.3333333333        0.5893358877
S             0.6666666667        0.3333333333        0.4128202174
Co            0.0000000000        0.0000000000        0.6960712741



     Writing config-only to output data dir ./tmp/relax.save/
     NEW-OLD atomic charge density approx. for the potential

     negative rho (up, down):  4.443E-04 0.000E+00

     total cpu time spent up to now is       16.2 secs

     Self-consistent Calculation

     iteration #  1     ecut=    80.00 Ry     beta= 0.70
     Davidson diagonalization with overlap
     ethr =  1.00E-06,  avg # of iterations =  9.8

     negative rho (up, down):  4.472E-04 0.000E+00

     total cpu time spent up to now is       17.8 secs

     total energy              =    -658.51678944 Ry
     estimated scf accuracy    <       0.00140363 Ry

     iteration #  2     ecut=    80.00 Ry     beta= 0.70
     Davidson diagonalization with overlap
     ethr =  4.01E-06,  avg # of iterations =  7.6

     negative rho (up, down):  4.468E-04 0.000E+00

     total cpu time spent up to now is       18.8 secs

     total energy              =    -658.51097632 Ry
     estimated scf accuracy    <       0.13929485 Ry

     iteration #  3     ecut=    80.00 Ry     beta= 0.70
     Davidson diagonalization with overlap
     ethr =  4.01E-06,  avg # of iterations =  7.4

     negative rho (up, down):  4.443E-04 0.000E+00

     total cpu time spent up to now is       19.7 secs

     total energy              =    -658.51674645 Ry
     estimated scf accuracy    <       0.01510435 Ry

     iteration #  4     ecut=    80.00 Ry     beta= 0.70
     Davidson diagonalization with overlap
     ethr =  4.01E-06,  avg # of iterations =  2.7

     negative rho (up, down):  4.437E-04 0.000E+00

     total cpu time spent up to now is       20.5 secs

     total energy              =    -658.51750048 Ry
     estimated scf accuracy    <       0.00043251 Ry

     iteration #  5     ecut=    80.00 Ry     beta= 0.70
     Davidson diagonalization with overlap
     ethr =  1.24E-06,  avg # of iterations =  2.3

     negative rho (up, down):  4.441E-04 0.000E+00

     total cpu time spent up to now is       21.2 secs

     total energy              =    -658.51758235 Ry
     estimated scf accuracy    <       0.00016969 Ry

     iteration #  6     ecut=    80.00 Ry     beta= 0.70
     Davidson diagonalization with overlap
     ethr =  4.85E-07,  avg # of iterations =  2.1

     negative rho (up, down):  4.443E-04 0.000E+00

     total cpu time spent up to now is       21.9 secs

     total energy              =    -658.51760463 Ry
     estimated scf accuracy    <       0.00003697 Ry

     iteration #  7     ecut=    80.00 Ry     beta= 0.70
     Davidson diagonalization with overlap
     ethr =  1.06E-07,  avg # of iterations =  2.2

     negative rho (up, down):  4.446E-04 0.000E+00

     total cpu time spent up to now is       22.6 secs

     total energy              =    -658.51761219 Ry
     estimated scf accuracy    <       0.00000930 Ry

     iteration #  8     ecut=    80.00 Ry     beta= 0.70
     Davidson diagonalization with overlap
     ethr =  2.66E-08,  avg # of iterations =  2.4

     negative rho (up, down):  4.449E-04 0.000E+00

     total cpu time spent up to now is       23.3 secs

     End of self-consistent calculation

          k = 0.0000 0.0000 0.0000 ( 12991 PWs)   bands (ev):

   -59.8108 -33.9913 -33.7204 -33.7204 -13.4725 -12.1637  -5.2408  -2.3625
    -1.4889  -1.4889  -0.5224  -0.5224   0.0970   1.1501   1.2914   1.2914
     1.7709   1.7709   1.8283   3.4947   3.4947   3.9432

          k = 0.0000 0.1155 0.0000 ( 12953 PWs)   bands (ev):

   -59.8070 -33.9840 -33.7578 -33.7289 -13.3306 -12.0844  -5.0817  -2.3990
    -1.8527  -1.3548  -0.8351  -0.7512   0.2702   0.9357   1.3437   1.3510
     1.5790   1.7509   2.1920   3.2407   3.5389   3.6544

          k = 0.0000 0.2309 0.0000 ( 12929 PWs)   bands (ev):

   -59.7972 -33.9649 -33.8549 -33.7512 -12.9367 -11.8620  -4.7017  -2.7989
    -2.5472  -1.2950  -1.2171  -0.9578   0.2749   0.5566   1.3214   1.5050
     1.6040   1.7250   2.3377   3.1527   3.3674   3.6336

          k = 0.0000 0.3464 0.0000 ( 12915 PWs)   bands (ev):

   -59.7851 -33.9730 -33.9411 -33.7787 -12.3936 -11.5461  -4.4999  -3.6239
    -3.0578  -1.7708  -1.5019  -0.5820  -0.0576   0.5825   1.3727   1.6533
     1.6984   1.8182   2.3605   3.2212   3.5415   4.2016

          k = 0.0000 0.4619 0.0000 ( 12872 PWs)   bands (ev):

   -59.7753 -34.0669 -33.9219 -33.8007 -11.8949 -11.2324  -4.9341  -4.1174
    -3.3404  -2.1062  -1.7304  -0.3469  -0.0449   0.6516   1.5526   1.7564
     1.7838   1.9989   2.8997   3.2644   4.0053   4.7239

          k = 0.0000-0.5774 0.0000 ( 12854 PWs)   bands (ev):

   -59.7715 -34.1024 -33.9145 -33.8091 -11.6896 -11.0865  -5.2285  -4.3059
    -3.4211  -2.2239  -1.8185  -0.2837   0.0846   0.6759   1.6437   1.8033
     1.8112   2.0747   3.3466   3.4800   4.0930   5.0064

          k = 0.1000 0.1732 0.0000 ( 12937 PWs)   bands (ev):

   -59.8003 -33.9708 -33.8224 -33.7471 -13.0623 -11.9332  -4.8064  -2.5604
    -2.3884  -1.3875  -1.1528  -0.8966   0.3654   0.6658   1.2750   1.5008
     1.5857   1.7050   2.3580   3.1234   3.3883   3.4643

          k = 0.1000 0.2887 0.0000 ( 12944 PWs)   bands (ev):

   -59.7893 -33.9494 -33.9233 -33.7785 -12.5907 -11.6611  -4.4690  -3.2272
    -2.8413  -2.0792  -1.1871  -0.7912   0.1598   0.5996   1.2330   1.5901
     1.6758   1.7744   2.2684   3.2286   3.3859   3.8014

          k = 0.1000 0.4041 0.0000 ( 12898 PWs)   bands (ev):

   -59.7783 -34.0223 -33.9278 -33.8102 -12.0596 -11.3363  -4.6074  -3.8299
    -3.2842  -2.3491  -1.4637  -0.8424   0.0807   0.7252   1.3966   1.6518
     1.7725   1.9539   2.4533   3.4035   3.7484   4.4650

          k = 0.1000 0.5196 0.0000 ( 12858 PWs)   bands (ev):

   -59.7715 -34.0827 -33.9145 -33.8297 -11.6968 -11.0867  -5.0377  -4.2129
    -3.4459  -2.3631  -1.7638  -0.8947   0.2912   0.7402   1.5525   1.7578
     1.8368   2.0460   3.0794   3.5564   4.2177   4.6492

          k = 0.2000 0.3464 0.0000 ( 12917 PWs)   bands (ev):

   -59.7795 -33.9928 -33.9301 -33.8266 -12.1231 -11.3728  -4.4194  -3.4665
    -3.3554  -2.6191  -1.5665  -0.8984   0.0916   0.9065   1.1876   1.5255
     1.8158   1.9453   2.2989   3.4647   3.5595   4.2899

          k = 0.2000 0.4619 0.0000 ( 12869 PWs)   bands (ev):

   -59.7715 -34.0414 -33.9145 -33.8726 -11.7086 -11.0864  -4.6588  -4.0270
    -3.4345  -2.6677  -2.0015  -1.2736   0.2837   1.0077   1.3733   1.5666
     1.8819   1.9774   2.7801   3.6024   3.9830   4.7252

          k = 0.2000 0.5774 0.0000 ( 12850 PWs)   bands (ev):

   -59.7685 -34.0583 -33.9086 -33.8916 -11.5422 -10.9563  -4.8100  -4.2345
    -3.5327  -2.4997  -2.2461  -1.4802   0.4775   0.9799   1.4705   1.6458
     1.9019   1.9979   3.0508   3.7265   4.1356   4.8352

          k = 0.3000 0.5196 0.0000 ( 12860 PWs)   bands (ev):

   -59.7673 -34.0235 -33.9410 -33.9063 -11.4844 -10.9043  -4.6096  -4.2023
    -3.3663  -3.0791  -2.3627  -1.5962   0.5391   1.2230   1.3557   1.5679
     1.9158   1.9463   2.8660   3.6656   4.1634   5.2944

     the Fermi energy is     1.9827 ev

!    total energy              =    -658.51761361 Ry
     total all-electron energy =    -12481.691504 Ry
     estimated scf accuracy    <       0.00000028 Ry
     smearing contrib. (-TS)   =      -0.01552118 Ry
     internal energy E=F+TS    =    -658.50209243 Ry

     The total energy is F=E-TS. E is the sum of the following terms:
     one-electron contribution =   -1224.24053164 Ry
     hartree contribution      =     625.86000388 Ry
     xc contribution           =     -62.17595381 Ry
     ewald contribution        =     408.18143235 Ry
     one-center paw contrib.   =    -406.12704321 Ry

     convergence has been achieved in   8 iterations

     negative rho (up, down):  4.449E-04 0.000E+00

     Forces acting on atoms (cartesian axes, Ry/au):

     atom    1 type  1   force =     0.00000000    0.00000000    0.00722382
     atom    2 type  2   force =     0.00000000    0.00000000    0.04350903
     atom    3 type  2   force =     0.00000000    0.00000000    0.00858440
     atom    4 type  3   force =     0.00000000    0.00000000   -0.05931725
     The non-local contrib.  to forces
     atom    1 type  1   force =     0.00000000    0.00000000   -0.03359671
     atom    2 type  2   force =     0.00000000    0.00000000   -0.01851639
     atom    3 type  2   force =     0.00000000    0.00000000    0.27388944
     atom    4 type  3   force =     0.00000000    0.00000000   -0.01082659
     The ionic contribution  to forces
     atom    1 type  1   force =     0.00000000   -0.00000000  -31.09274987
     atom    2 type  2   force =    -0.00000000    0.00000000   18.73264574
     atom    3 type  2   force =    -0.00000000    0.00000000  -44.60824072
     atom    4 type  3   force =     0.00000000   -0.00000000   56.96834484
     The local contribution  to forces
     atom    1 type  1   force =     0.00000000   -0.00000000   31.13071561
     atom    2 type  2   force =    -0.00000000    0.00000000  -18.66793281
     atom    3 type  2   force =    -0.00000000    0.00000000   44.34613778
     atom    4 type  3   force =    -0.00000000   -0.00000000  -57.00391446
     The core correction contribution to forces
     atom    1 type  1   force =     0.00000000    0.00000000    0.00246591
     atom    2 type  2   force =     0.00000000   -0.00000000   -0.00288091
     atom    3 type  2   force =     0.00000000   -0.00000000   -0.00242074
     atom    4 type  3   force =     0.00000000    0.00000000   -0.01430041
     The Hubbard contrib.    to forces
     atom    1 type  1   force =     0.00000000    0.00000000    0.00000000
     atom    2 type  2   force =     0.00000000    0.00000000    0.00000000
     atom    3 type  2   force =     0.00000000    0.00000000    0.00000000
     atom    4 type  3   force =     0.00000000    0.00000000    0.00000000
     The SCF correction term to forces
     atom    1 type  1   force =     0.00000000   -0.00000000    0.00065767
     atom    2 type  2   force =    -0.00000000   -0.00000000    0.00046221
     atom    3 type  2   force =     0.00000000   -0.00000000   -0.00051257
     atom    4 type  3   force =     0.00000000    0.00000000    0.00164817

     Total force =     0.074414     Total SCF correction =     0.001904


     Computing stress (Cartesian axis) and pressure


     negative rho (up, down):  4.449E-04 0.000E+00
          total   stress  (Ry/bohr**3)                   (kbar)     P=      -37.05
  -0.00023725   0.00000000  -0.00000000          -34.90        0.00       -0.00
   0.00000000  -0.00023725  -0.00000000            0.00      -34.90       -0.00
   0.00000000   0.00000000  -0.00028107            0.00        0.00      -41.35

     Energy error            =      6.3E-03 Ry
     Gradient error          =      5.9E-02 Ry/Bohr

     number of scf cycles    =   2
     number of bfgs steps    =   1

     energy             old  =    -658.5113606852 Ry
     energy             new  =    -658.5176136071 Ry

     CASE: energy            _new < energy            _old


     WARNING: bfgs curvature condition failed, Theta= 0.965
     new trust radius        =       0.0624021139 bohr
     new conv_thr            =       0.0000005932 Ry


ATOMIC_POSITIONS (crystal)
Mo            0.0000000000        0.0000000000        0.4992694118
S             0.6666666667        0.3333333333        0.5908990935
S             0.6666666667        0.3333333333        0.4132116652
Co            0.0000000000        0.0000000000        0.6942558933



     Writing config-only to output data dir ./tmp/relax.save/
     NEW-OLD atomic charge density approx. for the potential

     negative rho (up, down):  4.453E-04 0.000E+00

     total cpu time spent up to now is       25.9 secs

     Self-consistent Calculation

     iteration #  1     ecut=    80.00 Ry     beta= 0.70
     Davidson diagonalization with overlap
     ethr =  1.00E-06,  avg # of iterations =  9.1

     negative rho (up, down):  4.479E-04 0.000E+00

     total cpu time spent up to now is       27.2 secs

     total energy              =    -658.52313493 Ry
     estimated scf accuracy    <       0.00110119 Ry

     iteration #  2     ecut=    80.00 Ry     beta= 0.70
     Davidson diagonalization with overlap
     ethr =  3.15E-06,  avg # of iterations =  5.4

     negative rho (up, down):  4.467E-04 0.000E+00

     total cpu time spent up to now is       28.1 secs

     total energy              =    -658.52104663 Ry
     estimated scf accuracy    <       0.02792404 Ry

     iteration #  3     ecut=    80.00 Ry     beta= 0.70
     Davidson diagonalization with overlap
     ethr =  3.15E-06,  avg # of iterations =  6.5

     negative rho (up, down):  4.443E-04 0.000E+00

     total cpu time spent up to now is       29.1 secs

     total energy              =    -658.52177317 Ry
     estimated scf accuracy    <       0.05894851 Ry

     iteration #  4     ecut=    80.00 Ry     beta= 0.70
     Davidson diagonalization with overlap
     ethr =  3.15E-06,  avg # of iterations =  3.6

     negative rho (up, down):  4.442E-04 0.000E+00

     total cpu time spent up to now is       29.9 secs

     total energy              =    -658.52355308 Ry
     estimated scf accuracy    <       0.00040460 Ry

     iteration #  5     ecut=    80.00 Ry     beta= 0.70
     Davidson diagonalization with overlap
     ethr =  1.16E-06,  avg # of iterations =  3.1

     negative rho (up, down):  4.442E-04 0.000E+00

     total cpu time spent up to now is       30.7 secs

     total energy              =    -658.52363564 Ry
     estimated scf accuracy    <       0.00020517 Ry

     iteration #  6     ecut=    80.00 Ry     beta= 0.70
     Davidson diagonalization with overlap
     ethr =  5.86E-07,  avg # of iterations =  1.7

     negative rho (up, down):  4.446E-04 0.000E+00

     total cpu time spent up to now is       31.5 secs

     total energy              =    -658.52366073 Ry
     estimated scf accuracy    <       0.00000686 Ry

     iteration #  7     ecut=    80.00 Ry     beta= 0.70
     Davidson diagonalization with overlap
     ethr =  1.96E-08,  avg # of iterations =  5.3

     negative rho (up, down):  4.448E-04 0.000E+00

     total cpu time spent up to now is       32.4 secs

     total energy              =    -658.52366244 Ry
     estimated scf accuracy    <       0.00001492 Ry

     iteration #  8     ecut=    80.00 Ry     beta= 0.70
     Davidson diagonalization with overlap
     ethr =  1.96E-08,  avg # of iterations =  2.8

     negative rho (up, down):  4.454E-04 0.000E+00

     total cpu time spent up to now is       33.2 secs

     End of self-consistent calculation

          k = 0.0000 0.0000 0.0000 ( 12991 PWs)   bands (ev):

   -59.7772 -33.9582 -33.6833 -33.6833 -13.4573 -12.1689  -5.2191  -2.4281
    -1.4191  -1.4191  -0.4883  -0.4883   0.1757   1.1820   1.2336   1.2336
     1.7163   1.7163   1.7954   3.4615   3.4615   4.0110

          k = 0.0000 0.1155 0.0000 ( 12953 PWs)   bands (ev):

   -59.7735 -33.9510 -33.7206 -33.6918 -13.3160 -12.0877  -5.0609  -2.4506
    -1.7803  -1.2847  -0.8321  -0.7189   0.3286   0.9300   1.2922   1.3193
     1.5412   1.6970   2.1800   3.1988   3.5025   3.7327

          k = 0.0000 0.2309 0.0000 ( 12929 PWs)   bands (ev):

   -59.7637 -33.9321 -33.8172 -33.7140 -12.9232 -11.8602  -4.6803  -2.7957
    -2.5089  -1.2777  -1.2302  -0.9305   0.3237   0.5453   1.2823   1.4458
     1.5883   1.6780   2.3692   3.1336   3.3644   3.6914

          k = 0.0000 0.3464 0.0000 ( 12915 PWs)   bands (ev):

   -59.7516 -33.9348 -33.9083 -33.7414 -12.3792 -11.5383  -4.4621  -3.6350
    -3.0475  -1.7179  -1.5612  -0.5691  -0.0003   0.5498   1.3259   1.6111
     1.6837   1.7782   2.3959   3.2380   3.5822   4.2290

          k = 0.0000 0.4619 0.0000 ( 12872 PWs)   bands (ev):

   -59.7418 -34.0282 -33.8894 -33.7634 -11.8758 -11.2213  -4.9114  -4.1407
    -3.3206  -2.0538  -1.7806  -0.3640  -0.0013   0.6223   1.5201   1.7416
     1.7631   1.9603   2.9061   3.2951   4.0546   4.7496

          k = 0.0000-0.5774 0.0000 ( 12854 PWs)   bands (ev):

   -59.7381 -34.0635 -33.8821 -33.7717 -11.6667 -11.0750  -5.2230  -4.3252
    -3.3891  -2.1715  -1.8703  -0.3130   0.1099   0.6577   1.6249   1.7927
     1.7987   2.0362   3.3853   3.4649   4.0676   5.0826

          k = 0.1000 0.1732 0.0000 ( 12937 PWs)   bands (ev):

   -59.7667 -33.9379 -33.7848 -33.7099 -13.0486 -11.9330  -4.7859  -2.5935
    -2.3148  -1.3583  -1.1070  -0.9263   0.4083   0.6620   1.2357   1.4465
     1.5656   1.6573   2.3835   3.0849   3.3842   3.5314

          k = 0.1000 0.2887 0.0000 ( 12944 PWs)   bands (ev):

   -59.7558 -33.9168 -33.8851 -33.7413 -12.5771 -11.6553  -4.4394  -3.2263
    -2.8252  -2.0440  -1.2126  -0.7992   0.2168   0.5708   1.1969   1.5431
     1.6564   1.7408   2.2961   3.2581   3.4087   3.8273

          k = 0.1000 0.4041 0.0000 ( 12898 PWs)   bands (ev):

   -59.7448 -33.9839 -33.8953 -33.7728 -12.0429 -11.3261  -4.5692  -3.8530
    -3.2773  -2.3144  -1.4967  -0.8433   0.1161   0.6900   1.3566   1.6293
     1.7590   1.9268   2.4610   3.4296   3.8101   4.4900

          k = 0.1000 0.5196 0.0000 ( 12858 PWs)   bands (ev):

   -59.7381 -34.0440 -33.8821 -33.7922 -11.6745 -11.0753  -5.0286  -4.2248
    -3.4212  -2.3294  -1.8073  -0.9044   0.3149   0.7085   1.5256   1.7449
     1.8198   2.0287   3.0715   3.5776   4.2462   4.6338

          k = 0.2000 0.3464 0.0000 ( 12917 PWs)   bands (ev):

   -59.7460 -33.9545 -33.8975 -33.7891 -12.1072 -11.3631  -4.3746  -3.4935
    -3.3539  -2.5791  -1.5780  -0.9252   0.1158   0.8675   1.1621   1.5060
     1.8093   1.9244   2.2906   3.5106   3.6024   4.3185

          k = 0.2000 0.4619 0.0000 ( 12869 PWs)   bands (ev):

   -59.7381 -34.0027 -33.8821 -33.8349 -11.6872 -11.0753  -4.6365  -4.0111
    -3.4528  -2.6601  -2.0073  -1.2867   0.2887   0.9770   1.3328   1.5636
     1.8731   1.9807   2.7471   3.6316   4.0295   4.7450

          k = 0.2000 0.5774 0.0000 ( 12850 PWs)   bands (ev):

   -59.7350 -34.0196 -33.8762 -33.8538 -11.5173 -10.9453  -4.8033  -4.2183
    -3.5284  -2.5058  -2.2614  -1.4848   0.4754   0.9501   1.4340   1.6457
     1.8852   2.0079   3.0698   3.6961   4.1490   4.8349

          k = 0.3000 0.5196 0.0000 ( 12860 PWs)   bands (ev):

   -59.7339 -33.9848 -33.9031 -33.8740 -11.4587 -10.8936  -4.5789  -4.1944
    -3.3895  -3.0928  -2.3623  -1.5944   0.5155   1.1882   1.3132   1.5923
     1.9036   1.9575   2.8914   3.6492   4.1500   5.3251

     the Fermi energy is     1.9676 ev

!    total energy              =    -658.52366414 Ry
     total all-electron energy =    -12481.697555 Ry
     estimated scf accuracy    <       0.00000028 Ry
     smearing contrib. (-TS)   =      -0.01499063 Ry
     internal energy E=F+TS    =    -658.50867351 Ry

     The total energy is F=E-TS. E is the sum of the following terms:
     one-electron contribution =   -1230.27827632 Ry
     hartree contribution      =     628.88133915 Ry
     xc contribution           =     -62.17880558 Ry
     ewald contribution        =     411.19258466 Ry
     one-center paw contrib.   =    -406.12551542 Ry

     convergence has been achieved in   8 iterations

     negative rho (up, down):  4.454E-04 0.000E+00

     Forces acting on atoms (cartesian axes, Ry/au):

     atom    1 type  1   force =     0.00000000    0.00000000    0.02434969
     atom    2 type  2   force =     0.00000000    0.00000000    0.03605718
     atom    3 type  2   force =     0.00000000    0.00000000    0.00502296
     atom    4 type  3   force =     0.00000000    0.00000000   -0.06542983
     The non-local contrib.  to forces
     atom    1 type  1   force =     0.00000000    0.00000000   -0.04260950
     atom    2 type  2   force =     0.00000000   -0.00000000   -0.00901627
     atom    3 type  2   force =     0.00000000    0.00000000    0.27186204
     atom    4 type  3   force =     0.00000000    0.00000000   -0.00065250
     The ionic contribution  to forces
     atom    1 type  1   force =     0.00000000   -0.00000000  -31.30621015
     atom    2 type  2   force =    -0.00000000    0.00000000   18.67320468
     atom    3 type  2   force =    -0.00000000    0.00000000  -44.65345679
     atom    4 type  3   force =     0.00000000   -0.00000000   57.28646225
     The local contribution  to forces
     atom    1 type  1   force =     0.00000000   -0.00000000   31.36828400
     atom    2 type  2   force =    -0.00000000    0.00000000  -18.62509343
     atom    3 type  2   force =    -0.00000000    0.00000000   44.38866208
     atom    4 type  3   force =    -0.00000000   -0.00000000  -57.33533923
     The core correction contribution to forces
     atom    1 type  1   force =     0.00000000    0.00000000    0.00305133
     atom    2 type  2   force =     0.00000000   -0.00000000   -0.00279827
     atom    3 type  2   force =     0.00000000   -0.00000000   -0.00231611
     atom    4 type  3   force =    -0.00000000   -0.00000000   -0.01559362
     The Hubbard contrib.    to forces
     atom    1 type  1   force =     0.00000000    0.00000000    0.00000000
     atom    2 type  2   force =     0.00000000    0.00000000    0.00000000
     atom    3 type  2   force =     0.00000000    0.00000000    0.00000000
     atom    4 type  3   force =     0.00000000    0.00000000    0.00000000
     The SCF correction term to forces
     atom    1 type  1   force =     0.00000000    0.00000000    0.00186693
     atom    2 type  2   force =    -0.00000000   -0.00000000   -0.00020661
     atom    3 type  2   force =     0.00000000   -0.00000000    0.00030466
     atom    4 type  3   force =     0.00000000    0.00000000   -0.00027380

     Total force =     0.078736     Total SCF correction =     0.001922


     Computing stress (Cartesian axis) and pressure


     negative rho (up, down):  4.454E-04 0.000E+00
          total   stress  (Ry/bohr**3)                   (kbar)     P=      -39.25
  -0.00023923   0.00000000   0.00000000          -35.19        0.00        0.00
   0.00000000  -0.00023923   0.00000000            0.00      -35.19        0.00
   0.00000000   0.00000000  -0.00032198            0.00        0.00      -47.37

     Energy error            =      6.1E-03 Ry
     Gradient error          =      6.5E-02 Ry/Bohr

     number of scf cycles    =   3
     number of bfgs steps    =   2

     energy             old  =    -658.5176136071 Ry
     energy             new  =    -658.5236641413 Ry

     CASE: energy            _new < energy            _old

     new trust radius        =       0.0936031708 bohr
     new conv_thr            =       0.0000006051 Ry


ATOMIC_POSITIONS (crystal)
Mo            0.0000000000        0.0000000000        0.4992320904
S             0.6666666667        0.3333333333        0.5931101234
S             0.6666666667        0.3333333333        0.4137610279
Co            0.0000000000        0.0000000000        0.6915328221



     Writing config-only to output data dir ./tmp/relax.save/
     NEW-OLD atomic charge density approx. for the potential

     negative rho (up, down):  4.411E-04 0.000E+00

     total cpu time spent up to now is       35.9 secs

     Self-consistent Calculation

     iteration #  1     ecut=    80.00 Ry     beta= 0.70
     Davidson diagonalization with overlap
     c_bands:  1 eigenvalues not converged
     ethr =  1.00E-06,  avg # of iterations = 11.4

     negative rho (up, down):  4.488E-04 0.000E+00

     total cpu time spent up to now is       37.5 secs

     total energy              =    -658.53110865 Ry
     estimated scf accuracy    <       0.00281607 Ry

     iteration #  2     ecut=    80.00 Ry     beta= 0.70
     Davidson diagonalization with overlap
     ethr =  8.05E-06,  avg # of iterations =  5.9

     negative rho (up, down):  4.421E-04 0.000E+00

     total cpu time spent up to now is       38.4 secs

     total energy              =    -658.52958386 Ry
     estimated scf accuracy    <       0.02089066 Ry

     iteration #  3     ecut=    80.00 Ry     beta= 0.70
     Davidson diagonalization with overlap
     ethr =  8.05E-06,  avg # of iterations =  5.1

     negative rho (up, down):  4.416E-04 0.000E+00

     total cpu time spent up to now is       39.3 secs

     total energy              =    -658.53069327 Ry
     estimated scf accuracy    <       0.04331555 Ry

     iteration #  4     ecut=    80.00 Ry     beta= 0.70
     Davidson diagonalization with overlap
     ethr =  8.05E-06,  avg # of iterations =  2.6

     negative rho (up, down):  4.423E-04 0.000E+00

     total cpu time spent up to now is       40.1 secs

     total energy              =    -658.53211787 Ry
     estimated scf accuracy    <       0.00465461 Ry

     iteration #  5     ecut=    80.00 Ry     beta= 0.70
     Davidson diagonalization with overlap
     ethr =  8.05E-06,  avg # of iterations =  2.0

     negative rho (up, down):  4.433E-04 0.000E+00

     total cpu time spent up to now is       40.9 secs

     total energy              =    -658.53247417 Ry
     estimated scf accuracy    <       0.00067861 Ry

     iteration #  6     ecut=    80.00 Ry     beta= 0.70
     Davidson diagonalization with overlap
     ethr =  1.94E-06,  avg # of iterations =  2.4

     negative rho (up, down):  4.439E-04 0.000E+00

     total cpu time spent up to now is       41.6 secs

     total energy              =    -658.53252946 Ry
     estimated scf accuracy    <       0.00006958 Ry

     iteration #  7     ecut=    80.00 Ry     beta= 0.70
     Davidson diagonalization with overlap
     ethr =  1.99E-07,  avg # of iterations =  2.5

     negative rho (up, down):  4.442E-04 0.000E+00

     total cpu time spent up to now is       42.4 secs

     total energy              =    -658.53253523 Ry
     estimated scf accuracy    <       0.00005995 Ry

     iteration #  8     ecut=    80.00 Ry     beta= 0.70
     Davidson diagonalization with overlap
     ethr =  1.71E-07,  avg # of iterations =  1.7

     negative rho (up, down):  4.444E-04 0.000E+00

     total cpu time spent up to now is       43.2 secs

     total energy              =    -658.53254176 Ry
     estimated scf accuracy    <       0.00000206 Ry

     iteration #  9     ecut=    80.00 Ry     beta= 0.70
     Davidson diagonalization with overlap
     ethr =  5.89E-09,  avg # of iterations =  4.9

     negative rho (up, down):  4.445E-04 0.000E+00

     total cpu time spent up to now is       44.1 secs

     total energy              =    -658.53254235 Ry
     estimated scf accuracy    <       0.00000074 Ry

     iteration # 10     ecut=    80.00 Ry     beta= 0.70
     Davidson diagonalization with overlap
     ethr =  2.12E-09,  avg # of iterations =  2.0

     negative rho (up, down):  4.446E-04 0.000E+00

     total cpu time spent up to now is       44.8 secs

     End of self-consistent calculation

          k = 0.0000 0.0000 0.0000 ( 12991 PWs)   bands (ev):

   -59.7312 -33.9145 -33.6328 -33.6328 -13.4553 -12.1777  -5.1975  -2.5147
    -1.3431  -1.3431  -0.4585  -0.4585   0.2781   1.1511   1.1511   1.2405
     1.6369   1.6369   1.7542   3.4315   3.4315   4.0971

          k = 0.0000 0.1155 0.0000 ( 12953 PWs)   bands (ev):

   -59.7275 -33.9074 -33.6699 -33.6413 -13.3152 -12.0936  -5.0406  -2.5203
    -1.7007  -1.2138  -0.8413  -0.6845   0.3903   0.9251   1.2069   1.2923
     1.4953   1.6194   2.1720   3.1601   3.4698   3.8289

          k = 0.0000 0.2309 0.0000 ( 12929 PWs)   bands (ev):

   -59.7178 -33.8887 -33.7659 -33.6635 -12.9250 -11.8584  -4.6604  -2.8095
    -2.4614  -1.3655  -1.1808  -0.8890   0.3588   0.5517   1.2229   1.3620
     1.5747   1.6110   2.4249   3.1088   3.3648   3.7749

          k = 0.0000 0.3464 0.0000 ( 12915 PWs)   bands (ev):

   -59.7057 -33.8835 -33.8647 -33.6907 -12.3821 -11.5269  -4.4227  -3.6659
    -3.0422  -1.6666  -1.6373  -0.5698   0.0705   0.5028   1.2559   1.5608
     1.6681   1.7197   2.4494   3.2610   3.6354   4.2800

          k = 0.0000 0.4619 0.0000 ( 12872 PWs)   bands (ev):

   -59.6959 -33.9758 -33.8465 -33.7126 -11.8750 -11.2034  -4.9010  -4.1765
    -3.3034  -2.0002  -1.8440  -0.4107   0.0461   0.5858   1.4683   1.7339
     1.7379   1.9049   2.9179   3.3348   4.1093   4.8043

          k = 0.0000-0.5774 0.0000 ( 12854 PWs)   bands (ev):

   -59.6922 -34.0110 -33.8393 -33.7209 -11.6618 -11.0557  -5.2374  -4.3521
    -3.3553  -2.1171  -1.9371  -0.3766   0.1274   0.6422   1.5942   1.7693
     1.8069   1.9801   3.4360   3.4381   4.0347   4.9519

          k = 0.1000 0.1732 0.0000 ( 12937 PWs)   bands (ev):

   -59.7208 -33.8945 -33.7337 -33.6593 -13.0497 -11.9336  -4.7668  -2.6364
    -2.2381  -1.3612  -1.0499  -0.9606   0.4320   0.6792   1.1805   1.3670
     1.5411   1.5950   2.4334   3.0377   3.3815   3.6241

          k = 0.1000 0.2887 0.0000 ( 12944 PWs)   bands (ev):

   -59.7099 -33.8738 -33.8333 -33.6905 -12.5801 -11.6473  -4.4101  -3.2418
    -2.8123  -2.0121  -1.2663  -0.8059   0.2810   0.5282   1.1474   1.4798
     1.6236   1.7036   2.3426   3.2848   3.4450   3.8808

          k = 0.1000 0.4041 0.0000 ( 12898 PWs)   bands (ev):

   -59.6990 -33.9318 -33.8523 -33.7219 -12.0443 -11.3102  -4.5336  -3.8960
    -3.2766  -2.2794  -1.5476  -0.8552   0.1540   0.6382   1.2964   1.6082
     1.7452   1.8837   2.4798   3.4592   3.8907   4.5376

          k = 0.1000 0.5196 0.0000 ( 12858 PWs)   bands (ev):

   -59.6922 -33.9915 -33.8393 -33.7413 -11.6704 -11.0563  -5.0386  -4.2431
    -3.3975  -2.2975  -1.8664  -0.9331   0.3364   0.6649   1.4811   1.7397
     1.7986   2.0040   3.0578   3.6044   4.2766   4.6151

          k = 0.2000 0.3464 0.0000 ( 12917 PWs)   bands (ev):

   -59.7001 -33.9027 -33.8544 -33.7382 -12.1094 -11.3481  -4.3266  -3.5583
    -3.3465  -2.5390  -1.6082  -0.9602   0.1354   0.8074   1.1251   1.4878
     1.8069   1.8879   2.2905   3.5462   3.6755   4.3749

          k = 0.2000 0.4619 0.0000 ( 12869 PWs)   bands (ev):

   -59.6922 -33.9505 -33.8393 -33.7837 -11.6843 -11.0568  -4.6293  -3.9961
    -3.4852  -2.6655  -2.0217  -1.3042   0.2859   0.9275   1.2711   1.5715
     1.8604   1.9902   2.7017   3.6648   4.0857   4.7768

          k = 0.2000 0.5774 0.0000 ( 12850 PWs)   bands (ev):

   -59.6892 -33.9672 -33.8335 -33.8026 -11.5105 -10.9265  -4.8196  -4.1991
    -3.5323  -2.5430  -2.2718  -1.4925   0.4655   0.9023   1.3762   1.6588
     1.8607   2.0251   3.0855   3.6560   4.1586   4.8424

          k = 0.3000 0.5196 0.0000 ( 12860 PWs)   bands (ev):

   -59.6880 -33.9325 -33.8517 -33.8313 -11.4508 -10.8751  -4.5631  -4.1896
    -3.4333  -3.1229  -2.3634  -1.5904   0.4781   1.1302   1.2504   1.6357
     1.8789   1.9845   2.9145   3.6273   4.1244   5.3693

     the Fermi energy is     1.9491 ev

!    total energy              =    -658.53254240 Ry
     total all-electron energy =    -12481.706433 Ry
     estimated scf accuracy    <       0.00000009 Ry
     smearing contrib. (-TS)   =      -0.01434950 Ry
     internal energy E=F+TS    =    -658.51819290 Ry

     The total energy is F=E-TS. E is the sum of the following terms:
     one-electron contribution =   -1239.85315688 Ry
     hartree contribution      =     633.68219147 Ry
     xc contribution           =     -62.18756698 Ry
     ewald contribution        =     415.96420464 Ry
     one-center paw contrib.   =    -406.12386515 Ry

     convergence has been achieved in  10 iterations

     negative rho (up, down):  4.446E-04 0.000E+00

     Forces acting on atoms (cartesian axes, Ry/au):

     atom    1 type  1   force =     0.00000000    0.00000000    0.04316718
     atom    2 type  2   force =     0.00000000    0.00000000    0.02776298
     atom    3 type  2   force =     0.00000000    0.00000000    0.00116271
     atom    4 type  3   force =     0.00000000    0.00000000   -0.07209286
     The non-local contrib.  to forces
     atom    1 type  1   force =     0.00000000   -0.00000000   -0.05352402
     atom    2 type  2   force =     0.00000000    0.00000000    0.00339489
     atom    3 type  2   force =     0.00000000    0.00000000    0.26953598
     atom    4 type  3   force =     0.00000000    0.00000000    0.01650428
     The ionic contribution  to forces
     atom    1 type  1   force =     0.00000000   -0.00000000  -31.62430853
     atom    2 type  2   force =    -0.00000000    0.00000000   18.59829406
     atom    3 type  2   force =    -0.00000000    0.00000000  -44.72739679
     atom    4 type  3   force =     0.00000000   -0.00000000   57.75341126
     The local contribution  to forces
     atom    1 type  1   force =    -0.00000000   -0.00000000   31.71810225
     atom    2 type  2   force =    -0.00000000    0.00000000  -18.57158988
     atom    3 type  2   force =    -0.00000000    0.00000000   44.46149498
     atom    4 type  3   force =     0.00000000   -0.00000000  -57.82481085
     The core correction contribution to forces
     atom    1 type  1   force =     0.00000000    0.00000000    0.00380766
     atom    2 type  2   force =     0.00000000   -0.00000000   -0.00264712
     atom    3 type  2   force =     0.00000000   -0.00000000   -0.00219458
     atom    4 type  3   force =    -0.00000000   -0.00000000   -0.01767933
     The Hubbard contrib.    to forces
     atom    1 type  1   force =     0.00000000    0.00000000    0.00000000
     atom    2 type  2   force =     0.00000000    0.00000000    0.00000000
     atom    3 type  2   force =     0.00000000    0.00000000    0.00000000
     atom    4 type  3   force =     0.00000000    0.00000000    0.00000000
     The SCF correction term to forces
     atom    1 type  1   force =    -0.00000000    0.00000000   -0.00079094
     atom    2 type  2   force =    -0.00000000   -0.00000000    0.00043027
     atom    3 type  2   force =     0.00000000    0.00000000   -0.00015764
     atom    4 type  3   force =    -0.00000000   -0.00000000    0.00060102

     Total force =     0.088504     Total SCF correction =     0.001094


     Computing stress (Cartesian axis) and pressure


     negative rho (up, down):  4.446E-04 0.000E+00
          total   stress  (Ry/bohr**3)                   (kbar)     P=      -41.58
  -0.00023865   0.00000000   0.00000000          -35.11        0.00        0.00
   0.00000000  -0.00023865   0.00000000            0.00      -35.11        0.00
   0.00000000   0.00000000  -0.00037058            0.00        0.00      -54.51

     Energy error            =      8.9E-03 Ry
     Gradient error          =      7.2E-02 Ry/Bohr

     number of scf cycles    =   4
     number of bfgs steps    =   3

     energy             old  =    -658.5236641413 Ry
     energy             new  =    -658.5325424000 Ry

     CASE: energy            _new < energy            _old

     new trust radius        =       0.1404047562 bohr
     new conv_thr            =       0.0000007209 Ry


ATOMIC_POSITIONS (crystal)
Mo            0.0000000000        0.0000000000        0.4992667832
S             0.6666666667        0.3333333333        0.5963546693
S             0.6666666667        0.3333333333        0.4145663960
Co            0.0000000000        0.0000000000        0.6874482153



     Writing config-only to output data dir ./tmp/relax.save/
     NEW-OLD atomic charge density approx. for the potential

     negative rho (up, down):  4.420E-04 0.000E+00

     total cpu time spent up to now is       47.5 secs

     Self-consistent Calculation

     iteration #  1     ecut=    80.00 Ry     beta= 0.70
     Davidson diagonalization with overlap
     ethr =  1.00E-06,  avg # of iterations = 14.3

     negative rho (up, down):  4.568E-04 0.000E+00

     total cpu time spent up to now is       49.4 secs

     total energy              =    -658.54005693 Ry
     estimated scf accuracy    <       0.00933243 Ry

     iteration #  2     ecut=    80.00 Ry     beta= 0.70
     Davidson diagonalization with overlap
     ethr =  2.67E-05,  avg # of iterations =  5.6

     negative rho (up, down):  4.532E-04 0.000E+00

     total cpu time spent up to now is       50.4 secs

     total energy              =    -658.49051417 Ry
     estimated scf accuracy    <       1.84434398 Ry

     iteration #  3     ecut=    80.00 Ry     beta= 0.70
     Davidson diagonalization with overlap
     ethr =  2.67E-05,  avg # of iterations =  6.9

     negative rho (up, down):  4.412E-04 0.000E+00

     total cpu time spent up to now is       51.3 secs

     total energy              =    -658.53679227 Ry
     estimated scf accuracy    <       0.12204257 Ry

     iteration #  4     ecut=    80.00 Ry     beta= 0.70
     Davidson diagonalization with overlap
     ethr =  2.67E-05,  avg # of iterations =  4.6

     negative rho (up, down):  4.437E-04 0.000E+00

     total cpu time spent up to now is       52.2 secs

     total energy              =    -658.54546097 Ry
     estimated scf accuracy    <       0.00464234 Ry

     iteration #  5     ecut=    80.00 Ry     beta= 0.70
     Davidson diagonalization with overlap
     ethr =  1.33E-05,  avg # of iterations =  1.8

     negative rho (up, down):  4.473E-04 0.000E+00

     total cpu time spent up to now is       52.9 secs

     total energy              =    -658.54581146 Ry
     estimated scf accuracy    <       0.00211952 Ry

     iteration #  6     ecut=    80.00 Ry     beta= 0.70
     Davidson diagonalization with overlap
     ethr =  6.06E-06,  avg # of iterations =  1.9

     negative rho (up, down):  4.490E-04 0.000E+00

     total cpu time spent up to now is       53.7 secs

     total energy              =    -658.54591050 Ry
     estimated scf accuracy    <       0.00082163 Ry

     iteration #  7     ecut=    80.00 Ry     beta= 0.70
     Davidson diagonalization with overlap
     ethr =  2.35E-06,  avg # of iterations =  2.0

     negative rho (up, down):  4.495E-04 0.000E+00

     total cpu time spent up to now is       54.4 secs

     total energy              =    -658.54592254 Ry
     estimated scf accuracy    <       0.00030384 Ry

     iteration #  8     ecut=    80.00 Ry     beta= 0.70
     Davidson diagonalization with overlap
     ethr =  8.68E-07,  avg # of iterations =  1.1

     negative rho (up, down):  4.495E-04 0.000E+00

     total cpu time spent up to now is       55.1 secs

     total energy              =    -658.54593206 Ry
     estimated scf accuracy    <       0.00011711 Ry

     iteration #  9     ecut=    80.00 Ry     beta= 0.70
     Davidson diagonalization with overlap
     ethr =  3.35E-07,  avg # of iterations =  1.1

     negative rho (up, down):  4.493E-04 0.000E+00

     total cpu time spent up to now is       55.9 secs

     total energy              =    -658.54593154 Ry
     estimated scf accuracy    <       0.00004367 Ry

     iteration # 10     ecut=    80.00 Ry     beta= 0.70
     Davidson diagonalization with overlap
     ethr =  1.25E-07,  avg # of iterations =  1.1

     negative rho (up, down):  4.493E-04 0.000E+00

     total cpu time spent up to now is       56.6 secs

     End of self-consistent calculation

          k = 0.0000 0.0000 0.0000 ( 12991 PWs)   bands (ev):

   -59.6640 -33.8528 -33.5602 -33.5602 -13.4790 -12.1952  -5.1721  -2.6374
    -1.2671  -1.2671  -0.4775  -0.4775   0.4213   1.0465   1.0465   1.3419
     1.5252   1.5252   1.7227   3.4282   3.4283   4.2121

          k = 0.0000 0.1155 0.0000 ( 12953 PWs)   bands (ev):

   -59.6603 -33.8459 -33.5970 -33.5686 -13.3409 -12.1070  -5.0174  -2.6219
    -1.6217  -1.1502  -0.8988  -0.6856   0.4467   0.9369   1.0944   1.2471
     1.4651   1.5107   2.1917   3.1444   3.4626   3.9554

          k = 0.0000 0.2309 0.0000 ( 12929 PWs)   bands (ev):

   -59.6506 -33.8276 -33.6923 -33.5907 -12.9555 -11.8609  -4.6382  -2.8479
    -2.4258  -1.4975  -1.1633  -0.8614   0.3524   0.6099   1.1293   1.2570
     1.5166   1.5742   2.5279   3.0956   3.3846   3.8983

          k = 0.0000 0.3464 0.0000 ( 12915 PWs)   bands (ev):

   -59.6386 -33.8122 -33.8009 -33.6178 -12.4160 -11.5161  -4.3751  -3.7376
    -3.0557  -1.7315  -1.6317  -0.6200   0.1587   0.4375   1.1476   1.5203
     1.6351   1.6603   2.5285   3.3005   3.7173   4.3776

          k = 0.0000 0.4619 0.0000 ( 12872 PWs)   bands (ev):

   -59.6289 -33.9012 -33.7858 -33.6396 -11.9063 -11.1836  -4.9169  -4.2282
    -3.2931  -1.9574  -1.9193  -0.5261   0.0843   0.5535   1.3798   1.7149
     1.7496   1.8355   2.9365   3.3899   4.1616   4.9211

          k = 0.0000-0.5774 0.0000 ( 12854 PWs)   bands (ev):

   -59.6252 -33.9360 -33.7788 -33.6479 -11.6889 -11.0342  -5.2877  -4.3883
    -3.3207  -2.0721  -2.0184  -0.5135   0.1159   0.6478   1.5397   1.7430
     1.8584   1.8961   3.3913   3.5056   3.9936   4.9267

          k = 0.1000 0.1732 0.0000 ( 12937 PWs)   bands (ev):

   -59.6536 -33.8332 -33.6604 -33.5866 -13.0789 -11.9395  -4.7455  -2.7014
    -2.1711  -1.4200  -1.0526  -0.9721   0.4196   0.7349   1.1117   1.2545
     1.4728   1.5619   2.5398   2.9916   3.4012   3.7521

          k = 0.1000 0.2887 0.0000 ( 12944 PWs)   bands (ev):

   -59.6428 -33.8130 -33.7592 -33.6176 -12.6134 -11.6412  -4.3759  -3.2904
    -2.8217  -1.9911  -1.3644  -0.8343   0.3497   0.4656   1.0777   1.4158
     1.5494   1.6880   2.4221   3.3052   3.5273   3.9809

          k = 0.1000 0.4041 0.0000 ( 12898 PWs)   bands (ev):

   -59.6319 -33.8575 -33.7914 -33.6488 -12.0777 -11.2931  -4.5041  -3.9736
    -3.2889  -2.2506  -1.6273  -0.9020   0.1941   0.5586   1.1997   1.6125
     1.7371   1.8168   2.5190   3.4933   4.0025   4.6251

          k = 0.1000 0.5196 0.0000 ( 12858 PWs)   bands (ev):

   -59.6252 -33.9167 -33.7788 -33.6681 -11.6984 -11.0352  -5.0840  -4.2712
    -3.3745  -2.2790  -1.9446  -1.0061   0.3427   0.6133   1.4017   1.7620
     1.7803   1.9670   3.0374   3.6389   4.3063   4.5980

          k = 0.2000 0.3464 0.0000 ( 12917 PWs)   bands (ev):

   -59.6330 -33.8288 -33.7932 -33.6650 -12.1435 -11.3325  -4.2692  -3.6810
    -3.3454  -2.5080  -1.6750  -1.0116   0.1476   0.7083   1.0616   1.4969
     1.8144   1.8250   2.3122   3.5719   3.7935   4.4790

          k = 0.2000 0.4619 0.0000 ( 12869 PWs)   bands (ev):

   -59.6252 -33.8759 -33.7788 -33.7103 -11.7137 -11.0363  -4.6517  -3.9918
    -3.5281  -2.7013  -2.0537  -1.3297   0.2754   0.8399   1.1728   1.6131
     1.8408   2.0109   2.6428   3.7024   4.1572   4.8224

          k = 0.2000 0.5774 0.0000 ( 12850 PWs)   bands (ev):

   -59.6221 -33.8925 -33.7731 -33.7291 -11.5354 -10.9058  -4.8748  -4.1840
    -3.5395  -2.6388  -2.2737  -1.5084   0.4500   0.8190   1.2823   1.7069
     1.8228   2.0517   3.0936   3.6027   4.1615   4.8701

          k = 0.3000 0.5196 0.0000 ( 12860 PWs)   bands (ev):

   -59.6210 -33.8578 -33.7781 -33.7709 -11.4747 -10.8548  -4.5814  -4.1911
    -3.4992  -3.1845  -2.3708  -1.5824   0.4285   1.0313   1.1540   1.7121
     1.8378   2.0355   2.9287   3.5990   4.0784   5.4424

     the Fermi energy is     1.9321 ev

!    total energy              =    -658.54593267 Ry
     total all-electron energy =    -12481.719824 Ry
     estimated scf accuracy    <       0.00000066 Ry
     smearing contrib. (-TS)   =      -0.01369973 Ry
     internal energy E=F+TS    =    -658.53223295 Ry

     The total energy is F=E-TS. E is the sum of the following terms:
     one-electron contribution =   -1254.58136158 Ry
     hartree contribution      =     641.05359793 Ry
     xc contribution           =     -62.20895752 Ry
     ewald contribution        =     423.32703828 Ry
     one-center paw contrib.   =    -406.12255006 Ry

     convergence has been achieved in  10 iterations

     negative rho (up, down):  4.493E-04 0.000E+00

     Forces acting on atoms (cartesian axes, Ry/au):

     atom    1 type  1   force =     0.00000000    0.00000000    0.06422910
     atom    2 type  2   force =     0.00000000    0.00000000    0.01944716
     atom    3 type  2   force =     0.00000000    0.00000000   -0.00349981
     atom    4 type  3   force =     0.00000000    0.00000000   -0.08017645
     The non-local contrib.  to forces
     atom    1 type  1   force =     0.00000000   -0.00000000   -0.06967127
     atom    2 type  2   force =     0.00000000   -0.00000000    0.01458030
     atom    3 type  2   force =     0.00000000    0.00000000    0.26609708
     atom    4 type  3   force =     0.00000000    0.00000000    0.04134296
     The ionic contribution  to forces
     atom    1 type  1   force =     0.00000000   -0.00000000  -32.08797850
     atom    2 type  2   force =    -0.00000000    0.00000000   18.53237722
     atom    3 type  2   force =    -0.00000000    0.00000000  -44.84090769
     atom    4 type  3   force =     0.00000000   -0.00000000   58.39650898
     The local contribution  to forces
     atom    1 type  1   force =    -0.00000000   -0.00000000   32.21347662
     atom    2 type  2   force =    -0.00000000    0.00000000  -18.52684534
     atom    3 type  2   force =    -0.00000000    0.00000000   44.57246558
     atom    4 type  3   force =    -0.00000000    0.00000000  -58.49772647
     The core correction contribution to forces
     atom    1 type  1   force =     0.00000000    0.00000000    0.00485638
     atom    2 type  2   force =     0.00000000   -0.00000000   -0.00216681
     atom    3 type  2   force =     0.00000000   -0.00000000   -0.00203186
     atom    4 type  3   force =     0.00000000    0.00000000   -0.02130406
     The Hubbard contrib.    to forces
     atom    1 type  1   force =     0.00000000    0.00000000    0.00000000
     atom    2 type  2   force =     0.00000000    0.00000000    0.00000000
     atom    3 type  2   force =     0.00000000    0.00000000    0.00000000
     atom    4 type  3   force =     0.00000000    0.00000000    0.00000000
     The SCF correction term to forces
     atom    1 type  1   force =     0.00000000    0.00000000    0.00352038
     atom    2 type  2   force =     0.00000000    0.00000000    0.00147630
     atom    3 type  2   force =    -0.00000000    0.00000000    0.00085158
     atom    4 type  3   force =    -0.00000000   -0.00000000    0.00097665

     Total force =     0.104614     Total SCF correction =     0.004031


     Computing stress (Cartesian axis) and pressure


     negative rho (up, down):  4.493E-04 0.000E+00
          total   stress  (Ry/bohr**3)                   (kbar)     P=      -44.03
  -0.00023536   0.00000000   0.00000000          -34.62        0.00        0.00
   0.00000000  -0.00023536   0.00000000            0.00      -34.62        0.00
   0.00000000   0.00000000  -0.00042730            0.00        0.00      -62.86

     Energy error            =      1.3E-02 Ry
     Gradient error          =      8.0E-02 Ry/Bohr

     number of scf cycles    =   5
     number of bfgs steps    =   4

     energy             old  =    -658.5325424000 Ry
     energy             new  =    -658.5459326726 Ry

     CASE: energy            _new < energy            _old


     WARNING: bfgs curvature condition failed, Theta= 0.415
     new trust radius        =       0.2106071343 bohr
     new conv_thr            =       0.0000008018 Ry


ATOMIC_POSITIONS (crystal)
Mo            0.0000000000        0.0000000000        0.4992327514
S             0.6666666667        0.3333333333        0.6012731247
S             0.6666666667        0.3333333333        0.4158088826
Co            0.0000000000        0.0000000000        0.6813213052



     Writing config-only to output data dir ./tmp/relax.save/
     NEW-OLD atomic charge density approx. for the potential

     negative rho (up, down):  4.488E-04 0.000E+00

     total cpu time spent up to now is       59.2 secs

     Self-consistent Calculation

     iteration #  1     ecut=    80.00 Ry     beta= 0.70
     Davidson diagonalization with overlap
     c_bands:  3 eigenvalues not converged
     c_bands:  3 eigenvalues not converged
     ethr =  1.00E-06,  avg # of iterations = 18.3

     negative rho (up, down):  4.709E-04 0.000E+00

     total cpu time spent up to now is       61.5 secs

     total energy              =    -658.51546799 Ry
     estimated scf accuracy    <       0.06278763 Ry

     iteration #  2     ecut=    80.00 Ry     beta= 0.70
     Davidson diagonalization with overlap
     ethr =  1.79E-04,  avg # of iterations =  9.8

     negative rho (up, down):  4.613E-04 0.000E+00

     total cpu time spent up to now is       62.6 secs

     total energy              =    -657.32331156 Ry
     estimated scf accuracy    <      86.11890341 Ry

     iteration #  3     ecut=    80.00 Ry     beta= 0.70
     Davidson diagonalization with overlap
     ethr =  1.79E-04,  avg # of iterations =  8.1

     negative rho (up, down):  4.318E-04 0.000E+00

     total cpu time spent up to now is       63.7 secs

     total energy              =    -658.54003978 Ry
     estimated scf accuracy    <       0.25185802 Ry

     iteration #  4     ecut=    80.00 Ry     beta= 0.70
     Davidson diagonalization with overlap
     ethr =  1.79E-04,  avg # of iterations =  2.7

     negative rho (up, down):  4.406E-04 0.000E+00

     total cpu time spent up to now is       64.5 secs

     total energy              =    -658.56526067 Ry
     estimated scf accuracy    <       0.00871442 Ry

     iteration #  5     ecut=    80.00 Ry     beta= 0.70
     Davidson diagonalization with overlap
     ethr =  2.49E-05,  avg # of iterations =  4.4

     negative rho (up, down):  4.477E-04 0.000E+00

     total cpu time spent up to now is       65.3 secs

     total energy              =    -658.56572230 Ry
     estimated scf accuracy    <       0.00702990 Ry

     iteration #  6     ecut=    80.00 Ry     beta= 0.70
     Davidson diagonalization with overlap
     ethr =  2.01E-05,  avg # of iterations =  1.9

     negative rho (up, down):  4.527E-04 0.000E+00

     total cpu time spent up to now is       66.1 secs

     total energy              =    -658.56608762 Ry
     estimated scf accuracy    <       0.00684364 Ry

     iteration #  7     ecut=    80.00 Ry     beta= 0.70
     Davidson diagonalization with overlap
     ethr =  1.96E-05,  avg # of iterations =  1.1

     negative rho (up, down):  4.550E-04 0.000E+00

     total cpu time spent up to now is       66.8 secs

     total energy              =    -658.56621734 Ry
     estimated scf accuracy    <       0.00313468 Ry

     iteration #  8     ecut=    80.00 Ry     beta= 0.70
     Davidson diagonalization with overlap
     ethr =  8.96E-06,  avg # of iterations =  1.2

     negative rho (up, down):  4.551E-04 0.000E+00

     total cpu time spent up to now is       67.5 secs

     total energy              =    -658.56623642 Ry
     estimated scf accuracy    <       0.00143744 Ry

     iteration #  9     ecut=    80.00 Ry     beta= 0.70
     Davidson diagonalization with overlap
     ethr =  4.11E-06,  avg # of iterations =  1.2

     negative rho (up, down):  4.543E-04 0.000E+00

     total cpu time spent up to now is       68.2 secs

     total energy              =    -658.56622604 Ry
     estimated scf accuracy    <       0.00070287 Ry

     iteration # 10     ecut=    80.00 Ry     beta= 0.70
     Davidson diagonalization with overlap
     ethr =  2.01E-06,  avg # of iterations =  1.7

     negative rho (up, down):  4.538E-04 0.000E+00

     total cpu time spent up to now is       69.0 secs

     total energy              =    -658.56622252 Ry
     estimated scf accuracy    <       0.00020969 Ry

     iteration # 11     ecut=    80.00 Ry     beta= 0.70
     Davidson diagonalization with overlap
     ethr =  5.99E-07,  avg # of iterations =  1.2

     negative rho (up, down):  4.537E-04 0.000E+00

     total cpu time spent up to now is       69.7 secs

     total energy              =    -658.56622667 Ry
     estimated scf accuracy    <       0.00000915 Ry

     iteration # 12     ecut=    80.00 Ry     beta= 0.70
     Davidson diagonalization with overlap
     ethr =  2.61E-08,  avg # of iterations =  5.2

     negative rho (up, down):  4.543E-04 0.000E+00

     total cpu time spent up to now is       70.5 secs

     End of self-consistent calculation

          k = 0.0000 0.0000 0.0000 ( 12991 PWs)   bands (ev):

   -59.5795 -33.7795 -33.4713 -33.4713 -13.5900 -12.2426  -5.1631  -2.8401
    -1.2545  -1.2545  -0.7248  -0.7248   0.6167   0.9529   0.9529   1.3793
     1.3793   1.4429   1.8482   3.5020   3.5020   4.3627

          k = 0.0000 0.1155 0.0000 ( 12953 PWs)   bands (ev):

   -59.5758 -33.7727 -33.5079 -33.4797 -13.4556 -12.1492  -5.0115  -2.7989
    -1.6239  -1.1633  -1.1265  -0.8818   0.4904   0.9828   0.9943   1.1388
     1.3666   1.4874   2.3347   3.1952   3.5262   4.1206

          k = 0.0000 0.2309 0.0000 ( 12929 PWs)   bands (ev):

   -59.5661 -33.7549 -33.6027 -33.5017 -13.0791 -11.8896  -4.6345  -2.9625
    -2.5053  -1.6950  -1.2893  -0.9447   0.3022   0.7143   0.9773   1.1523
     1.3935   1.6008   2.6959   3.1629   3.4530   4.0776

          k = 0.0000 0.3464 0.0000 ( 12915 PWs)   bands (ev):

   -59.5542 -33.7356 -33.7152 -33.5287 -12.5486 -11.5291  -4.3346  -3.9354
    -3.1253  -1.8509  -1.7080  -0.8135   0.2079   0.3858   0.9684   1.4390
     1.6001   1.6746   2.6244   3.3636   3.8509   4.5632

          k = 0.0000 0.4619 0.0000 ( 12872 PWs)   bands (ev):

   -59.5445 -33.8111 -33.7135 -33.5505 -12.0414 -11.1874  -5.0293  -4.3098
    -3.3108  -2.0137  -2.0092  -0.7941   0.0499   0.5631   1.2092   1.6503
     1.7022   1.9192   2.9425   3.4489   4.1728   4.9245

          k = 0.0000-0.5774 0.0000 ( 12854 PWs)   bands (ev):

   -59.5408 -33.8457 -33.7067 -33.5588 -11.8215 -11.0371  -5.4335  -4.4493
    -3.3017  -2.1220  -2.1165  -0.8031   0.0235   0.7018   1.4221   1.7042
     1.7515   2.0153   3.2923   3.5808   3.9261   4.8880

          k = 0.1000 0.1732 0.0000 ( 12937 PWs)   bands (ev):

   -59.5691 -33.7604 -33.5709 -33.4976 -13.1998 -11.9723  -4.7427  -2.8342
    -2.2192  -1.5903  -1.2468  -1.0232   0.3812   0.7980   1.0104   1.1492
     1.3388   1.5833   2.7641   2.9848   3.4818   3.9238

          k = 0.1000 0.2887 0.0000 ( 12944 PWs)   bands (ev):

   -59.5583 -33.7407 -33.6691 -33.5286 -12.7434 -11.6595  -4.3559  -3.4522
    -2.9109  -2.0208  -1.5779  -0.9575   0.3408   0.4302   0.9439   1.3767
     1.4415   1.7112   2.5375   3.3268   3.7045   4.1547

          k = 0.1000 0.4041 0.0000 ( 12898 PWs)   bands (ev):

   -59.5475 -33.7680 -33.7185 -33.5597 -12.2133 -11.2994  -4.5489  -4.1109
    -3.3381  -2.2841  -1.7839  -1.0419   0.2125   0.4356   1.0245   1.6103
     1.7413   1.7802   2.5758   3.5146   4.1447   4.7467

          k = 0.1000 0.5196 0.0000 ( 12858 PWs)   bands (ev):

   -59.5408 -33.8265 -33.7067 -33.5789 -11.8320 -11.0383  -5.2270  -4.3267
    -3.3675  -2.3517  -2.0588  -1.1753   0.2576   0.5935   1.2445   1.7307
     1.8245   1.9437   2.9935   3.6626   4.3042   4.5852

          k = 0.2000 0.3464 0.0000 ( 12917 PWs)   bands (ev):

   -59.5486 -33.7408 -33.7190 -33.5758 -12.2791 -11.3401  -4.2368  -3.9150
    -3.3882  -2.5542  -1.8226  -1.1104   0.1448   0.5270   0.9240   1.5618
     1.7104   1.8537   2.3624   3.5766   3.9624   4.6471

          k = 0.2000 0.4619 0.0000 ( 12869 PWs)   bands (ev):

   -59.5408 -33.7859 -33.7066 -33.6210 -11.8489 -11.0400  -4.7752  -4.0285
    -3.5847  -2.8431  -2.1278  -1.3792   0.2523   0.6650   1.0004   1.7064
     1.7840   2.0424   2.5678   3.7248   4.2337   4.8552

          k = 0.2000 0.5774 0.0000 ( 12850 PWs)   bands (ev):

   -59.5378 -33.8023 -33.7012 -33.6397 -11.6677 -10.9105  -5.0285  -4.2048
    -3.5574  -2.8606  -2.2879  -1.5508   0.4253   0.6598   1.1164   1.7232
     1.8282   2.0675   3.0730   3.5150   4.1338   4.9243

          k = 0.3000 0.5196 0.0000 ( 12860 PWs)   bands (ev):

   -59.5366 -33.7676 -33.6990 -33.6886 -11.6066 -10.8604  -4.7044  -4.2382
    -3.5918  -3.3255  -2.4041  -1.5799   0.3672   0.8474   0.9925   1.6955
     1.8696   2.1104   2.9044   3.5467   3.9777   5.5425

     the Fermi energy is     1.9374 ev

!    total energy              =    -658.56622851 Ry
     total all-electron energy =    -12481.740119 Ry
     estimated scf accuracy    <       0.00000018 Ry
     smearing contrib. (-TS)   =      -0.01245957 Ry
     internal energy E=F+TS    =    -658.55376895 Ry

     The total energy is F=E-TS. E is the sum of the following terms:
     one-electron contribution =   -1276.76304810 Ry
     hartree contribution      =     652.13994210 Ry
     xc contribution           =     -62.26404865 Ry
     ewald contribution        =     434.45692651 Ry
     one-center paw contrib.   =    -406.12354080 Ry

     convergence has been achieved in  12 iterations

     negative rho (up, down):  4.543E-04 0.000E+00

     Forces acting on atoms (cartesian axes, Ry/au):

     atom    1 type  1   force =     0.00000000    0.00000000    0.08575105
     atom    2 type  2   force =     0.00000000    0.00000000    0.01566434
     atom    3 type  2   force =     0.00000000    0.00000000   -0.01242454
     atom    4 type  3   force =     0.00000000    0.00000000   -0.08899085
     The non-local contrib.  to forces
     atom    1 type  1   force =     0.00000000    0.00000000   -0.09417002
     atom    2 type  2   force =     0.00000000   -0.00000000    0.00941516
     atom    3 type  2   force =     0.00000000    0.00000000    0.26031112
     atom    4 type  3   force =     0.00000000   -0.00000000    0.06963576
     The ionic contribution  to forces
     atom    1 type  1   force =     0.00000000   -0.00000000  -32.74212103
     atom    2 type  2   force =    -0.00000000    0.00000000   18.58612416
     atom    3 type  2   force =    -0.00000000    0.00000000  -45.00447066
     atom    4 type  3   force =     0.00000000   -0.00000000   59.16046753
     The local contribution  to forces
     atom    1 type  1   force =     0.00000000   -0.00000000   32.91772425
     atom    2 type  2   force =    -0.00000000    0.00000000  -18.57850689
     atom    3 type  2   force =    -0.00000000    0.00000000   44.73422377
     atom    4 type  3   force =     0.00000000   -0.00000000  -59.29067403
     The core correction contribution to forces
     atom    1 type  1   force =     0.00000000    0.00000000    0.00647335
     atom    2 type  2   force =     0.00000000   -0.00000000   -0.00065773
     atom    3 type  2   force =     0.00000000   -0.00000000   -0.00176064
     atom    4 type  3   force =     0.00000000    0.00000000   -0.02840678
     The Hubbard contrib.    to forces
     atom    1 type  1   force =     0.00000000    0.00000000    0.00000000
     atom    2 type  2   force =     0.00000000    0.00000000    0.00000000
     atom    3 type  2   force =     0.00000000    0.00000000    0.00000000
     atom    4 type  3   force =     0.00000000    0.00000000    0.00000000
     The SCF correction term to forces
     atom    1 type  1   force =    -0.00000000    0.00000000   -0.00209682
     atom    2 type  2   force =     0.00000000    0.00000000   -0.00065169
     atom    3 type  2   force =    -0.00000000   -0.00000000   -0.00066944
     atom    4 type  3   force =    -0.00000000   -0.00000000    0.00004535

     Total force =     0.125189     Total SCF correction =     0.002296


     Computing stress (Cartesian axis) and pressure


     negative rho (up, down):  4.543E-04 0.000E+00
          total   stress  (Ry/bohr**3)                   (kbar)     P=      -38.98
  -0.00018015  -0.00000000   0.00000000          -26.50       -0.00        0.00
  -0.00000000  -0.00018015   0.00000000           -0.00      -26.50        0.00
   0.00000000   0.00000000  -0.00043456            0.00        0.00      -63.93

     Energy error            =      2.0E-02 Ry
     Gradient error          =      8.9E-02 Ry/Bohr

     number of scf cycles    =   6
     number of bfgs steps    =   5

     energy             old  =    -658.5459326726 Ry
     energy             new  =    -658.5662285143 Ry

     CASE: energy            _new < energy            _old


     WARNING: bfgs curvature condition failed, Theta= 0.299
     new trust radius        =       0.3159107014 bohr
     new conv_thr            =       0.0000008899 Ry


ATOMIC_POSITIONS (crystal)
Mo            0.0000000000        0.0000000000        0.4991594370
S             0.6666666667        0.3333333333        0.6086217657
S             0.6666666667        0.3333333333        0.4177239212
Co            0.0000000000        0.0000000000        0.6721309399



     Writing config-only to output data dir ./tmp/relax.save/
     NEW-OLD atomic charge density approx. for the potential

     negative rho (up, down):  4.807E-04 0.000E+00

     total cpu time spent up to now is       73.2 secs

     Self-consistent Calculation

     iteration #  1     ecut=    80.00 Ry     beta= 0.70
     Davidson diagonalization with overlap
     c_bands:  1 eigenvalues not converged
     c_bands:  1 eigenvalues not converged
     ethr =  1.00E-06,  avg # of iterations = 21.8

     negative rho (up, down):  5.062E-04 0.000E+00

     total cpu time spent up to now is       75.8 secs

     total energy              =    -658.45010437 Ry
     estimated scf accuracy    <       0.17119623 Ry

     iteration #  2     ecut=    80.00 Ry     beta= 0.70
     Davidson diagonalization with overlap
     ethr =  4.89E-04,  avg # of iterations = 10.2

     negative rho (up, down):  3.153E-04 0.000E+00

     total cpu time spent up to now is       77.0 secs

     total energy              =    -656.80439835 Ry
     estimated scf accuracy    <     108.73243539 Ry

     iteration #  3     ecut=    80.00 Ry     beta= 0.70
     Davidson diagonalization with overlap
     ethr =  4.89E-04,  avg # of iterations = 10.4

     negative rho (up, down):  2.946E-04 0.000E+00

     total cpu time spent up to now is       78.2 secs

     total energy              =    -658.54719242 Ry
     estimated scf accuracy    <       0.54881838 Ry

     iteration #  4     ecut=    80.00 Ry     beta= 0.70
     Davidson diagonalization with overlap
     ethr =  4.89E-04,  avg # of iterations =  2.2

     negative rho (up, down):  5.575E-04 0.000E+00

     total cpu time spent up to now is       79.0 secs

     total energy              =    -658.59414442 Ry
     estimated scf accuracy    <       0.05367387 Ry

     iteration #  5     ecut=    80.00 Ry     beta= 0.70
     Davidson diagonalization with overlap
     ethr =  1.53E-04,  avg # of iterations =  2.7

     negative rho (up, down):  6.548E-04 0.000E+00

     total cpu time spent up to now is       79.8 secs

     total energy              =    -658.59441375 Ry
     estimated scf accuracy    <       0.01853811 Ry

     iteration #  6     ecut=    80.00 Ry     beta= 0.70
     Davidson diagonalization with overlap
     ethr =  5.30E-05,  avg # of iterations =  5.9

     negative rho (up, down):  7.352E-04 0.000E+00

     total cpu time spent up to now is       80.6 secs

     total energy              =    -658.59570286 Ry
     estimated scf accuracy    <       0.01395688 Ry

     iteration #  7     ecut=    80.00 Ry     beta= 0.70
     Davidson diagonalization with overlap
     ethr =  3.99E-05,  avg # of iterations =  1.2

     negative rho (up, down):  6.739E-04 0.000E+00

     total cpu time spent up to now is       81.3 secs

     total energy              =    -658.59598460 Ry
     estimated scf accuracy    <       0.00403986 Ry

     iteration #  8     ecut=    80.00 Ry     beta= 0.70
     Davidson diagonalization with overlap
     ethr =  1.15E-05,  avg # of iterations =  2.8

     negative rho (up, down):  5.787E-04 0.000E+00

     total cpu time spent up to now is       82.0 secs

     total energy              =    -658.59604785 Ry
     estimated scf accuracy    <       0.00147782 Ry

     iteration #  9     ecut=    80.00 Ry     beta= 0.70
     Davidson diagonalization with overlap
     ethr =  4.22E-06,  avg # of iterations =  2.6

     negative rho (up, down):  5.082E-04 0.000E+00

     total cpu time spent up to now is       82.8 secs

     total energy              =    -658.59607624 Ry
     estimated scf accuracy    <       0.00015846 Ry

     iteration # 10     ecut=    80.00 Ry     beta= 0.70
     Davidson diagonalization with overlap
     ethr =  4.53E-07,  avg # of iterations =  3.3

     negative rho (up, down):  4.856E-04 0.000E+00

     total cpu time spent up to now is       83.5 secs

     total energy              =    -658.59608790 Ry
     estimated scf accuracy    <       0.00001477 Ry

     iteration # 11     ecut=    80.00 Ry     beta= 0.70
     Davidson diagonalization with overlap
     ethr =  4.22E-08,  avg # of iterations =  3.5

     negative rho (up, down):  4.808E-04 0.000E+00

     total cpu time spent up to now is       84.3 secs

     End of self-consistent calculation

          k = 0.0000 0.0000 0.0000 ( 12991 PWs)   bands (ev):

   -59.5003 -33.7190 -33.3921 -33.3921 -13.8965 -12.3489  -5.2501  -3.1807
    -1.8298  -1.8298  -1.1892  -1.1892   0.6832   0.6832   0.7737   1.2823
     1.2823   1.4475   2.4962   3.8058   3.8058   4.5303

          k = 0.0000 0.1155 0.0000 ( 12953 PWs)   bands (ev):

   -59.4966 -33.7124 -33.4288 -33.4006 -13.7678 -12.2499  -5.1041  -3.1111
    -2.2056  -1.8631  -1.4708  -1.1676   0.4397   0.6989   0.8064   1.1545
     1.2622   1.4908   2.8721   3.4332   3.7921   4.3073

          k = 0.0000 0.2309 0.0000 ( 12929 PWs)   bands (ev):

   -59.4869 -33.6950 -33.5236 -33.4226 -13.4070 -11.9768  -4.7358  -3.3287
    -2.8965  -2.0061  -1.9220  -1.1334   0.1389   0.5837   0.8074   0.8889
     1.3579   1.5974   2.8822   3.5275   3.6400   4.3393

          k = 0.0000 0.3464 0.0000 ( 12915 PWs)   bands (ev):

   -59.4749 -33.6755 -33.6369 -33.4497 -12.8977 -11.6030  -4.4810  -4.3149
    -3.2807  -2.2373  -2.0148  -1.1534  -0.0234   0.4084   0.6160   1.0097
     1.6434   1.7466   2.6968   3.4532   4.0189   4.9204

          k = 0.0000 0.4619 0.0000 ( 12872 PWs)   bands (ev):

   -59.4652 -33.7334 -33.6534 -33.4716 -12.4092 -11.2567  -5.3751  -4.4286
    -3.3809  -2.4378  -2.1502  -1.2113  -0.1776   0.6115   0.7577   1.2288
     1.5782   2.1637   2.8806   3.4668   4.0761   4.9023

          k = 0.0000-0.5774 0.0000 ( 12854 PWs)   bands (ev):

   -59.4615 -33.7678 -33.6471 -33.4799 -12.1961 -11.1085  -5.7610  -4.5589
    -3.3264  -2.5147  -2.2679  -1.2404  -0.2329   0.7852   1.0219   1.3372
     1.4518   2.2720   3.0924   3.6166   3.8171   4.8000

          k = 0.1000 0.1732 0.0000 ( 12937 PWs)   bands (ev):

   -59.4899 -33.7003 -33.4918 -33.4185 -13.5228 -12.0635  -4.8429  -3.1335
    -2.7351  -2.0142  -1.8143  -1.1789   0.2522   0.6229   0.7503   1.0050
     1.3109   1.5798   3.0030   3.3531   3.7266   4.1226

          k = 0.1000 0.2887 0.0000 ( 12944 PWs)   bands (ev):

   -59.4790 -33.6813 -33.5900 -33.4496 -13.0849 -11.7375  -4.4568  -3.8974
    -3.1286  -2.3697  -1.9623  -1.2168   0.0768   0.4095   0.6405   0.9637
     1.5717   1.7020   2.6417   3.4060   3.9838   4.4683

          k = 0.1000 0.4041 0.0000 ( 12898 PWs)   bands (ev):

   -59.4682 -33.6915 -33.6570 -33.4808 -12.5754 -11.3693  -4.9094  -4.2451
    -3.4475  -2.6479  -2.0304  -1.2980  -0.0222   0.3493   0.6093   1.2037
     1.6661   1.9515   2.6079   3.4923   4.2591   4.7791

          k = 0.1000 0.5196 0.0000 ( 12858 PWs)   bands (ev):

   -59.4615 -33.7485 -33.6470 -33.5001 -12.2071 -11.1096  -5.5651  -4.4331
    -3.4006  -2.7710  -2.2032  -1.4431  -0.0686   0.6248   0.8051   1.4133
     1.5424   2.1057   2.9110   3.6400   4.1850   4.5707

          k = 0.2000 0.3464 0.0000 ( 12917 PWs)   bands (ev):

   -59.4693 -33.6709 -33.6508 -33.4970 -12.6391 -11.4107  -4.5926  -4.0737
    -3.5301  -2.9161  -2.0398  -1.3013   0.0560   0.1562   0.5743   1.2125
     1.7191   1.8990   2.3984   3.5440   4.1534   4.7746

          k = 0.2000 0.4619 0.0000 ( 12869 PWs)   bands (ev):

   -59.4615 -33.7081 -33.6467 -33.5423 -12.2247 -11.1113  -5.1378  -4.1337
    -3.6682  -3.2320  -2.2566  -1.4848   0.1255   0.2928   0.5956   1.4127
     1.6413   2.0867   2.4953   3.6974   4.2343   4.8127

          k = 0.2000 0.5774 0.0000 ( 12850 PWs)   bands (ev):

   -59.4585 -33.7241 -33.6417 -33.5611 -12.0492 -10.9853  -5.3687  -4.3160
    -3.6194  -3.2742  -2.3591  -1.6462   0.1742   0.4587   0.6979   1.2962
     1.8189   2.0045   3.0189   3.3628   3.9932   4.9947

          k = 0.3000 0.5196 0.0000 ( 12860 PWs)   bands (ev):

   -59.4573 -33.6894 -33.6395 -33.6102 -11.9909 -10.9369  -5.0453  -4.4330
    -3.7065  -3.5552  -2.4908  -1.6196   0.2570   0.3908   0.6166   1.2161
     1.9039   2.1215   2.8071   3.4279   3.7411   5.6341

     the Fermi energy is     1.9661 ev

!    total energy              =    -658.59609066 Ry
     total all-electron energy =    -12481.769982 Ry
     estimated scf accuracy    <       0.00000014 Ry
     smearing contrib. (-TS)   =      -0.00787955 Ry
     internal energy E=F+TS    =    -658.58821112 Ry

     The total energy is F=E-TS. E is the sum of the following terms:
     one-electron contribution =   -1310.18871204 Ry
     hartree contribution      =     668.73776555 Ry
     xc contribution           =     -62.38401912 Ry
     ewald contribution        =     451.38114953 Ry
     one-center paw contrib.   =    -406.13439504 Ry

     convergence has been achieved in  11 iterations

     negative rho (up, down):  4.808E-04 0.000E+00

     Forces acting on atoms (cartesian axes, Ry/au):

     atom    1 type  1   force =     0.00000000    0.00000000    0.09957639
     atom    2 type  2   force =     0.00000000    0.00000000    0.00594261
     atom    3 type  2   force =     0.00000000    0.00000000   -0.02760119
     atom    4 type  3   force =     0.00000000    0.00000000   -0.07791780
     The non-local contrib.  to forces
     atom    1 type  1   force =     0.00000000    0.00000000   -0.12735618
     atom    2 type  2   force =     0.00000000    0.00000000   -0.04833100
     atom    3 type  2   force =     0.00000000    0.00000000    0.24956688
     atom    4 type  3   force =     0.00000000    0.00000000    0.06672104
     The ionic contribution  to forces
     atom    1 type  1   force =     0.00000000   -0.00000000  -33.66550095
     atom    2 type  2   force =    -0.00000000    0.00000000   19.22224667
     atom    3 type  2   force =    -0.00000000    0.00000000  -45.24122061
     atom    4 type  3   force =     0.00000000   -0.00000000   59.68447489
     The local contribution  to forces
     atom    1 type  1   force =     0.00000000    0.00000000   33.88298677
     atom    2 type  2   force =    -0.00000000    0.00000000  -19.17078252
     atom    3 type  2   force =    -0.00000000    0.00000000   44.96571809
     atom    4 type  3   force =    -0.00000000   -0.00000000  -59.78915763
     The core correction contribution to forces
     atom    1 type  1   force =     0.00000000    0.00000000    0.00849553
     atom    2 type  2   force =     0.00000000   -0.00000000    0.00315144
     atom    3 type  2   force =     0.00000000   -0.00000000   -0.00129855
     atom    4 type  3   force =     0.00000000    0.00000000   -0.03993150
     The Hubbard contrib.    to forces
     atom    1 type  1   force =     0.00000000    0.00000000    0.00000000
     atom    2 type  2   force =     0.00000000    0.00000000    0.00000000
     atom    3 type  2   force =     0.00000000    0.00000000    0.00000000
     atom    4 type  3   force =     0.00000000    0.00000000    0.00000000
     The SCF correction term to forces
     atom    1 type  1   force =     0.00000000    0.00000000    0.00088821
     atom    2 type  2   force =    -0.00000000   -0.00000000   -0.00040499
     atom    3 type  2   force =    -0.00000000    0.00000000   -0.00043000
     atom    4 type  3   force =    -0.00000000    0.00000000   -0.00008761

     Total force =     0.129552     Total SCF correction =     0.001070


     Computing stress (Cartesian axis) and pressure


     negative rho (up, down):  4.808E-04 0.000E+00
          total   stress  (Ry/bohr**3)                   (kbar)     P=      -21.63
  -0.00004933   0.00000000   0.00000000           -7.26        0.00        0.00
   0.00000000  -0.00004933   0.00000000            0.00       -7.26        0.00
   0.00000000  -0.00000000  -0.00034247            0.00       -0.00      -50.38

     Energy error            =      3.0E-02 Ry
     Gradient error          =      1.0E-01 Ry/Bohr

     number of scf cycles    =   7
     number of bfgs steps    =   6

     energy             old  =    -658.5662285143 Ry
     energy             new  =    -658.5960906633 Ry

     CASE: energy            _new < energy            _old

     new trust radius        =       0.4738660521 bohr
     new conv_thr            =       0.0000009958 Ry


ATOMIC_POSITIONS (crystal)
Mo            0.0000000000        0.0000000000        0.4992738328
S             0.6666666667        0.3333333333        0.6200351562
S             0.6666666667        0.3333333333        0.4199816827
Co            0.0000000000        0.0000000000        0.6583453920



     Writing config-only to output data dir ./tmp/relax.save/
     NEW-OLD atomic charge density approx. for the potential

     negative rho (up, down):  5.036E-04 0.000E+00

     total cpu time spent up to now is       86.9 secs

     Self-consistent Calculation

     iteration #  1     ecut=    80.00 Ry     beta= 0.70
     Davidson diagonalization with overlap
     c_bands:  4 eigenvalues not converged
     c_bands:  3 eigenvalues not converged
     c_bands:  3 eigenvalues not converged
     ethr =  1.00E-06,  avg # of iterations = 22.0

     negative rho (up, down):  5.487E-04 0.000E+00

     total cpu time spent up to now is       89.7 secs

     total energy              =    -658.11390201 Ry
     estimated scf accuracy    <       0.51160631 Ry

     iteration #  2     ecut=    80.00 Ry     beta= 0.70
     Davidson diagonalization with overlap
     ethr =  1.46E-03,  avg # of iterations =  9.2

     negative rho (up, down):  3.337E-04 0.000E+00

     total cpu time spent up to now is       90.8 secs

     total energy              =    -655.96143636 Ry
     estimated scf accuracy    <     124.64384131 Ry

     iteration #  3     ecut=    80.00 Ry     beta= 0.70
     Davidson diagonalization with overlap
     ethr =  1.46E-03,  avg # of iterations =  8.4

     negative rho (up, down):  2.951E-04 0.000E+00

     total cpu time spent up to now is       92.0 secs

     total energy              =    -658.46093010 Ry
     estimated scf accuracy    <       2.20258727 Ry

     iteration #  4     ecut=    80.00 Ry     beta= 0.70
     Davidson diagonalization with overlap
     ethr =  1.46E-03,  avg # of iterations =  2.6

     negative rho (up, down):  5.192E-04 0.000E+00

     total cpu time spent up to now is       92.8 secs

     total energy              =    -658.57575569 Ry
     estimated scf accuracy    <       0.39578073 Ry

     iteration #  5     ecut=    80.00 Ry     beta= 0.70
     Davidson diagonalization with overlap
     ethr =  1.13E-03,  avg # of iterations =  1.4

     negative rho (up, down):  1.632E-03 0.000E+00

     total cpu time spent up to now is       93.5 secs

     total energy              =    -658.57318573 Ry
     estimated scf accuracy    <       0.17791566 Ry

     iteration #  6     ecut=    80.00 Ry     beta= 0.70
     Davidson diagonalization with overlap
     ethr =  5.08E-04,  avg # of iterations =  2.2

     negative rho (up, down):  1.624E-03 0.000E+00

     total cpu time spent up to now is       94.3 secs

     total energy              =    -658.57945455 Ry
     estimated scf accuracy    <       0.01860949 Ry

     iteration #  7     ecut=    80.00 Ry     beta= 0.70
     Davidson diagonalization with overlap
     ethr =  5.32E-05,  avg # of iterations =  7.2

     negative rho (up, down):  1.008E-03 0.000E+00

     total cpu time spent up to now is       95.1 secs

     total energy              =    -658.58127666 Ry
     estimated scf accuracy    <       0.00344114 Ry

     iteration #  8     ecut=    80.00 Ry     beta= 0.70
     Davidson diagonalization with overlap
     ethr =  9.83E-06,  avg # of iterations =  3.3

     negative rho (up, down):  6.900E-04 0.000E+00

     total cpu time spent up to now is       95.9 secs

     total energy              =    -658.58134314 Ry
     estimated scf accuracy    <       0.00188489 Ry

     iteration #  9     ecut=    80.00 Ry     beta= 0.70
     Davidson diagonalization with overlap
     ethr =  5.39E-06,  avg # of iterations =  1.4

     negative rho (up, down):  5.382E-04 0.000E+00

     total cpu time spent up to now is       96.6 secs

     total energy              =    -658.58138913 Ry
     estimated scf accuracy    <       0.00028421 Ry

     iteration # 10     ecut=    80.00 Ry     beta= 0.70
     Davidson diagonalization with overlap
     ethr =  8.12E-07,  avg # of iterations =  2.9

     negative rho (up, down):  5.072E-04 0.000E+00

     total cpu time spent up to now is       97.4 secs

     total energy              =    -658.58140951 Ry
     estimated scf accuracy    <       0.00001714 Ry

     iteration # 11     ecut=    80.00 Ry     beta= 0.70
     Davidson diagonalization with overlap
     ethr =  4.90E-08,  avg # of iterations =  4.6

     negative rho (up, down):  5.051E-04 0.000E+00

     total cpu time spent up to now is       98.3 secs

     total energy              =    -658.58141431 Ry
     estimated scf accuracy    <       0.00000340 Ry

     iteration # 12     ecut=    80.00 Ry     beta= 0.70
     Davidson diagonalization with overlap
     ethr =  9.70E-09,  avg # of iterations =  1.9

     negative rho (up, down):  5.045E-04 0.000E+00

     total cpu time spent up to now is       99.0 secs

     End of self-consistent calculation

          k = 0.0000 0.0000 0.0000 ( 12991 PWs)   bands (ev):

   -59.3110 -33.5187 -33.2147 -33.2147 -14.3702 -12.2844  -5.3851  -3.7973
    -3.7973  -3.3983  -1.2097  -1.2097  -0.1522  -0.1522   0.5985   1.5576
     1.5576   1.6024   3.9933   4.7640   4.7640   4.8873

          k = 0.0000 0.1155 0.0000 ( 12953 PWs)   bands (ev):

   -59.3072 -33.5122 -33.2514 -33.2232 -14.2456 -12.1799  -5.2603  -3.9967
    -3.7503  -3.2825  -1.4904  -1.1739  -0.2985  -0.1620   0.7008   1.2755
     1.5374   1.6343   4.1119   4.2432   4.5731   4.6800

          k = 0.0000 0.2309 0.0000 ( 12929 PWs)   bands (ev):

   -59.2975 -33.4957 -33.3461 -33.2453 -13.8984 -11.8946  -4.9914  -4.4615
    -3.6328  -3.1122  -1.9649  -1.1552  -0.5716  -0.1517   0.5892   1.0199
     1.4474   1.6632   3.1887   4.0200   4.2245   5.0444

          k = 0.0000 0.3464 0.0000 ( 12915 PWs)   bands (ev):

   -59.2855 -33.4832 -33.4533 -33.2726 -13.4151 -11.5113  -5.3413  -4.4372
    -3.5040  -3.3112  -2.0673  -1.2364  -0.7837  -0.0694   0.3507   0.7368
     1.1820   2.1029   2.7197   3.4358   4.2417   5.1849

          k = 0.0000 0.4619 0.0000 ( 12872 PWs)   bands (ev):

   -59.2757 -33.5577 -33.4539 -33.2945 -12.9618 -11.1655  -5.9295  -4.4359
    -3.4198  -3.3874  -2.1743  -1.3375  -0.7531   0.0825   0.1170   0.6487
     0.9531   2.3601   2.7743   3.3577   4.0799   4.9906

          k = 0.0000-0.5774 0.0000 ( 12854 PWs)   bands (ev):

   -59.2720 -33.5921 -33.4478 -33.3028 -12.7682 -11.0216  -6.1799  -4.5445
    -3.3937  -3.3132  -2.2826  -1.3783  -0.5559   0.0058   0.1782   0.2815
     1.1421   2.2458   2.9448   3.6742   3.8960   4.7886

          k = 0.1000 0.1732 0.0000 ( 12937 PWs)   bands (ev):

   -59.3005 -33.5007 -33.3144 -33.2412 -14.0095 -11.9848  -5.0471  -4.3276
    -3.6839  -3.1293  -1.8377  -1.1972  -0.4770  -0.1906   0.6982   1.1253
     1.3516   1.6990   3.4342   4.0713   4.4069   4.6198

          k = 0.1000 0.2887 0.0000 ( 12944 PWs)   bands (ev):

   -59.2897 -33.4833 -33.4117 -33.2724 -13.5918 -11.6483  -5.0464  -4.5229
    -3.6016  -3.1995  -2.0135  -1.3081  -0.7003  -0.1818   0.4757   0.7956
     1.2918   1.9580   2.7397   3.5068   4.3545   4.9457

          k = 0.1000 0.4041 0.0000 ( 12898 PWs)   bands (ev):

   -59.2788 -33.5154 -33.4576 -33.3038 -13.1152 -11.2768  -5.6047  -4.3091
    -3.6161  -3.4027  -2.0543  -1.4130  -0.8036  -0.0352   0.2963   0.5957
     0.8782   2.2656   2.5935   3.3872   4.3403   4.8469

          k = 0.1000 0.5196 0.0000 ( 12858 PWs)   bands (ev):

   -59.2720 -33.5727 -33.4477 -33.3231 -12.7793 -11.0225  -6.0103  -4.4228
    -3.5733  -3.3633  -2.1989  -1.5174  -0.7026   0.0113   0.1739   0.4426
     0.9160   2.1089   2.8548   3.7041   3.9995   4.7223

          k = 0.2000 0.3464 0.0000 ( 12917 PWs)   bands (ev):

   -59.2799 -33.4899 -33.4561 -33.3200 -13.1747 -11.3182  -5.3739  -4.2727
    -3.7211  -3.4401  -2.0203  -1.4393  -0.8154  -0.1362   0.3657   0.4692
     0.8987   2.2751   2.3883   3.4650   4.4901   4.6796

          k = 0.2000 0.4619 0.0000 ( 12869 PWs)   bands (ev):

   -59.2720 -33.5322 -33.4473 -33.3655 -12.7970 -11.0238  -5.6537  -4.2457
    -3.8358  -3.5210  -2.2178  -1.5385  -0.8632   0.0028   0.2661   0.4439
     0.5653   2.0392   2.5860   3.7633   4.0463   4.9046

          k = 0.2000 0.5774 0.0000 ( 12850 PWs)   bands (ev):

   -59.2690 -33.5482 -33.4426 -33.3843 -12.6407 -10.9029  -5.7581  -4.3784
    -3.8328  -3.4706  -2.3074  -1.6407  -0.8984  -0.0915   0.1618   0.6478
     0.7235   1.8073   2.9530   3.4293   3.8331   5.1804

          k = 0.3000 0.5196 0.0000 ( 12860 PWs)   bands (ev):

   -59.2678 -33.5135 -33.4404 -33.4336 -12.5905 -10.8565  -5.4534  -4.6197
    -3.7073  -3.6598  -2.4558  -1.5814  -1.0312  -0.1129   0.1776   0.4848
     0.9316   1.6786   2.8655   3.4113   3.5973   5.8216

     the Fermi energy is     2.0199 ev

!    total energy              =    -658.58141436 Ry
     total all-electron energy =    -12481.755305 Ry
     estimated scf accuracy    <       0.00000039 Ry
     smearing contrib. (-TS)   =      -0.00551070 Ry
     internal energy E=F+TS    =    -658.57590366 Ry

     The total energy is F=E-TS. E is the sum of the following terms:
     one-electron contribution =   -1356.68816106 Ry
     hartree contribution      =     691.83894014 Ry
     xc contribution           =     -62.62236818 Ry
     ewald contribution        =     475.06877031 Ry
     one-center paw contrib.   =    -406.17308486 Ry

     convergence has been achieved in  12 iterations

     negative rho (up, down):  5.045E-04 0.000E+00

     Forces acting on atoms (cartesian axes, Ry/au):

     atom    1 type  1   force =     0.00000000    0.00000000    0.10582891
     atom    2 type  2   force =     0.00000000    0.00000000   -0.12536169
     atom    3 type  2   force =     0.00000000    0.00000000   -0.04808853
     atom    4 type  3   force =     0.00000000    0.00000000    0.06762131
     The non-local contrib.  to forces
     atom    1 type  1   force =     0.00000000    0.00000000   -0.14738419
     atom    2 type  2   force =     0.00000000    0.00000000   -0.18155237
     atom    3 type  2   force =     0.00000000    0.00000000    0.23706430
     atom    4 type  3   force =     0.00000000    0.00000000    0.06715319
     The ionic contribution  to forces
     atom    1 type  1   force =     0.00000000   -0.00000000  -34.96749773
     atom    2 type  2   force =    -0.00000000    0.00000000   22.26540371
     atom    3 type  2   force =    -0.00000000   -0.00000000  -45.55852316
     atom    4 type  3   force =     0.00000000   -0.00000000   58.26061717
     The local contribution  to forces
     atom    1 type  1   force =     0.00000000    0.00000000   35.20870815
     atom    2 type  2   force =    -0.00000000    0.00000000  -22.21926907
     atom    3 type  2   force =    -0.00000000    0.00000000   45.27409662
     atom    4 type  3   force =     0.00000000    0.00000000  -58.22464380
     The core correction contribution to forces
     atom    1 type  1   force =    -0.00000000    0.00000000    0.00966562
     atom    2 type  2   force =     0.00000000   -0.00000000    0.00891578
     atom    3 type  2   force =     0.00000000   -0.00000000   -0.00077611
     atom    4 type  3   force =    -0.00000000   -0.00000000   -0.03621408
     The Hubbard contrib.    to forces
     atom    1 type  1   force =     0.00000000    0.00000000    0.00000000
     atom    2 type  2   force =     0.00000000    0.00000000    0.00000000
     atom    3 type  2   force =     0.00000000    0.00000000    0.00000000
     atom    4 type  3   force =     0.00000000    0.00000000    0.00000000
     The SCF correction term to forces
     atom    1 type  1   force =    -0.00000000   -0.00000000    0.00236033
     atom    2 type  2   force =     0.00000000    0.00000000    0.00116353
     atom    3 type  2   force =    -0.00000000   -0.00000000    0.00007310
     atom    4 type  3   force =     0.00000000    0.00000000    0.00073210

     Total force =     0.183849     Total SCF correction =     0.002732


     Computing stress (Cartesian axis) and pressure


     negative rho (up, down):  5.045E-04 0.000E+00
          total   stress  (Ry/bohr**3)                   (kbar)     P=       36.43
   0.00038606   0.00000000   0.00000000           56.79        0.00        0.00
   0.00000000   0.00038606   0.00000000            0.00       56.79        0.00
   0.00000000   0.00000000  -0.00002922            0.00        0.00       -4.30

     Energy error            =      1.5E-02 Ry
     Gradient error          =      1.3E-01 Ry/Bohr

     number of scf cycles    =   8
     number of bfgs steps    =   7

     energy             old  =    -658.5960906633 Ry
     energy             new  =    -658.5814143589 Ry

     CASE: energy            _new > energy            _old

     new trust radius        =       0.1702922846 bohr
     new conv_thr            =       0.0000009958 Ry


ATOMIC_POSITIONS (crystal)
Mo            0.0000000000        0.0000000000        0.4992005472
S             0.6666666667        0.3333333333        0.6127233727
S             0.6666666667        0.3333333333        0.4185352884
Co            0.0000000000        0.0000000000        0.6671768554



     Writing config-only to output data dir ./tmp/relax.save/
     NEW-OLD atomic charge density approx. for the potential

     negative rho (up, down):  4.510E-04 0.000E+00

     total cpu time spent up to now is      101.6 secs

     Self-consistent Calculation

     iteration #  1     ecut=    80.00 Ry     beta= 0.70
     Davidson diagonalization with overlap
     c_bands:  1 eigenvalues not converged
     c_bands:  1 eigenvalues not converged
     c_bands:  5 eigenvalues not converged
     c_bands:  1 eigenvalues not converged
     ethr =  1.00E-06,  avg # of iterations = 17.8

     negative rho (up, down):  4.795E-04 0.000E+00

     total cpu time spent up to now is      103.7 secs

     total energy              =    -658.01813205 Ry
     estimated scf accuracy    <       0.66809423 Ry

     iteration #  2     ecut=    80.00 Ry     beta= 0.70
     Davidson diagonalization with overlap
     ethr =  1.91E-03,  avg # of iterations =  9.1

     negative rho (up, down):  3.817E-04 0.000E+00

     total cpu time spent up to now is      104.9 secs

     total energy              =    -655.79883885 Ry
     estimated scf accuracy    <     148.75371030 Ry

     iteration #  3     ecut=    80.00 Ry     beta= 0.70
     Davidson diagonalization with overlap
     ethr =  1.91E-03,  avg # of iterations = 10.2

     negative rho (up, down):  3.759E-04 0.000E+00

     total cpu time spent up to now is      106.2 secs

     total energy              =    -658.49595540 Ry
     estimated scf accuracy    <       1.76917124 Ry

     iteration #  4     ecut=    80.00 Ry     beta= 0.70
     Davidson diagonalization with overlap
     ethr =  1.91E-03,  avg # of iterations =  2.0

     negative rho (up, down):  3.996E-04 0.000E+00

     total cpu time spent up to now is      106.9 secs

     total energy              =    -658.59660214 Ry
     estimated scf accuracy    <       0.19390267 Ry

     iteration #  5     ecut=    80.00 Ry     beta= 0.70
     Davidson diagonalization with overlap
     ethr =  5.54E-04,  avg # of iterations =  1.7

     negative rho (up, down):  4.464E-04 0.000E+00

     total cpu time spent up to now is      107.6 secs

     total energy              =    -658.60010041 Ry
     estimated scf accuracy    <       0.09660748 Ry

     iteration #  6     ecut=    80.00 Ry     beta= 0.70
     Davidson diagonalization with overlap
     ethr =  2.76E-04,  avg # of iterations =  1.6

     negative rho (up, down):  4.825E-04 0.000E+00

     total cpu time spent up to now is      108.3 secs

     total energy              =    -658.60339425 Ry
     estimated scf accuracy    <       0.01016602 Ry

     iteration #  7     ecut=    80.00 Ry     beta= 0.70
     Davidson diagonalization with overlap
     ethr =  2.90E-05,  avg # of iterations =  4.3

     negative rho (up, down):  4.770E-04 0.000E+00

     total cpu time spent up to now is      109.0 secs

     total energy              =    -658.60477737 Ry
     estimated scf accuracy    <       0.00055920 Ry

     iteration #  8     ecut=    80.00 Ry     beta= 0.70
     Davidson diagonalization with overlap
     ethr =  1.60E-06,  avg # of iterations =  5.1

     negative rho (up, down):  4.707E-04 0.000E+00

     total cpu time spent up to now is      109.9 secs

     total energy              =    -658.60489662 Ry
     estimated scf accuracy    <       0.00036718 Ry

     iteration #  9     ecut=    80.00 Ry     beta= 0.70
     Davidson diagonalization with overlap
     ethr =  1.05E-06,  avg # of iterations =  1.9

     negative rho (up, down):  4.650E-04 0.000E+00

     total cpu time spent up to now is      110.5 secs

     total energy              =    -658.60491028 Ry
     estimated scf accuracy    <       0.00006009 Ry

     iteration # 10     ecut=    80.00 Ry     beta= 0.70
     Davidson diagonalization with overlap
     ethr =  1.72E-07,  avg # of iterations =  3.1

     negative rho (up, down):  4.638E-04 0.000E+00

     total cpu time spent up to now is      111.3 secs

     total energy              =    -658.60492085 Ry
     estimated scf accuracy    <       0.00000118 Ry

     iteration # 11     ecut=    80.00 Ry     beta= 0.70
     Davidson diagonalization with overlap
     ethr =  3.37E-09,  avg # of iterations =  5.9

     negative rho (up, down):  4.640E-04 0.000E+00

     total cpu time spent up to now is      112.2 secs

     total energy              =    -658.60492182 Ry
     estimated scf accuracy    <       0.00000105 Ry

     iteration # 12     ecut=    80.00 Ry     beta= 0.70
     Davidson diagonalization with overlap
     ethr =  2.99E-09,  avg # of iterations =  1.1

     negative rho (up, down):  4.639E-04 0.000E+00

     total cpu time spent up to now is      112.8 secs

     End of self-consistent calculation

          k = 0.0000 0.0000 0.0000 ( 12991 PWs)   bands (ev):

   -59.4593 -33.6820 -33.3521 -33.3521 -14.0894 -12.3707  -5.3329  -3.3282
    -2.5224  -2.5224  -1.2377  -1.2377   0.3688   0.3688   0.7736   1.3332
     1.3332   1.4479   2.9878   4.0708   4.0709   4.6178

          k = 0.0000 0.1155 0.0000 ( 12953 PWs)   bands (ev):

   -59.4556 -33.6754 -33.3887 -33.3606 -13.9635 -12.2692  -5.1919  -3.2503
    -2.8136  -2.5355  -1.5212  -1.2029   0.2049   0.3769   0.7400   1.1913
     1.3112   1.4808   3.3016   3.6302   4.0148   4.4037

          k = 0.0000 0.2309 0.0000 ( 12929 PWs)   bands (ev):

   -59.4459 -33.6583 -33.4836 -33.3826 -13.6110 -11.9904  -4.8388  -3.6875
    -3.0632  -2.5928  -1.9832  -1.1768  -0.0837   0.4504   0.4542   0.9371
     1.4258   1.5394   2.9733   3.7647   3.7775   4.5246

          k = 0.0000 0.3464 0.0000 ( 12915 PWs)   bands (ev):

   -59.4339 -33.6393 -33.5967 -33.4098 -13.1151 -11.6113  -4.7970  -4.3696
    -3.3307  -2.7032  -2.0755  -1.2381  -0.2697   0.2947   0.5633   0.6209
     1.5377   1.8512   2.7073   3.4765   4.0776   5.1256

          k = 0.0000 0.4619 0.0000 ( 12872 PWs)   bands (ev):

   -59.4242 -33.6939 -33.6167 -33.4316 -12.6420 -11.2637  -5.5969  -4.4644
    -3.4030  -2.8167  -2.2001  -1.3256  -0.3397   0.3688   0.6778   0.8339
     1.3554   2.2747   2.8285   3.4382   4.0196   4.8873

          k = 0.0000-0.5774 0.0000 ( 12854 PWs)   bands (ev):

   -59.4205 -33.7281 -33.6106 -33.4400 -12.4366 -11.1166  -5.9434  -4.5913
    -3.3342  -2.8641  -2.3193  -1.3634  -0.3654   0.6096   0.8549   0.9445
     1.1044   2.3502   3.0058   3.6194   3.7898   4.7443

          k = 0.1000 0.1732 0.0000 ( 12937 PWs)   bands (ev):

   -59.4489 -33.6636 -33.4518 -33.3785 -13.7240 -12.0788  -4.9403  -3.4288
    -3.0455  -2.6097  -1.8665  -1.2209   0.0256   0.3589   0.5946   1.0110
     1.3608   1.5463   3.1182   3.6463   3.9291   4.2282

          k = 0.1000 0.2887 0.0000 ( 12944 PWs)   bands (ev):

   -59.4381 -33.6448 -33.5499 -33.4096 -13.2972 -11.7473  -4.6148  -4.1664
    -3.2073  -2.8106  -2.0354  -1.2987  -0.1899   0.2794   0.5437   0.6718
     1.5976   1.6942   2.6666   3.4564   4.1009   4.6503

          k = 0.1000 0.4041 0.0000 ( 12898 PWs)   bands (ev):

   -59.4272 -33.6528 -33.6195 -33.4409 -12.8028 -11.3763  -5.1808  -4.2800
    -3.4821  -2.9952  -2.0902  -1.3824  -0.2897   0.2910   0.4123   0.8117
     1.4759   2.0629   2.5959   3.4638   4.2789   4.7559

          k = 0.1000 0.5196 0.0000 ( 12858 PWs)   bands (ev):

   -59.4205 -33.7089 -33.6105 -33.4602 -12.4475 -11.1177  -5.7589  -4.4650
    -3.4126  -3.0872  -2.2448  -1.5193  -0.2876   0.4307   0.6676   1.0070
     1.2132   2.1618   2.8804   3.6326   4.0812   4.5756

          k = 0.2000 0.3464 0.0000 ( 12917 PWs)   bands (ev):

   -59.4284 -33.6342 -33.6111 -33.4571 -12.8646 -11.4179  -4.9052  -4.0989
    -3.5928  -3.2053  -2.0856  -1.3813  -0.2764   0.1229   0.3840   0.8203
     1.5419   2.0041   2.3891   3.5204   4.2410   4.7433

          k = 0.2000 0.4619 0.0000 ( 12869 PWs)   bands (ev):

   -59.4205 -33.6686 -33.6100 -33.5025 -12.4651 -11.1193  -5.3637  -4.1817
    -3.7119  -3.4342  -2.2847  -1.5259  -0.2239   0.2642   0.3274   1.0025
     1.3522   2.1176   2.4843   3.6887   4.1575   4.7923

          k = 0.2000 0.5774 0.0000 ( 12850 PWs)   bands (ev):

   -59.4175 -33.6845 -33.6053 -33.5212 -12.2968 -10.9950  -5.5563  -4.3708
    -3.6939  -3.4178  -2.3758  -1.6758  -0.1747   0.3723   0.4757   0.8450
     1.5112   2.0014   2.9932   3.3169   3.8731   5.0363

          k = 0.3000 0.5196 0.0000 ( 12860 PWs)   bands (ev):

   -59.4163 -33.6498 -33.6030 -33.5704 -12.2414 -10.9474  -5.2502  -4.5457
    -3.7433  -3.6115  -2.5104  -1.6329  -0.1345   0.3326   0.3518   0.7508
     1.6964   2.0443   2.7722   3.3960   3.5777   5.6682

     the Fermi energy is     1.9841 ev

!    total energy              =    -658.60492176 Ry
     total all-electron energy =    -12481.778813 Ry
     estimated scf accuracy    <       0.00000013 Ry
     smearing contrib. (-TS)   =      -0.00597821 Ry
     internal energy E=F+TS    =    -658.59894356 Ry

     The total energy is F=E-TS. E is the sum of the following terms:
     one-electron contribution =   -1327.26960831 Ry
     hartree contribution      =     677.18584359 Ry
     xc contribution           =     -62.45870860 Ry
     ewald contribution        =     460.08892096 Ry
     one-center paw contrib.   =    -406.14539119 Ry

     convergence has been achieved in  12 iterations

     negative rho (up, down):  4.639E-04 0.000E+00

     Forces acting on atoms (cartesian axes, Ry/au):

     atom    1 type  1   force =     0.00000000    0.00000000    0.10302781
     atom    2 type  2   force =     0.00000000    0.00000000   -0.02677098
     atom    3 type  2   force =     0.00000000    0.00000000   -0.03348991
     atom    4 type  3   force =     0.00000000    0.00000000   -0.04276693
     The non-local contrib.  to forces
     atom    1 type  1   force =     0.00000000    0.00000000   -0.13803969
     atom    2 type  2   force =     0.00000000   -0.00000000   -0.09640775
     atom    3 type  2   force =     0.00000000    0.00000000    0.24517151
     atom    4 type  3   force =     0.00000000    0.00000000    0.05129270
     The ionic contribution  to forces
     atom    1 type  1   force =     0.00000000   -0.00000000  -34.13837261
     atom    2 type  2   force =    -0.00000000    0.00000000   19.97024278
     atom    3 type  2   force =    -0.00000000   -0.00000000  -45.35707884
     atom    4 type  3   force =     0.00000000   -0.00000000   59.52520867
     The local contribution  to forces
     atom    1 type  1   force =    -0.00000000   -0.00000000   34.37125915
     atom    2 type  2   force =    -0.00000000    0.00000000  -19.90644583
     atom    3 type  2   force =    -0.00000000    0.00000000   45.07990668
     atom    4 type  3   force =     0.00000000   -0.00000000  -59.57709282
     The core correction contribution to forces
     atom    1 type  1   force =     0.00000000    0.00000000    0.00918145
     atom    2 type  2   force =     0.00000000   -0.00000000    0.00553305
     atom    3 type  2   force =     0.00000000   -0.00000000   -0.00111680
     atom    4 type  3   force =    -0.00000000   -0.00000000   -0.04243528
     The Hubbard contrib.    to forces
     atom    1 type  1   force =     0.00000000    0.00000000    0.00000000
     atom    2 type  2   force =     0.00000000    0.00000000    0.00000000
     atom    3 type  2   force =     0.00000000    0.00000000    0.00000000
     atom    4 type  3   force =     0.00000000    0.00000000    0.00000000
     The SCF correction term to forces
     atom    1 type  1   force =     0.00000000    0.00000000   -0.00094556
     atom    2 type  2   force =     0.00000000    0.00000000    0.00036170
     atom    3 type  2   force =    -0.00000000    0.00000000   -0.00031752
     atom    4 type  3   force =    -0.00000000   -0.00000000    0.00031473

     Total force =     0.119507     Total SCF correction =     0.001107


     Computing stress (Cartesian axis) and pressure


     negative rho (up, down):  4.639E-04 0.000E+00
          total   stress  (Ry/bohr**3)                   (kbar)     P=       -6.53
   0.00005683   0.00000000   0.00000000            8.36        0.00        0.00
   0.00000000   0.00005683   0.00000000            0.00        8.36        0.00
   0.00000000   0.00000000  -0.00024677            0.00        0.00      -36.30

     Energy error            =      8.8E-03 Ry
     Gradient error          =      1.0E-01 Ry/Bohr

     number of scf cycles    =   9
     number of bfgs steps    =   7

     energy             old  =    -658.5960906633 Ry
     energy             new  =    -658.6049217619 Ry

     CASE: energy            _new < energy            _old

     new trust radius        =       0.0428742475 bohr
     new conv_thr            =       0.0000008831 Ry


ATOMIC_POSITIONS (crystal)
Mo            0.0000000000        0.0000000000        0.4995107565
S             0.6666666667        0.3333333333        0.6138730244
S             0.6666666667        0.3333333333        0.4183227103
Co            0.0000000000        0.0000000000        0.6659295726



     Writing config-only to output data dir ./tmp/relax.save/
     NEW-OLD atomic charge density approx. for the potential

     negative rho (up, down):  4.666E-04 0.000E+00

     total cpu time spent up to now is      115.2 secs

     Self-consistent Calculation

     iteration #  1     ecut=    80.00 Ry     beta= 0.70
     Davidson diagonalization with overlap
     ethr =  1.00E-06,  avg # of iterations =  8.6

     negative rho (up, down):  4.687E-04 0.000E+00

     total cpu time spent up to now is      116.6 secs

     total energy              =    -658.60588372 Ry
     estimated scf accuracy    <       0.00091085 Ry

     iteration #  2     ecut=    80.00 Ry     beta= 0.70
     Davidson diagonalization with overlap
     ethr =  2.60E-06,  avg # of iterations =  7.3

     negative rho (up, down):  4.688E-04 0.000E+00

     total cpu time spent up to now is      117.7 secs

     total energy              =    -658.60026152 Ry
     estimated scf accuracy    <       0.15678402 Ry

     iteration #  3     ecut=    80.00 Ry     beta= 0.70
     Davidson diagonalization with overlap
     ethr =  2.60E-06,  avg # of iterations =  7.6

     negative rho (up, down):  4.685E-04 0.000E+00

     total cpu time spent up to now is      118.7 secs

     total energy              =    -658.60613697 Ry
     estimated scf accuracy    <       0.00252641 Ry

     iteration #  4     ecut=    80.00 Ry     beta= 0.70
     Davidson diagonalization with overlap
     ethr =  2.60E-06,  avg # of iterations =  2.4

     negative rho (up, down):  4.687E-04 0.000E+00

     total cpu time spent up to now is      119.5 secs

     total energy              =    -658.60635554 Ry
     estimated scf accuracy    <       0.00032871 Ry

     iteration #  5     ecut=    80.00 Ry     beta= 0.70
     Davidson diagonalization with overlap
     ethr =  9.39E-07,  avg # of iterations =  2.2

     negative rho (up, down):  4.694E-04 0.000E+00

     total cpu time spent up to now is      120.2 secs

     total energy              =    -658.60640189 Ry
     estimated scf accuracy    <       0.00011907 Ry

     iteration #  6     ecut=    80.00 Ry     beta= 0.70
     Davidson diagonalization with overlap
     ethr =  3.40E-07,  avg # of iterations =  2.0

     negative rho (up, down):  4.698E-04 0.000E+00

     total cpu time spent up to now is      121.0 secs

     total energy              =    -658.60641486 Ry
     estimated scf accuracy    <       0.00002310 Ry

     iteration #  7     ecut=    80.00 Ry     beta= 0.70
     Davidson diagonalization with overlap
     ethr =  6.60E-08,  avg # of iterations =  2.1

     negative rho (up, down):  4.701E-04 0.000E+00

     total cpu time spent up to now is      121.8 secs

     total energy              =    -658.60641908 Ry
     estimated scf accuracy    <       0.00000138 Ry

     iteration #  8     ecut=    80.00 Ry     beta= 0.70
     Davidson diagonalization with overlap
     ethr =  3.93E-09,  avg # of iterations =  3.2

     negative rho (up, down):  4.702E-04 0.000E+00

     total cpu time spent up to now is      122.6 secs

     End of self-consistent calculation

          k = 0.0000 0.0000 0.0000 ( 12991 PWs)   bands (ev):

   -59.4495 -33.6709 -33.3383 -33.3383 -14.1359 -12.3537  -5.3521  -3.3292
    -2.7170  -2.7170  -1.1791  -1.1791   0.2815   0.2815   0.7424   1.3666
     1.3666   1.4218   3.1411   4.1639   4.1647   4.6048

          k = 0.0000 0.1155 0.0000 ( 12953 PWs)   bands (ev):

   -59.4458 -33.6644 -33.3748 -33.3468 -14.0108 -12.2513  -5.2123  -3.2554
    -2.9806  -2.7220  -1.4682  -1.1442   0.1228   0.2874   0.7239   1.2022
     1.3437   1.4592   3.4391   3.7002   4.0922   4.3925

          k = 0.0000 0.2309 0.0000 ( 12929 PWs)   bands (ev):

   -59.4361 -33.6474 -33.4691 -33.3687 -13.6604 -11.9696  -4.8644  -3.7964
    -3.0600  -2.7547  -1.9523  -1.1239  -0.1629   0.3525   0.4473   0.9306
     1.4612   1.5171   3.0087   3.8053   3.8313   4.5655

          k = 0.0000 0.3464 0.0000 ( 12915 PWs)   bands (ev):

   -59.4242 -33.6282 -33.5820 -33.3958 -13.1682 -11.5862  -4.8821  -4.3742
    -3.3078  -2.8317  -2.0691  -1.1980  -0.3514   0.2680   0.5129   0.5624
     1.5017   1.8918   2.7187   3.4845   4.0707   4.9841

          k = 0.0000 0.4619 0.0000 ( 12872 PWs)   bands (ev):

   -59.4145 -33.6783 -33.6061 -33.4175 -12.6994 -11.2344  -5.6534  -4.4499
    -3.3962  -2.9192  -2.1960  -1.2954  -0.3903   0.2765   0.6893   0.7215
     1.2796   2.3019   2.8330   3.4379   4.0001   4.8576

          k = 0.0000-0.5774 0.0000 ( 12854 PWs)   bands (ev):

   -59.4108 -33.7123 -33.6001 -33.4258 -12.4963 -11.0856  -5.9874  -4.5756
    -3.3320  -2.9574  -2.3131  -1.3364  -0.3962   0.4946   0.8318   0.8573
     1.0017   2.3580   3.0052   3.6326   3.7900   4.7091

          k = 0.1000 0.1732 0.0000 ( 12937 PWs)   bands (ev):

   -59.4391 -33.6526 -33.4375 -33.3646 -13.7728 -12.0589  -4.9638  -3.5419
    -3.0658  -2.7724  -1.8254  -1.1681  -0.0565   0.2745   0.5816   1.0122
     1.3752   1.5357   3.1649   3.7236   3.9981   4.2262

          k = 0.1000 0.2887 0.0000 ( 12944 PWs)   bands (ev):

   -59.4283 -33.6340 -33.5352 -33.3956 -13.3488 -11.7239  -4.6669  -4.2286
    -3.1834  -2.9369  -2.0204  -1.2612  -0.2762   0.2402   0.4890   0.6427
     1.5719   1.7269   2.6826   3.4749   4.0993   4.6829

          k = 0.1000 0.4041 0.0000 ( 12898 PWs)   bands (ev):

   -59.4175 -33.6378 -33.6085 -33.4267 -12.8587 -11.3486  -5.2512  -4.2729
    -3.4680  -3.0882  -2.0820  -1.3587  -0.3724   0.2440   0.4089   0.7057
     1.4091   2.0967   2.6035   3.4662   4.2569   4.7287

          k = 0.1000 0.5196 0.0000 ( 12858 PWs)   bands (ev):

   -59.4108 -33.6932 -33.6000 -33.4459 -12.5072 -11.0869  -5.8059  -4.4492
    -3.4111  -3.1649  -2.2349  -1.4976  -0.3454   0.3331   0.6808   0.8859
     1.1109   2.1718   2.8894   3.6412   4.0537   4.5560

          k = 0.2000 0.3464 0.0000 ( 12917 PWs)   bands (ev):

   -59.4186 -33.6218 -33.5976 -33.4428 -12.9199 -11.3909  -4.9843  -4.1061
    -3.5805  -3.2692  -2.0677  -1.3700  -0.3739   0.1186   0.3524   0.7142
     1.4722   2.0408   2.3958   3.5263   4.2260   4.7171

          k = 0.2000 0.4619 0.0000 ( 12869 PWs)   bands (ev):

   -59.4108 -33.6531 -33.5995 -33.4880 -12.5247 -11.0890  -5.4190  -4.1767
    -3.7250  -3.4579  -2.2648  -1.5247  -0.3285   0.2492   0.3003   0.8817
     1.2521   2.1244   2.4973   3.6894   4.1220   4.7775

          k = 0.2000 0.5774 0.0000 ( 12850 PWs)   bands (ev):

   -59.4078 -33.6688 -33.5948 -33.5067 -12.3586 -10.9634  -5.6002  -4.3671
    -3.7156  -3.4256  -2.3578  -1.6708  -0.2766   0.2967   0.4968   0.7122
     1.4099   1.9946   2.9992   3.3219   3.8313   5.0356

          k = 0.3000 0.5196 0.0000 ( 12860 PWs)   bands (ev):

   -59.4067 -33.6342 -33.5926 -33.5557 -12.3041 -10.9154  -5.2983  -4.5662
    -3.7251  -3.6091  -2.5007  -1.6324  -0.2635   0.2877   0.3596   0.6190
     1.6142   2.0131   2.7856   3.3969   3.5329   5.6515

     the Fermi energy is     1.9955 ev

!    total energy              =    -658.60641937 Ry
     total all-electron energy =    -12481.780310 Ry
     estimated scf accuracy    <       0.00000006 Ry
     smearing contrib. (-TS)   =      -0.00579432 Ry
     internal energy E=F+TS    =    -658.60062505 Ry

     The total energy is F=E-TS. E is the sum of the following terms:
     one-electron contribution =   -1330.78291794 Ry
     hartree contribution      =     678.92380083 Ry
     xc contribution           =     -62.47173809 Ry
     ewald contribution        =     461.87807893 Ry
     one-center paw contrib.   =    -406.14784877 Ry

     convergence has been achieved in   8 iterations

     negative rho (up, down):  4.702E-04 0.000E+00

     Forces acting on atoms (cartesian axes, Ry/au):

     atom    1 type  1   force =     0.00000000    0.00000000    0.09529639
     atom    2 type  2   force =     0.00000000    0.00000000   -0.04007939
     atom    3 type  2   force =     0.00000000    0.00000000   -0.02635851
     atom    4 type  3   force =     0.00000000    0.00000000   -0.02885849
     The non-local contrib.  to forces
     atom    1 type  1   force =     0.00000000    0.00000000   -0.13740569
     atom    2 type  2   force =     0.00000000    0.00000000   -0.11076399
     atom    3 type  2   force =     0.00000000    0.00000000    0.24874682
     atom    4 type  3   force =     0.00000000    0.00000000    0.04850916
     The ionic contribution  to forces
     atom    1 type  1   force =     0.00000000   -0.00000000  -34.26279528
     atom    2 type  2   force =    -0.00000000    0.00000000   20.22187043
     atom    3 type  2   force =    -0.00000000    0.00000000  -45.38563306
     atom    4 type  3   force =     0.00000000   -0.00000000   59.42655791
     The local contribution  to forces
     atom    1 type  1   force =     0.00000000   -0.00000000   34.48765141
     atom    2 type  2   force =    -0.00000000    0.00000000  -20.15733111
     atom    3 type  2   force =    -0.00000000    0.00000000   45.11202424
     atom    4 type  3   force =     0.00000000   -0.00000000  -59.46156498
     The core correction contribution to forces
     atom    1 type  1   force =    -0.00000000    0.00000000    0.00913144
     atom    2 type  2   force =     0.00000000   -0.00000000    0.00614752
     atom    3 type  2   force =     0.00000000   -0.00000000   -0.00127709
     atom    4 type  3   force =     0.00000000    0.00000000   -0.04232346
     The Hubbard contrib.    to forces
     atom    1 type  1   force =     0.00000000    0.00000000    0.00000000
     atom    2 type  2   force =     0.00000000    0.00000000    0.00000000
     atom    3 type  2   force =     0.00000000    0.00000000    0.00000000
     atom    4 type  3   force =     0.00000000    0.00000000    0.00000000
     The SCF correction term to forces
     atom    1 type  1   force =     0.00000000   -0.00000000   -0.00126973
     atom    2 type  2   force =    -0.00000000   -0.00000000    0.00001352
     atom    3 type  2   force =    -0.00000000   -0.00000000   -0.00020367
     atom    4 type  3   force =     0.00000000    0.00000000   -0.00002135

     Total force =     0.110523     Total SCF correction =     0.001286


     Computing stress (Cartesian axis) and pressure


     negative rho (up, down):  4.702E-04 0.000E+00
          total   stress  (Ry/bohr**3)                   (kbar)     P=       -3.26
   0.00008468   0.00000000   0.00000000           12.46        0.00        0.00
   0.00000000   0.00008468   0.00000000            0.00       12.46        0.00
   0.00000000   0.00000000  -0.00023577            0.00        0.00      -34.68

     Energy error            =      1.5E-03 Ry
     Gradient error          =      9.5E-02 Ry/Bohr

     number of scf cycles    =  10
     number of bfgs steps    =   8

     energy             old  =    -658.6049217619 Ry
     energy             new  =    -658.6064193694 Ry

     CASE: energy            _new < energy            _old

     new trust radius        =       0.0267826943 bohr
     new conv_thr            =       0.0000001498 Ry


ATOMIC_POSITIONS (crystal)
Mo            0.0000000000        0.0000000000        0.5002899094
S             0.6666666667        0.3333333333        0.6143622307
S             0.6666666667        0.3333333333        0.4175712038
Co            0.0000000000        0.0000000000        0.6654127199



     Writing config-only to output data dir ./tmp/relax.save/
     NEW-OLD atomic charge density approx. for the potential

     negative rho (up, down):  4.695E-04 0.000E+00

     total cpu time spent up to now is      125.3 secs

     Self-consistent Calculation

     iteration #  1     ecut=    80.00 Ry     beta= 0.70
     Davidson diagonalization with overlap
     ethr =  1.00E-06,  avg # of iterations =  7.7

     negative rho (up, down):  4.727E-04 0.000E+00

     total cpu time spent up to now is      126.6 secs

     total energy              =    -658.60860189 Ry
     estimated scf accuracy    <       0.00041744 Ry

     iteration #  2     ecut=    80.00 Ry     beta= 0.70
     Davidson diagonalization with overlap
     ethr =  1.19E-06,  avg # of iterations =  6.4

     negative rho (up, down):  4.726E-04 0.000E+00

     total cpu time spent up to now is      127.6 secs

     total energy              =    -658.60673482 Ry
     estimated scf accuracy    <       0.04573630 Ry

     iteration #  3     ecut=    80.00 Ry     beta= 0.70
     Davidson diagonalization with overlap
     ethr =  1.19E-06,  avg # of iterations =  6.5

     negative rho (up, down):  4.728E-04 0.000E+00

     total cpu time spent up to now is      128.6 secs

     total energy              =    -658.60856239 Ry
     estimated scf accuracy    <       0.00433296 Ry

     iteration #  4     ecut=    80.00 Ry     beta= 0.70
     Davidson diagonalization with overlap
     ethr =  1.19E-06,  avg # of iterations =  3.5

     negative rho (up, down):  4.733E-04 0.000E+00

     total cpu time spent up to now is      129.4 secs

     total energy              =    -658.60884921 Ry
     estimated scf accuracy    <       0.00012304 Ry

     iteration #  5     ecut=    80.00 Ry     beta= 0.70
     Davidson diagonalization with overlap
     ethr =  3.52E-07,  avg # of iterations =  2.3

     negative rho (up, down):  4.740E-04 0.000E+00

     total cpu time spent up to now is      130.2 secs

     total energy              =    -658.60887355 Ry
     estimated scf accuracy    <       0.00003048 Ry

     iteration #  6     ecut=    80.00 Ry     beta= 0.70
     Davidson diagonalization with overlap
     ethr =  8.71E-08,  avg # of iterations =  2.6

     negative rho (up, down):  4.746E-04 0.000E+00

     total cpu time spent up to now is      131.0 secs

     total energy              =    -658.60887873 Ry
     estimated scf accuracy    <       0.00001150 Ry

     iteration #  7     ecut=    80.00 Ry     beta= 0.70
     Davidson diagonalization with overlap
     ethr =  3.29E-08,  avg # of iterations =  2.4

     negative rho (up, down):  4.748E-04 0.000E+00

     total cpu time spent up to now is      131.8 secs

     total energy              =    -658.60888058 Ry
     estimated scf accuracy    <       0.00000087 Ry

     iteration #  8     ecut=    80.00 Ry     beta= 0.70
     Davidson diagonalization with overlap
     ethr =  2.49E-09,  avg # of iterations =  3.7

     negative rho (up, down):  4.749E-04 0.000E+00

     total cpu time spent up to now is      132.6 secs

     End of self-consistent calculation

          k = 0.0000 0.0000 0.0000 ( 12991 PWs)   bands (ev):

   -59.4605 -33.6796 -33.3401 -33.3401 -14.1555 -12.3254  -5.3614  -3.2822
    -2.7966  -2.7966  -1.0503  -1.0503   0.2521   0.2521   0.6789   1.3594
     1.3914   1.3914   3.2378   4.2206   4.2206   4.5197

          k = 0.0000 0.1155 0.0000 ( 12953 PWs)   bands (ev):

   -59.4569 -33.6731 -33.3761 -33.3484 -14.0308 -12.2219  -5.2216  -3.2210
    -3.0398  -2.7989  -1.3498  -1.0166   0.0883   0.2577   0.6795   1.2084
     1.3667   1.4110   3.5258   3.7498   4.1416   4.3071

          k = 0.0000 0.2309 0.0000 ( 12929 PWs)   bands (ev):

   -59.4473 -33.6563 -33.4694 -33.3702 -13.6819 -11.9365  -4.8740  -3.8430
    -3.0071  -2.8229  -1.8736  -1.0054  -0.2009   0.3215   0.4445   0.8817
     1.4851   1.5094   3.0429   3.8230   3.8315   4.5582

          k = 0.0000 0.3464 0.0000 ( 12915 PWs)   bands (ev):

   -59.4355 -33.6365 -33.5818 -33.3969 -13.1918 -11.5459  -4.9187  -4.3698
    -3.2484  -2.8874  -2.0427  -1.0951  -0.3905   0.2573   0.4787   0.5354
     1.4983   1.9168   2.7452   3.4994   4.0212   4.9033

          k = 0.0000 0.4619 0.0000 ( 12872 PWs)   bands (ev):

   -59.4259 -33.6759 -33.6159 -33.4185 -12.7255 -11.1850  -5.6818  -4.4186
    -3.3814  -2.9643  -2.1788  -1.2036  -0.4248   0.2401   0.6802   0.6854
     1.2581   2.3119   2.8681   3.4551   3.9674   4.7846

          k = 0.0000-0.5774 0.0000 ( 12854 PWs)   bands (ev):

   -59.4222 -33.7096 -33.6100 -33.4267 -12.5236 -11.0316  -6.0112  -4.5434
    -3.3331  -2.9986  -2.2917  -1.2484  -0.4249   0.4557   0.7957   0.8343
     0.9720   2.3573   3.0355   3.6519   3.7851   4.6437

          k = 0.1000 0.1732 0.0000 ( 12937 PWs)   bands (ev):

   -59.4503 -33.6615 -33.4381 -33.3661 -13.7937 -12.0272  -4.9732  -3.5905
    -3.0296  -2.8364  -1.7295  -1.0500  -0.0943   0.2459   0.5660   0.9833
     1.3893   1.5209   3.2066   3.7634   4.0166   4.1763

          k = 0.1000 0.2887 0.0000 ( 12944 PWs)   bands (ev):

   -59.4396 -33.6429 -33.5349 -33.3968 -13.3716 -11.6866  -4.6880  -4.2555
    -3.1134  -2.9925  -1.9776  -1.1609  -0.3162   0.2266   0.4646   0.6124
     1.5715   1.7424   2.7108   3.4936   4.0314   4.6719

          k = 0.1000 0.4041 0.0000 ( 12898 PWs)   bands (ev):

   -59.4289 -33.6375 -33.6166 -33.4276 -12.8839 -11.3027  -5.2840  -4.2545
    -3.4317  -3.1268  -2.0582  -1.2854  -0.4095   0.2185   0.4044   0.6740
     1.3906   2.1128   2.6290   3.4852   4.1948   4.6689

          k = 0.1000 0.5196 0.0000 ( 12858 PWs)   bands (ev):

   -59.4222 -33.6906 -33.6099 -33.4466 -12.5346 -11.0335  -5.8309  -4.4172
    -3.4105  -3.1956  -2.2101  -1.4345  -0.3751   0.2996   0.6765   0.8460
     1.0783   2.1791   2.9203   3.6518   4.0361   4.4933

          k = 0.2000 0.3464 0.0000 ( 12917 PWs)   bands (ev):

   -59.4300 -33.6283 -33.5992 -33.4435 -12.9448 -11.3464  -5.0189  -4.1103
    -3.5434  -3.2755  -2.0307  -1.3202  -0.4120   0.1206   0.3313   0.6834
     1.4494   2.0572   2.4183   3.5482   4.1381   4.6810

          k = 0.2000 0.4619 0.0000 ( 12869 PWs)   bands (ev):

   -59.4222 -33.6510 -33.6093 -33.4882 -12.5520 -11.0365  -5.4466  -4.1572
    -3.7358  -3.4404  -2.2257  -1.5147  -0.3646   0.2306   0.3187   0.8414
     1.2179   2.1337   2.5212   3.6759   4.0905   4.7357

          k = 0.2000 0.5774 0.0000 ( 12850 PWs)   bands (ev):

   -59.4192 -33.6665 -33.6048 -33.5067 -12.3869 -10.9072  -5.6241  -4.3501
    -3.7242  -3.4115  -2.3247  -1.6601  -0.3143   0.2739   0.5173   0.6649
     1.3780   1.9974   3.0266   3.3289   3.7884   5.0009

          k = 0.3000 0.5196 0.0000 ( 12860 PWs)   bands (ev):

   -59.4181 -33.6321 -33.6026 -33.5553 -12.3329 -10.8583  -5.3232  -4.5776
    -3.6941  -3.5853  -2.4846  -1.6373  -0.3080   0.2702   0.3946   0.5729
     1.5884   2.0096   2.8126   3.3736   3.5194   5.5833

     the Fermi energy is     2.0055 ev

!    total energy              =    -658.60888071 Ry
     total all-electron energy =    -12481.782772 Ry
     estimated scf accuracy    <       0.00000009 Ry
     smearing contrib. (-TS)   =      -0.00573895 Ry
     internal energy E=F+TS    =    -658.60314176 Ry

     The total energy is F=E-TS. E is the sum of the following terms:
     one-electron contribution =   -1331.71311050 Ry
     hartree contribution      =     679.38043992 Ry
     xc contribution           =     -62.46225767 Ry
     ewald contribution        =     462.33901793 Ry
     one-center paw contrib.   =    -406.14723144 Ry

     convergence has been achieved in   8 iterations

     negative rho (up, down):  4.749E-04 0.000E+00

     Forces acting on atoms (cartesian axes, Ry/au):

     atom    1 type  1   force =     0.00000000    0.00000000    0.07668421
     atom    2 type  2   force =     0.00000000    0.00000000   -0.04684879
     atom    3 type  2   force =     0.00000000    0.00000000   -0.00791584
     atom    4 type  3   force =     0.00000000    0.00000000   -0.02191958
     The non-local contrib.  to forces
     atom    1 type  1   force =     0.00000000    0.00000000   -0.13063190
     atom    2 type  2   force =     0.00000000   -0.00000000   -0.11986174
     atom    3 type  2   force =     0.00000000    0.00000000    0.25803179
     atom    4 type  3   force =     0.00000000    0.00000000    0.04633760
     The ionic contribution  to forces
     atom    1 type  1   force =     0.00000000   -0.00000000  -34.35600129
     atom    2 type  2   force =    -0.00000000    0.00000000   20.33803928
     atom    3 type  2   force =    -0.00000000    0.00000000  -45.40378824
     atom    4 type  3   force =     0.00000000   -0.00000000   59.42175025
     The local contribution  to forces
     atom    1 type  1   force =    -0.00000000    0.00000000   34.55508822
     atom    2 type  2   force =    -0.00000000    0.00000000  -20.27170518
     atom    3 type  2   force =    -0.00000000    0.00000000   45.13968990
     atom    4 type  3   force =    -0.00000000   -0.00000000  -59.44816442
     The core correction contribution to forces
     atom    1 type  1   force =     0.00000000    0.00000000    0.00869379
     atom    2 type  2   force =     0.00000000   -0.00000000    0.00643741
     atom    3 type  2   force =     0.00000000   -0.00000000   -0.00169852
     atom    4 type  3   force =    -0.00000000    0.00000000   -0.04224169
     The Hubbard contrib.    to forces
     atom    1 type  1   force =     0.00000000    0.00000000    0.00000000
     atom    2 type  2   force =     0.00000000    0.00000000    0.00000000
     atom    3 type  2   force =     0.00000000    0.00000000    0.00000000
     atom    4 type  3   force =     0.00000000    0.00000000    0.00000000
     The SCF correction term to forces
     atom    1 type  1   force =     0.00000000    0.00000000   -0.00045186
     atom    2 type  2   force =    -0.00000000   -0.00000000    0.00025419
     atom    3 type  2   force =     0.00000000   -0.00000000   -0.00013801
     atom    4 type  3   force =    -0.00000000   -0.00000000    0.00041144

     Total force =     0.092835     Total SCF correction =     0.000676


     Computing stress (Cartesian axis) and pressure


     negative rho (up, down):  4.749E-04 0.000E+00
          total   stress  (Ry/bohr**3)                   (kbar)     P=       -5.83
   0.00007660   0.00000000   0.00000000           11.27        0.00        0.00
   0.00000000   0.00007660   0.00000000            0.00       11.27        0.00
   0.00000000   0.00000000  -0.00027208            0.00        0.00      -40.02

     Energy error            =      2.5E-03 Ry
     Gradient error          =      7.7E-02 Ry/Bohr

     number of scf cycles    =  11
     number of bfgs steps    =   9

     energy             old  =    -658.6064193694 Ry
     energy             new  =    -658.6088807084 Ry

     CASE: energy            _new < energy            _old

     new trust radius        =       0.0294609637 bohr
     new conv_thr            =       0.0000002461 Ry


ATOMIC_POSITIONS (crystal)
Mo            0.0000000000        0.0000000000        0.5011469776
S             0.6666666667        0.3333333333        0.6141966196
S             0.6666666667        0.3333333333        0.4170400818
Co            0.0000000000        0.0000000000        0.6652523848



     Writing config-only to output data dir ./tmp/relax.save/
     NEW-OLD atomic charge density approx. for the potential

     negative rho (up, down):  4.722E-04 0.000E+00

     total cpu time spent up to now is      135.3 secs

     Self-consistent Calculation

     iteration #  1     ecut=    80.00 Ry     beta= 0.70
     Davidson diagonalization with overlap
     ethr =  1.00E-06,  avg # of iterations =  6.8

     negative rho (up, down):  4.754E-04 0.000E+00

     total cpu time spent up to now is      136.5 secs

     total energy              =    -658.61060443 Ry
     estimated scf accuracy    <       0.00084927 Ry

     iteration #  2     ecut=    80.00 Ry     beta= 0.70
     Davidson diagonalization with overlap
     ethr =  2.43E-06,  avg # of iterations =  8.6

     negative rho (up, down):  4.752E-04 0.000E+00

     total cpu time spent up to now is      137.5 secs

     total energy              =    -658.60313097 Ry
     estimated scf accuracy    <       0.22431536 Ry

     iteration #  3     ecut=    80.00 Ry     beta= 0.70
     Davidson diagonalization with overlap
     ethr =  2.43E-06,  avg # of iterations =  7.5

     negative rho (up, down):  4.753E-04 0.000E+00

     total cpu time spent up to now is      138.6 secs

     total energy              =    -658.61107998 Ry
     estimated scf accuracy    <       0.00167711 Ry

     iteration #  4     ecut=    80.00 Ry     beta= 0.70
     Davidson diagonalization with overlap
     ethr =  2.43E-06,  avg # of iterations =  2.3

     negative rho (up, down):  4.759E-04 0.000E+00

     total cpu time spent up to now is      139.4 secs

     total energy              =    -658.61127128 Ry
     estimated scf accuracy    <       0.00005775 Ry

     iteration #  5     ecut=    80.00 Ry     beta= 0.70
     Davidson diagonalization with overlap
     ethr =  1.65E-07,  avg # of iterations =  2.8

     negative rho (up, down):  4.765E-04 0.000E+00

     total cpu time spent up to now is      140.2 secs

     total energy              =    -658.61128730 Ry
     estimated scf accuracy    <       0.00002067 Ry

     iteration #  6     ecut=    80.00 Ry     beta= 0.70
     Davidson diagonalization with overlap
     ethr =  5.91E-08,  avg # of iterations =  2.1

     negative rho (up, down):  4.769E-04 0.000E+00

     total cpu time spent up to now is      140.9 secs

     total energy              =    -658.61129065 Ry
     estimated scf accuracy    <       0.00000352 Ry

     iteration #  7     ecut=    80.00 Ry     beta= 0.70
     Davidson diagonalization with overlap
     ethr =  1.01E-08,  avg # of iterations =  3.6

     negative rho (up, down):  4.773E-04 0.000E+00

     total cpu time spent up to now is      141.8 secs

     total energy              =    -658.61129153 Ry
     estimated scf accuracy    <       0.00000070 Ry

     iteration #  8     ecut=    80.00 Ry     beta= 0.70
     Davidson diagonalization with overlap
     ethr =  1.99E-09,  avg # of iterations =  2.9

     negative rho (up, down):  4.774E-04 0.000E+00

     total cpu time spent up to now is      142.6 secs

     End of self-consistent calculation

          k = 0.0000 0.0000 0.0000 ( 12991 PWs)   bands (ev):

   -59.4820 -33.6999 -33.3538 -33.3538 -14.1618 -12.3062  -5.3691  -3.2330
    -2.7989  -2.7989  -0.9488  -0.9488   0.2556   0.2556   0.6066   1.3198
     1.3932   1.3932   3.2805   4.2371   4.2371   4.4348

          k = 0.0000 0.1155 0.0000 ( 12953 PWs)   bands (ev):

   -59.4784 -33.6935 -33.3895 -33.3621 -14.0373 -12.2021  -5.2286  -3.1857
    -3.0318  -2.8023  -1.2555  -0.9157   0.0813   0.2623   0.6260   1.1988
     1.3667   1.3845   3.5628   3.7738   4.1590   4.2188

          k = 0.0000 0.2309 0.0000 ( 12929 PWs)   bands (ev):

   -59.4689 -33.6768 -33.4820 -33.3837 -13.6889 -11.9142  -4.8787  -3.8503
    -2.9578  -2.8292  -1.8083  -0.9104  -0.2125   0.3296   0.4343   0.8288
     1.4838   1.5166   3.0685   3.7879   3.8409   4.5379

          k = 0.0000 0.3464 0.0000 ( 12915 PWs)   bands (ev):

   -59.4571 -33.6567 -33.5940 -33.4102 -13.1997 -11.5181  -4.9261  -4.3735
    -3.1988  -2.8968  -2.0207  -1.0093  -0.4010   0.2468   0.4891   0.5073
     1.5138   1.9140   2.7753   3.5123   3.9722   4.8281

          k = 0.0000 0.4619 0.0000 ( 12872 PWs)   bands (ev):

   -59.4476 -33.6865 -33.6370 -33.4316 -12.7345 -11.1497  -5.6951  -4.4013
    -3.3723  -2.9756  -2.1654  -1.1241  -0.4440   0.2379   0.6643   0.6968
     1.2708   2.3025   2.9098   3.4712   3.9424   4.7206

          k = 0.0000-0.5774 0.0000 ( 12854 PWs)   bands (ev):

   -59.4440 -33.7198 -33.6312 -33.4398 -12.5330 -10.9924  -6.0257  -4.5240
    -3.3401  -3.0105  -2.2752  -1.1710  -0.4484   0.4657   0.8075   0.8153
     0.9792   2.3485   3.0733   3.6605   3.7809   4.5907

          k = 0.1000 0.1732 0.0000 ( 12937 PWs)   bands (ev):

   -59.4718 -33.6819 -33.4510 -33.3796 -13.8006 -12.0058  -4.9788  -3.5942
    -2.9911  -2.8359  -1.6518  -0.9555  -0.1046   0.2507   0.5423   0.9481
     1.3908   1.5139   3.2346   3.7730   3.9732   4.1569

          k = 0.1000 0.2887 0.0000 ( 12944 PWs)   bands (ev):

   -59.4612 -33.6634 -33.5470 -33.4100 -13.3792 -11.6611  -4.6902  -4.2679
    -3.0565  -3.0007  -1.9431  -1.0763  -0.3264   0.2279   0.4515   0.5931
     1.5848   1.7353   2.7398   3.5056   3.9575   4.6482

          k = 0.1000 0.4041 0.0000 ( 12898 PWs)   bands (ev):

   -59.4506 -33.6514 -33.6347 -33.4406 -12.8925 -11.2704  -5.2955  -4.2488
    -3.4040  -3.1337  -2.0409  -1.2217  -0.4163   0.2060   0.4000   0.6849
     1.4028   2.1094   2.6575   3.5036   4.1364   4.6213

          k = 0.1000 0.5196 0.0000 ( 12858 PWs)   bands (ev):

   -59.4440 -33.7011 -33.6311 -33.4595 -12.5439 -10.9948  -5.8454  -4.3986
    -3.4178  -3.2013  -2.1923  -1.3804  -0.3850   0.3049   0.6654   0.8566
     1.0897   2.1797   2.9530   3.6577   4.0296   4.4342

          k = 0.2000 0.3464 0.0000 ( 12917 PWs)   bands (ev):

   -59.4517 -33.6477 -33.6120 -33.4564 -12.9533 -11.3153  -5.0283  -4.1206
    -3.5219  -3.2555  -2.0047  -1.2748  -0.4139   0.1211   0.3185   0.6959
     1.4573   2.0555   2.4437   3.5680   4.0497   4.6578

          k = 0.2000 0.4619 0.0000 ( 12869 PWs)   bands (ev):

   -59.4440 -33.6619 -33.6304 -33.5007 -12.5612 -10.9985  -5.4606  -4.1491
    -3.7508  -3.4163  -2.1963  -1.5065  -0.3590   0.2294   0.3300   0.8520
     1.2279   2.1403   2.5444   3.6558   4.0750   4.6991

          k = 0.2000 0.5774 0.0000 ( 12850 PWs)   bands (ev):

   -59.4410 -33.6771 -33.6260 -33.5191 -12.3965 -10.8658  -5.6398  -4.3434
    -3.7348  -3.3974  -2.2999  -1.6530  -0.3102   0.2808   0.5254   0.6728
     1.3913   2.0040   3.0556   3.3289   3.7672   4.9595

          k = 0.3000 0.5196 0.0000 ( 12860 PWs)   bands (ev):

   -59.4399 -33.6430 -33.6238 -33.5674 -12.3425 -10.8160  -5.3391  -4.5915
    -3.6921  -3.5525  -2.4724  -1.6454  -0.2979   0.2762   0.4165   0.5800
     1.6005   2.0223   2.8332   3.3322   3.5446   5.5140

     the Fermi energy is     2.0077 ev

!    total energy              =    -658.61129163 Ry
     total all-electron energy =    -12481.785182 Ry
     estimated scf accuracy    <       0.00000002 Ry
     smearing contrib. (-TS)   =      -0.00572590 Ry
     internal energy E=F+TS    =    -658.60556572 Ry

     The total energy is F=E-TS. E is the sum of the following terms:
     one-electron contribution =   -1332.99422333 Ry
     hartree contribution      =     680.01687563 Ry
     xc contribution           =     -62.44978140 Ry
     ewald contribution        =     462.96709398 Ry
     one-center paw contrib.   =    -406.14553060 Ry

     convergence has been achieved in   8 iterations

     negative rho (up, down):  4.774E-04 0.000E+00

     Forces acting on atoms (cartesian axes, Ry/au):

     atom    1 type  1   force =     0.00000000    0.00000000    0.06089114
     atom    2 type  2   force =     0.00000000    0.00000000   -0.04745344
     atom    3 type  2   force =     0.00000000    0.00000000    0.00767634
     atom    4 type  3   force =     0.00000000    0.00000000   -0.02111404
     The non-local contrib.  to forces
     atom    1 type  1   force =     0.00000000   -0.00000000   -0.12221744
     atom    2 type  2   force =     0.00000000   -0.00000000   -0.12324295
     atom    3 type  2   force =     0.00000000    0.00000000    0.26543528
     atom    4 type  3   force =     0.00000000    0.00000000    0.04388513
     The ionic contribution  to forces
     atom    1 type  1   force =     0.00000000   -0.00000000  -34.45623878
     atom    2 type  2   force =    -0.00000000    0.00000000   20.36086538
     atom    3 type  2   force =    -0.00000000    0.00000000  -45.42857411
     atom    4 type  3   force =     0.00000000   -0.00000000   59.52394752
     The local contribution  to forces
     atom    1 type  1   force =     0.00000000   -0.00000000   34.63146898
     atom    2 type  2   force =    -0.00000000    0.00000000  -20.29154404
     atom    3 type  2   force =    -0.00000000    0.00000000   45.17314916
     atom    4 type  3   force =    -0.00000000   -0.00000000  -59.54666717
     The core correction contribution to forces
     atom    1 type  1   force =     0.00000000    0.00000000    0.00818038
     atom    2 type  2   force =     0.00000000   -0.00000000    0.00645790
     atom    3 type  2   force =     0.00000000   -0.00000000   -0.00204815
     atom    4 type  3   force =    -0.00000000   -0.00000000   -0.04231942
     The Hubbard contrib.    to forces
     atom    1 type  1   force =     0.00000000    0.00000000    0.00000000
     atom    2 type  2   force =     0.00000000    0.00000000    0.00000000
     atom    3 type  2   force =     0.00000000    0.00000000    0.00000000
     atom    4 type  3   force =     0.00000000    0.00000000    0.00000000
     The SCF correction term to forces
     atom    1 type  1   force =    -0.00000000   -0.00000000   -0.00030091
     atom    2 type  2   force =    -0.00000000   -0.00000000    0.00001136
     atom    3 type  2   force =     0.00000000    0.00000000   -0.00028475
     atom    4 type  3   force =    -0.00000000   -0.00000000    0.00004098

     Total force =     0.080401     Total SCF correction =     0.000416


     Computing stress (Cartesian axis) and pressure


     negative rho (up, down):  4.774E-04 0.000E+00
          total   stress  (Ry/bohr**3)                   (kbar)     P=       -8.93
   0.00006224   0.00000000   0.00000000            9.16        0.00        0.00
   0.00000000   0.00006224  -0.00000000            0.00        9.16       -0.00
   0.00000000  -0.00000000  -0.00030660            0.00       -0.00      -45.10

     Energy error            =      2.4E-03 Ry
     Gradient error          =      6.1E-02 Ry/Bohr

     number of scf cycles    =  12
     number of bfgs steps    =  10

     energy             old  =    -658.6088807084 Ry
     energy             new  =    -658.6112916270 Ry

     CASE: energy            _new < energy            _old

     new trust radius        =       0.0441914456 bohr
     new conv_thr            =       0.0000002411 Ry


ATOMIC_POSITIONS (crystal)
Mo            0.0000000000        0.0000000000        0.5024325799
S             0.6666666667        0.3333333333        0.6135844461
S             0.6666666667        0.3333333333        0.4167439738
Co            0.0000000000        0.0000000000        0.6648750639



     Writing config-only to output data dir ./tmp/relax.save/
     NEW-OLD atomic charge density approx. for the potential

     negative rho (up, down):  4.738E-04 0.000E+00

     total cpu time spent up to now is      145.2 secs

     Self-consistent Calculation

     iteration #  1     ecut=    80.00 Ry     beta= 0.70
     Davidson diagonalization with overlap
     ethr =  1.00E-06,  avg # of iterations =  7.9

     negative rho (up, down):  4.803E-04 0.000E+00

     total cpu time spent up to now is      146.5 secs

     total energy              =    -658.61381571 Ry
     estimated scf accuracy    <       0.00115505 Ry

     iteration #  2     ecut=    80.00 Ry     beta= 0.70
     Davidson diagonalization with overlap
     ethr =  3.30E-06,  avg # of iterations =  7.6

     negative rho (up, down):  4.801E-04 0.000E+00

     total cpu time spent up to now is      147.5 secs

     total energy              =    -658.60656032 Ry
     estimated scf accuracy    <       0.19356935 Ry

     iteration #  3     ecut=    80.00 Ry     beta= 0.70
     Davidson diagonalization with overlap
     ethr =  3.30E-06,  avg # of iterations =  7.6

     negative rho (up, down):  4.803E-04 0.000E+00

     total cpu time spent up to now is      148.5 secs

     total energy              =    -658.61399824 Ry
     estimated scf accuracy    <       0.00769399 Ry

     iteration #  4     ecut=    80.00 Ry     beta= 0.70
     Davidson diagonalization with overlap
     ethr =  3.30E-06,  avg # of iterations =  2.7

     negative rho (up, down):  4.813E-04 0.000E+00

     total cpu time spent up to now is      149.3 secs

     total energy              =    -658.61462419 Ry
     estimated scf accuracy    <       0.00018905 Ry

     iteration #  5     ecut=    80.00 Ry     beta= 0.70
     Davidson diagonalization with overlap
     ethr =  5.40E-07,  avg # of iterations =  2.2

     negative rho (up, down):  4.823E-04 0.000E+00

     total cpu time spent up to now is      150.1 secs

     total energy              =    -658.61466899 Ry
     estimated scf accuracy    <       0.00004150 Ry

     iteration #  6     ecut=    80.00 Ry     beta= 0.70
     Davidson diagonalization with overlap
     ethr =  1.19E-07,  avg # of iterations =  3.2

     negative rho (up, down):  4.832E-04 0.000E+00

     total cpu time spent up to now is      150.9 secs

     total energy              =    -658.61467760 Ry
     estimated scf accuracy    <       0.00001263 Ry

     iteration #  7     ecut=    80.00 Ry     beta= 0.70
     Davidson diagonalization with overlap
     ethr =  3.61E-08,  avg # of iterations =  3.0

     negative rho (up, down):  4.837E-04 0.000E+00

     total cpu time spent up to now is      151.7 secs

     total energy              =    -658.61467988 Ry
     estimated scf accuracy    <       0.00000179 Ry

     iteration #  8     ecut=    80.00 Ry     beta= 0.70
     Davidson diagonalization with overlap
     ethr =  5.11E-09,  avg # of iterations =  2.7

     negative rho (up, down):  4.839E-04 0.000E+00

     total cpu time spent up to now is      152.5 secs

     End of self-consistent calculation

          k = 0.0000 0.0000 0.0000 ( 12991 PWs)   bands (ev):

   -59.5148 -33.7328 -33.3788 -33.3788 -14.1787 -12.2888  -5.3885  -3.1729
    -2.7946  -2.7946  -0.8479  -0.8479   0.2609   0.2609   0.4952   1.2965
     1.3786   1.3786   3.3342   4.2364   4.2405   4.3467

          k = 0.0000 0.1155 0.0000 ( 12953 PWs)   bands (ev):

   -59.5112 -33.7264 -33.4142 -33.3870 -14.0544 -12.1842  -5.2469  -3.1535
    -3.0093  -2.8009  -1.1604  -0.8147   0.0654   0.2700   0.5490   1.1713
     1.3495   1.3753   3.6072   3.8029   4.1129   4.1727

          k = 0.0000 0.2309 0.0000 ( 12929 PWs)   bands (ev):

   -59.5017 -33.7097 -33.5060 -33.4084 -13.7065 -11.8940  -4.8934  -3.8658
    -2.9045  -2.8358  -1.7396  -0.8134  -0.2332   0.3448   0.4131   0.7627
     1.4630   1.5341   3.1055   3.7377   3.8472   4.5234

          k = 0.0000 0.3464 0.0000 ( 12915 PWs)   bands (ev):

   -59.4901 -33.6894 -33.6174 -33.4348 -13.2184 -11.4924  -4.9410  -4.3972
    -3.1474  -2.9128  -1.9981  -0.9187  -0.4181   0.2246   0.4772   0.5101
     1.5392   1.8895   2.8231   3.5267   3.9166   4.7455

          k = 0.0000 0.4619 0.0000 ( 12872 PWs)   bands (ev):

   -59.4806 -33.7086 -33.6704 -33.4561 -12.7546 -11.1161  -5.7229  -4.3986
    -3.3687  -2.9984  -2.1533  -1.0373  -0.4729   0.2418   0.6440   0.7202
     1.2934   2.2744   2.9719   3.4869   3.9192   4.6518

          k = 0.0000-0.5774 0.0000 ( 12854 PWs)   bands (ev):

   -59.4770 -33.7417 -33.6647 -33.4641 -12.5538 -10.9544  -6.0563  -4.5157
    -3.3583  -3.0355  -2.2603  -1.0854  -0.4821   0.4886   0.7927   0.8316
     0.9969   2.3264   3.1306   3.6612   3.7815   4.5365

          k = 0.1000 0.1732 0.0000 ( 12937 PWs)   bands (ev):

   -59.5047 -33.7149 -33.4752 -33.4044 -13.8180 -11.9865  -4.9952  -3.6026
    -2.9547  -2.8270  -1.5718  -0.8599  -0.1236   0.2591   0.5037   0.9034
     1.3734   1.5176   3.2738   3.7744   3.8904   4.1694

          k = 0.1000 0.2887 0.0000 ( 12944 PWs)   bands (ev):

   -59.4941 -33.6963 -33.5706 -33.4346 -13.3975 -11.6379  -4.6975  -4.2988
    -3.0295  -2.9835  -1.9080  -0.9860  -0.3426   0.2255   0.4245   0.5840
     1.6012   1.7144   2.7848   3.5183   3.8677   4.6216

          k = 0.1000 0.4041 0.0000 ( 12898 PWs)   bands (ev):

   -59.4835 -33.6801 -33.6618 -33.4650 -12.9120 -11.2400  -5.3193  -4.2618
    -3.3833  -3.1460  -2.0254  -1.1531  -0.4258   0.1890   0.3951   0.7068
     1.4236   2.0927   2.7015   3.5252   4.0666   4.5765

          k = 0.1000 0.5196 0.0000 ( 12858 PWs)   bands (ev):

   -59.4770 -33.7230 -33.6646 -33.4837 -12.5645 -10.9573  -5.8760  -4.3925
    -3.4431  -3.2131  -2.1775  -1.3216  -0.3978   0.3197   0.6501   0.8797
     1.1124   2.1728   2.9998   3.6646   4.0279   4.3665

          k = 0.2000 0.3464 0.0000 ( 12917 PWs)   bands (ev):

   -59.4846 -33.6801 -33.6358 -33.4806 -12.9726 -11.2860  -5.0477  -4.1520
    -3.5213  -3.2267  -1.9815  -1.2243  -0.4151   0.1140   0.3059   0.7197
     1.4706   2.0465   2.4835   3.5912   3.9450   4.6396

          k = 0.2000 0.4619 0.0000 ( 12869 PWs)   bands (ev):

   -59.4770 -33.6844 -33.6637 -33.5246 -12.5816 -10.9618  -5.4902  -4.1595
    -3.7881  -3.3902  -2.1681  -1.4986  -0.3471   0.2309   0.3380   0.8745
     1.2485   2.1444   2.5814   3.6290   4.0627   4.6624

          k = 0.2000 0.5774 0.0000 ( 12850 PWs)   bands (ev):

   -59.4740 -33.6993 -33.6595 -33.5429 -12.4174 -10.8253  -5.6733  -4.3537
    -3.7680  -3.3843  -2.2763  -1.6467  -0.2993   0.2959   0.5298   0.6921
     1.4171   2.0108   3.0944   3.3252   3.7612   4.9052

          k = 0.3000 0.5196 0.0000 ( 12860 PWs)   bands (ev):

   -59.4729 -33.6655 -33.6571 -33.5909 -12.3634 -10.7744  -5.3738  -4.6263
    -3.7215  -3.5087  -2.4593  -1.6584  -0.2754   0.2885   0.4363   0.5974
     1.6227   2.0416   2.8559   3.2815   3.5976   5.4288

     the Fermi energy is     2.0035 ev

!    total energy              =    -658.61468012 Ry
     total all-electron energy =    -12481.788571 Ry
     estimated scf accuracy    <       0.00000007 Ry
     smearing contrib. (-TS)   =      -0.00571788 Ry
     internal energy E=F+TS    =    -658.60896224 Ry

     The total energy is F=E-TS. E is the sum of the following terms:
     one-electron contribution =   -1337.53757854 Ry
     hartree contribution      =     682.27691728 Ry
     xc contribution           =     -62.43867382 Ry
     ewald contribution        =     465.23387828 Ry
     one-center paw contrib.   =    -406.14350545 Ry

     convergence has been achieved in   8 iterations

     negative rho (up, down):  4.839E-04 0.000E+00

     Forces acting on atoms (cartesian axes, Ry/au):

     atom    1 type  1   force =     0.00000000    0.00000000    0.04316786
     atom    2 type  2   force =     0.00000000    0.00000000   -0.04644622
     atom    3 type  2   force =     0.00000000    0.00000000    0.02390122
     atom    4 type  3   force =     0.00000000    0.00000000   -0.02062286
     The non-local contrib.  to forces
     atom    1 type  1   force =     0.00000000    0.00000000   -0.10971417
     atom    2 type  2   force =     0.00000000    0.00000000   -0.12578199
     atom    3 type  2   force =     0.00000000    0.00000000    0.27283529
     atom    4 type  3   force =     0.00000000    0.00000000    0.04023491
     The ionic contribution  to forces
     atom    1 type  1   force =     0.00000000   -0.00000000  -34.65953832
     atom    2 type  2   force =    -0.00000000    0.00000000   20.39685724
     atom    3 type  2   force =    -0.00000000    0.00000000  -45.49231070
     atom    4 type  3   force =     0.00000000   -0.00000000   59.75499178
     The local contribution  to forces
     atom    1 type  1   force =    -0.00000000   -0.00000000   34.80570201
     atom    2 type  2   force =    -0.00000000    0.00000000  -20.32406600
     atom    3 type  2   force =    -0.00000000    0.00000000   45.24603712
     atom    4 type  3   force =     0.00000000   -0.00000000  -59.77363743
     The core correction contribution to forces
     atom    1 type  1   force =     0.00000000    0.00000000    0.00742117
     atom    2 type  2   force =     0.00000000   -0.00000000    0.00637060
     atom    3 type  2   force =     0.00000000   -0.00000000   -0.00241815
     atom    4 type  3   force =    -0.00000000   -0.00000000   -0.04247725
     The Hubbard contrib.    to forces
     atom    1 type  1   force =     0.00000000    0.00000000    0.00000000
     atom    2 type  2   force =     0.00000000    0.00000000    0.00000000
     atom    3 type  2   force =     0.00000000    0.00000000    0.00000000
     atom    4 type  3   force =     0.00000000    0.00000000    0.00000000
     The SCF correction term to forces
     atom    1 type  1   force =    -0.00000000   -0.00000000   -0.00067596
     atom    2 type  2   force =     0.00000000    0.00000000    0.00020078
     atom    3 type  2   force =     0.00000000   -0.00000000   -0.00021548
     atom    4 type  3   force =    -0.00000000   -0.00000000    0.00029200

     Total force =     0.070833     Total SCF correction =     0.000793


     Computing stress (Cartesian axis) and pressure


     negative rho (up, down):  4.839E-04 0.000E+00
          total   stress  (Ry/bohr**3)                   (kbar)     P=      -12.66
   0.00004260   0.00000000   0.00000000            6.27        0.00        0.00
   0.00000000   0.00004260   0.00000000            0.00        6.27        0.00
   0.00000000   0.00000000  -0.00034349            0.00        0.00      -50.53

     Energy error            =      3.4E-03 Ry
     Gradient error          =      4.6E-02 Ry/Bohr

     number of scf cycles    =  13
     number of bfgs steps    =  11

     energy             old  =    -658.6112916270 Ry
     energy             new  =    -658.6146801220 Ry

     CASE: energy            _new < energy            _old

     new trust radius        =       0.0662871684 bohr
     new conv_thr            =       0.0000003388 Ry


ATOMIC_POSITIONS (crystal)
Mo            0.0000000000        0.0000000000        0.5043609833
S             0.6666666667        0.3333333333        0.6123369014
S             0.6666666667        0.3333333333        0.4168742334
Co            0.0000000000        0.0000000000        0.6640639456



     Writing config-only to output data dir ./tmp/relax.save/
     NEW-OLD atomic charge density approx. for the potential

     negative rho (up, down):  4.791E-04 0.000E+00

     total cpu time spent up to now is      155.2 secs

     Self-consistent Calculation

     iteration #  1     ecut=    80.00 Ry     beta= 0.70
     Davidson diagonalization with overlap
     ethr =  1.00E-06,  avg # of iterations =  9.2

     negative rho (up, down):  4.910E-04 0.000E+00

     total cpu time spent up to now is      156.7 secs

     total energy              =    -658.61791283 Ry
     estimated scf accuracy    <       0.00217333 Ry

     iteration #  2     ecut=    80.00 Ry     beta= 0.70
     Davidson diagonalization with overlap
     ethr =  6.21E-06,  avg # of iterations =  6.8

     negative rho (up, down):  4.906E-04 0.000E+00

     total cpu time spent up to now is      157.7 secs

     total energy              =    -658.60805171 Ry
     estimated scf accuracy    <       0.22517771 Ry

     iteration #  3     ecut=    80.00 Ry     beta= 0.70
     Davidson diagonalization with overlap
     ethr =  6.21E-06,  avg # of iterations =  6.9

     negative rho (up, down):  4.908E-04 0.000E+00

     total cpu time spent up to now is      158.7 secs

     total energy              =    -658.61742377 Ry
     estimated scf accuracy    <       0.02920952 Ry

     iteration #  4     ecut=    80.00 Ry     beta= 0.70
     Davidson diagonalization with overlap
     ethr =  6.21E-06,  avg # of iterations =  2.8

     negative rho (up, down):  4.925E-04 0.000E+00

     total cpu time spent up to now is      159.5 secs

     total energy              =    -658.61929757 Ry
     estimated scf accuracy    <       0.00056202 Ry

     iteration #  5     ecut=    80.00 Ry     beta= 0.70
     Davidson diagonalization with overlap
     ethr =  1.61E-06,  avg # of iterations =  2.6

     negative rho (up, down):  4.947E-04 0.000E+00

     total cpu time spent up to now is      160.3 secs

     total energy              =    -658.61941815 Ry
     estimated scf accuracy    <       0.00008116 Ry

     iteration #  6     ecut=    80.00 Ry     beta= 0.70
     Davidson diagonalization with overlap
     ethr =  2.32E-07,  avg # of iterations =  2.7

     negative rho (up, down):  4.961E-04 0.000E+00

     total cpu time spent up to now is      161.1 secs

     total energy              =    -658.61943385 Ry
     estimated scf accuracy    <       0.00003222 Ry

     iteration #  7     ecut=    80.00 Ry     beta= 0.70
     Davidson diagonalization with overlap
     ethr =  9.20E-08,  avg # of iterations =  2.2

     negative rho (up, down):  4.969E-04 0.000E+00

     total cpu time spent up to now is      161.9 secs

     total energy              =    -658.61944003 Ry
     estimated scf accuracy    <       0.00000418 Ry

     iteration #  8     ecut=    80.00 Ry     beta= 0.70
     Davidson diagonalization with overlap
     ethr =  1.19E-08,  avg # of iterations =  3.8

     negative rho (up, down):  4.972E-04 0.000E+00

     total cpu time spent up to now is      162.7 secs

     End of self-consistent calculation

          k = 0.0000 0.0000 0.0000 ( 12991 PWs)   bands (ev):

   -59.5630 -33.7834 -33.4201 -33.4201 -14.2161 -12.2739  -5.4276  -3.0967
    -2.7987  -2.7987  -0.7555  -0.7555   0.2583   0.2583   0.3274   1.2953
     1.3407   1.3407   3.4133   4.1559   4.1563   4.3224

          k = 0.0000 0.1155 0.0000 ( 12953 PWs)   bands (ev):

   -59.5594 -33.7770 -33.4553 -33.4282 -14.0920 -12.1691  -5.2846  -3.1408
    -2.9686  -2.8102  -1.0710  -0.7207   0.0166   0.2717   0.4490   1.1223
     1.3080   1.3855   3.6640   3.8459   3.9934   4.1620

          k = 0.0000 0.2309 0.0000 ( 12929 PWs)   bands (ev):

   -59.5500 -33.7602 -33.5466 -33.4496 -13.7450 -11.8772  -4.9261  -3.9068
    -2.8592  -2.8479  -1.6699  -0.7195  -0.2794   0.3613   0.3760   0.6825
     1.4131   1.5642   3.1597   3.6708   3.8468   4.5278

          k = 0.0000 0.3464 0.0000 ( 12915 PWs)   bands (ev):

   -59.5384 -33.7396 -33.6576 -33.4758 -13.2588 -11.4706  -4.9763  -4.4537
    -3.0967  -2.9534  -1.9745  -0.8253  -0.4555   0.1831   0.4489   0.5377
     1.5751   1.8321   2.8970   3.5399   3.8538   4.6619

          k = 0.0000 0.4619 0.0000 ( 12872 PWs)   bands (ev):

   -59.5289 -33.7478 -33.7213 -33.4969 -12.7977 -11.0862  -5.7789  -4.4208
    -3.3737  -3.0515  -2.1432  -0.9431  -0.5213   0.2488   0.6202   0.7522
     1.3236   2.2176   3.0644   3.4975   3.8987   4.5843

          k = 0.0000-0.5774 0.0000 ( 12854 PWs)   bands (ev):

   -59.5253 -33.7806 -33.7155 -33.5050 -12.5984 -10.9197  -6.1161  -4.5266
    -3.3932  -3.0928  -2.2483  -0.9908  -0.5328   0.5213   0.7654   0.8650
     1.0226   2.2813   3.2183   3.6479   3.7899   4.4878

          k = 0.1000 0.1732 0.0000 ( 12937 PWs)   bands (ev):

   -59.5529 -33.7654 -33.5160 -33.4456 -13.8561 -11.9704  -5.0301  -3.6324
    -2.9383  -2.8079  -1.4937  -0.7695  -0.1684   0.2638   0.4477   0.8485
     1.3236   1.5379   3.3331   3.7205   3.8242   4.2098

          k = 0.1000 0.2887 0.0000 ( 12944 PWs)   bands (ev):

   -59.5424 -33.7467 -33.6109 -33.4756 -13.4370 -11.6183  -4.7163  -4.3678
    -3.0675  -2.9260  -1.8733  -0.8919  -0.3779   0.2088   0.3828   0.5875
     1.5954   1.6962   2.8539   3.5265   3.7638   4.5961

          k = 0.1000 0.4041 0.0000 ( 12898 PWs)   bands (ev):

   -59.5319 -33.7287 -33.7035 -33.5058 -12.9540 -11.2132  -5.3697  -4.3053
    -3.3854  -3.1681  -2.0127  -1.0811  -0.4473   0.1636   0.3893   0.7371
     1.4497   2.0555   2.7699   3.5491   3.9825   4.5408

          k = 0.1000 0.5196 0.0000 ( 12858 PWs)   bands (ev):

   -59.5253 -33.7621 -33.7154 -33.5244 -12.6088 -10.9231  -5.9362  -4.4079
    -3.5019  -3.2382  -2.1680  -1.2589  -0.4190   0.3419   0.6300   0.9113
     1.1431   2.1504   3.0684   3.6745   4.0326   4.2927

          k = 0.2000 0.3464 0.0000 ( 12917 PWs)   bands (ev):

   -59.5330 -33.7301 -33.6761 -33.5213 -13.0141 -11.2605  -5.0912  -4.2175
    -3.5598  -3.1909  -1.9628  -1.1693  -0.4239   0.0930   0.2942   0.7518
     1.4821   2.0282   2.5471   3.6180   3.8224   4.6295

          k = 0.2000 0.4619 0.0000 ( 12869 PWs)   bands (ev):

   -59.5253 -33.7242 -33.7140 -33.5651 -12.6255 -10.9283  -5.5500  -4.2025
    -3.8628  -3.3636  -2.1435  -1.4908  -0.3348   0.2325   0.3415   0.9046
     1.2754   2.1387   2.6443   3.5984   4.0480   4.6330

          k = 0.2000 0.5774 0.0000 ( 12850 PWs)   bands (ev):

   -59.5224 -33.7385 -33.7103 -33.5832 -12.4623 -10.7876  -5.7390  -4.3940
    -3.8418  -3.3712  -2.2570  -1.6406  -0.2871   0.3183   0.5300   0.7176
     1.4526   2.0124   3.1420   3.3223   3.7846   4.8360

          k = 0.3000 0.5196 0.0000 ( 12860 PWs)   bands (ev):

   -59.5213 -33.7089 -33.7038 -33.6311 -12.4085 -10.7354  -5.4438  -4.6963
    -3.7921  -3.4576  -2.4450  -1.6784  -0.2451   0.3055   0.4540   0.6190
     1.6502   2.0637   2.8792   3.2316   3.6880   5.3275

     the Fermi energy is     1.9868 ev

!    total energy              =    -658.61944062 Ry
     total all-electron energy =    -12481.793331 Ry
     estimated scf accuracy    <       0.00000026 Ry
     smearing contrib. (-TS)   =      -0.00577945 Ry
     internal energy E=F+TS    =    -658.61366118 Ry

     The total energy is F=E-TS. E is the sum of the following terms:
     one-electron contribution =   -1347.64096165 Ry
     hartree contribution      =     687.30769627 Ry
     xc contribution           =     -62.43452499 Ry
     ewald contribution        =     470.29563108 Ry
     one-center paw contrib.   =    -406.14150188 Ry

     convergence has been achieved in   8 iterations

     negative rho (up, down):  4.972E-04 0.000E+00

     Forces acting on atoms (cartesian axes, Ry/au):

     atom    1 type  1   force =     0.00000000    0.00000000    0.02170125
     atom    2 type  2   force =     0.00000000    0.00000000   -0.04281920
     atom    3 type  2   force =     0.00000000    0.00000000    0.04026671
     atom    4 type  3   force =     0.00000000    0.00000000   -0.01914876
     The non-local contrib.  to forces
     atom    1 type  1   force =     0.00000000    0.00000000   -0.09182091
     atom    2 type  2   force =     0.00000000    0.00000000   -0.12620246
     atom    3 type  2   force =     0.00000000    0.00000000    0.28005031
     atom    4 type  3   force =     0.00000000    0.00000000    0.03472767
     The ionic contribution  to forces
     atom    1 type  1   force =     0.00000000   -0.00000000  -35.02438679
     atom    2 type  2   force =    -0.00000000    0.00000000   20.46529207
     atom    3 type  2   force =    -0.00000000    0.00000000  -45.62201479
     atom    4 type  3   force =     0.00000000   -0.00000000   60.18110951
     The local contribution  to forces
     atom    1 type  1   force =    -0.00000000   -0.00000000   35.13198200
     atom    2 type  2   force =    -0.00000000    0.00000000  -20.38877528
     atom    3 type  2   force =    -0.00000000    0.00000000   45.38515726
     atom    4 type  3   force =    -0.00000000   -0.00000000  -60.19319659
     The core correction contribution to forces
     atom    1 type  1   force =    -0.00000000    0.00000000    0.00633098
     atom    2 type  2   force =     0.00000000   -0.00000000    0.00609784
     atom    3 type  2   force =     0.00000000   -0.00000000   -0.00280241
     atom    4 type  3   force =     0.00000000    0.00000000   -0.04269387
     The Hubbard contrib.    to forces
     atom    1 type  1   force =     0.00000000    0.00000000    0.00000000
     atom    2 type  2   force =     0.00000000    0.00000000    0.00000000
     atom    3 type  2   force =     0.00000000    0.00000000    0.00000000
     atom    4 type  3   force =     0.00000000    0.00000000    0.00000000
     The SCF correction term to forces
     atom    1 type  1   force =     0.00000000    0.00000000   -0.00038177
     atom    2 type  2   force =     0.00000000    0.00000000    0.00079088
     atom    3 type  2   force =     0.00000000    0.00000000   -0.00010141
     atom    4 type  3   force =     0.00000000   -0.00000000    0.00092677

     Total force =     0.065517     Total SCF correction =     0.001281


     Computing stress (Cartesian axis) and pressure


     negative rho (up, down):  4.972E-04 0.000E+00
          total   stress  (Ry/bohr**3)                   (kbar)     P=      -15.77
   0.00002333   0.00000000   0.00000000            3.43        0.00        0.00
   0.00000000   0.00002333   0.00000000            0.00        3.43        0.00
   0.00000000   0.00000000  -0.00036832            0.00        0.00      -54.18

     Energy error            =      4.8E-03 Ry
     Gradient error          =      4.3E-02 Ry/Bohr

     number of scf cycles    =  14
     number of bfgs steps    =  12

     energy             old  =    -658.6146801220 Ry
     energy             new  =    -658.6194406244 Ry

     CASE: energy            _new < energy            _old

     new trust radius        =       0.0994307526 bohr
     new conv_thr            =       0.0000004282 Ry


ATOMIC_POSITIONS (crystal)
Mo            0.0000000000        0.0000000000        0.5072535885
S             0.6666666667        0.3333333333        0.6100586230
S             0.6666666667        0.3333333333        0.4178077093
Co            0.0000000000        0.0000000000        0.6625161430



     Writing config-only to output data dir ./tmp/relax.save/
     NEW-OLD atomic charge density approx. for the potential

     negative rho (up, down):  4.638E-04 0.000E+00

     total cpu time spent up to now is      165.3 secs

     Self-consistent Calculation

     iteration #  1     ecut=    80.00 Ry     beta= 0.70
     Davidson diagonalization with overlap
     ethr =  1.00E-06,  avg # of iterations = 11.4

     negative rho (up, down):  4.887E-04 0.000E+00

     total cpu time spent up to now is      167.0 secs

     total energy              =    -658.62228508 Ry
     estimated scf accuracy    <       0.00494701 Ry

     iteration #  2     ecut=    80.00 Ry     beta= 0.70
     Davidson diagonalization with overlap
     ethr =  1.41E-05,  avg # of iterations =  5.6

     negative rho (up, down):  4.879E-04 0.000E+00

     total cpu time spent up to now is      167.9 secs

     total energy              =    -658.60569900 Ry
     estimated scf accuracy    <       0.32286582 Ry

     iteration #  3     ecut=    80.00 Ry     beta= 0.70
     Davidson diagonalization with overlap
     ethr =  1.41E-05,  avg # of iterations =  6.3

     negative rho (up, down):  4.880E-04 0.000E+00

     total cpu time spent up to now is      168.8 secs

     total energy              =    -658.61972558 Ry
     estimated scf accuracy    <       0.09742627 Ry

     iteration #  4     ecut=    80.00 Ry     beta= 0.70
     Davidson diagonalization with overlap
     ethr =  1.41E-05,  avg # of iterations =  3.8

     negative rho (up, down):  4.913E-04 0.000E+00

     total cpu time spent up to now is      169.7 secs

     total energy              =    -658.62521585 Ry
     estimated scf accuracy    <       0.00182185 Ry

     iteration #  5     ecut=    80.00 Ry     beta= 0.70
     Davidson diagonalization with overlap
     ethr =  5.21E-06,  avg # of iterations =  2.0

     negative rho (up, down):  4.970E-04 0.000E+00

     total cpu time spent up to now is      170.5 secs

     total energy              =    -658.62556213 Ry
     estimated scf accuracy    <       0.00011146 Ry

     iteration #  6     ecut=    80.00 Ry     beta= 0.70
     Davidson diagonalization with overlap
     ethr =  3.18E-07,  avg # of iterations =  3.4

     negative rho (up, down):  4.994E-04 0.000E+00

     total cpu time spent up to now is      171.3 secs

     total energy              =    -658.62558790 Ry
     estimated scf accuracy    <       0.00007142 Ry

     iteration #  7     ecut=    80.00 Ry     beta= 0.70
     Davidson diagonalization with overlap
     ethr =  2.04E-07,  avg # of iterations =  2.7

     negative rho (up, down):  5.008E-04 0.000E+00

     total cpu time spent up to now is      172.1 secs

     total energy              =    -658.62560127 Ry
     estimated scf accuracy    <       0.00002052 Ry

     iteration #  8     ecut=    80.00 Ry     beta= 0.70
     Davidson diagonalization with overlap
     ethr =  5.86E-08,  avg # of iterations =  2.0

     negative rho (up, down):  5.013E-04 0.000E+00

     total cpu time spent up to now is      172.8 secs

     total energy              =    -658.62560322 Ry
     estimated scf accuracy    <       0.00000135 Ry

     iteration #  9     ecut=    80.00 Ry     beta= 0.70
     Davidson diagonalization with overlap
     ethr =  3.85E-09,  avg # of iterations =  5.0

     negative rho (up, down):  5.016E-04 0.000E+00

     total cpu time spent up to now is      173.7 secs

     End of self-consistent calculation

          k = 0.0000 0.0000 0.0000 ( 12991 PWs)   bands (ev):

   -59.6290 -33.8569 -33.4828 -33.4828 -14.2897 -12.2601  -5.5013  -2.9908
    -2.8366  -2.8366  -0.6918  -0.6918   0.0832   0.2286   0.2286   1.2730
     1.2730   1.3204   3.5323   4.0025   4.0026   4.3690

          k = 0.0000 0.1155 0.0000 ( 12953 PWs)   bands (ev):

   -59.6254 -33.8504 -33.5180 -33.4909 -14.1660 -12.1557  -5.3563  -3.1792
    -2.8954  -2.8567  -1.0045  -0.6532  -0.1091   0.2515   0.3369   1.0485
     1.2348   1.4173   3.6817   3.8959   3.9494   4.0547

          k = 0.0000 0.2309 0.0000 ( 12929 PWs)   bands (ev):

   -59.6160 -33.8333 -33.6095 -33.5123 -13.8207 -11.8638  -4.9908  -4.0032
    -2.9295  -2.7871  -1.6051  -0.6426  -0.3747   0.3138   0.3710   0.5925
     1.3206   1.6100   3.2242   3.6062   3.8263   4.5020

          k = 0.0000 0.3464 0.0000 ( 12915 PWs)   bands (ev):

   -59.6044 -33.8122 -33.7208 -33.5385 -13.3390 -11.4540  -5.0568  -4.5614
    -3.0526  -3.0523  -1.9452  -0.7341  -0.5342   0.1165   0.4260   0.5691
     1.6223   1.7231   3.0068   3.5441   3.7924   4.6022

          k = 0.0000 0.4619 0.0000 ( 12872 PWs)   bands (ev):

   -59.5949 -33.8103 -33.7942 -33.5596 -12.8843 -11.0623  -5.8860  -4.4852
    -3.3921  -3.1706  -2.1324  -0.8409  -0.6024   0.2566   0.5951   0.7916
     1.3590   2.1145   3.2032   3.4936   3.8867   4.5420

          k = 0.0000-0.5774 0.0000 ( 12854 PWs)   bands (ev):

   -59.5913 -33.8435 -33.7881 -33.5677 -12.6886 -10.8912  -6.2261  -4.5705
    -3.4532  -3.2189  -2.2375  -0.8851  -0.6093   0.5626   0.7357   0.9069
     1.0531   2.1970   3.3567   3.6093   3.8129   4.4684

          k = 0.1000 0.1732 0.0000 ( 12937 PWs)   bands (ev):

   -59.6189 -33.8386 -33.5788 -33.5083 -13.9312 -11.9572  -5.0977  -3.7127
    -2.9824  -2.7640  -1.4281  -0.7034  -0.2623   0.2555   0.3733   0.7823
     1.2293   1.5775   3.4066   3.5991   3.8047   4.2826

          k = 0.1000 0.2887 0.0000 ( 12944 PWs)   bands (ev):

   -59.6084 -33.8195 -33.6740 -33.5383 -13.5152 -11.6033  -4.7542  -4.5112
    -3.1665  -2.8698  -1.8388  -0.8002  -0.4505   0.1595   0.3405   0.5990
     1.5083   1.7246   2.9550   3.5117   3.6694   4.5880

          k = 0.1000 0.4041 0.0000 ( 12898 PWs)   bands (ev):

   -59.5979 -33.8004 -33.7673 -33.5685 -13.0379 -11.1923  -5.4716  -4.3971
    -3.4577  -3.1906  -2.0008  -1.0101  -0.4917   0.1272   0.3830   0.7744
     1.4734   1.9864   2.8759   3.5729   3.8905   4.5329

          k = 0.1000 0.5196 0.0000 ( 12858 PWs)   bands (ev):

   -59.5913 -33.8248 -33.7881 -33.5871 -12.6984 -10.8948  -6.0483  -4.4604
    -3.6290  -3.2809  -2.1654  -1.1931  -0.4535   0.3707   0.6063   0.9489
     1.1795   2.0974   3.1696   3.6917   4.0439   4.2373

          k = 0.2000 0.3464 0.0000 ( 12917 PWs)   bands (ev):

   -59.5990 -33.8024 -33.7394 -33.5840 -13.0970 -11.2405  -5.1844  -4.3370
    -3.6684  -3.1532  -1.9481  -1.1101  -0.4514   0.0522   0.2842   0.7907
     1.4764   1.9985   2.6505   3.6470   3.6895   4.6415

          k = 0.2000 0.4619 0.0000 ( 12869 PWs)   bands (ev):

   -59.5913 -33.7895 -33.7841 -33.6278 -12.7141 -10.9004  -5.6653  -4.3040
    -3.9987  -3.3374  -2.1258  -1.4794  -0.3287   0.2320   0.3400   0.9381
     1.3032   2.1100   2.7552   3.5740   4.0197   4.6350

          k = 0.2000 0.5774 0.0000 ( 12850 PWs)   bands (ev):

   -59.5884 -33.8013 -33.7828 -33.6460 -12.5538 -10.7554  -5.8615  -4.4880
    -3.9833  -3.3549  -2.2477  -1.6294  -0.2793   0.3476   0.5277   0.7432
     1.4958   1.9969   3.1899   3.3426   3.8608   4.7608

          k = 0.3000 0.5196 0.0000 ( 12860 PWs)   bands (ev):

   -59.5873 -33.7809 -33.7671 -33.6938 -12.5004 -10.7016  -5.5786  -4.8249
    -3.9204  -3.4028  -2.4276  -1.7053  -0.2106   0.3252   0.4721   0.6383
     1.6744   2.0814   2.9074   3.1957   3.8410   5.2223

     the Fermi energy is     1.9497 ev

!    total energy              =    -658.62560355 Ry
     total all-electron energy =    -12481.799494 Ry
     estimated scf accuracy    <       0.00000019 Ry
     smearing contrib. (-TS)   =      -0.00616950 Ry
     internal energy E=F+TS    =    -658.61943406 Ry

     The total energy is F=E-TS. E is the sum of the following terms:
     one-electron contribution =   -1367.18348326 Ry
     hartree contribution      =     697.04911502 Ry
     xc contribution           =     -62.44979159 Ry
     ewald contribution        =     480.10495055 Ry
     one-center paw contrib.   =    -406.14022477 Ry

     convergence has been achieved in   9 iterations

     negative rho (up, down):  5.016E-04 0.000E+00

     Forces acting on atoms (cartesian axes, Ry/au):

     atom    1 type  1   force =     0.00000000    0.00000000   -0.00752101
     atom    2 type  2   force =     0.00000000    0.00000000   -0.03278854
     atom    3 type  2   force =     0.00000000    0.00000000    0.05480239
     atom    4 type  3   force =     0.00000000    0.00000000   -0.01449284
     The non-local contrib.  to forces
     atom    1 type  1   force =     0.00000000   -0.00000000   -0.06680210
     atom    2 type  2   force =     0.00000000    0.00000000   -0.11909471
     atom    3 type  2   force =     0.00000000    0.00000000    0.28621685
     atom    4 type  3   force =     0.00000000    0.00000000    0.02760722
     The ionic contribution  to forces
     atom    1 type  1   force =     0.00000000   -0.00000000  -35.62890037
     atom    2 type  2   force =    -0.00000000    0.00000000   20.56945912
     atom    3 type  2   force =    -0.00000000    0.00000000  -45.86669936
     atom    4 type  3   force =     0.00000000   -0.00000000   60.92614062
     The local contribution  to forces
     atom    1 type  1   force =    -0.00000000    0.00000000   35.68316191
     atom    2 type  2   force =    -0.00000000    0.00000000  -20.48836195
     atom    3 type  2   force =    -0.00000000    0.00000000   45.63899183
     atom    4 type  3   force =    -0.00000000   -0.00000000  -60.92570388
     The core correction contribution to forces
     atom    1 type  1   force =     0.00000000    0.00000000    0.00480337
     atom    2 type  2   force =     0.00000000   -0.00000000    0.00539807
     atom    3 type  2   force =     0.00000000   -0.00000000   -0.00315766
     atom    4 type  3   force =     0.00000000    0.00000000   -0.04287211
     The Hubbard contrib.    to forces
     atom    1 type  1   force =     0.00000000    0.00000000    0.00000000
     atom    2 type  2   force =     0.00000000    0.00000000    0.00000000
     atom    3 type  2   force =     0.00000000    0.00000000    0.00000000
     atom    4 type  3   force =     0.00000000    0.00000000    0.00000000
     The SCF correction term to forces
     atom    1 type  1   force =    -0.00000000   -0.00000000    0.00028973
     atom    2 type  2   force =    -0.00000000   -0.00000000   -0.00011553
     atom    3 type  2   force =    -0.00000000   -0.00000000   -0.00047572
     atom    4 type  3   force =     0.00000000    0.00000000    0.00040885

     Total force =     0.065917     Total SCF correction =     0.000701


     Computing stress (Cartesian axis) and pressure


     negative rho (up, down):  5.016E-04 0.000E+00
          total   stress  (Ry/bohr**3)                   (kbar)     P=      -14.11
   0.00002485   0.00000000   0.00000000            3.66        0.00        0.00
   0.00000000   0.00002485  -0.00000000            0.00        3.66       -0.00
   0.00000000  -0.00000000  -0.00033738            0.00       -0.00      -49.63

     Energy error            =      6.2E-03 Ry
     Gradient error          =      5.5E-02 Ry/Bohr

     number of scf cycles    =  15
     number of bfgs steps    =  13

     energy             old  =    -658.6194406244 Ry
     energy             new  =    -658.6256035524 Ry

     CASE: energy            _new < energy            _old

     new trust radius        =       0.1335324589 bohr
     new conv_thr            =       0.0000005480 Ry


ATOMIC_POSITIONS (crystal)
Mo            0.0000000000        0.0000000000        0.5111382688
S             0.6666666667        0.3333333333        0.6062154134
S             0.6666666667        0.3333333333        0.4204117445
Co            0.0000000000        0.0000000000        0.6598706370



     Writing config-only to output data dir ./tmp/relax.save/
     NEW-OLD atomic charge density approx. for the potential

     negative rho (up, down):  4.540E-04 0.000E+00

     total cpu time spent up to now is      176.4 secs

     Self-consistent Calculation

     iteration #  1     ecut=    80.00 Ry     beta= 0.70
     Davidson diagonalization with overlap
     ethr =  1.00E-06,  avg # of iterations = 14.6

     negative rho (up, down):  4.977E-04 0.000E+00

     total cpu time spent up to now is      178.5 secs

     total energy              =    -658.62406413 Ry
     estimated scf accuracy    <       0.01075523 Ry

     iteration #  2     ecut=    80.00 Ry     beta= 0.70
     Davidson diagonalization with overlap
     ethr =  3.07E-05,  avg # of iterations =  3.9

     negative rho (up, down):  4.937E-04 0.000E+00

     total cpu time spent up to now is      179.4 secs

     total energy              =    -658.61220685 Ry
     estimated scf accuracy    <       0.16169426 Ry

     iteration #  3     ecut=    80.00 Ry     beta= 0.70
     Davidson diagonalization with overlap
     ethr =  3.07E-05,  avg # of iterations =  3.4

     negative rho (up, down):  4.952E-04 0.000E+00

     total cpu time spent up to now is      180.3 secs

     total energy              =    -658.62751885 Ry
     estimated scf accuracy    <       0.02462095 Ry

     iteration #  4     ecut=    80.00 Ry     beta= 0.70
     Davidson diagonalization with overlap
     ethr =  3.07E-05,  avg # of iterations =  2.3

     negative rho (up, down):  4.991E-04 0.000E+00

     total cpu time spent up to now is      181.1 secs

     total energy              =    -658.62797143 Ry
     estimated scf accuracy    <       0.05127911 Ry

     iteration #  5     ecut=    80.00 Ry     beta= 0.70
     Davidson diagonalization with overlap
     ethr =  3.07E-05,  avg # of iterations =  1.3

     negative rho (up, down):  5.099E-04 0.000E+00

     total cpu time spent up to now is      181.8 secs

     total energy              =    -658.63065604 Ry
     estimated scf accuracy    <       0.00063785 Ry

     iteration #  6     ecut=    80.00 Ry     beta= 0.70
     Davidson diagonalization with overlap
     ethr =  1.82E-06,  avg # of iterations =  3.2

     negative rho (up, down):  5.125E-04 0.000E+00

     total cpu time spent up to now is      182.6 secs

     total energy              =    -658.63075193 Ry
     estimated scf accuracy    <       0.00015422 Ry

     iteration #  7     ecut=    80.00 Ry     beta= 0.70
     Davidson diagonalization with overlap
     ethr =  4.41E-07,  avg # of iterations =  2.4

     negative rho (up, down):  5.145E-04 0.000E+00

     total cpu time spent up to now is      183.4 secs

     total energy              =    -658.63078089 Ry
     estimated scf accuracy    <       0.00005290 Ry

     iteration #  8     ecut=    80.00 Ry     beta= 0.70
     Davidson diagonalization with overlap
     ethr =  1.51E-07,  avg # of iterations =  1.9

     negative rho (up, down):  5.150E-04 0.000E+00

     total cpu time spent up to now is      184.2 secs

     total energy              =    -658.63078660 Ry
     estimated scf accuracy    <       0.00000235 Ry

     iteration #  9     ecut=    80.00 Ry     beta= 0.70
     Davidson diagonalization with overlap
     ethr =  6.71E-09,  avg # of iterations =  4.9

     negative rho (up, down):  5.154E-04 0.000E+00

     total cpu time spent up to now is      185.0 secs

     End of self-consistent calculation

          k = 0.0000 0.0000 0.0000 ( 12991 PWs)   bands (ev):

   -59.6865 -33.9376 -33.5482 -33.5482 -14.4145 -12.2375  -5.6296  -2.9631
    -2.9631  -2.8343  -0.7208  -0.7208  -0.2074   0.1487   0.1487   1.1950
     1.1950   1.3778   3.7003   3.8580   3.8580   4.4932

          k = 0.0000 0.1155 0.0000 ( 12953 PWs)   bands (ev):

   -59.6829 -33.9307 -33.5843 -33.5565 -14.2914 -12.1354  -5.4821  -3.3215
    -2.9956  -2.7751  -1.0192  -0.6770  -0.3101   0.1911   0.2260   0.9684
     1.1498   1.4778   3.5842   3.9245   3.9850   4.1223

          k = 0.0000 0.2309 0.0000 ( 12929 PWs)   bands (ev):

   -59.6733 -33.9126 -33.6778 -33.5782 -13.9498 -11.8489  -5.1118  -4.1936
    -3.1023  -2.7269  -1.5700  -0.6363  -0.5179   0.2293   0.3653   0.5219
     1.1952   1.6748   3.2495   3.6652   3.7951   4.5514

          k = 0.0000 0.3464 0.0000 ( 12915 PWs)   bands (ev):

   -59.6615 -33.8903 -33.7915 -33.6049 -13.4781 -11.4430  -5.2328  -4.7168
    -3.2649  -3.0372  -1.8942  -0.6782  -0.6629   0.0492   0.4147   0.6056
     1.5578   1.6807   3.1516   3.5433   3.8030   4.6504

          k = 0.0000 0.4619 0.0000 ( 12872 PWs)   bands (ev):

   -59.6520 -33.8821 -33.8721 -33.6263 -13.0387 -11.0507  -6.0648  -4.6082
    -3.4308  -3.4107  -2.1045  -0.7512  -0.7094   0.2741   0.5818   0.8426
     1.3982   1.9616   3.3957   3.4689   3.9318   4.6090

          k = 0.0000-0.5774 0.0000 ( 12854 PWs)   bands (ev):

   -59.6483 -33.9163 -33.8651 -33.6345 -12.8517 -10.8777  -6.3985  -4.6650
    -3.5409  -3.4682  -2.2138  -0.7849  -0.6985   0.6118   0.7273   0.9625
     1.0872   2.0716   3.5403   3.5656   3.8803   4.5572

          k = 0.1000 0.1732 0.0000 ( 12937 PWs)   bands (ev):

   -59.6763 -33.9182 -33.6464 -33.5742 -14.0588 -11.9407  -5.2201  -3.8890
    -3.1396  -2.6941  -1.4144  -0.7254  -0.3932   0.2217   0.2987   0.7181
     1.1061   1.6394   3.3578   3.6780   3.7912   4.4047

          k = 0.1000 0.2887 0.0000 ( 12944 PWs)   bands (ev):

   -59.6656 -33.8980 -33.7436 -33.6047 -13.6498 -11.5912  -4.8485  -4.7457
    -3.3739  -2.8395  -1.8033  -0.7502  -0.5601   0.0865   0.3199   0.6169
     1.3537   1.7844   3.0732   3.5150   3.6449   4.6636

          k = 0.1000 0.4041 0.0000 ( 12898 PWs)   bands (ev):

   -59.6549 -33.8777 -33.8391 -33.6354 -13.1860 -11.1811  -5.6569  -4.5468
    -3.6668  -3.2081  -1.9773  -0.9634  -0.5575   0.0973   0.3813   0.8220
     1.4760   1.8974   3.0283   3.6010   3.8555   4.6206

          k = 0.1000 0.5196 0.0000 ( 12858 PWs)   bands (ev):

   -59.6483 -33.8973 -33.8651 -33.6544 -12.8601 -10.8808  -6.2283  -4.5669
    -3.8755  -3.3342  -2.1646  -1.1334  -0.4935   0.4113   0.5938   0.9922
     1.2208   2.0120   3.2984   3.7277   4.0805   4.3014

          k = 0.2000 0.3464 0.0000 ( 12917 PWs)   bands (ev):

   -59.6561 -33.8799 -33.8105 -33.6512 -13.2427 -11.2290  -5.3700  -4.5150
    -3.8818  -3.1359  -1.9314  -1.0534  -0.5086   0.0063   0.2831   0.8387
     1.4303   1.9737   2.8145   3.6132   3.6790   4.7394

          k = 0.2000 0.4619 0.0000 ( 12869 PWs)   bands (ev):

   -59.6483 -33.8652 -33.8572 -33.6958 -12.8737 -10.8856  -5.8631  -4.4980
    -4.2030  -3.3168  -2.1222  -1.4483  -0.3366   0.2378   0.3396   0.9719
     1.3249   2.0665   2.9412   3.5932   3.9841   4.7331

          k = 0.2000 0.5774 0.0000 ( 12850 PWs)   bands (ev):

   -59.6454 -33.8735 -33.8595 -33.7143 -12.7204 -10.7379  -6.0617  -4.6675
    -4.2028  -3.3309  -2.2611  -1.5931  -0.2792   0.3868   0.5367   0.7636
     1.5426   1.9665   3.2322   3.4335   4.0118   4.7555

          k = 0.3000 0.5196 0.0000 ( 12860 PWs)   bands (ev):

   -59.6442 -33.8574 -33.8390 -33.7627 -12.6686 -10.6826  -5.8126  -5.0248
    -4.1088  -3.3591  -2.4020  -1.7206  -0.1771   0.3488   0.5028   0.6487
     1.6796   2.1016   2.9854   3.1815   4.0797   5.2048

     the Fermi energy is     1.9040 ev

!    total energy              =    -658.63078739 Ry
     total all-electron energy =    -12481.804678 Ry
     estimated scf accuracy    <       0.00000023 Ry
     smearing contrib. (-TS)   =      -0.00720848 Ry
     internal energy E=F+TS    =    -658.62357891 Ry

     The total energy is F=E-TS. E is the sum of the following terms:
     one-electron contribution =   -1401.51449271 Ry
     hartree contribution      =     714.17159825 Ry
     xc contribution           =     -62.50576598 Ry
     ewald contribution        =     497.36679256 Ry
     one-center paw contrib.   =    -406.14171104 Ry

     convergence has been achieved in   9 iterations

     negative rho (up, down):  5.154E-04 0.000E+00

     Forces acting on atoms (cartesian axes, Ry/au):

     atom    1 type  1   force =     0.00000000    0.00000000   -0.04768220
     atom    2 type  2   force =     0.00000000    0.00000000   -0.00851518
     atom    3 type  2   force =     0.00000000    0.00000000    0.05770345
     atom    4 type  3   force =     0.00000000    0.00000000   -0.00150606
     The non-local contrib.  to forces
     atom    1 type  1   force =     0.00000000   -0.00000000   -0.03711874
     atom    2 type  2   force =     0.00000000    0.00000000   -0.09128653
     atom    3 type  2   force =     0.00000000    0.00000000    0.28784459
     atom    4 type  3   force =     0.00000000    0.00000000    0.02273420
     The ionic contribution  to forces
     atom    1 type  1   force =     0.00000000   -0.00000000  -36.48944592
     atom    2 type  2   force =    -0.00000000    0.00000000   20.66645982
     atom    3 type  2   force =    -0.00000000    0.00000000  -46.31165109
     atom    4 type  3   force =     0.00000000   -0.00000000   62.13463719
     The local contribution  to forces
     atom    1 type  1   force =    -0.00000000   -0.00000000   36.47736593
     atom    2 type  2   force =    -0.00000000    0.00000000  -20.58676447
     atom    3 type  2   force =    -0.00000000    0.00000000   46.08502288
     atom    4 type  3   force =     0.00000000   -0.00000000  -62.11622813
     The core correction contribution to forces
     atom    1 type  1   force =    -0.00000000   -0.00000000    0.00290490
     atom    2 type  2   force =     0.00000000   -0.00000000    0.00375456
     atom    3 type  2   force =     0.00000000   -0.00000000   -0.00331576
     atom    4 type  3   force =     0.00000000    0.00000000   -0.04240131
     The Hubbard contrib.    to forces
     atom    1 type  1   force =     0.00000000    0.00000000    0.00000000
     atom    2 type  2   force =     0.00000000    0.00000000    0.00000000
     atom    3 type  2   force =     0.00000000    0.00000000    0.00000000
     atom    4 type  3   force =     0.00000000    0.00000000    0.00000000
     The SCF correction term to forces
     atom    1 type  1   force =     0.00000000    0.00000000   -0.00139341
     atom    2 type  2   force =    -0.00000000    0.00000000   -0.00068362
     atom    3 type  2   force =    -0.00000000    0.00000000   -0.00020222
     atom    4 type  3   force =    -0.00000000   -0.00000000   -0.00025305

     Total force =     0.075353     Total SCF correction =     0.001586


     Computing stress (Cartesian axis) and pressure


     negative rho (up, down):  5.154E-04 0.000E+00
          total   stress  (Ry/bohr**3)                   (kbar)     P=       -5.90
   0.00004253   0.00000000   0.00000000            6.26        0.00        0.00
   0.00000000   0.00004253  -0.00000000            0.00        6.26       -0.00
   0.00000000   0.00000000  -0.00020536            0.00        0.00      -30.21

     Energy error            =      5.2E-03 Ry
     Gradient error          =      5.8E-02 Ry/Bohr

     number of scf cycles    =  16
     number of bfgs steps    =  14

     energy             old  =    -658.6256035524 Ry
     energy             new  =    -658.6307873929 Ry

     CASE: energy            _new < energy            _old

     new trust radius        =       0.0426789116 bohr
     new conv_thr            =       0.0000005184 Ry


ATOMIC_POSITIONS (crystal)
Mo            0.0000000000        0.0000000000        0.5108044782
S             0.6666666667        0.3333333333        0.6055987973
S             0.6666666667        0.3333333333        0.4216533447
Co            0.0000000000        0.0000000000        0.6595794435



     Writing config-only to output data dir ./tmp/relax.save/
     NEW-OLD atomic charge density approx. for the potential

     negative rho (up, down):  5.186E-04 0.000E+00

     total cpu time spent up to now is      187.7 secs

     Self-consistent Calculation

     iteration #  1     ecut=    80.00 Ry     beta= 0.70
     Davidson diagonalization with overlap
     ethr =  1.00E-06,  avg # of iterations =  6.9

     negative rho (up, down):  5.176E-04 0.000E+00

     total cpu time spent up to now is      189.0 secs

     total energy              =    -658.63314285 Ry
     estimated scf accuracy    <       0.00055561 Ry

     iteration #  2     ecut=    80.00 Ry     beta= 0.70
     Davidson diagonalization with overlap
     ethr =  1.59E-06,  avg # of iterations =  8.6

     negative rho (up, down):  5.176E-04 0.000E+00

     total cpu time spent up to now is      190.1 secs

     total energy              =    -658.62915327 Ry
     estimated scf accuracy    <       0.10820159 Ry

     iteration #  3     ecut=    80.00 Ry     beta= 0.70
     Davidson diagonalization with overlap
     ethr =  1.59E-06,  avg # of iterations =  8.6

     negative rho (up, down):  5.171E-04 0.000E+00

     total cpu time spent up to now is      191.1 secs

     total energy              =    -658.63350119 Ry
     estimated scf accuracy    <       0.00044088 Ry

     iteration #  4     ecut=    80.00 Ry     beta= 0.70
     Davidson diagonalization with overlap
     ethr =  1.26E-06,  avg # of iterations =  2.1

     negative rho (up, down):  5.169E-04 0.000E+00

     total cpu time spent up to now is      191.9 secs

     total energy              =    -658.63355920 Ry
     estimated scf accuracy    <       0.00006275 Ry

     iteration #  5     ecut=    80.00 Ry     beta= 0.70
     Davidson diagonalization with overlap
     ethr =  1.79E-07,  avg # of iterations =  2.6

     negative rho (up, down):  5.170E-04 0.000E+00

     total cpu time spent up to now is      192.7 secs

     total energy              =    -658.63356934 Ry
     estimated scf accuracy    <       0.00005592 Ry

     iteration #  6     ecut=    80.00 Ry     beta= 0.70
     Davidson diagonalization with overlap
     ethr =  1.60E-07,  avg # of iterations =  1.9

     negative rho (up, down):  5.169E-04 0.000E+00

     total cpu time spent up to now is      193.5 secs

     total energy              =    -658.63357517 Ry
     estimated scf accuracy    <       0.00000225 Ry

     iteration #  7     ecut=    80.00 Ry     beta= 0.70
     Davidson diagonalization with overlap
     ethr =  6.41E-09,  avg # of iterations =  3.6

     negative rho (up, down):  5.171E-04 0.000E+00

     total cpu time spent up to now is      194.2 secs

     End of self-consistent calculation

          k = 0.0000 0.0000 0.0000 ( 12991 PWs)   bands (ev):

   -59.6839 -33.9397 -33.5525 -33.5525 -14.4264 -12.2754  -5.6447  -2.9558
    -2.9558  -2.8695  -0.8381  -0.8381  -0.1423   0.1467   0.1467   1.1680
     1.1680   1.3952   3.6771   3.9041   3.9041   4.4806

          k = 0.0000 0.1155 0.0000 ( 12953 PWs)   bands (ev):

   -59.6803 -33.9327 -33.5889 -33.5609 -14.3025 -12.1751  -5.4976  -3.3187
    -2.9891  -2.8128  -1.1274  -0.7973  -0.2754   0.1889   0.2501   0.9494
     1.1272   1.4905   3.6358   3.9707   3.9843   4.1050

          k = 0.0000 0.2309 0.0000 ( 12929 PWs)   bands (ev):

   -59.6707 -33.9144 -33.6834 -33.5827 -13.9592 -11.8938  -5.1291  -4.1959
    -3.0996  -2.7855  -1.6462  -0.7546  -0.4964   0.2538   0.3635   0.5207
     1.1755   1.6773   3.3066   3.6636   3.8356   4.5631

          k = 0.0000 0.3464 0.0000 ( 12915 PWs)   bands (ev):

   -59.6588 -33.8916 -33.7982 -33.6096 -13.4856 -11.4963  -5.2387  -4.7409
    -3.2687  -3.1127  -1.9207  -0.7854  -0.6454   0.0638   0.4133   0.6107
     1.5327   1.6813   3.1805   3.5606   3.8392   4.6944

          k = 0.0000 0.4619 0.0000 ( 12872 PWs)   bands (ev):

   -59.6492 -33.8897 -33.8730 -33.6312 -13.0452 -11.1132  -6.0718  -4.6477
    -3.4750  -3.4201  -2.1259  -0.8483  -0.6927   0.2907   0.5773   0.8513
     1.4040   1.9448   3.4003   3.4634   3.9753   4.6664

          k = 0.0000-0.5774 0.0000 ( 12854 PWs)   bands (ev):

   -59.6455 -33.9243 -33.8660 -33.6394 -12.8580 -10.9445  -6.4058  -4.7095
    -3.5687  -3.4797  -2.2395  -0.8782  -0.6815   0.6250   0.7322   0.9718
     1.0960   2.0635   3.5234   3.5616   3.9105   4.6160

          k = 0.1000 0.1732 0.0000 ( 12937 PWs)   bands (ev):

   -59.6737 -33.9200 -33.6517 -33.5786 -14.0687 -11.9839  -5.2366  -3.8900
    -3.1381  -2.7418  -1.5075  -0.8228  -0.3864   0.2179   0.3251   0.7138
     1.0879   1.6440   3.4259   3.6612   3.8341   4.3867

          k = 0.1000 0.2887 0.0000 ( 12944 PWs)   bands (ev):

   -59.6629 -33.8995 -33.7499 -33.6094 -13.6579 -11.6412  -4.8672  -4.7515
    -3.3756  -2.9193  -1.8481  -0.8464  -0.5475   0.0918   0.3330   0.6202
     1.3339   1.7835   3.1082   3.5319   3.6757   4.6964

          k = 0.1000 0.4041 0.0000 ( 12898 PWs)   bands (ev):

   -59.6522 -33.8788 -33.8463 -33.6404 -13.1927 -11.2400  -5.6641  -4.5763
    -3.6868  -3.2616  -2.0044  -1.0256  -0.5646   0.1066   0.3792   0.8306
     1.4773   1.8840   3.0469   3.5997   3.9001   4.6743

          k = 0.1000 0.5196 0.0000 ( 12858 PWs)   bands (ev):

   -59.6455 -33.9051 -33.8660 -33.6595 -12.8664 -10.9469  -6.2359  -4.6099
    -3.8986  -3.3546  -2.1985  -1.1892  -0.4974   0.4253   0.5874   1.0030
     1.2293   2.0083   3.2930   3.7265   4.1173   4.3470

          k = 0.2000 0.3464 0.0000 ( 12917 PWs)   bands (ev):

   -59.6533 -33.8810 -33.8175 -33.6564 -13.2494 -11.2865  -5.3784  -4.5364
    -3.8944  -3.2119  -1.9702  -1.1009  -0.5123   0.0006   0.2951   0.8476
     1.4299   1.9650   2.8366   3.6411   3.6930   4.7943

          k = 0.2000 0.4619 0.0000 ( 12869 PWs)   bands (ev):

   -59.6455 -33.8662 -33.8644 -33.7013 -12.8799 -10.9507  -5.8724  -4.5283
    -4.2223  -3.3683  -2.1730  -1.4665  -0.3364   0.2364   0.3340   0.9824
     1.3325   2.0720   2.9471   3.6195   4.0071   4.7732

          k = 0.2000 0.5774 0.0000 ( 12850 PWs)   bands (ev):

   -59.6425 -33.8811 -33.8603 -33.7200 -12.7265 -10.8064  -6.0711  -4.6987
    -4.2275  -3.3688  -2.3139  -1.6111  -0.2737   0.3961   0.5198   0.7762
     1.5496   1.9747   3.2324   3.4521   4.0418   4.7876

          k = 0.3000 0.5196 0.0000 ( 12860 PWs)   bands (ev):

   -59.6414 -33.8581 -33.8465 -33.7687 -12.6746 -10.7517  -5.8253  -5.0430
    -4.1305  -3.4304  -2.4398  -1.7276  -0.1678   0.3572   0.4796   0.6600
     1.6853   2.1122   2.9957   3.1976   4.1028   5.2663

     the Fermi energy is     1.9004 ev

!    total energy              =    -658.63357567 Ry
     total all-electron energy =    -12481.807467 Ry
     estimated scf accuracy    <       0.00000043 Ry
     smearing contrib. (-TS)   =      -0.00721240 Ry
     internal energy E=F+TS    =    -658.62636327 Ry

     The total energy is F=E-TS. E is the sum of the following terms:
     one-electron contribution =   -1406.72793697 Ry
     hartree contribution      =     716.78497010 Ry
     xc contribution           =     -62.52731694 Ry
     ewald contribution        =     499.98735399 Ry
     one-center paw contrib.   =    -406.14343344 Ry

     convergence has been achieved in   7 iterations

     negative rho (up, down):  5.171E-04 0.000E+00

     Forces acting on atoms (cartesian axes, Ry/au):

     atom    1 type  1   force =     0.00000000    0.00000000   -0.03615114
     atom    2 type  2   force =     0.00000000    0.00000000   -0.00457742
     atom    3 type  2   force =     0.00000000    0.00000000    0.04248212
     atom    4 type  3   force =     0.00000000    0.00000000   -0.00175356
     The non-local contrib.  to forces
     atom    1 type  1   force =     0.00000000   -0.00000000   -0.04344679
     atom    2 type  2   force =     0.00000000    0.00000000   -0.08700804
     atom    3 type  2   force =     0.00000000    0.00000000    0.28150857
     atom    4 type  3   force =     0.00000000    0.00000000    0.02354575
     The ionic contribution  to forces
     atom    1 type  1   force =     0.00000000   -0.00000000  -36.50787063
     atom    2 type  2   force =    -0.00000000    0.00000000   20.68053010
     atom    3 type  2   force =    -0.00000000   -0.00000000  -46.41138280
     atom    4 type  3   force =     0.00000000   -0.00000000   62.23872332
     The local contribution  to forces
     atom    1 type  1   force =     0.00000000    0.00000000   36.51278359
     atom    2 type  2   force =    -0.00000000    0.00000000  -20.60237853
     atom    3 type  2   force =    -0.00000000    0.00000000   46.17598808
     atom    4 type  3   force =    -0.00000000   -0.00000000  -62.22435877
     The core correction contribution to forces
     atom    1 type  1   force =    -0.00000000   -0.00000000    0.00325729
     atom    2 type  2   force =     0.00000000   -0.00000000    0.00357892
     atom    3 type  2   force =     0.00000000   -0.00000000   -0.00297538
     atom    4 type  3   force =    -0.00000000    0.00000000   -0.04232179
     The Hubbard contrib.    to forces
     atom    1 type  1   force =     0.00000000    0.00000000    0.00000000
     atom    2 type  2   force =     0.00000000    0.00000000    0.00000000
     atom    3 type  2   force =     0.00000000    0.00000000    0.00000000
     atom    4 type  3   force =     0.00000000    0.00000000    0.00000000
     The SCF correction term to forces
     atom    1 type  1   force =     0.00000000   -0.00000000   -0.00056164
     atom    2 type  2   force =     0.00000000    0.00000000    0.00101309
     atom    3 type  2   force =     0.00000000    0.00000000   -0.00034338
     atom    4 type  3   force =     0.00000000    0.00000000    0.00297090

     Total force =     0.055997     Total SCF correction =     0.003207


     Computing stress (Cartesian axis) and pressure


     negative rho (up, down):  5.171E-04 0.000E+00
          total   stress  (Ry/bohr**3)                   (kbar)     P=       -1.56
   0.00005842   0.00000000  -0.00000000            8.59        0.00       -0.00
   0.00000000   0.00005842  -0.00000000            0.00        8.59       -0.00
   0.00000000   0.00000000  -0.00014872            0.00        0.00      -21.88

     Energy error            =      2.8E-03 Ry
     Gradient error          =      4.2E-02 Ry/Bohr

     number of scf cycles    =  17
     number of bfgs steps    =  15

     energy             old  =    -658.6307873929 Ry
     energy             new  =    -658.6335756694 Ry

     CASE: energy            _new < energy            _old

     new trust radius        =       0.0469468028 bohr
     new conv_thr            =       0.0000002788 Ry


ATOMIC_POSITIONS (crystal)
Mo            0.0000000000        0.0000000000        0.5102252228
S             0.6666666667        0.3333333333        0.6051539457
S             0.6666666667        0.3333333333        0.4230191049
Co            0.0000000000        0.0000000000        0.6592377903



     Writing config-only to output data dir ./tmp/relax.save/
     NEW-OLD atomic charge density approx. for the potential

     negative rho (up, down):  5.180E-04 0.000E+00

     total cpu time spent up to now is      196.7 secs

     Self-consistent Calculation

     iteration #  1     ecut=    80.00 Ry     beta= 0.70
     Davidson diagonalization with overlap
     ethr =  1.00E-06,  avg # of iterations =  7.6

     negative rho (up, down):  5.169E-04 0.000E+00

     total cpu time spent up to now is      197.9 secs

     total energy              =    -658.63531856 Ry
     estimated scf accuracy    <       0.00058124 Ry

     iteration #  2     ecut=    80.00 Ry     beta= 0.70
     Davidson diagonalization with overlap
     ethr =  1.66E-06,  avg # of iterations =  9.4

     negative rho (up, down):  5.171E-04 0.000E+00

     total cpu time spent up to now is      198.9 secs

     total energy              =    -658.63120731 Ry
     estimated scf accuracy    <       0.11107530 Ry

     iteration #  3     ecut=    80.00 Ry     beta= 0.70
     Davidson diagonalization with overlap
     ethr =  1.66E-06,  avg # of iterations =  9.0

     negative rho (up, down):  5.171E-04 0.000E+00

     total cpu time spent up to now is      199.9 secs

     total energy              =    -658.63572724 Ry
     estimated scf accuracy    <       0.00010845 Ry

     iteration #  4     ecut=    80.00 Ry     beta= 0.70
     Davidson diagonalization with overlap
     ethr =  3.10E-07,  avg # of iterations =  2.4

     negative rho (up, down):  5.172E-04 0.000E+00

     total cpu time spent up to now is      200.7 secs

     total energy              =    -658.63575183 Ry
     estimated scf accuracy    <       0.00003218 Ry

     iteration #  5     ecut=    80.00 Ry     beta= 0.70
     Davidson diagonalization with overlap
     ethr =  9.19E-08,  avg # of iterations =  2.5

     negative rho (up, down):  5.171E-04 0.000E+00

     total cpu time spent up to now is      201.4 secs

     total energy              =    -658.63575556 Ry
     estimated scf accuracy    <       0.00002170 Ry

     iteration #  6     ecut=    80.00 Ry     beta= 0.70
     Davidson diagonalization with overlap
     ethr =  6.20E-08,  avg # of iterations =  2.0

     negative rho (up, down):  5.170E-04 0.000E+00

     total cpu time spent up to now is      202.1 secs

     total energy              =    -658.63575833 Ry
     estimated scf accuracy    <       0.00000351 Ry

     iteration #  7     ecut=    80.00 Ry     beta= 0.70
     Davidson diagonalization with overlap
     ethr =  1.00E-08,  avg # of iterations =  3.0

     negative rho (up, down):  5.171E-04 0.000E+00

     total cpu time spent up to now is      202.9 secs

     total energy              =    -658.63575916 Ry
     estimated scf accuracy    <       0.00000131 Ry

     iteration #  8     ecut=    80.00 Ry     beta= 0.70
     Davidson diagonalization with overlap
     ethr =  3.75E-09,  avg # of iterations =  2.1

     negative rho (up, down):  5.171E-04 0.000E+00

     total cpu time spent up to now is      203.6 secs

     End of self-consistent calculation

          k = 0.0000 0.0000 0.0000 ( 12991 PWs)   bands (ev):

   -59.6739 -33.9342 -33.5509 -33.5509 -14.4378 -12.3182  -5.6570  -2.9527
    -2.9527  -2.9243  -0.9801  -0.9801  -0.0444   0.1413   0.1413   1.1422
     1.1422   1.4129   3.6538   3.9703   3.9703   4.4694

          k = 0.0000 0.1155 0.0000 ( 12953 PWs)   bands (ev):

   -59.6702 -33.9271 -33.5878 -33.5594 -14.3130 -12.2199  -5.5107  -3.3191
    -2.9853  -2.8675  -1.2585  -0.9426  -0.2292   0.1822   0.2872   0.9336
     1.1062   1.5020   3.7036   3.9634   4.0711   4.0831

          k = 0.0000 0.2309 0.0000 ( 12929 PWs)   bands (ev):

   -59.6606 -33.9084 -33.6833 -33.5814 -13.9673 -11.9446  -5.1451  -4.1972
    -3.0967  -2.8607  -1.7377  -0.8983  -0.4695   0.2865   0.3544   0.5270
     1.1592   1.6743   3.3702   3.6709   3.8853   4.5838

          k = 0.0000 0.3464 0.0000 ( 12915 PWs)   bands (ev):

   -59.6486 -33.8852 -33.7995 -33.6085 -13.4908 -11.5572  -5.2409  -4.7660
    -3.2697  -3.1992  -1.9558  -0.9173  -0.6211   0.0829   0.4117   0.6056
     1.5135   1.6744   3.2035   3.5808   3.8909   4.7496

          k = 0.0000 0.4619 0.0000 ( 12872 PWs)   bands (ev):

   -59.6389 -33.8921 -33.8662 -33.6303 -13.0484 -11.1854  -6.0743  -4.6918
    -3.5193  -3.4251  -2.1523  -0.9686  -0.6681   0.3021   0.5731   0.8488
     1.4009   1.9347   3.3938   3.4584   4.0276   4.7326

          k = 0.0000-0.5774 0.0000 ( 12854 PWs)   bands (ev):

   -59.6352 -33.9270 -33.8591 -33.6386 -12.8605 -11.0223  -6.4085  -4.7594
    -3.5914  -3.4862  -2.2708  -0.9942  -0.6567   0.6257   0.7424   0.9695
     1.0952   2.0620   3.5080   3.5450   3.9422   4.6808

          k = 0.1000 0.1732 0.0000 ( 12937 PWs)   bands (ev):

   -59.6636 -33.9142 -33.6513 -33.5773 -14.0775 -12.0326  -5.2513  -3.8914
    -3.1375  -2.8053  -1.6184  -0.9520  -0.3668   0.2101   0.3591   0.7153
     1.0735   1.6441   3.5190   3.6384   3.8875   4.3655

          k = 0.1000 0.2887 0.0000 ( 12944 PWs)   bands (ev):

   -59.6527 -33.8932 -33.7506 -33.6084 -13.6641 -11.6981  -4.8840  -4.7559
    -3.3736  -3.0153  -1.9032  -0.9688  -0.5282   0.1005   0.3479   0.6169
     1.3201   1.7760   3.1360   3.5608   3.7205   4.7337

          k = 0.1000 0.4041 0.0000 ( 12898 PWs)   bands (ev):

   -59.6419 -33.8723 -33.8480 -33.6396 -13.1965 -11.3079  -5.6670  -4.6081
    -3.7066  -3.3174  -2.0386  -1.1082  -0.5654   0.1158   0.3741   0.8284
     1.4736   1.8735   3.0584   3.5966   3.9633   4.7335

          k = 0.1000 0.5196 0.0000 ( 12858 PWs)   bands (ev):

   -59.6352 -33.9076 -33.8591 -33.6589 -12.8689 -11.0239  -6.2387  -4.6583
    -3.9148  -3.3741  -2.2386  -1.2596  -0.4987   0.4306   0.5821   1.0028
     1.2275   2.0098   3.2800   3.7236   4.1569   4.3986

          k = 0.2000 0.3464 0.0000 ( 12917 PWs)   bands (ev):

   -59.6430 -33.8744 -33.8189 -33.6558 -13.2535 -11.3526  -5.3829  -4.5572
    -3.9042  -3.2979  -2.0181  -1.1605  -0.5168  -0.0046   0.3052   0.8456
     1.4286   1.9555   2.8501   3.6524   3.7454   4.8539

          k = 0.2000 0.4619 0.0000 ( 12869 PWs)   bands (ev):

   -59.6352 -33.8669 -33.8589 -33.7012 -12.8823 -11.0264  -5.8764  -4.5590
    -4.2369  -3.4266  -2.2313  -1.4846  -0.3443   0.2279   0.3277   0.9825
     1.3318   2.0803   2.9427   3.6437   4.0496   4.8111

          k = 0.2000 0.5774 0.0000 ( 12850 PWs)   bands (ev):

   -59.6322 -33.8833 -33.8533 -33.7200 -12.7285 -10.8866  -6.0747  -4.7297
    -4.2476  -3.4127  -2.3717  -1.6288  -0.2754   0.3972   0.4997   0.7785
     1.5466   1.9850   3.2276   3.4686   4.0727   4.8227

          k = 0.3000 0.5196 0.0000 ( 12860 PWs)   bands (ev):

   -59.6310 -33.8512 -33.8485 -33.7691 -12.6764 -10.8329  -5.8313  -5.0562
    -4.1494  -3.5145  -2.4796  -1.7291  -0.1705   0.3595   0.4495   0.6617
     1.6864   2.1198   2.9894   3.2295   4.1167   5.3408

     the Fermi energy is     1.8973 ev

!    total energy              =    -658.63575932 Ry
     total all-electron energy =    -12481.809650 Ry
     estimated scf accuracy    <       0.00000002 Ry
     smearing contrib. (-TS)   =      -0.00710313 Ry
     internal energy E=F+TS    =    -658.62865619 Ry

     The total energy is F=E-TS. E is the sum of the following terms:
     one-electron contribution =   -1411.65926234 Ry
     hartree contribution      =     719.23663777 Ry
     xc contribution           =     -62.54975684 Ry
     ewald contribution        =     502.48919651 Ry
     one-center paw contrib.   =    -406.14547129 Ry

     convergence has been achieved in   8 iterations

     negative rho (up, down):  5.171E-04 0.000E+00

     Forces acting on atoms (cartesian axes, Ry/au):

     atom    1 type  1   force =     0.00000000    0.00000000   -0.01787389
     atom    2 type  2   force =     0.00000000    0.00000000   -0.00162433
     atom    3 type  2   force =     0.00000000    0.00000000    0.02340124
     atom    4 type  3   force =     0.00000000    0.00000000   -0.00390302
     The non-local contrib.  to forces
     atom    1 type  1   force =     0.00000000   -0.00000000   -0.05265626
     atom    2 type  2   force =     0.00000000   -0.00000000   -0.08489979
     atom    3 type  2   force =     0.00000000    0.00000000    0.27285368
     atom    4 type  3   force =     0.00000000    0.00000000    0.02214413
     The ionic contribution  to forces
     atom    1 type  1   force =     0.00000000   -0.00000000  -36.51829169
     atom    2 type  2   force =    -0.00000000    0.00000000   20.72330476
     atom    3 type  2   force =    -0.00000000    0.00000000  -46.50107456
     atom    4 type  3   force =     0.00000000   -0.00000000   62.29606149
     The local contribution  to forces
     atom    1 type  1   force =    -0.00000000    0.00000000   36.54944192
     atom    2 type  2   force =    -0.00000000    0.00000000  -20.64375924
     atom    3 type  2   force =    -0.00000000    0.00000000   46.25422268
     atom    4 type  3   force =     0.00000000    0.00000000  -62.28022220
     The core correction contribution to forces
     atom    1 type  1   force =     0.00000000   -0.00000000    0.00377987
     atom    2 type  2   force =     0.00000000   -0.00000000    0.00353528
     atom    3 type  2   force =     0.00000000   -0.00000000   -0.00253017
     atom    4 type  3   force =     0.00000000    0.00000000   -0.04233375
     The Hubbard contrib.    to forces
     atom    1 type  1   force =     0.00000000    0.00000000    0.00000000
     atom    2 type  2   force =     0.00000000    0.00000000    0.00000000
     atom    3 type  2   force =     0.00000000    0.00000000    0.00000000
     atom    4 type  3   force =     0.00000000    0.00000000    0.00000000
     The SCF correction term to forces
     atom    1 type  1   force =     0.00000000    0.00000000   -0.00011326
     atom    2 type  2   force =    -0.00000000   -0.00000000    0.00022912
     atom    3 type  2   force =    -0.00000000   -0.00000000   -0.00003594
     atom    4 type  3   force =    -0.00000000    0.00000000    0.00048176

     Total force =     0.029748     Total SCF correction =     0.000547


     Computing stress (Cartesian axis) and pressure


     negative rho (up, down):  5.171E-04 0.000E+00
          total   stress  (Ry/bohr**3)                   (kbar)     P=        2.86
   0.00007495   0.00000000   0.00000000           11.03        0.00        0.00
   0.00000000   0.00007495  -0.00000000            0.00       11.03       -0.00
   0.00000000  -0.00000000  -0.00009164            0.00       -0.00      -13.48

     Energy error            =      2.2E-03 Ry
     Gradient error          =      2.3E-02 Ry/Bohr

     number of scf cycles    =  18
     number of bfgs steps    =  16

     energy             old  =    -658.6335756694 Ry
     energy             new  =    -658.6357593249 Ry

     CASE: energy            _new < energy            _old

     new trust radius        =       0.0704202042 bohr
     new conv_thr            =       0.0000002184 Ry


ATOMIC_POSITIONS (crystal)
Mo            0.0000000000        0.0000000000        0.5099143708
S             0.6666666667        0.3333333333        0.6045039063
S             0.6666666667        0.3333333333        0.4250677452
Co            0.0000000000        0.0000000000        0.6581500415



     Writing config-only to output data dir ./tmp/relax.save/
     NEW-OLD atomic charge density approx. for the potential

     negative rho (up, down):  5.239E-04 0.000E+00

     total cpu time spent up to now is      206.3 secs

     Self-consistent Calculation

     iteration #  1     ecut=    80.00 Ry     beta= 0.70
     Davidson diagonalization with overlap
     ethr =  1.00E-06,  avg # of iterations =  9.0

     negative rho (up, down):  5.233E-04 0.000E+00

     total cpu time spent up to now is      207.7 secs

     total energy              =    -658.63485135 Ry
     estimated scf accuracy    <       0.00234931 Ry

     iteration #  2     ecut=    80.00 Ry     beta= 0.70
     Davidson diagonalization with overlap
     ethr =  6.71E-06,  avg # of iterations = 10.4

     negative rho (up, down):  5.234E-04 0.000E+00

     total cpu time spent up to now is      208.8 secs

     total energy              =    -658.61867444 Ry
     estimated scf accuracy    <       0.41861905 Ry

     iteration #  3     ecut=    80.00 Ry     beta= 0.70
     Davidson diagonalization with overlap
     ethr =  6.71E-06,  avg # of iterations =  8.9

     negative rho (up, down):  5.225E-04 0.000E+00

     total cpu time spent up to now is      209.9 secs

     total energy              =    -658.63638664 Ry
     estimated scf accuracy    <       0.00146125 Ry

     iteration #  4     ecut=    80.00 Ry     beta= 0.70
     Davidson diagonalization with overlap
     ethr =  4.18E-06,  avg # of iterations =  2.0

     negative rho (up, down):  5.223E-04 0.000E+00

     total cpu time spent up to now is      210.7 secs

     total energy              =    -658.63660402 Ry
     estimated scf accuracy    <       0.00020833 Ry

     iteration #  5     ecut=    80.00 Ry     beta= 0.70
     Davidson diagonalization with overlap
     ethr =  5.95E-07,  avg # of iterations =  3.4

     negative rho (up, down):  5.230E-04 0.000E+00

     total cpu time spent up to now is      211.5 secs

     total energy              =    -658.63662801 Ry
     estimated scf accuracy    <       0.00012277 Ry

     iteration #  6     ecut=    80.00 Ry     beta= 0.70
     Davidson diagonalization with overlap
     ethr =  3.51E-07,  avg # of iterations =  2.4

     negative rho (up, down):  5.232E-04 0.000E+00

     total cpu time spent up to now is      212.2 secs

     total energy              =    -658.63664551 Ry
     estimated scf accuracy    <       0.00000924 Ry

     iteration #  7     ecut=    80.00 Ry     beta= 0.70
     Davidson diagonalization with overlap
     ethr =  2.64E-08,  avg # of iterations =  3.3

     negative rho (up, down):  5.233E-04 0.000E+00

     total cpu time spent up to now is      213.0 secs

     total energy              =    -658.63664784 Ry
     estimated scf accuracy    <       0.00000126 Ry

     iteration #  8     ecut=    80.00 Ry     beta= 0.70
     Davidson diagonalization with overlap
     ethr =  3.61E-09,  avg # of iterations =  2.6

     negative rho (up, down):  5.233E-04 0.000E+00

     total cpu time spent up to now is      213.8 secs

     End of self-consistent calculation

          k = 0.0000 0.0000 0.0000 ( 12991 PWs)   bands (ev):

   -59.6659 -33.9349 -33.5551 -33.5551 -14.4829 -12.3679  -5.6949  -3.0182
    -3.0182  -2.9917  -1.1727  -1.1727   0.0510   0.0944   0.0944   1.1047
     1.1047   1.4395   3.6842   4.0415   4.0416   4.4941

          k = 0.0000 0.1155 0.0000 ( 12953 PWs)   bands (ev):

   -59.6621 -33.9276 -33.5927 -33.5637 -14.3572 -12.2721  -5.5500  -3.3838
    -3.0487  -2.9378  -1.4337  -1.1376  -0.2167   0.1354   0.3157   0.9089
     1.0728   1.5200   3.7770   3.9938   4.1049   4.1773

          k = 0.0000 0.2309 0.0000 ( 12929 PWs)   bands (ev):

   -59.6524 -33.9084 -33.6899 -33.5861 -14.0092 -12.0049  -5.1899  -4.2537
    -3.1575  -2.9601  -1.8530  -1.0871  -0.4762   0.3045   0.3077   0.5356
     1.1279   1.6682   3.4335   3.7160   3.9427   4.6299

          k = 0.0000 0.3464 0.0000 ( 12915 PWs)   bands (ev):

   -59.6402 -33.8846 -33.8080 -33.6136 -13.5308 -11.6310  -5.2905  -4.8216
    -3.3314  -3.3052  -2.0021  -1.0853  -0.6262   0.0916   0.4007   0.5642
     1.4767   1.6546   3.2372   3.6007   3.9667   4.8289

          k = 0.0000 0.4619 0.0000 ( 12872 PWs)   bands (ev):

   -59.6304 -33.9024 -33.8649 -33.6357 -13.0882 -11.2743  -6.1139  -4.7688
    -3.5739  -3.4888  -2.1881  -1.1174  -0.6606   0.2894   0.5637   0.8106
     1.3715   1.9091   3.3966   3.4432   4.0948   4.8192

          k = 0.0000-0.5774 0.0000 ( 12854 PWs)   bands (ev):

   -59.6266 -33.9378 -33.8576 -33.6441 -12.9009 -11.1184  -6.4442  -4.8390
    -3.6238  -3.5509  -2.3126  -1.1359  -0.6433   0.5922   0.7583   0.9319
     1.0599   2.0473   3.4775   3.5372   3.9801   4.7632

          k = 0.1000 0.1732 0.0000 ( 12937 PWs)   bands (ev):

   -59.6554 -33.9143 -33.6573 -33.5819 -14.1201 -12.0902  -5.2938  -3.9520
    -3.1970  -2.8938  -1.7605  -1.1315  -0.3756   0.1678   0.3802   0.7122
     1.0454   1.6440   3.6017   3.6616   3.9563   4.3736

          k = 0.1000 0.2887 0.0000 ( 12944 PWs)   bands (ev):

   -59.6444 -33.8928 -33.7583 -33.6134 -13.7046 -11.7665  -4.9396  -4.8029
    -3.4282  -3.1377  -1.9750  -1.1275  -0.5411   0.0931   0.3525   0.5870
     1.2901   1.7605   3.1672   3.6031   3.7878   4.7889

          k = 0.1000 0.4041 0.0000 ( 12898 PWs)   bands (ev):

   -59.6334 -33.8716 -33.8571 -33.6452 -13.2361 -11.3909  -5.7119  -4.6739
    -3.7759  -3.3922  -2.0867  -1.2161  -0.5907   0.1118   0.3532   0.7919
     1.4455   1.8533   3.0783   3.5896   4.0477   4.8099

          k = 0.1000 0.5196 0.0000 ( 12858 PWs)   bands (ev):

   -59.6266 -33.9181 -33.8576 -33.6647 -12.9091 -11.1189  -6.2764  -4.7383
    -3.9737  -3.4128  -2.2947  -1.3451  -0.5195   0.4070   0.5753   0.9647
     1.1930   2.0020   3.2681   3.7182   4.1984   4.4689

          k = 0.2000 0.3464 0.0000 ( 12917 PWs)   bands (ev):

   -59.6346 -33.8736 -33.8278 -33.6616 -13.2930 -11.4332  -5.4332  -4.6129
    -3.9609  -3.4032  -2.0828  -1.2351  -0.5563  -0.0214   0.2997   0.8096
     1.4045   1.9382   2.8731   3.6462   3.8358   4.9302

          k = 0.2000 0.4619 0.0000 ( 12869 PWs)   bands (ev):

   -59.6266 -33.8768 -33.8575 -33.7077 -12.9223 -11.1195  -5.9205  -4.6335
    -4.2836  -3.5001  -2.3044  -1.5015  -0.3906   0.2046   0.3049   0.9449
     1.3007   2.0821   2.9482   3.6576   4.1140   4.8550

          k = 0.2000 0.5774 0.0000 ( 12850 PWs)   bands (ev):

   -59.6236 -33.8936 -33.8517 -33.7268 -12.7691 -10.9854  -6.1157  -4.8001
    -4.3018  -3.4698  -2.4432  -1.6429  -0.3119   0.3723   0.4739   0.7391
     1.5127   1.9866   3.2147   3.4885   4.1199   4.8618

          k = 0.3000 0.5196 0.0000 ( 12860 PWs)   bands (ev):

   -59.6224 -33.8586 -33.8494 -33.7764 -12.7172 -10.9329  -5.8815  -5.1029
    -4.1994  -3.6167  -2.5217  -1.7272  -0.2147   0.3385   0.4105   0.6216
     1.6626   2.1138   2.9667   3.2716   4.1475   5.4301

     the Fermi energy is     1.8838 ev

!    total energy              =    -658.63664806 Ry
     total all-electron energy =    -12481.810539 Ry
     estimated scf accuracy    <       0.00000002 Ry
     smearing contrib. (-TS)   =      -0.00695099 Ry
     internal energy E=F+TS    =    -658.62969707 Ry

     The total energy is F=E-TS. E is the sum of the following terms:
     one-electron contribution =   -1422.90045442 Ry
     hartree contribution      =     724.83699796 Ry
     xc contribution           =     -62.59216339 Ry
     ewald contribution        =     508.17552646 Ry
     one-center paw contrib.   =    -406.14960368 Ry

     convergence has been achieved in   8 iterations

     negative rho (up, down):  5.233E-04 0.000E+00

     Forces acting on atoms (cartesian axes, Ry/au):

     atom    1 type  1   force =     0.00000000    0.00000000    0.00144305
     atom    2 type  2   force =     0.00000000    0.00000000    0.00100011
     atom    3 type  2   force =     0.00000000    0.00000000   -0.00320245
     atom    4 type  3   force =     0.00000000    0.00000000    0.00075929
     The non-local contrib.  to forces
     atom    1 type  1   force =     0.00000000    0.00000000   -0.06201456
     atom    2 type  2   force =     0.00000000   -0.00000000   -0.08307597
     atom    3 type  2   force =     0.00000000    0.00000000    0.26061297
     atom    4 type  3   force =     0.00000000    0.00000000    0.02128302
     The ionic contribution  to forces
     atom    1 type  1   force =     0.00000000   -0.00000000  -36.68393986
     atom    2 type  2   force =    -0.00000000    0.00000000   20.86404583
     atom    3 type  2   force =    -0.00000000    0.00000000  -46.65535405
     atom    4 type  3   force =     0.00000000   -0.00000000   62.47524809
     The local contribution  to forces
     atom    1 type  1   force =    -0.00000000    0.00000000   36.74347017
     atom    2 type  2   force =    -0.00000000    0.00000000  -20.78350907
     atom    3 type  2   force =    -0.00000000    0.00000000   46.39366968
     atom    4 type  3   force =     0.00000000   -0.00000000  -62.45347596
     The core correction contribution to forces
     atom    1 type  1   force =     0.00000000   -0.00000000    0.00429369
     atom    2 type  2   force =     0.00000000   -0.00000000    0.00348615
     atom    3 type  2   force =     0.00000000   -0.00000000   -0.00194059
     atom    4 type  3   force =    -0.00000000    0.00000000   -0.04241513
     The Hubbard contrib.    to forces
     atom    1 type  1   force =     0.00000000    0.00000000    0.00000000
     atom    2 type  2   force =     0.00000000    0.00000000    0.00000000
     atom    3 type  2   force =     0.00000000    0.00000000    0.00000000
     atom    4 type  3   force =     0.00000000    0.00000000    0.00000000
     The SCF correction term to forces
     atom    1 type  1   force =     0.00000000    0.00000000   -0.00034889
     atom    2 type  2   force =    -0.00000000   -0.00000000    0.00007067
     atom    3 type  2   force =     0.00000000    0.00000000   -0.00017296
     atom    4 type  3   force =     0.00000000   -0.00000000    0.00013677

     Total force =     0.003730     Total SCF correction =     0.000419
     SCF correction compared to forces is large: reduce conv_thr to get better values


     Computing stress (Cartesian axis) and pressure


     negative rho (up, down):  5.233E-04 0.000E+00
          total   stress  (Ry/bohr**3)                   (kbar)     P=       11.74
   0.00011312   0.00000000   0.00000000           16.64        0.00        0.00
   0.00000000   0.00011312   0.00000000            0.00       16.64        0.00
   0.00000000   0.00000000   0.00001313            0.00        0.00        1.93

     Energy error            =      8.9E-04 Ry
     Gradient error          =      3.2E-03 Ry/Bohr

     number of scf cycles    =  19
     number of bfgs steps    =  17

     energy             old  =    -658.6357593249 Ry
     energy             new  =    -658.6366480628 Ry

     CASE: energy            _new < energy            _old

     new trust radius        =       0.0105169302 bohr
     new conv_thr            =       0.0000000320 Ry


ATOMIC_POSITIONS (crystal)
Mo            0.0000000000        0.0000000000        0.5098647681
S             0.6666666667        0.3333333333        0.6046775223
S             0.6666666667        0.3333333333        0.4247617903
Co            0.0000000000        0.0000000000        0.6583319830



     Writing config-only to output data dir ./tmp/relax.save/
     NEW-OLD atomic charge density approx. for the potential

     negative rho (up, down):  5.216E-04 0.000E+00

     total cpu time spent up to now is      216.4 secs

     Self-consistent Calculation

     iteration #  1     ecut=    80.00 Ry     beta= 0.70
     Davidson diagonalization with overlap
     ethr =  1.00E-06,  avg # of iterations =  5.0

     negative rho (up, down):  5.218E-04 0.000E+00

     total cpu time spent up to now is      217.4 secs

     total energy              =    -658.63661265 Ry
     estimated scf accuracy    <       0.00006959 Ry

     iteration #  2     ecut=    80.00 Ry     beta= 0.70
     Davidson diagonalization with overlap
     ethr =  1.99E-07,  avg # of iterations =  5.9

     negative rho (up, down):  5.218E-04 0.000E+00

     total cpu time spent up to now is      218.3 secs

     total energy              =    -658.63608439 Ry
     estimated scf accuracy    <       0.01412870 Ry

     iteration #  3     ecut=    80.00 Ry     beta= 0.70
     Davidson diagonalization with overlap
     ethr =  1.99E-07,  avg # of iterations =  5.1

     negative rho (up, down):  5.219E-04 0.000E+00

     total cpu time spent up to now is      219.2 secs

     total energy              =    -658.63665327 Ry
     estimated scf accuracy    <       0.00009917 Ry

     iteration #  4     ecut=    80.00 Ry     beta= 0.70
     Davidson diagonalization with overlap
     ethr =  1.99E-07,  avg # of iterations =  2.1

     negative rho (up, down):  5.220E-04 0.000E+00

     total cpu time spent up to now is      220.0 secs

     total energy              =    -658.63666569 Ry
     estimated scf accuracy    <       0.00000653 Ry

     iteration #  5     ecut=    80.00 Ry     beta= 0.70
     Davidson diagonalization with overlap
     ethr =  1.87E-08,  avg # of iterations =  3.1

     negative rho (up, down):  5.218E-04 0.000E+00

     total cpu time spent up to now is      220.8 secs

     total energy              =    -658.63666678 Ry
     estimated scf accuracy    <       0.00000151 Ry

     iteration #  6     ecut=    80.00 Ry     beta= 0.70
     Davidson diagonalization with overlap
     ethr =  4.31E-09,  avg # of iterations =  2.6

     negative rho (up, down):  5.218E-04 0.000E+00

     total cpu time spent up to now is      221.6 secs

     total energy              =    -658.63666698 Ry
     estimated scf accuracy    <       0.00000023 Ry

     iteration #  7     ecut=    80.00 Ry     beta= 0.70
     Davidson diagonalization with overlap
     ethr =  6.67E-10,  avg # of iterations =  3.4

     negative rho (up, down):  5.218E-04 0.000E+00

     total cpu time spent up to now is      222.4 secs

     total energy              =    -658.63666704 Ry
     estimated scf accuracy    <       0.00000014 Ry

     iteration #  8     ecut=    80.00 Ry     beta= 0.70
     Davidson diagonalization with overlap
     ethr =  3.91E-10,  avg # of iterations =  2.3

     negative rho (up, down):  5.218E-04 0.000E+00

     total cpu time spent up to now is      223.1 secs

     End of self-consistent calculation

          k = 0.0000 0.0000 0.0000 ( 12991 PWs)   bands (ev):

   -59.6659 -33.9333 -33.5534 -33.5534 -14.4744 -12.3630  -5.6868  -3.0070
    -3.0070  -2.9882  -1.1487  -1.1487   0.0461   0.1017   0.1017   1.1102
     1.1102   1.4347   3.6776   4.0366   4.0366   4.4875

          k = 0.0000 0.1155 0.0000 ( 12953 PWs)   bands (ev):

   -59.6622 -33.9260 -33.5908 -33.5620 -14.3488 -12.2668  -5.5418  -3.3725
    -3.0375  -2.9329  -1.4123  -1.1134  -0.2141   0.1421   0.3146   0.9133
     1.0780   1.5160   3.7709   3.9896   4.0967   4.1676

          k = 0.0000 0.2309 0.0000 ( 12929 PWs)   bands (ev):

   -59.6524 -33.9068 -33.6878 -33.5843 -14.0010 -11.9984  -5.1809  -4.2427
    -3.1459  -2.9498  -1.8404  -1.0644  -0.4730   0.3041   0.3130   0.5356
     1.1339   1.6672   3.4251   3.7093   3.9359   4.6233

          k = 0.0000 0.3464 0.0000 ( 12915 PWs)   bands (ev):

   -59.6403 -33.8831 -33.8056 -33.6117 -13.5227 -11.6226  -5.2796  -4.8119
    -3.3186  -3.2933  -1.9981  -1.0666  -0.6234   0.0917   0.4017   0.5676
     1.4847   1.6554   3.2294   3.5979   3.9575   4.8177

          k = 0.0000 0.4619 0.0000 ( 12872 PWs)   bands (ev):

   -59.6305 -33.8996 -33.8636 -33.6338 -13.0797 -11.2640  -6.1050  -4.7569
    -3.5666  -3.4752  -2.1851  -1.1021  -0.6598   0.2899   0.5651   0.8132
     1.3736   1.9158   3.3916   3.4454   4.0857   4.8063

          k = 0.0000-0.5774 0.0000 ( 12854 PWs)   bands (ev):

   -59.6268 -33.9350 -33.8563 -33.6422 -12.8920 -11.1072  -6.4362  -4.8274
    -3.6178  -3.5369  -2.3090  -1.1218  -0.6438   0.5945   0.7565   0.9343
     1.0627   2.0521   3.4827   3.5333   3.9743   4.7502

          k = 0.1000 0.1732 0.0000 ( 12937 PWs)   bands (ev):

   -59.6555 -33.9127 -33.6553 -33.5801 -14.1118 -12.0841  -5.2851  -3.9407
    -3.1860  -2.8850  -1.7440  -1.1095  -0.3721   0.1733   0.3789   0.7137
     1.0510   1.6422   3.5949   3.6549   3.9476   4.3697

          k = 0.1000 0.2887 0.0000 ( 12944 PWs)   bands (ev):

   -59.6445 -33.8913 -33.7560 -33.6116 -13.6965 -11.7589  -4.9274  -4.7947
    -3.4165  -3.1240  -1.9673  -1.1097  -0.5379   0.0952   0.3518   0.5895
     1.2971   1.7608   3.1601   3.5980   3.7801   4.7805

          k = 0.1000 0.4041 0.0000 ( 12898 PWs)   bands (ev):

   -59.6336 -33.8702 -33.8545 -33.6432 -13.2278 -11.3814  -5.7020  -4.6626
    -3.7628  -3.3829  -2.0817  -1.2050  -0.5866   0.1126   0.3551   0.7944
     1.4489   1.8575   3.0720   3.5896   4.0383   4.7980

          k = 0.1000 0.5196 0.0000 ( 12858 PWs)   bands (ev):

   -59.6268 -33.9154 -33.8563 -33.6627 -12.9003 -11.1079  -6.2678  -4.7264
    -3.9605  -3.4071  -2.2884  -1.3372  -0.5167   0.4083   0.5764   0.9675
     1.1956   2.0051   3.2669   3.7181   4.1928   4.4577

          k = 0.2000 0.3464 0.0000 ( 12917 PWs)   bands (ev):

   -59.6347 -33.8722 -33.8253 -33.6596 -13.2848 -11.4240  -5.4223  -4.6022
    -3.9493  -3.3913  -2.0755  -1.2281  -0.5507  -0.0190   0.2997   0.8120
     1.4086   1.9407   2.8660   3.6468   3.8259   4.9183

          k = 0.2000 0.4619 0.0000 ( 12869 PWs)   bands (ev):

   -59.6268 -33.8741 -33.8562 -33.7056 -12.9136 -11.1088  -5.9105  -4.6200
    -4.2735  -3.4921  -2.2961  -1.5011  -0.3851   0.2071   0.3068   0.9480
     1.3035   2.0829   2.9429   3.6566   4.1062   4.8470

          k = 0.2000 0.5774 0.0000 ( 12850 PWs)   bands (ev):

   -59.6237 -33.8908 -33.8504 -33.7246 -12.7601 -10.9740  -6.1062  -4.7876
    -4.2902  -3.4639  -2.4349  -1.6429  -0.3080   0.3738   0.4768   0.7426
     1.5152   1.9871   3.2164   3.4833   4.1102   4.8571

          k = 0.3000 0.5196 0.0000 ( 12860 PWs)   bands (ev):

   -59.6226 -33.8559 -33.8481 -33.7742 -12.7081 -10.9214  -5.8698  -5.0929
    -4.1892  -3.6057  -2.5179  -1.7280  -0.2107   0.3399   0.4143   0.6255
     1.6651   2.1138   2.9692   3.2659   4.1374   5.4196

     the Fermi energy is     1.8863 ev

!    total energy              =    -658.63666706 Ry
     total all-electron energy =    -12481.810558 Ry
     estimated scf accuracy    <          1.1E-09 Ry
     smearing contrib. (-TS)   =      -0.00693681 Ry
     internal energy E=F+TS    =    -658.62973025 Ry

     The total energy is F=E-TS. E is the sum of the following terms:
     one-electron contribution =   -1420.78222318 Ry
     hartree contribution      =     723.77957195 Ry
     xc contribution           =     -62.58550662 Ry
     ewald contribution        =     507.10745042 Ry
     one-center paw contrib.   =    -406.14902282 Ry

     convergence has been achieved in   8 iterations

     negative rho (up, down):  5.218E-04 0.000E+00

     Forces acting on atoms (cartesian axes, Ry/au):

     atom    1 type  1   force =     0.00000000    0.00000000    0.00020506
     atom    2 type  2   force =     0.00000000    0.00000000   -0.00012583
     atom    3 type  2   force =     0.00000000    0.00000000    0.00013241
     atom    4 type  3   force =     0.00000000    0.00000000   -0.00021165
     The non-local contrib.  to forces
     atom    1 type  1   force =     0.00000000   -0.00000000   -0.06167889
     atom    2 type  2   force =     0.00000000    0.00000000   -0.08427013
     atom    3 type  2   force =     0.00000000    0.00000000    0.26211323
     atom    4 type  3   force =     0.00000000    0.00000000    0.02129131
     The ionic contribution  to forces
     atom    1 type  1   force =     0.00000000   -0.00000000  -36.64638158
     atom    2 type  2   force =    -0.00000000    0.00000000   20.84843359
     atom    3 type  2   force =    -0.00000000    0.00000000  -46.62728072
     atom    4 type  3   force =     0.00000000   -0.00000000   62.42522871
     The local contribution  to forces
     atom    1 type  1   force =    -0.00000000   -0.00000000   36.70391634
     atom    2 type  2   force =    -0.00000000    0.00000000  -20.76785346
     atom    3 type  2   force =    -0.00000000    0.00000000   46.36730408
     atom    4 type  3   force =    -0.00000000   -0.00000000  -62.40423941
     The core correction contribution to forces
     atom    1 type  1   force =     0.00000000   -0.00000000    0.00427678
     atom    2 type  2   force =     0.00000000   -0.00000000    0.00354205
     atom    3 type  2   force =     0.00000000   -0.00000000   -0.00200977
     atom    4 type  3   force =    -0.00000000    0.00000000   -0.04243870
     The Hubbard contrib.    to forces
     atom    1 type  1   force =     0.00000000    0.00000000    0.00000000
     atom    2 type  2   force =     0.00000000    0.00000000    0.00000000
     atom    3 type  2   force =     0.00000000    0.00000000    0.00000000
     atom    4 type  3   force =     0.00000000    0.00000000    0.00000000
     The SCF correction term to forces
     atom    1 type  1   force =    -0.00000000   -0.00000000    0.00007052
     atom    2 type  2   force =    -0.00000000   -0.00000000    0.00002024
     atom    3 type  2   force =    -0.00000000    0.00000000    0.00000372
     atom    4 type  3   force =    -0.00000000   -0.00000000   -0.00005543

     Total force =     0.000347     Total SCF correction =     0.000092
     SCF correction compared to forces is large: reduce conv_thr to get better values


     Computing stress (Cartesian axis) and pressure


     negative rho (up, down):  5.218E-04 0.000E+00
          total   stress  (Ry/bohr**3)                   (kbar)     P=       10.35
   0.00010751   0.00000000   0.00000000           15.81        0.00        0.00
   0.00000000   0.00010751  -0.00000000            0.00       15.81       -0.00
   0.00000000  -0.00000000  -0.00000395            0.00       -0.00       -0.58

     Energy error            =      1.9E-05 Ry
     Gradient error          =      2.1E-04 Ry/Bohr

     bfgs converged in  20 scf cycles and  18 bfgs steps
     (criteria: energy <  1.0E-04 Ry, force <  1.0E-03 Ry/Bohr)

     End of BFGS Geometry Optimization

     Final energy             =    -658.6366670576 Ry

     File ./tmp/relax.bfgs deleted, as requested
Begin final coordinates

ATOMIC_POSITIONS (crystal)
Mo            0.0000000000        0.0000000000        0.5098647681
S             0.6666666667        0.3333333333        0.6046775223
S             0.6666666667        0.3333333333        0.4247617903
Co            0.0000000000        0.0000000000        0.6583319830
End final coordinates



     Writing all to output data dir ./tmp/relax.save/
 
     init_run     :      0.69s CPU      0.82s WALL (       1 calls)
     electrons    :    158.48s CPU    172.17s WALL (      20 calls)
     update_pot   :      7.20s CPU      9.32s WALL (      19 calls)
     forces       :      6.51s CPU      6.65s WALL (      20 calls)
     stress       :     31.99s CPU     32.67s WALL (      20 calls)

     Called by init_run:
     wfcinit      :      0.15s CPU      0.17s WALL (       1 calls)
     potinit      :      0.17s CPU      0.18s WALL (       1 calls)
     hinit0       :      0.27s CPU      0.35s WALL (       1 calls)

     Called by electrons:
     c_bands      :    107.90s CPU    117.14s WALL (     187 calls)
     sum_band     :     22.95s CPU     26.61s WALL (     187 calls)
     v_of_rho     :      1.40s CPU      1.58s WALL (     207 calls)
     newd         :     12.98s CPU     13.23s WALL (     207 calls)
     PAW_pot      :     17.00s CPU     17.42s WALL (     226 calls)
     mix_rho      :      0.38s CPU      0.39s WALL (     187 calls)

     Called by c_bands:
     init_us_2    :      1.94s CPU      2.11s WALL (    6076 calls)
     init_us_2:cp :      1.92s CPU      2.09s WALL (    6076 calls)
     cegterg      :     79.77s CPU     88.71s WALL (    2631 calls)

     Called by *egterg:
     cdiaghg      :      6.22s CPU      6.63s WALL (   14512 calls)
     h_psi        :     55.28s CPU     62.43s WALL (   14805 calls)
     s_psi        :      1.74s CPU      1.94s WALL (   14805 calls)
     g_psi        :      0.26s CPU      0.28s WALL (   12160 calls)

     Called by h_psi:
     h_psi:calbec :      5.93s CPU      6.71s WALL (   14805 calls)
     vloc_psi     :     46.36s CPU     52.38s WALL (   14805 calls)
     add_vuspsi   :      2.50s CPU      2.81s WALL (   14805 calls)

     General routines
     calbec       :     16.40s CPU     17.82s WALL (   19089 calls)
     fft          :      4.32s CPU      6.63s WALL (    2796 calls)
     ffts         :      0.04s CPU      0.05s WALL (     187 calls)
     fftw         :     48.26s CPU     54.93s WALL (  433750 calls)
 
     Parallel routines
 
     PWSCF        :   3m28.18s CPU   3m45.18s WALL

 
   This run was terminated on:  14:16: 7  12Jun2025            

=------------------------------------------------------------------------------=
   JOB DONE.
=------------------------------------------------------------------------------=
