
     Program PWSCF v.7.2 starts on  3Jul2025 at 14:28:46 

     This program is part of the open-source Quantum ESPRESSO suite
     for quantum simulation of materials; please cite
         "P. Giannozzi et al., J. Phys.:Condens. Matter 21 395502 (2009);
         "P. Giannozzi et al., J. Phys.:Condens. Matter 29 465901 (2017);
         "P. Giannozzi et al., J. Chem. Phys. 152 154105 (2020);
          URL http://www.quantum-espresso.org", 
     in publications or presentations arising from this work. More details at
     http://www.quantum-espresso.org/quote

     Parallel version (MPI), running on    16 processors

     MPI processes distributed on     1 nodes
     16618 MiB available memory on the printing compute node when the environment starts
 
     Waiting for input...
     Reading input from standard input

     Current dimensions of program PWSCF are:
     Max number of different atomic species (ntypx) = 10
     Max number of k-points (npk) =  40000
     Max angular momentum in pseudopotentials (lmaxx) =  4
     file Mo.rel-pbe-spn-kjpaw_psl.1.0.0.UPF: wavefunction(s)  4S 4P 4D renormalized
     file S.rel-pbe-n-kjpaw_psl.1.0.0.UPF: wavefunction(s)  3S 3P 3P renormalized
     Message from routine setup:
     using ibrav=0 with symmetry is DISCOURAGED, use correct ibrav instead
 
     R & G space division:  proc/nbgrp/npool/nimage =      16
     Subspace diagonalization in iterative solution of the eigenvalue problem:
     a serial algorithm will be used

 
     Parallelization info
     --------------------
     sticks:   dense  smooth     PW     G-vecs:    dense   smooth      PW
     Min          49      49     13                 6439     6439     975
     Max          50      50     14                 6452     6452     996
     Sum         793     793    223               103119   103119   15795
 
     Using Slab Decomposition
 


     bravais-lattice index     =            0
     lattice parameter (alat)  =       5.9876  a.u.
     unit-cell volume          =    1067.2529 (a.u.)^3
     number of atoms/cell      =            3
     number of atomic types    =            2
     number of electrons       =        26.00
     number of Kohn-Sham states=           34
     kinetic-energy cutoff     =      80.0000  Ry
     charge density cutoff     =     320.0000  Ry
     scf convergence threshold =      1.0E-06
     mixing beta               =       0.7000
     number of iterations used =            8  plain     mixing
     Exchange-correlation= SLA  PW   PBX  PBC
                           (   1   4   3   4   0   0   0)
     Non magnetic calculation with spin-orbit


     celldm(1)=   5.987597  celldm(2)=   0.000000  celldm(3)=   0.000000
     celldm(4)=   0.000000  celldm(5)=   0.000000  celldm(6)=   0.000000

     crystal axes: (cart. coord. in units of alat)
               a(1) = (   1.000000   0.000000   0.000000 )  
               a(2) = (  -0.500000   0.866025   0.000000 )  
               a(3) = (   0.000000   0.000000   5.740887 )  

     reciprocal axes: (cart. coord. in units 2 pi/alat)
               b(1) = (  1.000000  0.577350  0.000000 )  
               b(2) = (  0.000000  1.154701  0.000000 )  
               b(3) = (  0.000000  0.000000  0.174189 )  


     PseudoPot. # 1 for Mo read from file:
     /home/antonio/PROJ_MetalTMD/antonio/PSEUDO/Mo.rel-pbe-spn-kjpaw_psl.1.0.0.UPF
     MD5 check sum: 6cda9dff73cdab358834687290e4775f
     Pseudo is Projector augmented-wave + core cor, Zval = 14.0
     Generated using &quot;atomic&quot; code by A. Dal Corso  v.6.3
     Shape of augmentation charge: PSQ
     Using radial grid of 1229 points, 10 beta functions with: 
                l(1) =   0
                l(2) =   0
                l(3) =   1
                l(4) =   1
                l(5) =   1
                l(6) =   1
                l(7) =   2
                l(8) =   2
                l(9) =   2
               l(10) =   2
     Q(r) pseudized with 0 coefficients 


     PseudoPot. # 2 for S  read from file:
     /home/antonio/PROJ_MetalTMD/antonio/PSEUDO/S.rel-pbe-n-kjpaw_psl.1.0.0.UPF
     MD5 check sum: 665a6610193808042cdd4f03574b9f7b
     Pseudo is Projector augmented-wave + core cor, Zval =  6.0
     Generated using &quot;atomic&quot; code by A. Dal Corso  v.6.3
     Shape of augmentation charge: PSQ
     Using radial grid of 1151 points, 10 beta functions with: 
                l(1) =   0
                l(2) =   0
                l(3) =   1
                l(4) =   1
                l(5) =   1
                l(6) =   1
                l(7) =   2
                l(8) =   2
                l(9) =   2
               l(10) =   2
     Q(r) pseudized with 0 coefficients 


     atomic species   valence    mass     pseudopotential
        Mo            14.00    95.94000     Mo( 1.00)
        S              6.00    32.06500     S ( 1.00)

     12 Sym. Ops. (no inversion) found



   Cartesian axes

     site n.     atom                  positions (alat units)
         1           Mo  tau(   1) = (   0.0000000   0.0000000   2.8704434  )
         2           S   tau(   2) = (   0.5000000   0.2886751   3.3738362  )
         3           S   tau(   3) = (   0.5000000   0.2886751   2.3670507  )

     number of k points=    14  Fermi-Dirac smearing, width (Ry)=  0.0070
                       cart. coord. in units 2pi/alat
        k(    1) = (   0.0000000   0.0000000   0.0000000), wk =   0.0100000
        k(    2) = (   0.0000000   0.1154701   0.0000000), wk =   0.0600000
        k(    3) = (   0.0000000   0.2309401   0.0000000), wk =   0.0600000
        k(    4) = (   0.0000000   0.3464102   0.0000000), wk =   0.0600000
        k(    5) = (   0.0000000   0.4618802   0.0000000), wk =   0.0600000
        k(    6) = (   0.0000000  -0.5773503   0.0000000), wk =   0.0300000
        k(    7) = (   0.1000000   0.1732051   0.0000000), wk =   0.0600000
        k(    8) = (   0.1000000   0.2886751   0.0000000), wk =   0.1200000
        k(    9) = (   0.1000000   0.4041452   0.0000000), wk =   0.1200000
        k(   10) = (   0.1000000   0.5196152   0.0000000), wk =   0.1200000
        k(   11) = (   0.2000000   0.3464102   0.0000000), wk =   0.0600000
        k(   12) = (   0.2000000   0.4618802   0.0000000), wk =   0.1200000
        k(   13) = (   0.2000000   0.5773503   0.0000000), wk =   0.0600000
        k(   14) = (   0.3000000   0.5196152   0.0000000), wk =   0.0600000

     Dense  grid:   103119 G-vectors     FFT dimensions: (  36,  36, 200)

     Estimated max dynamical RAM per process >      76.97 MB

     Estimated total dynamical RAM >       1.20 GB

     Initial potential from superposition of free atoms

     starting charge      25.9990, renormalised to      26.0000

     negative rho (up, down):  6.709E-04 0.000E+00
     Starting wfcs are   36 randomized atomic wfcs
     Checking if some PAW data can be deallocated... 

     total cpu time spent up to now is        1.3 secs

     Self-consistent Calculation

     iteration #  1     ecut=    80.00 Ry     beta= 0.70
     Davidson diagonalization with overlap
     ethr =  1.00E-02,  avg # of iterations =  2.4

     Threshold (ethr) on eigenvalues was too large:
     Diagonalizing with lowered threshold

     Davidson diagonalization with overlap
     ethr =  2.83E-04,  avg # of iterations =  3.7

     negative rho (up, down):  7.329E-04 0.000E+00

     total cpu time spent up to now is        5.4 secs

     total energy              =    -497.10944134 Ry
     estimated scf accuracy    <       0.11358325 Ry

     iteration #  2     ecut=    80.00 Ry     beta= 0.70
     Davidson diagonalization with overlap
     ethr =  4.37E-04,  avg # of iterations =  2.9

     negative rho (up, down):  7.112E-04 0.000E+00

     total cpu time spent up to now is        7.6 secs

     total energy              =    -497.08746960 Ry
     estimated scf accuracy    <       0.24095126 Ry

     iteration #  3     ecut=    80.00 Ry     beta= 0.70
     Davidson diagonalization with overlap
     ethr =  4.37E-04,  avg # of iterations =  2.4

     negative rho (up, down):  7.089E-04 0.000E+00

     total cpu time spent up to now is        9.8 secs

     total energy              =    -497.12918419 Ry
     estimated scf accuracy    <       0.16508032 Ry

     iteration #  4     ecut=    80.00 Ry     beta= 0.70
     Davidson diagonalization with overlap
     ethr =  4.37E-04,  avg # of iterations =  1.4

     negative rho (up, down):  7.246E-04 0.000E+00

     total cpu time spent up to now is       11.7 secs

     total energy              =    -497.15053089 Ry
     estimated scf accuracy    <       0.00060752 Ry

     iteration #  5     ecut=    80.00 Ry     beta= 0.70
     Davidson diagonalization with overlap
     ethr =  2.34E-06,  avg # of iterations =  3.8

     negative rho (up, down):  7.264E-04 0.000E+00

     total cpu time spent up to now is       14.0 secs

     total energy              =    -497.15085222 Ry
     estimated scf accuracy    <       0.00013720 Ry

     iteration #  6     ecut=    80.00 Ry     beta= 0.70
     Davidson diagonalization with overlap
     ethr =  5.28E-07,  avg # of iterations =  1.6

     negative rho (up, down):  7.277E-04 0.000E+00

     total cpu time spent up to now is       15.9 secs

     total energy              =    -497.15086093 Ry
     estimated scf accuracy    <       0.00001377 Ry

     iteration #  7     ecut=    80.00 Ry     beta= 0.70
     Davidson diagonalization with overlap
     ethr =  5.30E-08,  avg # of iterations =  2.0

     negative rho (up, down):  7.280E-04 0.000E+00

     total cpu time spent up to now is       18.0 secs

     End of self-consistent calculation

          k = 0.0000 0.0000 0.0000 ( 12991 PWs)   bands (ev):

   -61.2610 -61.2610 -36.9806 -36.9806 -34.5498 -34.5498 -34.3872 -34.3872
   -14.4446 -14.4446 -13.2365 -13.2365  -5.9706  -5.9706  -2.8706  -2.8706
    -2.8023  -2.8023  -2.2948  -2.2948  -1.8000  -1.8000  -1.7134  -1.7134
    -0.5509  -0.5509   2.3327   2.3327   2.4089   2.4089   2.5482   2.5482
     2.5538   2.5538

          k = 0.0000 0.1155 0.0000 ( 12953 PWs)   bands (ev):

   -61.2573 -61.2573 -36.9905 -36.9905 -34.5543 -34.5543 -34.4114 -34.4114
   -14.2968 -14.2968 -13.1704 -13.1704  -5.7987  -5.7987  -3.1708  -3.1708
    -2.7993  -2.7993  -2.6760  -2.6760  -1.9891  -1.9891  -1.5078  -1.5078
    -0.6115  -0.6115   2.1402   2.1402   2.2063   2.2063   2.3878   2.3878
     2.6237   2.6237

          k = 0.0000 0.2309 0.0000 ( 12929 PWs)   bands (ev):

   -61.2475 -61.2475 -37.0174 -37.0174 -34.5743 -34.5743 -34.4646 -34.4646
   -13.8859 -13.8859 -12.9874 -12.9874  -5.4097  -5.4097  -3.8611  -3.8611
    -3.5521  -3.5521  -2.4910  -2.4910  -2.2718  -2.2718  -1.6090  -1.6090
    -0.9286  -0.9286   1.6858   1.6858   2.0631   2.0631   2.2548   2.2548
     3.1062   3.1062

          k = 0.0000 0.3464 0.0000 ( 12915 PWs)   bands (ev):

   -61.2354 -61.2354 -37.0525 -37.0525 -34.6242 -34.6242 -34.5009 -34.5009
   -13.3139 -13.3139 -12.7362 -12.7362  -5.3938  -5.3938  -4.3357  -4.3357
    -4.2342  -4.2342  -2.9817  -2.9817  -2.0084  -2.0084  -1.7648  -1.7648
    -1.3507  -1.3507   1.7342   1.7342   1.8520   1.8520   2.7565   2.7565
     3.5153   3.5153

          k = 0.0000 0.4619 0.0000 ( 12872 PWs)   bands (ev):

   -61.2256 -61.2256 -37.0824 -37.0824 -34.6794 -34.6794 -34.5124 -34.5124
   -12.7722 -12.7722 -12.5066 -12.5066  -5.8890  -5.8890  -4.9622  -4.9622
    -4.3264  -4.3264  -3.3173  -3.3173  -2.2869  -2.2869  -1.4016  -1.4016
    -1.2519  -1.2519   1.8342   1.8342   2.1213   2.1213   3.2373   3.2373
     3.7372   3.7372

          k = 0.0000-0.5774 0.0000 ( 12854 PWs)   bands (ev):

   -61.2219 -61.2219 -37.0941 -37.0941 -34.7017 -34.7017 -34.5148 -34.5148
   -12.5372 -12.5372 -12.4112 -12.4112  -6.1398  -6.1398  -5.2082  -5.2082
    -4.4189  -4.4189  -3.4347  -3.4347  -2.3763  -2.3763  -1.2695  -1.2695
    -1.0428  -1.0428   1.8995   1.8995   2.3716   2.3716   3.4012   3.4012
     3.8020   3.8020

          k = 0.1000 0.1732 0.0000 ( 12937 PWs)   bands (ev):

   -61.2506 -61.2506 -37.0098 -37.0080 -34.5663 -34.5651 -34.4528 -34.4490
   -14.0187 -14.0155 -13.0456 -13.0453  -5.5093  -5.5047  -3.6705  -3.6598
    -3.2724  -3.2685  -2.5609  -2.5537  -2.4379  -2.4082  -1.3770  -1.3442
    -0.8079  -0.7964   1.7499   1.7515   2.0292   2.0736   2.1310   2.1678
     3.0176   3.0693

          k = 0.1000 0.2887 0.0000 ( 12944 PWs)   bands (ev):

   -61.2396 -61.2396 -37.0423 -37.0375 -34.5989 -34.5984 -34.5009 -34.4945
   -13.5273 -13.5178 -12.8258 -12.8249  -5.2508  -5.2350  -4.1527  -4.1486
    -3.9291  -3.9158  -3.2189  -3.2094  -2.1714  -2.1086  -1.5562  -1.5238
    -1.1941  -1.1380   1.4766   1.5253   1.9888   2.0041   2.2537   2.3145
     3.5108   3.5542

          k = 0.1000 0.4041 0.0000 ( 12898 PWs)   bands (ev):

   -61.2286 -61.2286 -37.0762 -37.0684 -34.6563 -34.6490 -34.5221 -34.5182
   -12.9636 -12.9458 -12.5775 -12.5760  -5.5649  -5.5594  -4.7199  -4.7109
    -4.2003  -4.1973  -3.4683  -3.4587  -2.1546  -2.0787  -1.9781  -1.9548
    -1.1832  -1.0932   1.6197   1.6760   2.1164   2.1197   2.7852   2.8224
     3.7655   3.7887

          k = 0.1000 0.5196 0.0000 ( 12858 PWs)   bands (ev):

   -61.2219 -61.2219 -37.0979 -37.0881 -34.6973 -34.6855 -34.5282 -34.5261
   -12.5605 -12.5357 -12.4055 -12.4034  -5.9443  -5.9321  -5.2272  -5.2218
    -4.3381  -4.3297  -3.5028  -3.4938  -2.3085  -2.3032  -2.0365  -1.9718
    -0.9040  -0.8014   1.8597   1.8953   2.3283   2.4311   3.2697   3.2803
     3.7009   3.7047

          k = 0.2000 0.3464 0.0000 ( 12917 PWs)   bands (ev):

   -61.2298 -61.2298 -37.0735 -37.0627 -34.6400 -34.6303 -34.5339 -34.5283
   -13.0360 -13.0119 -12.6020 -12.5999  -5.3538  -5.3355  -4.5450  -4.5253
    -4.0802  -4.0669  -3.7203  -3.6971  -2.6166  -2.5441  -1.7083  -1.6825
    -1.1788  -1.0832   1.4738   1.5482   2.1730   2.1742   2.4161   2.4524
     3.8869   3.9016

          k = 0.2000 0.4619 0.0000 ( 12869 PWs)   bands (ev):

   -61.2219 -61.2219 -37.0991 -37.0833 -34.6813 -34.6591 -34.5518 -34.5516
   -12.5853 -12.5456 -12.3952 -12.3919  -5.5391  -5.5312  -5.2504  -5.2402
    -4.0751  -4.0742  -3.6343  -3.6157  -3.0545  -2.9979  -2.1446  -2.1337
    -0.9160  -0.8063   1.7620   1.7670   2.3909   2.4947   2.6928   2.7017
     4.0342   4.0712

          k = 0.2000 0.5774 0.0000 ( 12850 PWs)   bands (ev):

   -61.2188 -61.2188 -37.1089 -37.0912 -34.6983 -34.6710 -34.5595 -34.5571
   -12.3960 -12.3492 -12.3084 -12.3049  -5.6070  -5.5775  -5.5239  -5.5179
    -4.2648  -4.2540  -3.4969  -3.4767  -3.1096  -3.0617  -2.4165  -2.4151
    -0.6768  -0.5559   1.6824   1.7168   2.6618   2.7732   2.8327   2.8427
     4.0598   4.1233

          k = 0.3000 0.5196 0.0000 ( 12860 PWs)   bands (ev):

   -61.2177 -61.2177 -37.1128 -37.0919 -34.6943 -34.6546 -34.5836 -34.5733
   -12.3358 -12.2804 -12.2670 -12.2631  -5.6635  -5.6560  -5.2100  -5.1809
    -4.1987  -4.1595  -3.8224  -3.8201  -3.4207  -3.3811  -2.5243  -2.5132
    -0.5640  -0.4292   1.4954   1.5054   2.5347   2.5598   2.8799   3.0186
     4.3145   4.3920

     the Fermi energy is     0.4607 ev

!    total energy              =    -497.15086461 Ry
     total all-electron energy =     -9696.197442 Ry
     estimated scf accuracy    <       0.00000013 Ry
     smearing contrib. (-TS)   =      -0.00000186 Ry
     internal energy E=F+TS    =    -497.15086274 Ry

     The total energy is F=E-TS. E is the sum of the following terms:
     one-electron contribution =    -964.24364428 Ry
     hartree contribution      =     485.18453972 Ry
     xc contribution           =     -29.68422514 Ry
     ewald contribution        =     331.70925289 Ry
     one-center paw contrib.   =    -320.11678594 Ry

     convergence has been achieved in   7 iterations

     negative rho (up, down):  7.280E-04 0.000E+00

     Forces acting on atoms (cartesian axes, Ry/au):

     atom    1 type  1   force =     0.00000000    0.00000000    0.00000000
     atom    2 type  2   force =     0.00000000    0.00000000   -0.01805320
     atom    3 type  2   force =     0.00000000   -0.00000000    0.01805320
     The non-local contrib.  to forces
     atom    1 type  1   force =     0.00000000    0.00000000    0.00000000
     atom    2 type  2   force =    -0.00000000    0.00000000   -0.27529025
     atom    3 type  2   force =    -0.00000000   -0.00000000    0.27529025
     The ionic contribution  to forces
     atom    1 type  1   force =     0.00000000   -0.00000000    0.00000000
     atom    2 type  2   force =    -0.00000000    0.00000000   35.19706825
     atom    3 type  2   force =    -0.00000000    0.00000000  -35.19706825
     The local contribution  to forces
     atom    1 type  1   force =     0.00000000   -0.00000000    0.00000000
     atom    2 type  2   force =    -0.00000000    0.00000000  -34.94195824
     atom    3 type  2   force =    -0.00000000    0.00000000   34.94195824
     The core correction contribution to forces
     atom    1 type  1   force =     0.00000000   -0.00000000   -0.00000000
     atom    2 type  2   force =     0.00000000   -0.00000000    0.00255384
     atom    3 type  2   force =     0.00000000   -0.00000000   -0.00255384
     The Hubbard contrib.    to forces
     atom    1 type  1   force =     0.00000000    0.00000000    0.00000000
     atom    2 type  2   force =     0.00000000    0.00000000    0.00000000
     atom    3 type  2   force =     0.00000000    0.00000000    0.00000000
     The SCF correction term to forces
     atom    1 type  1   force =     0.00000000   -0.00000000   -0.00000000
     atom    2 type  2   force =     0.00000000    0.00000000   -0.00042681
     atom    3 type  2   force =     0.00000000    0.00000000    0.00042681

     Total force =     0.025531     Total SCF correction =     0.000604


     Computing stress (Cartesian axis) and pressure


     negative rho (up, down):  7.280E-04 0.000E+00
          total   stress  (Ry/bohr**3)                   (kbar)     P=       -4.83
   0.00000117  -0.00000000   0.00000000            0.17       -0.00        0.00
  -0.00000000   0.00000117   0.00000000           -0.00        0.17        0.00
   0.00000000  -0.00000000  -0.00010087            0.00       -0.00      -14.84


     Writing all to output data dir ./tmp/pwscf.save/
 
     init_run     :      0.74s CPU      0.84s WALL (       1 calls)
     electrons    :     15.43s CPU     16.73s WALL (       1 calls)
     forces       :      0.43s CPU      0.50s WALL (       1 calls)
     stress       :      1.89s CPU      2.03s WALL (       1 calls)

     Called by init_run:
     wfcinit      :      0.31s CPU      0.33s WALL (       1 calls)
     potinit      :      0.13s CPU      0.13s WALL (       1 calls)
     hinit0       :      0.15s CPU      0.19s WALL (       1 calls)

     Called by electrons:
     c_bands      :     12.17s CPU     12.41s WALL (       8 calls)
     sum_band     :      1.70s CPU      2.27s WALL (       8 calls)
     v_of_rho     :      0.03s CPU      0.04s WALL (       8 calls)
     newd         :      0.87s CPU      1.30s WALL (       8 calls)
     PAW_pot      :      0.81s CPU      0.86s WALL (       8 calls)
     mix_rho      :      0.04s CPU      0.06s WALL (       8 calls)

     Called by c_bands:
     init_us_2    :      0.13s CPU      0.14s WALL (     266 calls)
     init_us_2:cp :      0.13s CPU      0.14s WALL (     266 calls)
     cegterg      :      6.10s CPU      6.24s WALL (     112 calls)

     Called by *egterg:
     cdiaghg      :      0.37s CPU      0.37s WALL (     379 calls)
     h_psi        :      4.33s CPU      4.46s WALL (     407 calls)
     s_psi        :      0.38s CPU      0.39s WALL (     407 calls)
     g_psi        :      0.02s CPU      0.02s WALL (     281 calls)

     Called by h_psi:
     h_psi:calbec :      0.37s CPU      0.37s WALL (     407 calls)
     vloc_psi     :      3.49s CPU      3.61s WALL (     407 calls)
     add_vuspsi   :      0.41s CPU      0.42s WALL (     407 calls)

     General routines
     calbec       :      0.55s CPU      0.57s WALL (     589 calls)
     fft          :      0.04s CPU      0.07s WALL (     162 calls)
     ffts         :      0.01s CPU      0.01s WALL (      32 calls)
     fftw         :      3.34s CPU      3.48s WALL (   48804 calls)
     davcio       :      0.16s CPU      0.20s WALL (     444 calls)
 
     Parallel routines
 
     PWSCF        :     18.92s CPU     20.85s WALL

 
   This run was terminated on:  14:29: 6   3Jul2025            

=------------------------------------------------------------------------------=
   JOB DONE.
=------------------------------------------------------------------------------=
