
     Program PWSCF v.7.2 starts on 12Jun2025 at 14: 8:41 

     This program is part of the open-source Quantum ESPRESSO suite
     for quantum simulation of materials; please cite
         "P. Giannozzi et al., J. Phys.:Condens. Matter 21 395502 (2009);
         "P. Giannozzi et al., J. Phys.:Condens. Matter 29 465901 (2017);
         "P. Giannozzi et al., J. Chem. Phys. 152 154105 (2020);
          URL http://www.quantum-espresso.org", 
     in publications or presentations arising from this work. More details at
     http://www.quantum-espresso.org/quote

     Parallel version (MPI), running on    16 processors

     MPI processes distributed on     1 nodes
     15786 MiB available memory on the printing compute node when the environment starts
 
     Waiting for input...
     Reading input from standard input

     Current dimensions of program PWSCF are:
     Max number of different atomic species (ntypx) = 10
     Max number of k-points (npk) =  40000
     Max angular momentum in pseudopotentials (lmaxx) =  4
     file Mo.pbe-spn-kjpaw_psl.1.0.0.UPF: wavefunction(s)  4S 4D renormalized
     file S.pbe-n-kjpaw_psl.1.0.0.UPF: wavefunction(s)  3S 3P renormalized
     file Co.pbe-n-kjpaw_psl.1.0.0.UPF: wavefunction(s)  4S 3D renormalized
     Message from routine setup:
     using ibrav=0 with symmetry is DISCOURAGED, use correct ibrav instead
 
     R & G space division:  proc/nbgrp/npool/nimage =      16
     Subspace diagonalization in iterative solution of the eigenvalue problem:
     a serial algorithm will be used

 
     Parallelization info
     --------------------
     sticks:   dense  smooth     PW     G-vecs:    dense   smooth      PW
     Min          49      49     13                 6439     6439     975
     Max          50      50     14                 6452     6452     996
     Sum         793     793    223               103119   103119   15795
 
     Using Slab Decomposition
 


     bravais-lattice index     =            0
     lattice parameter (alat)  =       5.9876  a.u.
     unit-cell volume          =    1067.2529 (a.u.)^3
     number of atoms/cell      =            4
     number of atomic types    =            3
     number of electrons       =        35.00
     number of Kohn-Sham states=           22
     kinetic-energy cutoff     =      80.0000  Ry
     charge density cutoff     =     320.0000  Ry
     scf convergence threshold =      1.0E-06
     mixing beta               =       0.7000
     number of iterations used =            8  plain     mixing
     energy convergence thresh.=      1.0E-04
     force convergence thresh. =      1.0E-03
     Exchange-correlation= SLA  PW   PBX  PBC
                           (   1   4   3   4   0   0   0)
     nstep                     =          100


     celldm(1)=   5.987597  celldm(2)=   0.000000  celldm(3)=   0.000000
     celldm(4)=   0.000000  celldm(5)=   0.000000  celldm(6)=   0.000000

     crystal axes: (cart. coord. in units of alat)
               a(1) = (   1.000000   0.000000   0.000000 )  
               a(2) = (  -0.500000   0.866025   0.000000 )  
               a(3) = (   0.000000   0.000000   5.740887 )  

     reciprocal axes: (cart. coord. in units 2 pi/alat)
               b(1) = (  1.000000  0.577350  0.000000 )  
               b(2) = (  0.000000  1.154701  0.000000 )  
               b(3) = (  0.000000  0.000000  0.174189 )  


     PseudoPot. # 1 for Mo read from file:
     /shared/ESPRESSO/PSLIBRARY/1.0.0/pbe/PSEUDOPOTENTIALS/Mo.pbe-spn-kjpaw_psl.1.0.0.UPF
     MD5 check sum: 4396e0c640fcce5c25f020efccf1ab12
     Pseudo is Projector augmented-wave + core cor, Zval = 14.0
     Generated using &quot;atomic&quot; code by A. Dal Corso  v.6.3
     Shape of augmentation charge: PSQ
     Using radial grid of 1229 points,  6 beta functions with: 
                l(1) =   0
                l(2) =   0
                l(3) =   1
                l(4) =   1
                l(5) =   2
                l(6) =   2
     Q(r) pseudized with 0 coefficients 


     PseudoPot. # 2 for S  read from file:
     /shared/ESPRESSO/PSLIBRARY/1.0.0/pbe/PSEUDOPOTENTIALS/S.pbe-n-kjpaw_psl.1.0.0.UPF
     MD5 check sum: c08f931834bcc19553f8bde8f1a3adc5
     Pseudo is Projector augmented-wave + core cor, Zval =  6.0
     Generated using "atomic" code by A. Dal Corso  (Quantum ESPRESSO distribution)
     Shape of augmentation charge: PSQ
     Using radial grid of 1151 points,  6 beta functions with: 
                l(1) =   0
                l(2) =   0
                l(3) =   1
                l(4) =   1
                l(5) =   2
                l(6) =   2
     Q(r) pseudized with 0 coefficients 


     PseudoPot. # 3 for Co read from file:
     /shared/ESPRESSO/PSLIBRARY/1.0.0/pbe/PSEUDOPOTENTIALS/Co.pbe-n-kjpaw_psl.1.0.0.UPF
     MD5 check sum: 17e7ab8db721b244d1352252ea6cb8e7
     Pseudo is Projector augmented-wave + core cor, Zval =  9.0
     Generated using "atomic" code by A. Dal Corso  (Quantum ESPRESSO distribution)
     Shape of augmentation charge: PSQ
     Using radial grid of 1193 points,  6 beta functions with: 
                l(1) =   0
                l(2) =   0
                l(3) =   1
                l(4) =   1
                l(5) =   2
                l(6) =   2
     Q(r) pseudized with 0 coefficients 


     atomic species   valence    mass     pseudopotential
        Mo            14.00    95.94000     Mo( 1.00)
        S              6.00    32.06500     S ( 1.00)
        Co             9.00    58.93320     Co( 1.00)

      6 Sym. Ops. (no inversion) found



   Cartesian axes

     site n.     atom                  positions (alat units)
         1           Mo  tau(   1) = (   0.0000000   0.0000000   2.8704434  )
         2           S   tau(   2) = (   0.5000000   0.2886751   3.3738362  )
         3           S   tau(   3) = (   0.5000000   0.2886751   2.3670507  )
         4           Co  tau(   4) = (  -0.0000000   0.5773503   4.0050497  )

     number of k points=    14  Fermi-Dirac smearing, width (Ry)=  0.0070
                       cart. coord. in units 2pi/alat
        k(    1) = (   0.0000000   0.0000000   0.0000000), wk =   0.0200000
        k(    2) = (   0.0000000   0.1154701   0.0000000), wk =   0.1200000
        k(    3) = (   0.0000000   0.2309401   0.0000000), wk =   0.1200000
        k(    4) = (   0.0000000   0.3464102   0.0000000), wk =   0.1200000
        k(    5) = (   0.0000000   0.4618802   0.0000000), wk =   0.1200000
        k(    6) = (   0.0000000  -0.5773503   0.0000000), wk =   0.0600000
        k(    7) = (   0.1000000   0.1732051   0.0000000), wk =   0.1200000
        k(    8) = (   0.1000000   0.2886751   0.0000000), wk =   0.2400000
        k(    9) = (   0.1000000   0.4041452   0.0000000), wk =   0.2400000
        k(   10) = (   0.1000000   0.5196152   0.0000000), wk =   0.2400000
        k(   11) = (   0.2000000   0.3464102   0.0000000), wk =   0.1200000
        k(   12) = (   0.2000000   0.4618802   0.0000000), wk =   0.2400000
        k(   13) = (   0.2000000   0.5773503   0.0000000), wk =   0.1200000
        k(   14) = (   0.3000000   0.5196152   0.0000000), wk =   0.1200000

     Dense  grid:   103119 G-vectors     FFT dimensions: (  36,  36, 200)

     Estimated max dynamical RAM per process >      33.26 MB

     Estimated total dynamical RAM >     532.13 MB

     Initial potential from superposition of free atoms

     starting charge      34.9988, renormalised to      35.0000

     negative rho (up, down):  3.771E-04 0.000E+00
     Starting wfcs are   27 randomized atomic wfcs
     Checking if some PAW data can be deallocated... 

     total cpu time spent up to now is        1.2 secs

     Self-consistent Calculation

     iteration #  1     ecut=    80.00 Ry     beta= 0.70
     Davidson diagonalization with overlap
     ethr =  1.00E-02,  avg # of iterations =  2.0

     negative rho (up, down):  3.504E-04 0.000E+00

     total cpu time spent up to now is        2.0 secs

     total energy              =    -656.40121759 Ry
     estimated scf accuracy    <       2.53724009 Ry

     iteration #  2     ecut=    80.00 Ry     beta= 0.70
     Davidson diagonalization with overlap
     ethr =  7.25E-03,  avg # of iterations =  7.1

     negative rho (up, down):  2.523E-04 0.000E+00

     total cpu time spent up to now is        3.1 secs

     total energy              =    -654.94966949 Ry
     estimated scf accuracy    <     219.90972138 Ry

     iteration #  3     ecut=    80.00 Ry     beta= 0.70
     Davidson diagonalization with overlap
     ethr =  7.25E-03,  avg # of iterations =  8.3

     negative rho (up, down):  1.278E-04 0.000E+00

     total cpu time spent up to now is        4.2 secs

     total energy              =    -657.05035474 Ry
     estimated scf accuracy    <      27.13673371 Ry

     iteration #  4     ecut=    80.00 Ry     beta= 0.70
     Davidson diagonalization with overlap
     ethr =  7.25E-03,  avg # of iterations =  5.5

     negative rho (up, down):  1.365E-04 0.000E+00

     total cpu time spent up to now is        5.2 secs

     total energy              =    -658.33572276 Ry
     estimated scf accuracy    <       1.30872072 Ry

     iteration #  5     ecut=    80.00 Ry     beta= 0.70
     Davidson diagonalization with overlap
     ethr =  3.74E-03,  avg # of iterations =  1.8

     negative rho (up, down):  2.007E-04 0.000E+00

     total cpu time spent up to now is        5.9 secs

     total energy              =    -658.45721721 Ry
     estimated scf accuracy    <       0.43379845 Ry

     iteration #  6     ecut=    80.00 Ry     beta= 0.70
     Davidson diagonalization with overlap
     ethr =  1.24E-03,  avg # of iterations =  1.5

     negative rho (up, down):  3.471E-04 0.000E+00

     total cpu time spent up to now is        6.6 secs

     total energy              =    -658.46967986 Ry
     estimated scf accuracy    <       0.03561558 Ry

     iteration #  7     ecut=    80.00 Ry     beta= 0.70
     Davidson diagonalization with overlap
     ethr =  1.02E-04,  avg # of iterations =  8.6

     negative rho (up, down):  3.570E-04 0.000E+00

     total cpu time spent up to now is        7.6 secs

     total energy              =    -658.50958316 Ry
     estimated scf accuracy    <       0.08789381 Ry

     iteration #  8     ecut=    80.00 Ry     beta= 0.70
     Davidson diagonalization with overlap
     ethr =  1.02E-04,  avg # of iterations =  1.1

     negative rho (up, down):  3.602E-04 0.000E+00

     total cpu time spent up to now is        8.3 secs

     total energy              =    -658.50630858 Ry
     estimated scf accuracy    <       0.05448158 Ry

     iteration #  9     ecut=    80.00 Ry     beta= 0.70
     Davidson diagonalization with overlap
     ethr =  1.02E-04,  avg # of iterations =  1.0

     negative rho (up, down):  4.090E-04 0.000E+00

     total cpu time spent up to now is        9.0 secs

     total energy              =    -658.50608090 Ry
     estimated scf accuracy    <       0.01545080 Ry

     iteration # 10     ecut=    80.00 Ry     beta= 0.70
     Davidson diagonalization with overlap
     ethr =  4.41E-05,  avg # of iterations =  1.1

     negative rho (up, down):  4.547E-04 0.000E+00

     total cpu time spent up to now is        9.8 secs

     total energy              =    -658.50544925 Ry
     estimated scf accuracy    <       0.00513274 Ry

     iteration # 11     ecut=    80.00 Ry     beta= 0.70
     Davidson diagonalization with overlap
     ethr =  1.47E-05,  avg # of iterations =  1.2

     negative rho (up, down):  4.378E-04 0.000E+00

     total cpu time spent up to now is       10.5 secs

     total energy              =    -658.50582650 Ry
     estimated scf accuracy    <       0.00016056 Ry

     iteration # 12     ecut=    80.00 Ry     beta= 0.70
     Davidson diagonalization with overlap
     ethr =  4.59E-07,  avg # of iterations =  5.6

     negative rho (up, down):  4.404E-04 0.000E+00

     total cpu time spent up to now is       11.3 secs

     total energy              =    -658.50584652 Ry
     estimated scf accuracy    <       0.00022669 Ry

     iteration # 13     ecut=    80.00 Ry     beta= 0.70
     Davidson diagonalization with overlap
     ethr =  4.59E-07,  avg # of iterations =  1.1

     negative rho (up, down):  4.408E-04 0.000E+00

     total cpu time spent up to now is       12.0 secs

     total energy              =    -658.50585475 Ry
     estimated scf accuracy    <       0.00000842 Ry

     iteration # 14     ecut=    80.00 Ry     beta= 0.70
     Davidson diagonalization with overlap
     ethr =  2.41E-08,  avg # of iterations =  3.2

     negative rho (up, down):  4.401E-04 0.000E+00

     total cpu time spent up to now is       12.8 secs

     End of self-consistent calculation

          k = 0.0000 0.0000 0.0000 ( 12991 PWs)   bands (ev):

   -59.7304 -33.8881 -33.6546 -33.6546 -13.3759 -12.0510  -5.1698  -2.2080
    -1.4733  -1.4733  -0.4140  -0.4140   0.0882   1.1035   1.3689   1.3689
     1.7918   1.7918   1.8575   3.6941   3.6942   3.9434

          k = 0.0000 0.1155 0.0000 ( 12953 PWs)   bands (ev):

   -59.7267 -33.8807 -33.6923 -33.6632 -13.2334 -11.9737  -5.0094  -2.2544
    -1.8357  -1.3451  -0.7017  -0.6379   0.2797   0.9593   1.3816   1.4257
     1.5833   1.7871   2.1766   3.4249   3.6496   3.7075

          k = 0.0000 0.2309 0.0000 ( 12929 PWs)   bands (ev):

   -59.7168 -33.8614 -33.7900 -33.6856 -12.8390 -11.7560  -4.6282  -2.7202
    -2.4623  -1.2739  -1.0351  -0.8494   0.3277   0.6415   1.3646   1.5285
     1.5776   1.7744   2.2387   3.2685   3.4656   3.6898

          k = 0.0000 0.3464 0.0000 ( 12915 PWs)   bands (ev):

   -59.7046 -33.9087 -33.8374 -33.7132 -12.2984 -11.4448  -4.4397  -3.4998
    -2.9620  -1.7144  -1.3360  -0.4845  -0.0157   0.8171   1.3816   1.5752
     1.7102   1.8675   2.2164   3.2966   3.5319   4.3917

          k = 0.0000 0.4619 0.0000 ( 12872 PWs)   bands (ev):

   -59.6947 -34.0031 -33.8178 -33.7353 -11.8077 -11.1319  -4.8537  -3.9617
    -3.2718  -2.0462  -1.5739  -0.2218  -0.0070   0.8816   1.4837   1.7817
     1.8016   2.0490   2.7396   3.3300   3.8974   5.0601

          k = 0.0000-0.5774 0.0000 ( 12854 PWs)   bands (ev):

   -59.6910 -34.0388 -33.8104 -33.7438 -11.6082 -10.9848  -5.1267  -4.1539
    -3.3672  -2.1634  -1.6599  -0.1462   0.1286   0.8767   1.5297   1.8166
     1.8786   2.1242   3.4070   3.4613   3.9234   5.1124

          k = 0.1000 0.1732 0.0000 ( 12937 PWs)   bands (ev):

   -59.7199 -33.8674 -33.7572 -33.6815 -12.9646 -11.8258  -4.7325  -2.4152
    -2.3790  -1.3473  -1.0558  -0.7185   0.3981   0.7075   1.3911   1.4726
     1.5649   1.7715   2.3235   3.1539   3.4600   3.5810

          k = 0.1000 0.2887 0.0000 ( 12944 PWs)   bands (ev):

   -59.7089 -33.8588 -33.8456 -33.7131 -12.4940 -11.5583  -4.4011  -3.1334
    -2.7404  -2.0204  -1.0200  -0.6596   0.2036   0.6918   1.3163   1.5111
     1.7151   1.8158   2.2489   3.1008   3.5477   3.8232

          k = 0.1000 0.4041 0.0000 ( 12898 PWs)   bands (ev):

   -59.6978 -33.9583 -33.8239 -33.7449 -11.9686 -11.2359  -4.5421  -3.6901
    -3.1958  -2.2744  -1.2884  -0.7510   0.1398   0.9408   1.4138   1.6320
     1.7136   1.9904   2.4269   3.3855   3.7749   4.4112

          k = 0.1000 0.5196 0.0000 ( 12858 PWs)   bands (ev):

   -59.6910 -34.0191 -33.8104 -33.7645 -11.6145 -10.9849  -4.9392  -4.0805
    -3.3771  -2.2809  -1.5948  -0.7893   0.3477   0.9527   1.4959   1.7713
     1.8338   2.0657   3.0941   3.6495   4.0820   4.6240

          k = 0.2000 0.3464 0.0000 ( 12917 PWs)   bands (ev):

   -59.6990 -33.9287 -33.8262 -33.7613 -12.0309 -11.2722  -4.3587  -3.3695
    -3.2293  -2.5380  -1.4152  -0.7566   0.1762   0.9846   1.2674   1.5642
     1.6984   1.9968   2.3498   3.4058   3.6635   4.0863

          k = 0.2000 0.4619 0.0000 ( 12869 PWs)   bands (ev):

   -59.6910 -33.9775 -33.8104 -33.8075 -11.6250 -10.9845  -4.5785  -3.9382
    -3.3109  -2.5331  -1.8843  -1.1560   0.4118   1.1301   1.4032   1.6097
     1.7599   2.0054   2.8461   3.6568   4.0001   4.4847

          k = 0.2000 0.5774 0.0000 ( 12850 PWs)   bands (ev):

   -59.6879 -33.9945 -33.8266 -33.8044 -11.4636 -10.8531  -4.7194  -4.1338
    -3.4249  -2.3585  -2.1165  -1.3826   0.6277   1.1162   1.4699   1.6853
     1.7764   2.0299   3.1450   3.7002   4.1170   4.7978

          k = 0.3000 0.5196 0.0000 ( 12860 PWs)   bands (ev):

   -59.6867 -33.9596 -33.8762 -33.8021 -11.4070 -10.8005  -4.5877  -4.0242
    -3.2427  -2.9574  -2.2387  -1.4984   0.7751   1.2714   1.3955   1.5928
     1.8085   1.9627   2.9612   3.4725   4.2495   5.3398

     the Fermi energy is     1.9869 ev

!    total energy              =    -658.50585681 Ry
     total all-electron energy =    -12481.679748 Ry
     estimated scf accuracy    <       0.00000041 Ry
     smearing contrib. (-TS)   =      -0.01502600 Ry
     internal energy E=F+TS    =    -658.49083080 Ry

     The total energy is F=E-TS. E is the sum of the following terms:
     one-electron contribution =   -1219.91162100 Ry
     hartree contribution      =     623.78354529 Ry
     xc contribution           =     -62.17616537 Ry
     ewald contribution        =     405.94206228 Ry
     one-center paw contrib.   =    -406.12865201 Ry

     convergence has been achieved in  14 iterations

     negative rho (up, down):  4.401E-04 0.000E+00

     Forces acting on atoms (cartesian axes, Ry/au):

     atom    1 type  1   force =     0.00000000    0.00000000   -0.03154528
     atom    2 type  2   force =     0.00000000    0.00000000    0.05175185
     atom    3 type  2   force =     0.00000000    0.00000000    0.01964591
     atom    4 type  3   force =     0.00000000    0.00000000   -0.03985249
     The non-local contrib.  to forces
     atom    1 type  1   force =     0.00000000    0.00000000   -0.00844550
     atom    2 type  2   force =     0.00000000    0.00000000   -0.01336538
     atom    3 type  2   force =     0.00000000    0.00000000    0.27625083
     atom    4 type  3   force =     0.00000000    0.00000000    0.00816748
     The ionic contribution  to forces
     atom    1 type  1   force =     0.00000000   -0.00000000  -30.79878777
     atom    2 type  2   force =    -0.00000000    0.00000000   18.78039525
     atom    3 type  2   force =    -0.00000000    0.00000000  -44.58057647
     atom    4 type  3   force =     0.00000000   -0.00000000   56.59896899
     The local contribution  to forces
     atom    1 type  1   force =     0.00000000   -0.00000000   30.77576154
     atom    2 type  2   force =    -0.00000000    0.00000000  -18.71109268
     atom    3 type  2   force =    -0.00000000    0.00000000   44.32602187
     atom    4 type  3   force =     0.00000000   -0.00000000  -56.64126105
     The core correction contribution to forces
     atom    1 type  1   force =    -0.00000000    0.00000000    0.00093133
     atom    2 type  2   force =     0.00000000   -0.00000000   -0.00344104
     atom    3 type  2   force =     0.00000000   -0.00000000   -0.00260449
     atom    4 type  3   force =     0.00000000   -0.00000000   -0.00519146
     The Hubbard contrib.    to forces
     atom    1 type  1   force =     0.00000000    0.00000000    0.00000000
     atom    2 type  2   force =     0.00000000    0.00000000    0.00000000
     atom    3 type  2   force =     0.00000000    0.00000000    0.00000000
     atom    4 type  3   force =     0.00000000    0.00000000    0.00000000
     The SCF correction term to forces
     atom    1 type  1   force =    -0.00000000   -0.00000000   -0.00104102
     atom    2 type  2   force =    -0.00000000   -0.00000000   -0.00078044
     atom    3 type  2   force =     0.00000000   -0.00000000    0.00051802
     atom    4 type  3   force =    -0.00000000   -0.00000000   -0.00057258

     Total force =     0.075150     Total SCF correction =     0.001513


     Computing stress (Cartesian axis) and pressure


     negative rho (up, down):  4.401E-04 0.000E+00
          total   stress  (Ry/bohr**3)                   (kbar)     P=      -33.55
  -0.00025916   0.00000000   0.00000000          -38.12        0.00        0.00
   0.00000000  -0.00025916  -0.00000000            0.00      -38.12       -0.00
   0.00000000   0.00000000  -0.00016578            0.00        0.00      -24.39


     BFGS Geometry Optimization
     Energy error            =      0.0E+00 Ry
     Gradient error          =      5.2E-02 Ry/Bohr

     number of scf cycles    =   1
     number of bfgs steps    =   0

     energy             new  =    -658.5058568050 Ry

     new trust radius        =       0.0517518532 bohr
     new conv_thr            =       0.0000010000 Ry


ATOMIC_POSITIONS (crystal)
Mo            0.0000000000        0.0000000000        0.4990822956
S             0.6666666667        0.3333333333        0.5891910886
S             0.6666666667        0.3333333333        0.4128859906
Co            0.3333333333        0.6666666667        0.6964766890



     Writing config-only to output data dir ./tmp/relax.save/
     NEW-OLD atomic charge density approx. for the potential

     negative rho (up, down):  4.428E-04 0.000E+00

     total cpu time spent up to now is       15.4 secs

     Self-consistent Calculation

     iteration #  1     ecut=    80.00 Ry     beta= 0.70
     Davidson diagonalization with overlap
     ethr =  1.00E-06,  avg # of iterations =  9.9

     negative rho (up, down):  4.453E-04 0.000E+00

     total cpu time spent up to now is       17.0 secs

     total energy              =    -658.50801784 Ry
     estimated scf accuracy    <       0.00328128 Ry

     iteration #  2     ecut=    80.00 Ry     beta= 0.70
     Davidson diagonalization with overlap
     ethr =  9.38E-06,  avg # of iterations =  8.7

     negative rho (up, down):  4.456E-04 0.000E+00

     total cpu time spent up to now is       18.0 secs

     total energy              =    -658.47095732 Ry
     estimated scf accuracy    <       1.14092639 Ry

     iteration #  3     ecut=    80.00 Ry     beta= 0.70
     Davidson diagonalization with overlap
     ethr =  9.38E-06,  avg # of iterations =  7.1

     negative rho (up, down):  4.427E-04 0.000E+00

     total cpu time spent up to now is       19.0 secs

     total energy              =    -658.50987587 Ry
     estimated scf accuracy    <       0.00525302 Ry

     iteration #  4     ecut=    80.00 Ry     beta= 0.70
     Davidson diagonalization with overlap
     ethr =  9.38E-06,  avg # of iterations =  2.1

     negative rho (up, down):  4.422E-04 0.000E+00

     total cpu time spent up to now is       19.8 secs

     total energy              =    -658.51041379 Ry
     estimated scf accuracy    <       0.00041340 Ry

     iteration #  5     ecut=    80.00 Ry     beta= 0.70
     Davidson diagonalization with overlap
     ethr =  1.18E-06,  avg # of iterations =  3.7

     negative rho (up, down):  4.425E-04 0.000E+00

     total cpu time spent up to now is       20.6 secs

     total energy              =    -658.51049029 Ry
     estimated scf accuracy    <       0.00017247 Ry

     iteration #  6     ecut=    80.00 Ry     beta= 0.70
     Davidson diagonalization with overlap
     ethr =  4.93E-07,  avg # of iterations =  2.2

     negative rho (up, down):  4.425E-04 0.000E+00

     total cpu time spent up to now is       21.3 secs

     total energy              =    -658.51050833 Ry
     estimated scf accuracy    <       0.00003807 Ry

     iteration #  7     ecut=    80.00 Ry     beta= 0.70
     Davidson diagonalization with overlap
     ethr =  1.09E-07,  avg # of iterations =  2.4

     negative rho (up, down):  4.429E-04 0.000E+00

     total cpu time spent up to now is       22.1 secs

     total energy              =    -658.51051590 Ry
     estimated scf accuracy    <       0.00001283 Ry

     iteration #  8     ecut=    80.00 Ry     beta= 0.70
     Davidson diagonalization with overlap
     ethr =  3.66E-08,  avg # of iterations =  1.6

     negative rho (up, down):  4.433E-04 0.000E+00

     total cpu time spent up to now is       22.8 secs

     End of self-consistent calculation

          k = 0.0000 0.0000 0.0000 ( 12991 PWs)   bands (ev):

   -59.6904 -33.8457 -33.6132 -33.6132 -13.3331 -12.0587  -5.1283  -2.3009
    -1.3871  -1.3871  -0.3800  -0.3800   0.2113   1.1101   1.3134   1.3134
     1.7315   1.7315   1.8075   3.6237   3.6237   4.0624

          k = 0.0000 0.1155 0.0000 ( 12953 PWs)   bands (ev):

   -59.6867 -33.8383 -33.6508 -33.6218 -13.1902 -11.9806  -4.9685  -2.3291
    -1.7433  -1.2486  -0.7020  -0.6167   0.3802   0.9582   1.3415   1.3689
     1.5309   1.7286   2.1394   3.3398   3.6430   3.7879

          k = 0.0000 0.2309 0.0000 ( 12929 PWs)   bands (ev):

   -59.6768 -33.8192 -33.7480 -33.6441 -12.7934 -11.7618  -4.5852  -2.6993
    -2.4310  -1.1419  -1.1095  -0.8735   0.4389   0.6147   1.3222   1.4884
     1.5196   1.7227   2.2274   3.2721   3.4589   3.7523

          k = 0.0000 0.3464 0.0000 ( 12915 PWs)   bands (ev):

   -59.6647 -33.8663 -33.7952 -33.6716 -12.2452 -11.4524  -4.3744  -3.4930
    -2.9553  -1.6324  -1.4067  -0.4813   0.0746   0.7907   1.3293   1.5412
     1.6639   1.8228   2.2092   3.3132   3.6059   4.4074

          k = 0.0000 0.4619 0.0000 ( 12872 PWs)   bands (ev):

   -59.6548 -33.9603 -33.7759 -33.6937 -11.7408 -11.1466  -4.7933  -3.9895
    -3.2378  -1.9709  -1.6297  -0.2391   0.0663   0.8491   1.4490   1.7577
     1.7623   2.0051   2.7065   3.3626   3.9726   5.0699

          k = 0.0000-0.5774 0.0000 ( 12854 PWs)   bands (ev):

   -59.6510 -33.9959 -33.7685 -33.7021 -11.5334 -11.0039  -5.0820  -4.1829
    -3.3150  -2.0894  -1.7146  -0.1735   0.1868   0.8448   1.5050   1.8013
     1.8461   2.0802   3.3938   3.4483   3.9559   5.1131

          k = 0.1000 0.1732 0.0000 ( 12937 PWs)   bands (ev):

   -59.6799 -33.8251 -33.7154 -33.6400 -12.9200 -11.8318  -4.6910  -2.4853
    -2.2586  -1.2612  -1.0381  -0.7751   0.4869   0.7046   1.3567   1.4212
     1.5111   1.7196   2.3148   3.0896   3.5555   3.5943

          k = 0.1000 0.2887 0.0000 ( 12944 PWs)   bands (ev):

   -59.6689 -33.8167 -33.8033 -33.6715 -12.4444 -11.5648  -4.3460  -3.1153
    -2.7274  -1.9671  -1.0122  -0.7173   0.2975   0.6686   1.2751   1.4762
     1.6675   1.7708   2.2478   3.1053   3.6343   3.8276

          k = 0.1000 0.4041 0.0000 ( 12898 PWs)   bands (ev):

   -59.6578 -33.9157 -33.7819 -33.7032 -11.9075 -11.2476  -4.4681  -3.7092
    -3.1833  -2.2228  -1.3092  -0.7605   0.1967   0.9082   1.3697   1.6005
     1.6829   1.9576   2.4040   3.4125   3.8677   4.4203

          k = 0.1000 0.5196 0.0000 ( 12858 PWs)   bands (ev):

   -59.6510 -33.9762 -33.7685 -33.7227 -11.5408 -11.0036  -4.8874  -4.1040
    -3.3319  -2.2315  -1.6333  -0.7931   0.3866   0.9198   1.4641   1.7557
     1.7958   2.0364   3.0581   3.6769   4.1266   4.6341

          k = 0.2000 0.3464 0.0000 ( 12917 PWs)   bands (ev):

   -59.6590 -33.8862 -33.7842 -33.7196 -11.9719 -11.2828  -4.2783  -3.3560
    -3.2667  -2.4679  -1.4167  -0.7969   0.2201   0.9513   1.2320   1.5451
     1.6632   1.9727   2.3242   3.4397   3.7565   4.0887

          k = 0.2000 0.4619 0.0000 ( 12869 PWs)   bands (ev):

   -59.6510 -33.9348 -33.7686 -33.7656 -11.5529 -11.0027  -4.5060  -3.9374
    -3.3123  -2.4999  -1.8930  -1.1670   0.4353   1.0931   1.3602   1.5849
     1.7441   1.9940   2.7991   3.7108   4.0747   4.4816

          k = 0.2000 0.5774 0.0000 ( 12850 PWs)   bands (ev):

   -59.6480 -33.9517 -33.7847 -33.7625 -11.3852 -10.8748  -4.6586  -4.1377
    -3.3965  -2.3268  -2.1526  -1.3829   0.6455   1.0810   1.4285   1.6593
     1.7635   2.0164   3.1651   3.6799   4.1285   4.8151

          k = 0.3000 0.5196 0.0000 ( 12860 PWs)   bands (ev):

   -59.6468 -33.9169 -33.8341 -33.7603 -11.3272 -10.8232  -4.5138  -4.0109
    -3.2454  -2.9637  -2.2421  -1.4894   0.7755   1.2294   1.3494   1.5720
     1.8054   1.9576   2.9926   3.4757   4.2350   5.3793

     the Fermi energy is     1.9592 ev

!    total energy              =    -658.51051739 Ry
     total all-electron energy =    -12481.684408 Ry
     estimated scf accuracy    <       0.00000019 Ry
     smearing contrib. (-TS)   =      -0.01460750 Ry
     internal energy E=F+TS    =    -658.49590989 Ry

     The total energy is F=E-TS. E is the sum of the following terms:
     one-electron contribution =   -1222.35536617 Ry
     hartree contribution      =     625.03370256 Ry
     xc contribution           =     -62.17872796 Ry
     ewald contribution        =     407.13205805 Ry
     one-center paw contrib.   =    -406.12757637 Ry

     convergence has been achieved in   8 iterations

     negative rho (up, down):  4.433E-04 0.000E+00

     Forces acting on atoms (cartesian axes, Ry/au):

     atom    1 type  1   force =     0.00000000    0.00000000    0.00061027
     atom    2 type  2   force =     0.00000000    0.00000000    0.03607025
     atom    3 type  2   force =     0.00000000    0.00000000    0.00677029
     atom    4 type  3   force =     0.00000000    0.00000000   -0.04345081
     The non-local contrib.  to forces
     atom    1 type  1   force =     0.00000000    0.00000000   -0.02330350
     atom    2 type  2   force =     0.00000000    0.00000000   -0.00991833
     atom    3 type  2   force =     0.00000000    0.00000000    0.26965225
     atom    4 type  3   force =     0.00000000    0.00000000    0.02102341
     The ionic contribution  to forces
     atom    1 type  1   force =     0.00000000   -0.00000000  -30.90544434
     atom    2 type  2   force =    -0.00000000    0.00000000   18.75052435
     atom    3 type  2   force =    -0.00000000    0.00000000  -44.58951800
     atom    4 type  3   force =     0.00000000   -0.00000000   56.74443799
     The local contribution  to forces
     atom    1 type  1   force =    -0.00000000   -0.00000000   30.92721989
     atom    2 type  2   force =    -0.00000000    0.00000000  -18.70157322
     atom    3 type  2   force =    -0.00000000    0.00000000   44.32958876
     atom    4 type  3   force =     0.00000000   -0.00000000  -56.80391068
     The core correction contribution to forces
     atom    1 type  1   force =    -0.00000000    0.00000000    0.00183597
     atom    2 type  2   force =     0.00000000   -0.00000000   -0.00315094
     atom    3 type  2   force =     0.00000000   -0.00000000   -0.00225809
     atom    4 type  3   force =     0.00000000   -0.00000000   -0.00591977
     The Hubbard contrib.    to forces
     atom    1 type  1   force =     0.00000000    0.00000000    0.00000000
     atom    2 type  2   force =     0.00000000    0.00000000    0.00000000
     atom    3 type  2   force =     0.00000000    0.00000000    0.00000000
     atom    4 type  3   force =     0.00000000    0.00000000    0.00000000
     The SCF correction term to forces
     atom    1 type  1   force =    -0.00000000   -0.00000000    0.00045840
     atom    2 type  2   force =     0.00000000    0.00000000    0.00034453
     atom    3 type  2   force =    -0.00000000    0.00000000   -0.00053848
     atom    4 type  3   force =     0.00000000   -0.00000000    0.00107440

     Total force =     0.056879     Total SCF correction =     0.001332


     Computing stress (Cartesian axis) and pressure


     negative rho (up, down):  4.433E-04 0.000E+00
          total   stress  (Ry/bohr**3)                   (kbar)     P=      -35.34
  -0.00026309   0.00000000   0.00000000          -38.70        0.00        0.00
   0.00000000  -0.00026309   0.00000000            0.00      -38.70        0.00
   0.00000000   0.00000000  -0.00019445            0.00        0.00      -28.60

     Energy error            =      4.7E-03 Ry
     Gradient error          =      4.3E-02 Ry/Bohr

     number of scf cycles    =   2
     number of bfgs steps    =   1

     energy             old  =    -658.5058568050 Ry
     energy             new  =    -658.5105173855 Ry

     CASE: energy            _new < energy            _old

     new trust radius        =       0.0569270385 bohr
     new conv_thr            =       0.0000004345 Ry


ATOMIC_POSITIONS (crystal)
Mo            0.0000000000        0.0000000000        0.4987403632
S             0.6666666667        0.3333333333        0.5907782401
S             0.6666666667        0.3333333333        0.4132968733
Co            0.3333333333        0.6666666667        0.6948205872



     Writing config-only to output data dir ./tmp/relax.save/
     NEW-OLD atomic charge density approx. for the potential

     negative rho (up, down):  4.460E-04 0.000E+00

     total cpu time spent up to now is       25.4 secs

     Self-consistent Calculation

     iteration #  1     ecut=    80.00 Ry     beta= 0.70
     Davidson diagonalization with overlap
     ethr =  1.00E-06,  avg # of iterations =  9.3

     negative rho (up, down):  4.491E-04 0.000E+00

     total cpu time spent up to now is       26.9 secs

     total energy              =    -658.51396341 Ry
     estimated scf accuracy    <       0.00141598 Ry

     iteration #  2     ecut=    80.00 Ry     beta= 0.70
     Davidson diagonalization with overlap
     ethr =  4.05E-06,  avg # of iterations =  7.4

     negative rho (up, down):  4.483E-04 0.000E+00

     total cpu time spent up to now is       27.8 secs

     total energy              =    -658.50905707 Ry
     estimated scf accuracy    <       0.10671219 Ry

     iteration #  3     ecut=    80.00 Ry     beta= 0.70
     Davidson diagonalization with overlap
     ethr =  4.05E-06,  avg # of iterations =  6.0

     negative rho (up, down):  4.449E-04 0.000E+00

     total cpu time spent up to now is       28.8 secs

     total energy              =    -658.51343946 Ry
     estimated scf accuracy    <       0.03142072 Ry

     iteration #  4     ecut=    80.00 Ry     beta= 0.70
     Davidson diagonalization with overlap
     ethr =  4.05E-06,  avg # of iterations =  3.3

     negative rho (up, down):  4.449E-04 0.000E+00

     total cpu time spent up to now is       29.6 secs

     total energy              =    -658.51462881 Ry
     estimated scf accuracy    <       0.00040502 Ry

     iteration #  5     ecut=    80.00 Ry     beta= 0.70
     Davidson diagonalization with overlap
     ethr =  1.16E-06,  avg # of iterations =  2.9

     negative rho (up, down):  4.451E-04 0.000E+00

     total cpu time spent up to now is       30.4 secs

     total energy              =    -658.51471373 Ry
     estimated scf accuracy    <       0.00020122 Ry

     iteration #  6     ecut=    80.00 Ry     beta= 0.70
     Davidson diagonalization with overlap
     ethr =  5.75E-07,  avg # of iterations =  1.6

     negative rho (up, down):  4.454E-04 0.000E+00

     total cpu time spent up to now is       31.1 secs

     total energy              =    -658.51473808 Ry
     estimated scf accuracy    <       0.00000834 Ry

     iteration #  7     ecut=    80.00 Ry     beta= 0.70
     Davidson diagonalization with overlap
     ethr =  2.38E-08,  avg # of iterations =  4.6

     negative rho (up, down):  4.457E-04 0.000E+00

     total cpu time spent up to now is       32.0 secs

     total energy              =    -658.51473940 Ry
     estimated scf accuracy    <       0.00003045 Ry

     iteration #  8     ecut=    80.00 Ry     beta= 0.70
     Davidson diagonalization with overlap
     ethr =  2.38E-08,  avg # of iterations =  2.9

     negative rho (up, down):  4.462E-04 0.000E+00

     total cpu time spent up to now is       32.8 secs

     End of self-consistent calculation

          k = 0.0000 0.0000 0.0000 ( 12991 PWs)   bands (ev):

   -59.6502 -33.8039 -33.5712 -33.5712 -13.3044 -12.0635  -5.0995  -2.3703
    -1.3217  -1.3217  -0.3286  -0.3286   0.3092   1.1387   1.2649   1.2649
     1.6780   1.6780   1.7728   3.5856   3.5856   4.1481

          k = 0.0000 0.1155 0.0000 ( 12953 PWs)   bands (ev):

   -59.6465 -33.7967 -33.6086 -33.5797 -13.1618 -11.9837  -4.9404  -2.3862
    -1.6696  -1.1856  -0.6827  -0.5649   0.4465   0.9726   1.3183   1.3204
     1.4886   1.6782   2.1206   3.2940   3.6027   3.8836

          k = 0.0000 0.2309 0.0000 ( 12929 PWs)   bands (ev):

   -59.6367 -33.7777 -33.7053 -33.6020 -12.7653 -11.7608  -4.5560  -2.7083
    -2.3727  -1.1661  -1.0787  -0.8326   0.5063   0.6128   1.2910   1.4679
     1.4680   1.6814   2.2393   3.2580   3.4526   3.8249

          k = 0.0000 0.3464 0.0000 ( 12915 PWs)   bands (ev):

   -59.6245 -33.8233 -33.7538 -33.6294 -12.2149 -11.4470  -4.3269  -3.4980
    -2.9394  -1.5723  -1.4656  -0.4634   0.1417   0.7796   1.2849   1.5274
     1.6296   1.7885   2.2237   3.3285   3.6542   4.4410

          k = 0.0000 0.4619 0.0000 ( 12872 PWs)   bands (ev):

   -59.6147 -33.9169 -33.7347 -33.6514 -11.7038 -11.1401  -4.7543  -4.0118
    -3.2120  -1.9103  -1.6781  -0.2522   0.1203   0.8341   1.4288   1.7376
     1.7505   1.9720   2.6930   3.3945   4.0282   5.0722

          k = 0.0000-0.5774 0.0000 ( 12854 PWs)   bands (ev):

   -59.6109 -33.9523 -33.7274 -33.6598 -11.4917 -10.9981  -5.0589  -4.2033
    -3.2755  -2.0286  -1.7638  -0.1989   0.2263   0.8311   1.4974   1.8043
     1.8289   2.0468   3.3407   3.4898   3.9823   5.1051

          k = 0.1000 0.1732 0.0000 ( 12937 PWs)   bands (ev):

   -59.6397 -33.7836 -33.6729 -33.5979 -12.8920 -11.8320  -4.6629  -2.5263
    -2.1727  -1.2380  -0.9738  -0.7970   0.5193   0.7359   1.3395   1.3805
     1.4663   1.6792   2.3308   3.0390   3.5558   3.6797

          k = 0.1000 0.2887 0.0000 ( 12944 PWs)   bands (ev):

   -59.6287 -33.7744 -33.7614 -33.6293 -12.4154 -11.5607  -4.3075  -3.1154
    -2.6985  -1.9311  -1.0204  -0.7317   0.3590   0.6602   1.2458   1.4586
     1.6342   1.7361   2.2702   3.0999   3.6848   3.8644

          k = 0.1000 0.4041 0.0000 ( 12898 PWs)   bands (ev):

   -59.6177 -33.8725 -33.7407 -33.6609 -11.8737 -11.2412  -4.4154  -3.7281
    -3.1722  -2.1840  -1.3336  -0.7608   0.2403   0.8906   1.3342   1.5890
     1.6684   1.9362   2.3998   3.4341   3.9383   4.4410

          k = 0.1000 0.5196 0.0000 ( 12858 PWs)   bands (ev):

   -59.6109 -33.9327 -33.7274 -33.6804 -11.4998 -10.9979  -4.8599  -4.1164
    -3.2998  -2.1936  -1.6710  -0.7960   0.4135   0.9044   1.4463   1.7559
     1.7744   2.0222   3.0282   3.7042   4.1619   4.6398

          k = 0.2000 0.3464 0.0000 ( 12917 PWs)   bands (ev):

   -59.6189 -33.8431 -33.7429 -33.6772 -11.9392 -11.2766  -4.2193  -3.3740
    -3.2668  -2.4180  -1.4183  -0.8303   0.2521   0.9284   1.2082   1.5413
     1.6478   1.9608   2.3173   3.4564   3.8330   4.1103

          k = 0.2000 0.4619 0.0000 ( 12869 PWs)   bands (ev):

   -59.6109 -33.8914 -33.7275 -33.7231 -11.5130 -10.9971  -4.4631  -3.9231
    -3.3232  -2.4824  -1.8957  -1.1797   0.4539   1.0686   1.3260   1.5778
     1.7457   2.0024   2.7605   3.7515   4.1238   4.4977

          k = 0.2000 0.5774 0.0000 ( 12850 PWs)   bands (ev):

   -59.6079 -33.9083 -33.7421 -33.7215 -11.3413 -10.8701  -4.6297  -4.1245
    -3.3821  -2.3194  -2.1726  -1.3840   0.6580   1.0598   1.3975   1.6502
     1.7661   2.0229   3.1775   3.6608   4.1297   4.8388

          k = 0.3000 0.5196 0.0000 ( 12860 PWs)   bands (ev):

   -59.6067 -33.8735 -33.7915 -33.7193 -11.2823 -10.8189  -4.4649  -3.9963
    -3.2586  -2.9717  -2.2444  -1.4850   0.7780   1.1960   1.3131   1.5713
     1.8112   1.9758   3.0173   3.4760   4.2113   5.4127

     the Fermi energy is     1.9475 ev

!    total energy              =    -658.51474265 Ry
     total all-electron energy =    -12481.688634 Ry
     estimated scf accuracy    <       0.00000032 Ry
     smearing contrib. (-TS)   =      -0.01409813 Ry
     internal energy E=F+TS    =    -658.50064452 Ry

     The total energy is F=E-TS. E is the sum of the following terms:
     one-electron contribution =   -1227.36046010 Ry
     hartree contribution      =     627.55395109 Ry
     xc contribution           =     -62.18229367 Ry
     ewald contribution        =     409.61435119 Ry
     one-center paw contrib.   =    -406.12619303 Ry

     convergence has been achieved in   8 iterations

     negative rho (up, down):  4.462E-04 0.000E+00

     Forces acting on atoms (cartesian axes, Ry/au):

     atom    1 type  1   force =     0.00000000    0.00000000    0.02009164
     atom    2 type  2   force =     0.00000000    0.00000000    0.02632243
     atom    3 type  2   force =     0.00000000    0.00000000    0.00080059
     atom    4 type  3   force =     0.00000000    0.00000000   -0.04721466
     The non-local contrib.  to forces
     atom    1 type  1   force =     0.00000000   -0.00000000   -0.03330760
     atom    2 type  2   force =     0.00000000    0.00000000   -0.00189963
     atom    3 type  2   force =     0.00000000    0.00000000    0.26594526
     atom    4 type  3   force =     0.00000000    0.00000000    0.03431022
     The ionic contribution  to forces
     atom    1 type  1   force =     0.00000000   -0.00000000  -31.08210501
     atom    2 type  2   force =    -0.00000000    0.00000000   18.69164867
     atom    3 type  2   force =    -0.00000000    0.00000000  -44.62114836
     atom    4 type  3   force =     0.00000000   -0.00000000   57.01160470
     The local contribution  to forces
     atom    1 type  1   force =     0.00000000   -0.00000000   31.13126592
     atom    2 type  2   force =    -0.00000000    0.00000000  -18.66077206
     atom    3 type  2   force =    -0.00000000    0.00000000   44.35848078
     atom    4 type  3   force =     0.00000000   -0.00000000  -57.08716359
     The core correction contribution to forces
     atom    1 type  1   force =     0.00000000   -0.00000000    0.00246858
     atom    2 type  2   force =     0.00000000   -0.00000000   -0.00301201
     atom    3 type  2   force =     0.00000000   -0.00000000   -0.00208072
     atom    4 type  3   force =     0.00000000   -0.00000000   -0.00682293
     The Hubbard contrib.    to forces
     atom    1 type  1   force =     0.00000000    0.00000000    0.00000000
     atom    2 type  2   force =     0.00000000    0.00000000    0.00000000
     atom    3 type  2   force =     0.00000000    0.00000000    0.00000000
     atom    4 type  3   force =     0.00000000    0.00000000    0.00000000
     The SCF correction term to forces
     atom    1 type  1   force =     0.00000000    0.00000000    0.00199921
     atom    2 type  2   force =    -0.00000000   -0.00000000    0.00058692
     atom    3 type  2   force =    -0.00000000   -0.00000000   -0.00016691
     atom    4 type  3   force =     0.00000000   -0.00000000    0.00108640

     Total force =     0.057675     Total SCF correction =     0.002356


     Computing stress (Cartesian axis) and pressure


     negative rho (up, down):  4.462E-04 0.000E+00
          total   stress  (Ry/bohr**3)                   (kbar)     P=      -37.57
  -0.00026857   0.00000000   0.00000000          -39.51        0.00        0.00
   0.00000000  -0.00026857   0.00000000            0.00      -39.51        0.00
   0.00000000   0.00000000  -0.00022913            0.00        0.00      -33.71

     Energy error            =      4.2E-03 Ry
     Gradient error          =      4.7E-02 Ry/Bohr

     number of scf cycles    =   3
     number of bfgs steps    =   2

     energy             old  =    -658.5105173855 Ry
     energy             new  =    -658.5147426521 Ry

     CASE: energy            _new < energy            _old

     new trust radius        =       0.0853905578 bohr
     new conv_thr            =       0.0000004225 Ry


ATOMIC_POSITIONS (crystal)
Mo            0.0000000000        0.0000000000        0.4986437580
S             0.6666666667        0.3333333333        0.5928709410
S             0.6666666667        0.3333333333        0.4137849303
Co            0.3333333333        0.6666666667        0.6923364345



     Writing config-only to output data dir ./tmp/relax.save/
     NEW-OLD atomic charge density approx. for the potential

     negative rho (up, down):  4.482E-04 0.000E+00

     total cpu time spent up to now is       35.4 secs

     Self-consistent Calculation

     iteration #  1     ecut=    80.00 Ry     beta= 0.70
     Davidson diagonalization with overlap
     ethr =  1.00E-06,  avg # of iterations = 10.1

     negative rho (up, down):  4.562E-04 0.000E+00

     total cpu time spent up to now is       37.0 secs

     total energy              =    -658.51903473 Ry
     estimated scf accuracy    <       0.00270557 Ry

     iteration #  2     ecut=    80.00 Ry     beta= 0.70
     Davidson diagonalization with overlap
     ethr =  7.73E-06,  avg # of iterations =  4.6

     negative rho (up, down):  4.514E-04 0.000E+00

     total cpu time spent up to now is       37.9 secs

     total energy              =    -658.51497998 Ry
     estimated scf accuracy    <       0.05627398 Ry

     iteration #  3     ecut=    80.00 Ry     beta= 0.70
     Davidson diagonalization with overlap
     ethr =  7.73E-06,  avg # of iterations =  5.4

     negative rho (up, down):  4.483E-04 0.000E+00

     total cpu time spent up to now is       38.8 secs

     total energy              =    -658.51495760 Ry
     estimated scf accuracy    <       0.13788881 Ry

     iteration #  4     ecut=    80.00 Ry     beta= 0.70
     Davidson diagonalization with overlap
     ethr =  7.73E-06,  avg # of iterations =  5.4

     negative rho (up, down):  4.492E-04 0.000E+00

     total cpu time spent up to now is       39.7 secs

     total energy              =    -658.52020956 Ry
     estimated scf accuracy    <       0.00320085 Ry

     iteration #  5     ecut=    80.00 Ry     beta= 0.70
     Davidson diagonalization with overlap
     ethr =  7.73E-06,  avg # of iterations =  1.2

     negative rho (up, down):  4.505E-04 0.000E+00

     total cpu time spent up to now is       40.4 secs

     total energy              =    -658.52040383 Ry
     estimated scf accuracy    <       0.00047774 Ry

     iteration #  6     ecut=    80.00 Ry     beta= 0.70
     Davidson diagonalization with overlap
     ethr =  1.36E-06,  avg # of iterations =  2.0

     negative rho (up, down):  4.512E-04 0.000E+00

     total cpu time spent up to now is       41.1 secs

     total energy              =    -658.52045860 Ry
     estimated scf accuracy    <       0.00003702 Ry

     iteration #  7     ecut=    80.00 Ry     beta= 0.70
     Davidson diagonalization with overlap
     ethr =  1.06E-07,  avg # of iterations =  3.2

     negative rho (up, down):  4.513E-04 0.000E+00

     total cpu time spent up to now is       41.9 secs

     total energy              =    -658.52046106 Ry
     estimated scf accuracy    <       0.00003690 Ry

     iteration #  8     ecut=    80.00 Ry     beta= 0.70
     Davidson diagonalization with overlap
     ethr =  1.05E-07,  avg # of iterations =  1.8

     negative rho (up, down):  4.514E-04 0.000E+00

     total cpu time spent up to now is       42.7 secs

     total energy              =    -658.52046512 Ry
     estimated scf accuracy    <       0.00000338 Ry

     iteration #  9     ecut=    80.00 Ry     beta= 0.70
     Davidson diagonalization with overlap
     ethr =  9.65E-09,  avg # of iterations =  3.0

     negative rho (up, down):  4.516E-04 0.000E+00

     total cpu time spent up to now is       43.4 secs

     total energy              =    -658.52046550 Ry
     estimated scf accuracy    <       0.00000067 Ry

     iteration # 10     ecut=    80.00 Ry     beta= 0.70
     Davidson diagonalization with overlap
     ethr =  1.90E-09,  avg # of iterations =  3.8

     negative rho (up, down):  4.516E-04 0.000E+00

     total cpu time spent up to now is       44.3 secs

     End of self-consistent calculation

          k = 0.0000 0.0000 0.0000 ( 12991 PWs)   bands (ev):

   -59.5979 -33.7510 -33.5169 -33.5169 -13.2880 -12.0697  -5.0744  -2.4454
    -1.2528  -1.2528  -0.2766  -0.2766   0.4276   1.1867   1.2057   1.2057
     1.6095   1.6095   1.7379   3.5625   3.5625   4.2369

          k = 0.0000 0.1155 0.0000 ( 12953 PWs)   bands (ev):

   -59.5942 -33.7439 -33.5540 -33.5254 -13.1465 -11.9872  -4.9165  -2.4475
    -1.5941  -1.1248  -0.6656  -0.5061   0.5091   0.9971   1.2545   1.3116
     1.4388   1.6153   2.1077   3.2645   3.5757   3.9811

          k = 0.0000 0.2309 0.0000 ( 12929 PWs)   bands (ev):

   -59.5845 -33.7252 -33.6502 -33.5476 -12.7523 -11.7571  -4.5321  -2.7235
    -2.3108  -1.2364  -1.0381  -0.7683   0.5385   0.6507   1.2526   1.4042
     1.4593   1.6323   2.2695   3.2490   3.4528   3.9103

          k = 0.0000 0.3464 0.0000 ( 12915 PWs)   bands (ev):

   -59.5724 -33.7679 -33.7013 -33.5749 -12.2027 -11.4345  -4.2823  -3.5183
    -2.9254  -1.5325  -1.5147  -0.4542   0.2112   0.7738   1.2284   1.5241
     1.5971   1.7477   2.2544   3.3507   3.7100   4.4924

          k = 0.0000 0.4619 0.0000 ( 12872 PWs)   bands (ev):

   -59.5625 -33.8610 -33.6825 -33.5968 -11.6882 -11.1214  -4.7269  -4.0440
    -3.1892  -1.8493  -1.7338  -0.2876   0.1748   0.8256   1.4068   1.7155
     1.7574   1.9339   2.6863   3.4351   4.0898   5.0728

          k = 0.0000-0.5774 0.0000 ( 12854 PWs)   bands (ev):

   -59.5588 -33.8963 -33.6753 -33.6052 -11.4725 -10.9780  -5.0536  -4.2285
    -3.2372  -1.9667  -1.8224  -0.2505   0.2621   0.8253   1.4951   1.8151
     1.8263   2.0071   3.2800   3.5423   4.0110   5.0922

          k = 0.1000 0.1732 0.0000 ( 12937 PWs)   bands (ev):

   -59.5875 -33.7309 -33.6180 -33.5434 -12.8784 -11.8306  -4.6400  -2.5635
    -2.0928  -1.2352  -0.9087  -0.8087   0.5258   0.7945   1.3194   1.3385
     1.4174   1.6338   2.3691   2.9933   3.5564   3.7778

          k = 0.1000 0.2887 0.0000 ( 12944 PWs)   bands (ev):

   -59.5765 -33.7202 -33.7078 -33.5747 -12.4033 -11.5513  -4.2742  -3.1249
    -2.6723  -1.8991  -1.0564  -0.7304   0.4070   0.6637   1.2116   1.4471
     1.6047   1.6949   2.3150   3.0940   3.7331   3.9282

          k = 0.1000 0.4041 0.0000 ( 12898 PWs)   bands (ev):

   -59.5656 -33.8168 -33.6884 -33.6062 -11.8601 -11.2243  -4.3676  -3.7624
    -3.1651  -2.1465  -1.3728  -0.7651   0.2803   0.8763   1.2888   1.5881
     1.6650   1.9104   2.4083   3.4592   4.0196   4.4748

          k = 0.1000 0.5196 0.0000 ( 12858 PWs)   bands (ev):

   -59.5588 -33.8767 -33.6753 -33.6256 -11.4813 -10.9781  -4.8506  -4.1312
    -3.2714  -2.1580  -1.7211  -0.8099   0.4332   0.8951   1.4271   1.7511
     1.7773   2.0110   2.9926   3.7367   4.2019   4.6472

          k = 0.2000 0.3464 0.0000 ( 12917 PWs)   bands (ev):

   -59.5667 -33.7875 -33.6906 -33.6225 -11.9263 -11.2607  -4.1625  -3.4258
    -3.2521  -2.3727  -1.4354  -0.8660   0.2771   0.9048   1.1800   1.5480
     1.6435   1.9457   2.3265   3.4707   3.9182   4.1529

          k = 0.2000 0.4619 0.0000 ( 12869 PWs)   bands (ev):

   -59.5588 -33.8356 -33.6754 -33.6682 -11.4956 -10.9777  -4.4378  -3.9039
    -3.3464  -2.4797  -1.9033  -1.1952   0.4692   1.0418   1.2831   1.5825
     1.7590   2.0247   2.7167   3.7916   4.1684   4.5366

          k = 0.2000 0.5774 0.0000 ( 12850 PWs)   bands (ev):

   -59.5558 -33.8524 -33.6872 -33.6695 -11.3203 -10.8504  -4.6252  -4.1020
    -3.3780  -2.3456  -2.1824  -1.3848   0.6651   1.0399   1.3588   1.6531
     1.7777   2.0429   3.1820   3.6393   4.1281   4.8734

          k = 0.3000 0.5196 0.0000 ( 12860 PWs)   bands (ev):

   -59.5546 -33.8176 -33.7364 -33.6673 -11.2604 -10.7995  -4.4286  -3.9844
    -3.2892  -2.9931  -2.2491  -1.4799   0.7810   1.1532   1.2693   1.5865
     1.8200   2.0144   3.0385   3.4788   4.1764   5.4536

     the Fermi energy is     1.9419 ev

!    total energy              =    -658.52046560 Ry
     total all-electron energy =    -12481.694356 Ry
     estimated scf accuracy    <       0.00000006 Ry
     smearing contrib. (-TS)   =      -0.01349072 Ry
     internal energy E=F+TS    =    -658.50697488 Ry

     The total energy is F=E-TS. E is the sum of the following terms:
     one-electron contribution =   -1235.77747045 Ry
     hartree contribution      =     631.78217389 Ry
     xc contribution           =     -62.19120133 Ry
     ewald contribution        =     413.80409233 Ry
     one-center paw contrib.   =    -406.12456932 Ry

     convergence has been achieved in  10 iterations

     negative rho (up, down):  4.516E-04 0.000E+00

     Forces acting on atoms (cartesian axes, Ry/au):

     atom    1 type  1   force =     0.00000000    0.00000000    0.03641448
     atom    2 type  2   force =     0.00000000    0.00000000    0.01800060
     atom    3 type  2   force =     0.00000000    0.00000000   -0.00276754
     atom    4 type  3   force =     0.00000000    0.00000000   -0.05164754
     The non-local contrib.  to forces
     atom    1 type  1   force =     0.00000000    0.00000000   -0.04296995
     atom    2 type  2   force =     0.00000000    0.00000000    0.00948893
     atom    3 type  2   force =     0.00000000    0.00000000    0.26274800
     atom    4 type  3   force =     0.00000000    0.00000000    0.05219221
     The ionic contribution  to forces
     atom    1 type  1   force =     0.00000000   -0.00000000  -31.35295231
     atom    2 type  2   force =    -0.00000000    0.00000000   18.61332581
     atom    3 type  2   force =    -0.00000000    0.00000000  -44.68252865
     atom    4 type  3   force =     0.00000000   -0.00000000   57.42215515
     The local contribution  to forces
     atom    1 type  1   force =     0.00000000   -0.00000000   31.43020300
     atom    2 type  2   force =    -0.00000000    0.00000000  -18.60204596
     atom    3 type  2   force =    -0.00000000    0.00000000   44.41918093
     atom    4 type  3   force =     0.00000000   -0.00000000  -57.51779988
     The core correction contribution to forces
     atom    1 type  1   force =    -0.00000000    0.00000000    0.00313796
     atom    2 type  2   force =     0.00000000   -0.00000000   -0.00286056
     atom    3 type  2   force =     0.00000000   -0.00000000   -0.00193675
     atom    4 type  3   force =     0.00000000   -0.00000000   -0.00831428
     The Hubbard contrib.    to forces
     atom    1 type  1   force =     0.00000000    0.00000000    0.00000000
     atom    2 type  2   force =     0.00000000    0.00000000    0.00000000
     atom    3 type  2   force =     0.00000000    0.00000000    0.00000000
     atom    4 type  3   force =     0.00000000    0.00000000    0.00000000
     The SCF correction term to forces
     atom    1 type  1   force =    -0.00000000   -0.00000000   -0.00094845
     atom    2 type  2   force =     0.00000000    0.00000000    0.00014814
     atom    3 type  2   force =     0.00000000    0.00000000   -0.00017530
     atom    4 type  3   force =     0.00000000    0.00000000    0.00017503

     Total force =     0.065766     Total SCF correction =     0.000991


     Computing stress (Cartesian axis) and pressure


     negative rho (up, down):  4.516E-04 0.000E+00
          total   stress  (Ry/bohr**3)                   (kbar)     P=      -39.10
  -0.00026710   0.00000000   0.00000000          -39.29        0.00        0.00
   0.00000000  -0.00026710   0.00000000            0.00      -39.29        0.00
   0.00000000   0.00000000  -0.00026317            0.00        0.00      -38.71

     Energy error            =      5.7E-03 Ry
     Gradient error          =      5.2E-02 Ry/Bohr

     number of scf cycles    =   4
     number of bfgs steps    =   3

     energy             old  =    -658.5147426521 Ry
     energy             new  =    -658.5204656002 Ry

     CASE: energy            _new < energy            _old

     new trust radius        =       0.1280858367 bohr
     new conv_thr            =       0.0000005165 Ry


ATOMIC_POSITIONS (crystal)
Mo            0.0000000000        0.0000000000        0.4987256910
S             0.6666666667        0.3333333333        0.5958177470
S             0.6666666667        0.3333333333        0.4144824202
Co            0.3333333333        0.6666666667        0.6886102055



     Writing config-only to output data dir ./tmp/relax.save/
     NEW-OLD atomic charge density approx. for the potential

     negative rho (up, down):  4.434E-04 0.000E+00

     total cpu time spent up to now is       46.9 secs

     Self-consistent Calculation

     iteration #  1     ecut=    80.00 Ry     beta= 0.70
     Davidson diagonalization with overlap
     ethr =  1.00E-06,  avg # of iterations = 13.4

     negative rho (up, down):  4.565E-04 0.000E+00

     total cpu time spent up to now is       48.7 secs

     total energy              =    -658.52306652 Ry
     estimated scf accuracy    <       0.00896859 Ry

     iteration #  2     ecut=    80.00 Ry     beta= 0.70
     Davidson diagonalization with overlap
     ethr =  2.56E-05,  avg # of iterations =  5.6

     negative rho (up, down):  4.524E-04 0.000E+00

     total cpu time spent up to now is       49.7 secs

     total energy              =    -658.46995850 Ry
     estimated scf accuracy    <       2.08161752 Ry

     iteration #  3     ecut=    80.00 Ry     beta= 0.70
     Davidson diagonalization with overlap
     ethr =  2.56E-05,  avg # of iterations =  6.4

     negative rho (up, down):  4.398E-04 0.000E+00

     total cpu time spent up to now is       50.6 secs

     total energy              =    -658.51958190 Ry
     estimated scf accuracy    <       0.12624106 Ry

     iteration #  4     ecut=    80.00 Ry     beta= 0.70
     Davidson diagonalization with overlap
     ethr =  2.56E-05,  avg # of iterations =  4.0

     negative rho (up, down):  4.423E-04 0.000E+00

     total cpu time spent up to now is       51.4 secs

     total energy              =    -658.52838545 Ry
     estimated scf accuracy    <       0.00355932 Ry

     iteration #  5     ecut=    80.00 Ry     beta= 0.70
     Davidson diagonalization with overlap
     ethr =  1.02E-05,  avg # of iterations =  2.4

     negative rho (up, down):  4.455E-04 0.000E+00

     total cpu time spent up to now is       52.2 secs

     total energy              =    -658.52866778 Ry
     estimated scf accuracy    <       0.00169859 Ry

     iteration #  6     ecut=    80.00 Ry     beta= 0.70
     Davidson diagonalization with overlap
     ethr =  4.85E-06,  avg # of iterations =  1.2

     negative rho (up, down):  4.468E-04 0.000E+00

     total cpu time spent up to now is       52.9 secs

     total energy              =    -658.52876980 Ry
     estimated scf accuracy    <       0.00060376 Ry

     iteration #  7     ecut=    80.00 Ry     beta= 0.70
     Davidson diagonalization with overlap
     ethr =  1.73E-06,  avg # of iterations =  1.8

     negative rho (up, down):  4.471E-04 0.000E+00

     total cpu time spent up to now is       53.7 secs

     total energy              =    -658.52878236 Ry
     estimated scf accuracy    <       0.00022646 Ry

     iteration #  8     ecut=    80.00 Ry     beta= 0.70
     Davidson diagonalization with overlap
     ethr =  6.47E-07,  avg # of iterations =  1.1

     negative rho (up, down):  4.471E-04 0.000E+00

     total cpu time spent up to now is       54.4 secs

     total energy              =    -658.52879173 Ry
     estimated scf accuracy    <       0.00008480 Ry

     iteration #  9     ecut=    80.00 Ry     beta= 0.70
     Davidson diagonalization with overlap
     ethr =  2.42E-07,  avg # of iterations =  1.4

     negative rho (up, down):  4.470E-04 0.000E+00

     total cpu time spent up to now is       55.1 secs

     total energy              =    -658.52879253 Ry
     estimated scf accuracy    <       0.00002736 Ry

     iteration # 10     ecut=    80.00 Ry     beta= 0.70
     Davidson diagonalization with overlap
     ethr =  7.82E-08,  avg # of iterations =  1.8

     negative rho (up, down):  4.470E-04 0.000E+00

     total cpu time spent up to now is       55.8 secs

     total energy              =    -658.52879387 Ry
     estimated scf accuracy    <       0.00000067 Ry

     iteration # 11     ecut=    80.00 Ry     beta= 0.70
     Davidson diagonalization with overlap
     ethr =  1.90E-09,  avg # of iterations =  6.5

     negative rho (up, down):  4.472E-04 0.000E+00

     total cpu time spent up to now is       56.7 secs

     End of self-consistent calculation

          k = 0.0000 0.0000 0.0000 ( 12991 PWs)   bands (ev):

   -59.5249 -33.6797 -33.4415 -33.4415 -13.2964 -12.0827  -5.0515  -2.5408
    -1.1815  -1.1815  -0.2638  -0.2638   0.5956   1.1413   1.1413   1.2616
     1.5151   1.5151   1.7120   3.5679   3.5679   4.3428

          k = 0.0000 0.1155 0.0000 ( 12953 PWs)   bands (ev):

   -59.5212 -33.6726 -33.4784 -33.4500 -13.1568 -11.9964  -4.8956  -2.5263
    -1.5191  -1.0660  -0.6864  -0.4772   0.5722   1.0431   1.1774   1.3169
     1.3895   1.5314   2.1111   3.2628   3.5753   4.0959

          k = 0.0000 0.2309 0.0000 ( 12929 PWs)   bands (ev):

   -59.5114 -33.6544 -33.5740 -33.4721 -12.7672 -11.7559  -4.5123  -2.7500
    -2.2620  -1.3429  -1.0116  -0.7255   0.5397   0.7349   1.1975   1.3292
     1.4768   1.5690   2.3283   3.2637   3.4726   4.0188

          k = 0.0000 0.3464 0.0000 ( 12915 PWs)   bands (ev):

   -59.4994 -33.6916 -33.6303 -33.4993 -12.2216 -11.4198  -4.2371  -3.5707
    -2.9276  -1.6148  -1.4672  -0.4885   0.2900   0.7750   1.1480   1.5416
     1.5773   1.6962   2.3043   3.3891   3.7940   4.5724

          k = 0.0000 0.4619 0.0000 ( 12872 PWs)   bands (ev):

   -59.4896 -33.7840 -33.6120 -33.5212 -11.7064 -11.0964  -4.7220  -4.0950
    -3.1730  -1.8023  -1.7951  -0.3820   0.2324   0.8275   1.3706   1.7038
     1.7902   1.8931   2.6832   3.4909   4.1664   5.0771

          k = 0.0000-0.5774 0.0000 ( 12854 PWs)   bands (ev):

   -59.4859 -33.8190 -33.6049 -33.5295 -11.4876 -10.9504  -5.0807  -4.2643
    -3.2002  -1.9106  -1.8962  -0.3648   0.2939   0.8324   1.4937   1.8074
     1.8911   1.9530   3.2009   3.6131   4.0431   5.0763

          k = 0.1000 0.1732 0.0000 ( 12937 PWs)   bands (ev):

   -59.5144 -33.6600 -33.5420 -33.4680 -12.8919 -11.8326  -4.6209  -2.6104
    -2.0228  -1.2672  -0.8827  -0.8210   0.5213   0.8737   1.2728   1.2943
     1.3879   1.5868   2.4473   2.9592   3.5792   3.8965

          k = 0.1000 0.2887 0.0000 ( 12944 PWs)   bands (ev):

   -59.5036 -33.6466 -33.6342 -33.4991 -12.4213 -11.5415  -4.2438  -3.1540
    -2.6690  -1.8747  -1.1359  -0.7402   0.4294   0.6943   1.1622   1.4459
     1.5929   1.6451   2.3922   3.0969   3.8042   4.0239

          k = 0.1000 0.4041 0.0000 ( 12898 PWs)   bands (ev):

   -59.4926 -33.7400 -33.6178 -33.5305 -11.8796 -11.2027  -4.3260  -3.8303
    -3.1682  -2.1150  -1.4409  -0.7936   0.3132   0.8661   1.2201   1.6075
     1.6895   1.8727   2.4351   3.4913   4.1298   4.5300

          k = 0.1000 0.5196 0.0000 ( 12858 PWs)   bands (ev):

   -59.4859 -33.7996 -33.6050 -33.5498 -11.4971 -10.9510  -4.8740  -4.1554
    -3.2457  -2.1336  -1.7938  -0.8551   0.4386   0.8959   1.3960   1.7446
     1.8245   2.0022   2.9434   3.7752   4.2513   4.6638

          k = 0.2000 0.3464 0.0000 ( 12917 PWs)   bands (ev):

   -59.4938 -33.7109 -33.6199 -33.5467 -11.9461 -11.2406  -4.1028  -3.5258
    -3.2394  -2.3385  -1.4901  -0.9103   0.2875   0.8805   1.1348   1.5768
     1.6629   1.9178   2.3660   3.4849   4.0250   4.2330

          k = 0.2000 0.4619 0.0000 ( 12869 PWs)   bands (ev):

   -59.4859 -33.7586 -33.6050 -33.5922 -11.5126 -10.9515  -4.4419  -3.8899
    -3.3811  -2.5116  -1.9243  -1.2165   0.4751   1.0074   1.2216   1.6121
     1.7895   2.0670   2.6632   3.8291   4.2142   4.6123

          k = 0.2000 0.5774 0.0000 ( 12850 PWs)   bands (ev):

   -59.4828 -33.7753 -33.6112 -33.5991 -11.3338 -10.8232  -4.6589  -4.0778
    -3.3826  -2.4373  -2.1776  -1.3881   0.6577   1.0214   1.3014   1.6824
     1.7987   2.0849   3.1663   3.6169   4.1282   4.9281

          k = 0.3000 0.5196 0.0000 ( 12860 PWs)   bands (ev):

   -59.4817 -33.7405 -33.6603 -33.5970 -11.2730 -10.7726  -4.4159  -3.9854
    -3.3423  -3.0436  -2.2626  -1.4729   0.7829   1.0890   1.2103   1.6319
     1.8260   2.0847   3.0499   3.4929   4.1241   5.5137

     the Fermi energy is     1.9471 ev

!    total energy              =    -658.52879452 Ry
     total all-electron energy =    -12481.702685 Ry
     estimated scf accuracy    <       0.00000006 Ry
     smearing contrib. (-TS)   =      -0.01286536 Ry
     internal energy E=F+TS    =    -658.51592916 Ry

     The total energy is F=E-TS. E is the sum of the following terms:
     one-electron contribution =   -1249.15902254 Ry
     hartree contribution      =     638.50260160 Ry
     xc contribution           =     -62.21355562 Ry
     ewald contribution        =     420.47726810 Ry
     one-center paw contrib.   =    -406.12322070 Ry

     convergence has been achieved in  11 iterations

     negative rho (up, down):  4.472E-04 0.000E+00

     Forces acting on atoms (cartesian axes, Ry/au):

     atom    1 type  1   force =     0.00000000    0.00000000    0.05100772
     atom    2 type  2   force =     0.00000000    0.00000000    0.01020724
     atom    3 type  2   force =     0.00000000    0.00000000   -0.00560195
     atom    4 type  3   force =     0.00000000    0.00000000   -0.05561302
     The non-local contrib.  to forces
     atom    1 type  1   force =     0.00000000   -0.00000000   -0.05571916
     atom    2 type  2   force =     0.00000000   -0.00000000    0.02103384
     atom    3 type  2   force =     0.00000000    0.00000000    0.25920698
     atom    4 type  3   force =     0.00000000    0.00000000    0.07816550
     The ionic contribution  to forces
     atom    1 type  1   force =     0.00000000   -0.00000000  -31.75256657
     atom    2 type  2   force =    -0.00000000    0.00000000   18.53600628
     atom    3 type  2   force =    -0.00000000    0.00000000  -44.78520988
     atom    4 type  3   force =     0.00000000   -0.00000000   58.00177018
     The local contribution  to forces
     atom    1 type  1   force =    -0.00000000   -0.00000000   31.85473707
     atom    2 type  2   force =    -0.00000000    0.00000000  -18.54441894
     atom    3 type  2   force =    -0.00000000    0.00000000   44.52192664
     atom    4 type  3   force =     0.00000000   -0.00000000  -58.12474514
     The core correction contribution to forces
     atom    1 type  1   force =     0.00000000   -0.00000000    0.00400993
     atom    2 type  2   force =     0.00000000   -0.00000000   -0.00247933
     atom    3 type  2   force =     0.00000000   -0.00000000   -0.00178532
     atom    4 type  3   force =     0.00000000   -0.00000000   -0.01108635
     The Hubbard contrib.    to forces
     atom    1 type  1   force =     0.00000000    0.00000000    0.00000000
     atom    2 type  2   force =     0.00000000    0.00000000    0.00000000
     atom    3 type  2   force =     0.00000000    0.00000000    0.00000000
     atom    4 type  3   force =     0.00000000    0.00000000    0.00000000
     The SCF correction term to forces
     atom    1 type  1   force =    -0.00000000   -0.00000000    0.00056332
     atom    2 type  2   force =     0.00000000    0.00000000    0.00008226
     atom    3 type  2   force =     0.00000000    0.00000000    0.00027650
     atom    4 type  3   force =    -0.00000000   -0.00000000    0.00029966

     Total force =     0.076356     Total SCF correction =     0.000700


     Computing stress (Cartesian axis) and pressure


     negative rho (up, down):  4.472E-04 0.000E+00
          total   stress  (Ry/bohr**3)                   (kbar)     P=      -39.73
  -0.00025784   0.00000000  -0.00000000          -37.93        0.00       -0.00
   0.00000000  -0.00025784  -0.00000000            0.00      -37.93       -0.00
  -0.00000000  -0.00000000  -0.00029448           -0.00       -0.00      -43.32

     Energy error            =      8.3E-03 Ry
     Gradient error          =      5.6E-02 Ry/Bohr

     number of scf cycles    =   5
     number of bfgs steps    =   4

     energy             old  =    -658.5204656002 Ry
     energy             new  =    -658.5287945223 Ry

     CASE: energy            _new < energy            _old

     new trust radius        =       0.1921287550 bohr
     new conv_thr            =       0.0000005561 Ry


ATOMIC_POSITIONS (crystal)
Mo            0.0000000000        0.0000000000        0.4990054274
S             0.6666666667        0.3333333333        0.6000933626
S             0.6666666667        0.3333333333        0.4155164118
Co            0.3333333333        0.6666666667        0.6830208620



     Writing config-only to output data dir ./tmp/relax.save/
     NEW-OLD atomic charge density approx. for the potential

     negative rho (up, down):  4.370E-04 0.000E+00

     total cpu time spent up to now is       59.4 secs

     Self-consistent Calculation

     iteration #  1     ecut=    80.00 Ry     beta= 0.70
     Davidson diagonalization with overlap
     c_bands:  2 eigenvalues not converged
     c_bands:  2 eigenvalues not converged
     c_bands:  2 eigenvalues not converged
     ethr =  1.00E-06,  avg # of iterations = 16.8

     negative rho (up, down):  4.616E-04 0.000E+00

     total cpu time spent up to now is       61.5 secs

     total energy              =    -658.50218830 Ry
     estimated scf accuracy    <       0.04951850 Ry

     iteration #  2     ecut=    80.00 Ry     beta= 0.70
     Davidson diagonalization with overlap
     ethr =  1.41E-04,  avg # of iterations =  8.7

     negative rho (up, down):  4.526E-04 0.000E+00

     total cpu time spent up to now is       62.5 secs

     total energy              =    -657.48018325 Ry
     estimated scf accuracy    <      70.57739987 Ry

     iteration #  3     ecut=    80.00 Ry     beta= 0.70
     Davidson diagonalization with overlap
     ethr =  1.41E-04,  avg # of iterations =  8.4

     negative rho (up, down):  4.216E-04 0.000E+00

     total cpu time spent up to now is       63.6 secs

     total energy              =    -658.51431194 Ry
     estimated scf accuracy    <       0.26861931 Ry

     iteration #  4     ecut=    80.00 Ry     beta= 0.70
     Davidson diagonalization with overlap
     ethr =  1.41E-04,  avg # of iterations =  2.6

     negative rho (up, down):  4.315E-04 0.000E+00

     total cpu time spent up to now is       64.4 secs

     total energy              =    -658.54041829 Ry
     estimated scf accuracy    <       0.00643834 Ry

     iteration #  5     ecut=    80.00 Ry     beta= 0.70
     Davidson diagonalization with overlap
     ethr =  1.84E-05,  avg # of iterations =  5.0

     negative rho (up, down):  4.379E-04 0.000E+00

     total cpu time spent up to now is       65.2 secs

     total energy              =    -658.54071187 Ry
     estimated scf accuracy    <       0.00597240 Ry

     iteration #  6     ecut=    80.00 Ry     beta= 0.70
     Davidson diagonalization with overlap
     ethr =  1.71E-05,  avg # of iterations =  2.1

     negative rho (up, down):  4.432E-04 0.000E+00

     total cpu time spent up to now is       66.0 secs

     total energy              =    -658.54113014 Ry
     estimated scf accuracy    <       0.00639004 Ry

     iteration #  7     ecut=    80.00 Ry     beta= 0.70
     Davidson diagonalization with overlap
     ethr =  1.71E-05,  avg # of iterations =  1.1

     negative rho (up, down):  4.453E-04 0.000E+00

     total cpu time spent up to now is       66.7 secs

     total energy              =    -658.54126410 Ry
     estimated scf accuracy    <       0.00268298 Ry

     iteration #  8     ecut=    80.00 Ry     beta= 0.70
     Davidson diagonalization with overlap
     ethr =  7.67E-06,  avg # of iterations =  1.6

     negative rho (up, down):  4.452E-04 0.000E+00

     total cpu time spent up to now is       67.4 secs

     total energy              =    -658.54128109 Ry
     estimated scf accuracy    <       0.00124128 Ry

     iteration #  9     ecut=    80.00 Ry     beta= 0.70
     Davidson diagonalization with overlap
     ethr =  3.55E-06,  avg # of iterations =  1.0

     negative rho (up, down):  4.447E-04 0.000E+00

     total cpu time spent up to now is       68.1 secs

     total energy              =    -658.54127289 Ry
     estimated scf accuracy    <       0.00064416 Ry

     iteration # 10     ecut=    80.00 Ry     beta= 0.70
     Davidson diagonalization with overlap
     ethr =  1.84E-06,  avg # of iterations =  1.1

     negative rho (up, down):  4.443E-04 0.000E+00

     total cpu time spent up to now is       68.8 secs

     total energy              =    -658.54126639 Ry
     estimated scf accuracy    <       0.00025261 Ry

     iteration # 11     ecut=    80.00 Ry     beta= 0.70
     Davidson diagonalization with overlap
     ethr =  7.22E-07,  avg # of iterations =  1.0

     negative rho (up, down):  4.440E-04 0.000E+00

     total cpu time spent up to now is       69.5 secs

     total energy              =    -658.54126951 Ry
     estimated scf accuracy    <       0.00002101 Ry

     iteration # 12     ecut=    80.00 Ry     beta= 0.70
     Davidson diagonalization with overlap
     ethr =  6.00E-08,  avg # of iterations =  2.8

     negative rho (up, down):  4.444E-04 0.000E+00

     total cpu time spent up to now is       70.3 secs

     End of self-consistent calculation

          k = 0.0000 0.0000 0.0000 ( 12991 PWs)   bands (ev):

   -59.4232 -33.5859 -33.3385 -33.3385 -13.3866 -12.1088  -5.0490  -2.6770
    -1.1354  -1.1354  -0.4345  -0.4345   0.8368   1.1250   1.1250   1.3506
     1.3802   1.3802   1.7734   3.6441   3.6441   4.4696

          k = 0.0000 0.1155 0.0000 ( 12953 PWs)   bands (ev):

   -59.4195 -33.5790 -33.3753 -33.3470 -13.2506 -12.0171  -4.8962  -2.6415
    -1.4856  -1.0366  -0.8525  -0.6097   0.6505   1.1172   1.1232   1.2712
     1.4202   1.4294   2.1892   3.3291   3.6410   4.2325

          k = 0.0000 0.2309 0.0000 ( 12929 PWs)   bands (ev):

   -59.4097 -33.5612 -33.4703 -33.3691 -12.8702 -11.7621  -4.5161  -2.8097
    -2.3053  -1.5045  -1.0529  -0.7940   0.5386   0.8286   1.1265   1.2670
     1.4926   1.5486   2.4368   3.3524   3.5422   4.1547

          k = 0.0000 0.3464 0.0000 ( 12915 PWs)   bands (ev):

   -59.3977 -33.5883 -33.5367 -33.3962 -12.3351 -11.4076  -4.2068  -3.7216
    -2.9706  -1.7151  -1.4911  -0.6372   0.3696   0.7838   1.0309   1.5499
     1.6110   1.6847   2.3729   3.4589   3.9339   4.6968

          k = 0.0000 0.4619 0.0000 ( 12872 PWs)   bands (ev):

   -59.3880 -33.6799 -33.5192 -33.4180 -11.8248 -11.0705  -4.8036  -4.1709
    -3.1787  -1.8897  -1.8040  -0.5972   0.2822   0.8544   1.2849   1.7352
     1.7645   1.9667   2.6735   3.5649   4.2505   5.3534

          k = 0.0000-0.5774 0.0000 ( 12854 PWs)   bands (ev):

   -59.3842 -33.7147 -33.5122 -33.4264 -11.6047 -10.9215  -5.1998  -4.3136
    -3.1789  -1.9934  -1.9148  -0.5999   0.3101   0.8684   1.4713   1.8180
     1.8705   2.0447   3.0882   3.7041   4.0633   5.4534

          k = 0.1000 0.1732 0.0000 ( 12937 PWs)   bands (ev):

   -59.4128 -33.5666 -33.4385 -33.3649 -12.9921 -11.8434  -4.6253  -2.6858
    -2.0337  -1.3838  -0.9771  -0.8866   0.5322   0.9294   1.1927   1.2902
     1.3568   1.5866   2.6082   2.9717   3.6605   4.0400

          k = 0.1000 0.2887 0.0000 ( 12944 PWs)   bands (ev):

   -59.4019 -33.5507 -33.5333 -33.3960 -12.5314 -11.5358  -4.2358  -3.2539
    -2.7363  -1.8738  -1.3227  -0.8036   0.4123   0.7540   1.0728   1.4542
     1.5708   1.6780   2.5117   3.1338   3.9370   4.1548

          k = 0.1000 0.4041 0.0000 ( 12898 PWs)   bands (ev):

   -59.3910 -33.6362 -33.5247 -33.4273 -11.9975 -11.1810  -4.3408  -3.9616
    -3.1939  -2.1246  -1.5813  -0.8798   0.3218   0.8688   1.1003   1.6628
     1.7529   1.8444   2.4885   3.5296   4.2788   4.6154

          k = 0.1000 0.5196 0.0000 ( 12858 PWs)   bands (ev):

   -59.3842 -33.6954 -33.5123 -33.4466 -11.6150 -10.9225  -4.9918  -4.1939
    -3.2349  -2.1770  -1.9040  -0.9650   0.4085   0.9214   1.3233   1.7689
     1.8985   2.0292   2.8676   3.8116   4.3010   4.6954

          k = 0.2000 0.3464 0.0000 ( 12917 PWs)   bands (ev):

   -59.3921 -33.6073 -33.5267 -33.4435 -12.0636 -11.2211  -4.0640  -3.7319
    -3.2435  -2.3687  -1.6209  -0.9679   0.2578   0.8611   1.0436   1.6370
     1.7315   1.8799   2.4598   3.4963   4.1509   4.3802

          k = 0.2000 0.4619 0.0000 ( 12869 PWs)   bands (ev):

   -59.3842 -33.6546 -33.5123 -33.4889 -11.6317 -10.9239  -4.5420  -3.8978
    -3.4286  -2.6506  -1.9631  -1.2477   0.4449   0.9613   1.1264   1.6913
     1.8319   2.1419   2.6028   3.8468   4.2614   4.7321

          k = 0.2000 0.5774 0.0000 ( 12850 PWs)   bands (ev):

   -59.3812 -33.6711 -33.5088 -33.5056 -11.4506 -10.7949  -4.7901  -4.0662
    -3.4061  -2.6539  -2.1638  -1.4005   0.6028   1.0157   1.2054   1.7636
     1.8102   2.1741   3.1003   3.5930   4.1304   5.0085

          k = 0.3000 0.5196 0.0000 ( 12860 PWs)   bands (ev):

   -59.3801 -33.6363 -33.5569 -33.5044 -11.3895 -10.7449  -4.4880  -4.0355
    -3.4297  -3.1570  -2.2893  -1.4638   0.7652   0.9872   1.1290   1.7299
     1.8064   2.2049   3.0391   3.5196   4.0412   5.6028

     the Fermi energy is     1.9838 ev

!    total energy              =    -658.54127075 Ry
     total all-electron energy =    -12481.715162 Ry
     estimated scf accuracy    <       0.00000018 Ry
     smearing contrib. (-TS)   =      -0.01173685 Ry
     internal energy E=F+TS    =    -658.52953391 Ry

     The total energy is F=E-TS. E is the sum of the following terms:
     one-electron contribution =   -1269.93755472 Ry
     hartree contribution      =     648.92032767 Ry
     xc contribution           =     -62.26363777 Ry
     ewald contribution        =     430.87463291 Ry
     one-center paw contrib.   =    -406.12330200 Ry

     convergence has been achieved in  12 iterations

     negative rho (up, down):  4.444E-04 0.000E+00

     Forces acting on atoms (cartesian axes, Ry/au):

     atom    1 type  1   force =     0.00000000    0.00000000    0.06067407
     atom    2 type  2   force =     0.00000000    0.00000000    0.00619424
     atom    3 type  2   force =     0.00000000    0.00000000   -0.00826760
     atom    4 type  3   force =     0.00000000    0.00000000   -0.05860072
     The non-local contrib.  to forces
     atom    1 type  1   force =     0.00000000    0.00000000   -0.07372700
     atom    2 type  2   force =     0.00000000    0.00000000    0.02345066
     atom    3 type  2   force =     0.00000000    0.00000000    0.25569555
     atom    4 type  3   force =     0.00000000    0.00000000    0.10981573
     The ionic contribution  to forces
     atom    1 type  1   force =     0.00000000   -0.00000000  -32.32880323
     atom    2 type  2   force =    -0.00000000    0.00000000   18.54358346
     atom    3 type  2   force =    -0.00000000    0.00000000  -44.94722676
     atom    4 type  3   force =     0.00000000   -0.00000000   58.73244652
     The local contribution  to forces
     atom    1 type  1   force =     0.00000000   -0.00000000   32.45899582
     atom    2 type  2   force =    -0.00000000    0.00000000  -18.55973755
     atom    3 type  2   force =    -0.00000000    0.00000000   44.68559468
     atom    4 type  3   force =     0.00000000   -0.00000000  -58.88450283
     The core correction contribution to forces
     atom    1 type  1   force =     0.00000000   -0.00000000    0.00533068
     atom    2 type  2   force =     0.00000000   -0.00000000   -0.00141995
     atom    3 type  2   force =     0.00000000   -0.00000000   -0.00162561
     atom    4 type  3   force =     0.00000000   -0.00000000   -0.01690672
     The Hubbard contrib.    to forces
     atom    1 type  1   force =     0.00000000    0.00000000    0.00000000
     atom    2 type  2   force =     0.00000000    0.00000000    0.00000000
     atom    3 type  2   force =     0.00000000    0.00000000    0.00000000
     atom    4 type  3   force =     0.00000000    0.00000000    0.00000000
     The SCF correction term to forces
     atom    1 type  1   force =     0.00000000    0.00000000   -0.00107855
     atom    2 type  2   force =     0.00000000    0.00000000    0.00036126
     atom    3 type  2   force =    -0.00000000   -0.00000000   -0.00066181
     atom    4 type  3   force =    -0.00000000   -0.00000000    0.00059022

     Total force =     0.084983     Total SCF correction =     0.001442


     Computing stress (Cartesian axis) and pressure


     negative rho (up, down):  4.444E-04 0.000E+00
          total   stress  (Ry/bohr**3)                   (kbar)     P=      -37.58
  -0.00022794   0.00000000  -0.00000000          -33.53        0.00       -0.00
   0.00000000  -0.00022794  -0.00000000            0.00      -33.53       -0.00
   0.00000000  -0.00000000  -0.00031048            0.00       -0.00      -45.67

     Energy error            =      1.2E-02 Ry
     Gradient error          =      6.1E-02 Ry/Bohr

     number of scf cycles    =   6
     number of bfgs steps    =   5

     energy             old  =    -658.5287945223 Ry
     energy             new  =    -658.5412707541 Ry

     CASE: energy            _new < energy            _old


     WARNING: bfgs curvature condition failed, Theta= 0.828
     new trust radius        =       0.2881931326 bohr
     new conv_thr            =       0.0000006067 Ry


ATOMIC_POSITIONS (crystal)
Mo            0.0000000000        0.0000000000        0.4994525173
S             0.6666666667        0.3333333333        0.6064911638
S             0.6666666667        0.3333333333        0.4170555359
Co            0.3333333333        0.6666666667        0.6746368467



     Writing config-only to output data dir ./tmp/relax.save/
     NEW-OLD atomic charge density approx. for the potential

     negative rho (up, down):  4.666E-04 0.000E+00

     total cpu time spent up to now is       72.9 secs

     Self-consistent Calculation

     iteration #  1     ecut=    80.00 Ry     beta= 0.70
     Davidson diagonalization with overlap
     c_bands:  4 eigenvalues not converged
     c_bands:  1 eigenvalues not converged
     c_bands:  3 eigenvalues not converged
     ethr =  1.00E-06,  avg # of iterations = 21.1

     negative rho (up, down):  4.962E-04 0.000E+00

     total cpu time spent up to now is       75.6 secs

     total energy              =    -658.40376508 Ry
     estimated scf accuracy    <       0.18510184 Ry

     iteration #  2     ecut=    80.00 Ry     beta= 0.70
     Davidson diagonalization with overlap
     ethr =  5.29E-04,  avg # of iterations = 10.6

     negative rho (up, down):  2.938E-04 0.000E+00

     total cpu time spent up to now is       76.8 secs

     total energy              =    -656.71507443 Ry
     estimated scf accuracy    <     114.10223552 Ry

     iteration #  3     ecut=    80.00 Ry     beta= 0.70
     Davidson diagonalization with overlap
     ethr =  5.29E-04,  avg # of iterations =  9.5

     negative rho (up, down):  2.668E-04 0.000E+00

     total cpu time spent up to now is       78.0 secs

     total energy              =    -658.49693405 Ry
     estimated scf accuracy    <       0.69221210 Ry

     iteration #  4     ecut=    80.00 Ry     beta= 0.70
     Davidson diagonalization with overlap
     ethr =  5.29E-04,  avg # of iterations =  2.3

     negative rho (up, down):  5.011E-04 0.000E+00

     total cpu time spent up to now is       78.8 secs

     total energy              =    -658.55735374 Ry
     estimated scf accuracy    <       0.04384168 Ry

     iteration #  5     ecut=    80.00 Ry     beta= 0.70
     Davidson diagonalization with overlap
     ethr =  1.25E-04,  avg # of iterations =  3.6

     negative rho (up, down):  5.627E-04 0.000E+00

     total cpu time spent up to now is       79.5 secs

     total energy              =    -658.55782134 Ry
     estimated scf accuracy    <       0.01869034 Ry

     iteration #  6     ecut=    80.00 Ry     beta= 0.70
     Davidson diagonalization with overlap
     ethr =  5.34E-05,  avg # of iterations =  4.4

     negative rho (up, down):  6.551E-04 0.000E+00

     total cpu time spent up to now is       80.4 secs

     total energy              =    -658.55983452 Ry
     estimated scf accuracy    <       0.00807036 Ry

     iteration #  7     ecut=    80.00 Ry     beta= 0.70
     Davidson diagonalization with overlap
     ethr =  2.31E-05,  avg # of iterations =  2.9

     negative rho (up, down):  6.163E-04 0.000E+00

     total cpu time spent up to now is       81.1 secs

     total energy              =    -658.56006030 Ry
     estimated scf accuracy    <       0.00192597 Ry

     iteration #  8     ecut=    80.00 Ry     beta= 0.70
     Davidson diagonalization with overlap
     ethr =  5.50E-06,  avg # of iterations =  2.8

     negative rho (up, down):  5.497E-04 0.000E+00

     total cpu time spent up to now is       81.9 secs

     total energy              =    -658.56016770 Ry
     estimated scf accuracy    <       0.00056935 Ry

     iteration #  9     ecut=    80.00 Ry     beta= 0.70
     Davidson diagonalization with overlap
     ethr =  1.63E-06,  avg # of iterations =  2.2

     negative rho (up, down):  4.922E-04 0.000E+00

     total cpu time spent up to now is       82.7 secs

     total energy              =    -658.56018286 Ry
     estimated scf accuracy    <       0.00007199 Ry

     iteration # 10     ecut=    80.00 Ry     beta= 0.70
     Davidson diagonalization with overlap
     ethr =  2.06E-07,  avg # of iterations =  3.9

     negative rho (up, down):  4.772E-04 0.000E+00

     total cpu time spent up to now is       83.5 secs

     total energy              =    -658.56019160 Ry
     estimated scf accuracy    <       0.00000453 Ry

     iteration # 11     ecut=    80.00 Ry     beta= 0.70
     Davidson diagonalization with overlap
     ethr =  1.30E-08,  avg # of iterations =  4.1

     negative rho (up, down):  4.725E-04 0.000E+00

     total cpu time spent up to now is       84.3 secs

     End of self-consistent calculation

          k = 0.0000 0.0000 0.0000 ( 12991 PWs)   bands (ev):

   -59.3175 -33.5002 -33.2334 -33.2334 -13.6695 -12.1676  -5.1307  -2.9059
    -1.4182  -1.4182  -0.9013  -0.9013   1.0945   1.0945   1.0956   1.2240
     1.2240   1.3558   2.2347   3.8990   3.8990   4.6005

          k = 0.0000 0.1155 0.0000 ( 12953 PWs)   bands (ev):

   -59.3138 -33.4935 -33.2701 -33.2418 -13.5392 -12.0695  -4.9830  -2.8449
    -1.8237  -1.4297  -1.1946  -0.9166   0.7436   0.9978   1.0291   1.3002
     1.3231   1.4666   2.5691   3.5533   3.8667   4.3741

          k = 0.0000 0.2309 0.0000 ( 12929 PWs)   bands (ev):

   -59.3041 -33.4761 -33.3649 -33.2639 -13.1740 -11.7982  -4.6095  -3.0260
    -2.6365  -1.6880  -1.5809  -0.9086   0.4679   0.8063   1.0876   1.0933
     1.4577   1.6523   2.6284   3.6361   3.7169   4.3137

          k = 0.0000 0.3464 0.0000 ( 12915 PWs)   bands (ev):

   -59.2921 -33.4850 -33.4498 -33.2911 -12.6584 -11.4249  -4.2714  -4.1010
    -3.0871  -1.8639  -1.8523  -0.9059   0.3796   0.6516   0.9131   1.2990
     1.7452   1.8272   2.4138   3.5688   4.1394   4.9081

          k = 0.0000 0.4619 0.0000 ( 12872 PWs)   bands (ev):

   -59.2823 -33.5749 -33.4343 -33.3130 -12.1634 -11.0767  -5.1193  -4.2564
    -3.2504  -2.1022  -2.0266  -0.9434   0.2827   0.8809   1.0063   1.5167
     1.7945   2.2069   2.6064   3.6284   4.2707   5.0711

          k = 0.0000-0.5774 0.0000 ( 12854 PWs)   bands (ev):

   -59.2786 -33.6096 -33.4276 -33.3213 -11.9474 -10.9267  -5.5176  -4.3772
    -3.2214  -2.1915  -2.1452  -0.9661   0.2780   0.9280   1.2685   1.6243
     1.7527   2.3056   2.9231   3.7833   4.0087   4.9894

          k = 0.1000 0.1732 0.0000 ( 12937 PWs)   bands (ev):

   -59.3071 -33.4814 -33.3332 -33.2598 -13.2912 -11.8845  -4.7186  -2.8605
    -2.4159  -1.5957  -1.5613  -0.9449   0.5630   0.7562   1.1371   1.1551
     1.3797   1.6551   2.9363   3.1394   3.8756   4.1906

          k = 0.1000 0.2887 0.0000 ( 12944 PWs)   bands (ev):

   -59.2962 -33.4640 -33.4297 -33.2909 -12.8479 -11.5595  -4.3206  -3.6055
    -2.9070  -2.0331  -1.7439  -0.9501   0.3160   0.7105   0.9181   1.2477
     1.6235   1.8457   2.6370   3.2608   4.1734   4.3309

          k = 0.1000 0.4041 0.0000 ( 12898 PWs)   bands (ev):

   -59.2853 -33.5314 -33.4395 -33.3222 -12.3318 -11.1902  -4.6353  -4.0984
    -3.2737  -2.3701  -1.8318  -1.0563   0.2470   0.7807   0.8903   1.4912
     1.8102   1.9781   2.5516   3.5455   4.4290   4.7136

          k = 0.1000 0.5196 0.0000 ( 12858 PWs)   bands (ev):

   -59.2786 -33.5903 -33.4276 -33.3415 -11.9584 -10.9279  -5.3168  -4.2529
    -3.2742  -2.5190  -2.0281  -1.1754   0.2882   0.9608   1.0645   1.6981
     1.7876   2.2112   2.7444   3.8014   4.2975   4.7207

          k = 0.2000 0.3464 0.0000 ( 12917 PWs)   bands (ev):

   -59.2865 -33.5028 -33.4411 -33.3384 -12.3962 -11.2319  -4.2962  -3.9707
    -3.2992  -2.6674  -1.8169  -1.0718   0.0969   0.7742   0.8372   1.4931
     1.7902   1.9638   2.6066   3.4774   4.2710   4.5931

          k = 0.2000 0.4619 0.0000 ( 12869 PWs)   bands (ev):

   -59.2786 -33.5495 -33.4275 -33.3839 -11.9760 -10.9297  -4.8757  -3.9535
    -3.5005  -3.0292  -2.0268  -1.3213   0.2564   0.7913   0.9790   1.7015
     1.7631   2.2202   2.5598   3.8020   4.2733   4.8509

          k = 0.2000 0.5774 0.0000 ( 12850 PWs)   bands (ev):

   -59.2756 -33.5659 -33.4222 -33.4026 -11.7979 -10.8019  -5.1197  -4.1139
    -3.4751  -3.0643  -2.1747  -1.4618   0.3758   0.9418   1.0201   1.6160
     1.8559   2.3046   2.9117   3.5511   4.0970   5.0974

          k = 0.3000 0.5196 0.0000 ( 12860 PWs)   bands (ev):

   -59.2744 -33.5310 -33.4520 -33.4199 -11.7384 -10.7528  -4.7803  -4.2317
    -3.5483  -3.3476  -2.3444  -1.4787   0.5392   0.7848   0.9853   1.5614
     1.8809   2.3218   2.9595   3.5322   3.8808   5.7090

     the Fermi energy is     2.0644 ev

!    total energy              =    -658.56019299 Ry
     total all-electron energy =    -12481.734084 Ry
     estimated scf accuracy    <       0.00000026 Ry
     smearing contrib. (-TS)   =      -0.00800835 Ry
     internal energy E=F+TS    =    -658.55218464 Ry

     The total energy is F=E-TS. E is the sum of the following terms:
     one-electron contribution =   -1301.29072057 Ry
     hartree contribution      =     664.56231175 Ry
     xc contribution           =     -62.37467038 Ry
     ewald contribution        =     446.68056724 Ry
     one-center paw contrib.   =    -406.12967267 Ry

     convergence has been achieved in  11 iterations

     negative rho (up, down):  4.725E-04 0.000E+00

     Forces acting on atoms (cartesian axes, Ry/au):

     atom    1 type  1   force =     0.00000000    0.00000000    0.06531363
     atom    2 type  2   force =     0.00000000    0.00000000    0.00387642
     atom    3 type  2   force =     0.00000000    0.00000000   -0.01280090
     atom    4 type  3   force =     0.00000000    0.00000000   -0.05638914
     The non-local contrib.  to forces
     atom    1 type  1   force =     0.00000000   -0.00000000   -0.10295165
     atom    2 type  2   force =     0.00000000    0.00000000   -0.00774403
     atom    3 type  2   force =     0.00000000    0.00000000    0.25396822
     atom    4 type  3   force =     0.00000000    0.00000000    0.11929807
     The ionic contribution  to forces
     atom    1 type  1   force =     0.00000000   -0.00000000  -33.12987992
     atom    2 type  2   force =    -0.00000000    0.00000000   18.96478549
     atom    3 type  2   force =    -0.00000000    0.00000000  -45.18870930
     atom    4 type  3   force =     0.00000000   -0.00000000   59.35380373
     The local contribution  to forces
     atom    1 type  1   force =     0.00000000   -0.00000000   33.29293007
     atom    2 type  2   force =    -0.00000000    0.00000000  -18.95371966
     atom    3 type  2   force =    -0.00000000    0.00000000   44.92433811
     atom    4 type  3   force =     0.00000000   -0.00000000  -59.50075561
     The core correction contribution to forces
     atom    1 type  1   force =     0.00000000   -0.00000000    0.00752987
     atom    2 type  2   force =     0.00000000   -0.00000000    0.00131383
     atom    3 type  2   force =     0.00000000   -0.00000000   -0.00149814
     atom    4 type  3   force =     0.00000000   -0.00000000   -0.02904665
     The Hubbard contrib.    to forces
     atom    1 type  1   force =     0.00000000    0.00000000    0.00000000
     atom    2 type  2   force =     0.00000000    0.00000000    0.00000000
     atom    3 type  2   force =     0.00000000    0.00000000    0.00000000
     atom    4 type  3   force =     0.00000000    0.00000000    0.00000000
     The SCF correction term to forces
     atom    1 type  1   force =     0.00000000   -0.00000000   -0.00219656
     atom    2 type  2   force =     0.00000000    0.00000000   -0.00064103
     atom    3 type  2   force =    -0.00000000   -0.00000000   -0.00078162
     atom    4 type  3   force =    -0.00000000   -0.00000000    0.00042950

     Total force =     0.087318     Total SCF correction =     0.002456


     Computing stress (Cartesian axis) and pressure


     negative rho (up, down):  4.725E-04 0.000E+00
          total   stress  (Ry/bohr**3)                   (kbar)     P=      -23.30
  -0.00010375   0.00000000   0.00000000          -15.26        0.00        0.00
   0.00000000  -0.00010375   0.00000000            0.00      -15.26        0.00
   0.00000000   0.00000000  -0.00026764            0.00        0.00      -39.37

     Energy error            =      1.9E-02 Ry
     Gradient error          =      6.5E-02 Ry/Bohr

     number of scf cycles    =   7
     number of bfgs steps    =   6

     energy             old  =    -658.5412707541 Ry
     energy             new  =    -658.5601929900 Ry

     CASE: energy            _new < energy            _old

     new trust radius        =       0.4322896988 bohr
     new conv_thr            =       0.0000006531 Ry


ATOMIC_POSITIONS (crystal)
Mo            0.0000000000        0.0000000000        0.5001941800
S             0.6666666667        0.3333333333        0.6161591469
S             0.6666666667        0.3333333333        0.4192219131
Co            0.3333333333        0.6666666667        0.6620608237



     Writing config-only to output data dir ./tmp/relax.save/
     NEW-OLD atomic charge density approx. for the potential

     negative rho (up, down):  4.775E-04 0.000E+00

     total cpu time spent up to now is       87.0 secs

     Self-consistent Calculation

     iteration #  1     ecut=    80.00 Ry     beta= 0.70
     Davidson diagonalization with overlap
     c_bands:  1 eigenvalues not converged
     ethr =  1.00E-06,  avg # of iterations = 22.6

     negative rho (up, down):  5.063E-04 0.000E+00

     total cpu time spent up to now is       89.7 secs

     total energy              =    -658.15465058 Ry
     estimated scf accuracy    <       0.45027289 Ry

     iteration #  2     ecut=    80.00 Ry     beta= 0.70
     Davidson diagonalization with overlap
     ethr =  1.29E-03,  avg # of iterations =  9.9

     negative rho (up, down):  3.189E-04 0.000E+00

     total cpu time spent up to now is       90.9 secs

     total energy              =    -656.13416260 Ry
     estimated scf accuracy    <     126.45204173 Ry

     iteration #  3     ecut=    80.00 Ry     beta= 0.70
     Davidson diagonalization with overlap
     ethr =  1.29E-03,  avg # of iterations =  9.0

     negative rho (up, down):  2.791E-04 0.000E+00

     total cpu time spent up to now is       92.1 secs

     total energy              =    -658.46205954 Ry
     estimated scf accuracy    <       1.76857501 Ry

     iteration #  4     ecut=    80.00 Ry     beta= 0.70
     Davidson diagonalization with overlap
     ethr =  1.29E-03,  avg # of iterations =  2.6

     negative rho (up, down):  4.416E-04 0.000E+00

     total cpu time spent up to now is       92.9 secs

     total energy              =    -658.55568070 Ry
     estimated scf accuracy    <       0.30186131 Ry

     iteration #  5     ecut=    80.00 Ry     beta= 0.70
     Davidson diagonalization with overlap
     ethr =  8.62E-04,  avg # of iterations =  1.6

     negative rho (up, down):  1.183E-03 0.000E+00

     total cpu time spent up to now is       93.6 secs

     total energy              =    -658.55248374 Ry
     estimated scf accuracy    <       0.14914745 Ry

     iteration #  6     ecut=    80.00 Ry     beta= 0.70
     Davidson diagonalization with overlap
     ethr =  4.26E-04,  avg # of iterations =  1.9

     negative rho (up, down):  1.110E-03 0.000E+00

     total cpu time spent up to now is       94.4 secs

     total energy              =    -658.55969580 Ry
     estimated scf accuracy    <       0.01317253 Ry

     iteration #  7     ecut=    80.00 Ry     beta= 0.70
     Davidson diagonalization with overlap
     ethr =  3.76E-05,  avg # of iterations =  5.9

     negative rho (up, down):  7.915E-04 0.000E+00

     total cpu time spent up to now is       95.2 secs

     total energy              =    -658.56133898 Ry
     estimated scf accuracy    <       0.00314885 Ry

     iteration #  8     ecut=    80.00 Ry     beta= 0.70
     Davidson diagonalization with overlap
     ethr =  9.00E-06,  avg # of iterations =  3.4

     negative rho (up, down):  6.046E-04 0.000E+00

     total cpu time spent up to now is       96.0 secs

     total energy              =    -658.56142296 Ry
     estimated scf accuracy    <       0.00139141 Ry

     iteration #  9     ecut=    80.00 Ry     beta= 0.70
     Davidson diagonalization with overlap
     ethr =  3.98E-06,  avg # of iterations =  2.7

     negative rho (up, down):  5.076E-04 0.000E+00

     total cpu time spent up to now is       96.8 secs

     total energy              =    -658.56148511 Ry
     estimated scf accuracy    <       0.00013400 Ry

     iteration # 10     ecut=    80.00 Ry     beta= 0.70
     Davidson diagonalization with overlap
     ethr =  3.83E-07,  avg # of iterations =  3.7

     negative rho (up, down):  4.776E-04 0.000E+00

     total cpu time spent up to now is       97.6 secs

     total energy              =    -658.56149705 Ry
     estimated scf accuracy    <       0.00001736 Ry

     iteration # 11     ecut=    80.00 Ry     beta= 0.70
     Davidson diagonalization with overlap
     ethr =  4.96E-08,  avg # of iterations =  3.5

     negative rho (up, down):  4.757E-04 0.000E+00

     total cpu time spent up to now is       98.4 secs

     total energy              =    -658.56149960 Ry
     estimated scf accuracy    <       0.00000079 Ry

     iteration # 12     ecut=    80.00 Ry     beta= 0.70
     Davidson diagonalization with overlap
     ethr =  2.25E-09,  avg # of iterations =  4.6

     negative rho (up, down):  4.755E-04 0.000E+00

     total cpu time spent up to now is       99.3 secs

     End of self-consistent calculation

          k = 0.0000 0.0000 0.0000 ( 12991 PWs)   bands (ev):

   -59.3083 -33.5026 -33.2276 -33.2276 -14.2551 -12.2705  -5.4169  -3.2339
    -3.1680  -3.1680  -1.1168  -1.1168   0.2439   0.2439   0.9701   1.3403
     1.3691   1.3691   3.4793   4.5101   4.5101   4.6964

          k = 0.0000 0.1155 0.0000 ( 12953 PWs)   bands (ev):

   -59.3046 -33.4961 -33.2643 -33.2361 -14.1300 -12.1668  -5.2800  -3.4360
    -3.1486  -3.1236  -1.4035  -1.0753   0.0936   0.2148   0.9128   1.2477
     1.3725   1.4230   3.6378   4.0286   4.3531   4.4837

          k = 0.0000 0.2309 0.0000 ( 12929 PWs)   bands (ev):

   -59.2949 -33.4794 -33.3589 -33.2582 -13.7802 -11.8822  -4.9424  -4.0870
    -3.1117  -3.0128  -1.8868  -1.0500  -0.2440   0.2098   0.6774   1.1053
     1.5066   1.5335   2.9107   3.9486   4.1358   4.6549

          k = 0.0000 0.3464 0.0000 ( 12915 PWs)   bands (ev):

   -59.2828 -33.4824 -33.4502 -33.2855 -13.2900 -11.4966  -5.0912  -4.4034
    -3.2911  -3.0973  -2.0523  -1.1354  -0.4400   0.3227   0.4854   0.8393
     1.6683   1.9799   2.2736   3.5350   4.2490   5.0967

          k = 0.0000 0.4619 0.0000 ( 12872 PWs)   bands (ev):

   -59.2730 -33.5698 -33.4377 -33.3074 -12.8253 -11.1450  -5.8076  -4.3507
    -3.4848  -3.1133  -2.2345  -1.2411  -0.2388   0.3437   0.5087   0.8535
     1.3184   2.3405   2.4957   3.4763   4.0769   4.9437

          k = 0.0000-0.5774 0.0000 ( 12854 PWs)   bands (ev):

   -59.2693 -33.6044 -33.4312 -33.3157 -12.6247 -10.9973  -6.1148  -4.4407
    -3.4596  -3.1259  -2.3604  -1.2836   0.1358   0.2769   0.6142   0.6989
     1.0868   2.3411   2.8812   3.7121   3.8062   4.7730

          k = 0.1000 0.1732 0.0000 ( 12937 PWs)   bands (ev):

   -59.2979 -33.4844 -33.3273 -33.2541 -13.8923 -11.9723  -5.0367  -3.8662
    -3.1545  -3.0066  -1.7533  -1.1017  -0.0680   0.1328   0.7383   1.1490
     1.3478   1.6091   3.3519   3.7096   4.2949   4.3202

          k = 0.1000 0.2887 0.0000 ( 12944 PWs)   bands (ev):

   -59.2870 -33.4679 -33.4234 -33.2853 -13.4698 -11.6348  -4.8128  -4.3970
    -3.2264  -3.1181  -1.9710  -1.2063  -0.3194   0.1580   0.4879   0.9058
     1.4883   1.9935   2.6230   3.3690   4.3117   4.7044

          k = 0.1000 0.4041 0.0000 ( 12898 PWs)   bands (ev):

   -59.2760 -33.5266 -33.4424 -33.3167 -12.9832 -11.2587  -5.4293  -4.2453
    -3.4773  -3.2904  -2.0575  -1.3401  -0.3914   0.2322   0.5034   0.8168
     1.3896   2.1056   2.5235   3.3776   4.3931   4.7119

          k = 0.1000 0.5196 0.0000 ( 12858 PWs)   bands (ev):

   -59.2693 -33.5850 -33.4312 -33.3360 -12.6360 -10.9983  -5.9361  -4.3343
    -3.4741  -3.3570  -2.2099  -1.4860  -0.1777   0.2655   0.6416   0.8287
     1.1035   2.2703   2.6278   3.6712   4.1019   4.6543

          k = 0.2000 0.3464 0.0000 ( 12917 PWs)   bands (ev):

   -59.2772 -33.4985 -33.4434 -33.3329 -13.0440 -11.3009  -5.1739  -4.1551
    -3.5822  -3.3920  -1.9997  -1.3206  -0.5446   0.1559   0.4534   0.8050
     1.3181   2.1106   2.6201   3.3066   4.3376   4.6564

          k = 0.2000 0.4619 0.0000 ( 12869 PWs)   bands (ev):

   -59.2693 -33.5443 -33.4310 -33.3784 -12.6539 -11.0000  -5.5587  -4.1216
    -3.8047  -3.5180  -2.1456  -1.5305  -0.5761   0.1871   0.6487   0.8558
     1.0470   2.2475   2.3902   3.6936   4.0976   4.8527

          k = 0.2000 0.5774 0.0000 ( 12850 PWs)   bands (ev):

   -59.2663 -33.5606 -33.4260 -33.3971 -12.4907 -10.8755  -5.7147  -4.3128
    -3.7827  -3.4609  -2.2472  -1.6827  -0.4809   0.2479   0.4114   1.0069
     1.2182   2.1183   2.6630   3.4733   3.8832   5.1559

          k = 0.3000 0.5196 0.0000 ( 12860 PWs)   bands (ev):

   -59.2651 -33.5256 -33.4467 -33.4237 -12.4378 -10.8278  -5.4130  -4.6067
    -3.7198  -3.5476  -2.4402  -1.5834  -0.5947   0.1286   0.3193   1.0476
     1.3774   1.9854   2.7022   3.5120   3.5707   5.7404

     the Fermi energy is     2.0708 ev

!    total energy              =    -658.56149995 Ry
     total all-electron energy =    -12481.735391 Ry
     estimated scf accuracy    <       0.00000010 Ry
     smearing contrib. (-TS)   =      -0.00679672 Ry
     internal energy E=F+TS    =    -658.55470323 Ry

     The total energy is F=E-TS. E is the sum of the following terms:
     one-electron contribution =   -1346.72469202 Ry
     hartree contribution      =     686.98147024 Ry
     xc contribution           =     -62.56690122 Ry
     ewald contribution        =     469.91477736 Ry
     one-center paw contrib.   =    -406.15935760 Ry

     convergence has been achieved in  12 iterations

     negative rho (up, down):  4.755E-04 0.000E+00

     Forces acting on atoms (cartesian axes, Ry/au):

     atom    1 type  1   force =     0.00000000    0.00000000    0.07794940
     atom    2 type  2   force =     0.00000000    0.00000000   -0.07920435
     atom    3 type  2   force =     0.00000000    0.00000000   -0.02450187
     atom    4 type  3   force =     0.00000000    0.00000000    0.02575682
     The non-local contrib.  to forces
     atom    1 type  1   force =     0.00000000    0.00000000   -0.14013336
     atom    2 type  2   force =     0.00000000    0.00000000   -0.12922577
     atom    3 type  2   force =     0.00000000    0.00000000    0.25589453
     atom    4 type  3   force =     0.00000000    0.00000000    0.04605061
     The ionic contribution  to forces
     atom    1 type  1   force =     0.00000000   -0.00000000  -34.20040298
     atom    2 type  2   force =    -0.00000000    0.00000000   21.08280567
     atom    3 type  2   force =    -0.00000000    0.00000000  -45.54170190
     atom    4 type  3   force =     0.00000000   -0.00000000   58.65929921
     The local contribution  to forces
     atom    1 type  1   force =     0.00000000   -0.00000000   34.40948680
     atom    2 type  2   force =    -0.00000000    0.00000000  -21.03911849
     atom    3 type  2   force =    -0.00000000    0.00000000   45.26335686
     atom    4 type  3   force =     0.00000000   -0.00000000  -58.64219682
     The core correction contribution to forces
     atom    1 type  1   force =    -0.00000000   -0.00000000    0.01020857
     atom    2 type  2   force =     0.00000000   -0.00000000    0.00690570
     atom    3 type  2   force =     0.00000000   -0.00000000   -0.00143569
     atom    4 type  3   force =     0.00000000   -0.00000000   -0.03688230
     The Hubbard contrib.    to forces
     atom    1 type  1   force =     0.00000000    0.00000000    0.00000000
     atom    2 type  2   force =     0.00000000    0.00000000    0.00000000
     atom    3 type  2   force =     0.00000000    0.00000000    0.00000000
     atom    4 type  3   force =     0.00000000    0.00000000    0.00000000
     The SCF correction term to forces
     atom    1 type  1   force =     0.00000000   -0.00000000   -0.00117411
     atom    2 type  2   force =     0.00000000   -0.00000000   -0.00053595
     atom    3 type  2   force =    -0.00000000   -0.00000000   -0.00058014
     atom    4 type  3   force =    -0.00000000   -0.00000000   -0.00047836

     Total force =     0.116676     Total SCF correction =     0.001494


     Computing stress (Cartesian axis) and pressure


     negative rho (up, down):  4.755E-04 0.000E+00
          total   stress  (Ry/bohr**3)                   (kbar)     P=       19.30
   0.00024525   0.00000000   0.00000000           36.08        0.00        0.00
   0.00000000   0.00024525   0.00000000            0.00       36.08        0.00
   0.00000000   0.00000000  -0.00009682            0.00        0.00      -14.24

     Energy error            =      1.3E-03 Ry
     Gradient error          =      7.9E-02 Ry/Bohr

     number of scf cycles    =   8
     number of bfgs steps    =   7

     energy             old  =    -658.5601929900 Ry
     energy             new  =    -658.5614999510 Ry

     CASE: energy            _new < energy            _old

     new trust radius        =       0.2479784274 bohr
     new conv_thr            =       0.0000001307 Ry


ATOMIC_POSITIONS (crystal)
Mo            0.0000000000        0.0000000000        0.5000570544
S             0.6666666667        0.3333333333        0.6103977326
S             0.6666666667        0.3333333333        0.4179063500
Co            0.3333333333        0.6666666667        0.6692749267



     Writing config-only to output data dir ./tmp/relax.save/
     NEW-OLD atomic charge density approx. for the potential

     negative rho (up, down):  4.530E-04 0.000E+00

     total cpu time spent up to now is      102.0 secs

     Self-consistent Calculation

     iteration #  1     ecut=    80.00 Ry     beta= 0.70
     Davidson diagonalization with overlap
     c_bands:  1 eigenvalues not converged
     c_bands:  1 eigenvalues not converged
     c_bands:  2 eigenvalues not converged
     c_bands:  1 eigenvalues not converged
     c_bands:  5 eigenvalues not converged
     c_bands:  1 eigenvalues not converged
     ethr =  1.00E-06,  avg # of iterations = 17.9

     negative rho (up, down):  4.881E-04 0.000E+00

     total cpu time spent up to now is      104.0 secs

     total energy              =    -658.29076217 Ry
     estimated scf accuracy    <       0.32155681 Ry

     iteration #  2     ecut=    80.00 Ry     beta= 0.70
     Davidson diagonalization with overlap
     ethr =  9.19E-04,  avg # of iterations = 10.3

     negative rho (up, down):  3.552E-04 0.000E+00

     total cpu time spent up to now is      105.1 secs

     total energy              =    -656.29134966 Ry
     estimated scf accuracy    <     128.19933875 Ry

     iteration #  3     ecut=    80.00 Ry     beta= 0.70
     Davidson diagonalization with overlap
     ethr =  9.19E-04,  avg # of iterations =  9.6

     negative rho (up, down):  3.563E-04 0.000E+00

     total cpu time spent up to now is      106.3 secs

     total energy              =    -658.50971585 Ry
     estimated scf accuracy    <       0.68112734 Ry

     iteration #  4     ecut=    80.00 Ry     beta= 0.70
     Davidson diagonalization with overlap
     ethr =  9.19E-04,  avg # of iterations =  2.0

     negative rho (up, down):  3.973E-04 0.000E+00

     total cpu time spent up to now is      107.0 secs

     total energy              =    -658.56456415 Ry
     estimated scf accuracy    <       0.05132505 Ry

     iteration #  5     ecut=    80.00 Ry     beta= 0.70
     Davidson diagonalization with overlap
     ethr =  1.47E-04,  avg # of iterations =  2.2

     negative rho (up, down):  4.562E-04 0.000E+00

     total cpu time spent up to now is      107.8 secs

     total energy              =    -658.56707935 Ry
     estimated scf accuracy    <       0.03715720 Ry

     iteration #  6     ecut=    80.00 Ry     beta= 0.70
     Davidson diagonalization with overlap
     ethr =  1.06E-04,  avg # of iterations =  1.6

     negative rho (up, down):  5.131E-04 0.000E+00

     total cpu time spent up to now is      108.4 secs

     total energy              =    -658.56884096 Ry
     estimated scf accuracy    <       0.00338007 Ry

     iteration #  7     ecut=    80.00 Ry     beta= 0.70
     Davidson diagonalization with overlap
     ethr =  9.66E-06,  avg # of iterations =  6.8

     negative rho (up, down):  5.134E-04 0.000E+00

     total cpu time spent up to now is      109.3 secs

     total energy              =    -658.56925204 Ry
     estimated scf accuracy    <       0.00048572 Ry

     iteration #  8     ecut=    80.00 Ry     beta= 0.70
     Davidson diagonalization with overlap
     ethr =  1.39E-06,  avg # of iterations =  4.0

     negative rho (up, down):  4.959E-04 0.000E+00

     total cpu time spent up to now is      110.0 secs

     total energy              =    -658.56932529 Ry
     estimated scf accuracy    <       0.00017008 Ry

     iteration #  9     ecut=    80.00 Ry     beta= 0.70
     Davidson diagonalization with overlap
     ethr =  4.86E-07,  avg # of iterations =  1.7

     negative rho (up, down):  4.837E-04 0.000E+00

     total cpu time spent up to now is      110.7 secs

     total energy              =    -658.56933673 Ry
     estimated scf accuracy    <       0.00001394 Ry

     iteration # 10     ecut=    80.00 Ry     beta= 0.70
     Davidson diagonalization with overlap
     ethr =  3.98E-08,  avg # of iterations =  4.3

     negative rho (up, down):  4.789E-04 0.000E+00

     total cpu time spent up to now is      111.6 secs

     total energy              =    -658.56934081 Ry
     estimated scf accuracy    <       0.00000052 Ry

     iteration # 11     ecut=    80.00 Ry     beta= 0.70
     Davidson diagonalization with overlap
     ethr =  1.49E-09,  avg # of iterations =  4.2

     negative rho (up, down):  4.777E-04 0.000E+00

     total cpu time spent up to now is      112.5 secs

     End of self-consistent calculation

          k = 0.0000 0.0000 0.0000 ( 12991 PWs)   bands (ev):

   -59.3174 -33.5095 -33.2319 -33.2319 -13.9206 -12.2212  -5.2555  -3.0535
    -2.0679  -2.0679  -1.0023  -1.0023   0.7703   0.7703   1.1093   1.2677
     1.2677   1.2875   2.7138   4.1145   4.1145   4.6081

          k = 0.0000 0.1155 0.0000 ( 12953 PWs)   bands (ev):

   -59.3137 -33.5029 -33.2685 -33.2403 -13.7933 -12.1202  -5.1111  -2.9834
    -2.4117  -2.0901  -1.2858  -0.9720   0.5701   0.7383   0.8992   1.2951
     1.3252   1.4001   2.9734   3.7275   4.0454   4.3861

          k = 0.0000 0.2309 0.0000 ( 12929 PWs)   bands (ev):

   -59.3040 -33.4857 -33.3632 -33.2624 -13.4365 -11.8415  -4.7447  -3.3819
    -2.8466  -2.1820  -1.7713  -0.9528   0.2334   0.7125   0.7738   1.0609
     1.4642   1.6273   2.7537   3.8173   3.8585   4.3741

          k = 0.0000 0.3464 0.0000 ( 12915 PWs)   bands (ev):

   -59.2920 -33.4851 -33.4576 -33.2896 -12.9337 -11.4600  -4.5597  -4.2684
    -3.1757  -2.3459  -1.9500  -1.0115   0.1490   0.4955   0.8652   0.9463
     1.7625   1.8854   2.3734   3.5875   4.1956   5.0539

          k = 0.0000 0.4619 0.0000 ( 12872 PWs)   bands (ev):

   -59.2822 -33.5729 -33.4442 -33.3114 -12.4521 -11.1071  -5.4136  -4.3094
    -3.3463  -2.5025  -2.1342  -1.0915   0.1969   0.6087   0.9033   1.1613
     1.6859   2.2889   2.5414   3.5981   4.1912   4.9995

          k = 0.0000-0.5774 0.0000 ( 12854 PWs)   bands (ev):

   -59.2785 -33.6075 -33.4376 -33.3197 -12.2422 -10.9566  -5.7836  -4.4206
    -3.3147  -2.5654  -2.2594  -1.1261   0.2057   0.9037   0.9510   1.2710
     1.4742   2.3756   2.8664   3.7677   3.9202   4.8845

          k = 0.1000 0.1732 0.0000 ( 12937 PWs)   bands (ev):

   -59.3070 -33.4909 -33.3315 -33.2583 -13.5510 -11.9300  -4.8521  -3.1110
    -2.7850  -2.2052  -1.6405  -0.9911   0.4282   0.5092   0.8822   1.1206
     1.3864   1.6316   3.1561   3.3229   4.0300   4.2054

          k = 0.1000 0.2887 0.0000 ( 12944 PWs)   bands (ev):

   -59.2961 -33.4732 -33.4283 -33.2894 -13.1185 -11.5973  -4.4737  -3.9545
    -3.0100  -2.4668  -1.8787  -1.0410   0.1195   0.4981   0.8107   0.9725
     1.6055   1.9110   2.6522   3.3290   4.2375   4.4565

          k = 0.1000 0.4041 0.0000 ( 12898 PWs)   bands (ev):

   -59.2852 -33.5297 -33.4491 -33.3207 -12.6160 -11.2219  -4.9668  -4.1668
    -3.3534  -2.7356  -1.9565  -1.1706   0.0771   0.4854   0.8395   1.1382
     1.7361   2.0315   2.5461   3.4997   4.4254   4.7000

          k = 0.1000 0.5196 0.0000 ( 12858 PWs)   bands (ev):

   -59.2785 -33.5882 -33.4376 -33.3400 -12.2533 -10.9580  -5.5920  -4.3001
    -3.3524  -2.8795  -2.1154  -1.3102   0.1365   0.7149   0.9560   1.3609
     1.5437   2.2691   2.6848   3.7431   4.2295   4.6708

          k = 0.2000 0.3464 0.0000 ( 12917 PWs)   bands (ev):

   -59.2864 -33.5015 -33.4504 -33.3368 -12.6788 -11.2643  -4.6646  -4.0433
    -3.3613  -3.0186  -1.9141  -1.1587  -0.1355   0.5004   0.7605   1.1525
     1.6908   2.0307   2.6342   3.4224   4.2682   4.6447

          k = 0.2000 0.4619 0.0000 ( 12869 PWs)   bands (ev):

   -59.2785 -33.5475 -33.4374 -33.3822 -12.2710 -10.9600  -5.1760  -4.0207
    -3.5952  -3.3061  -2.0815  -1.4063  -0.0287   0.5258   0.9001   1.3621
     1.5896   2.2255   2.5214   3.7281   4.2125   4.8434

          k = 0.2000 0.5774 0.0000 ( 12850 PWs)   bands (ev):

   -59.2755 -33.5638 -33.4322 -33.4010 -12.0986 -10.8325  -5.3917  -4.1946
    -3.5918  -3.2978  -2.2097  -1.5476   0.0794   0.6437   0.9598   1.2615
     1.7163   2.2859   2.7720   3.5055   4.0090   5.1030

          k = 0.3000 0.5196 0.0000 ( 12860 PWs)   bands (ev):

   -59.2743 -33.5289 -33.4504 -33.4300 -12.0416 -10.7838  -5.0640  -4.4185
    -3.6304  -3.4503  -2.3972  -1.5297   0.1513   0.5491   0.8261   1.2535
     1.8047   2.2563   2.8457   3.5007   3.7405   5.7094

     the Fermi energy is     2.0752 ev

!    total energy              =    -658.56934107 Ry
     total all-electron energy =    -12481.743232 Ry
     estimated scf accuracy    <       0.00000003 Ry
     smearing contrib. (-TS)   =      -0.00650281 Ry
     internal energy E=F+TS    =    -658.56283826 Ry

     The total energy is F=E-TS. E is the sum of the following terms:
     one-electron contribution =   -1321.65772941 Ry
     hartree contribution      =     674.62066344 Ry
     xc contribution           =     -62.44756468 Ry
     ewald contribution        =     457.06081560 Ry
     one-center paw contrib.   =    -406.13902320 Ry

     convergence has been achieved in  11 iterations

     negative rho (up, down):  4.777E-04 0.000E+00

     Forces acting on atoms (cartesian axes, Ry/au):

     atom    1 type  1   force =     0.00000000    0.00000000    0.06490063
     atom    2 type  2   force =     0.00000000    0.00000000   -0.01729395
     atom    3 type  2   force =     0.00000000    0.00000000   -0.01216066
     atom    4 type  3   force =     0.00000000    0.00000000   -0.03544602
     The non-local contrib.  to forces
     atom    1 type  1   force =     0.00000000    0.00000000   -0.11797614
     atom    2 type  2   force =     0.00000000    0.00000000   -0.05170536
     atom    3 type  2   force =     0.00000000    0.00000000    0.25669007
     atom    4 type  3   force =     0.00000000    0.00000000    0.09001138
     The ionic contribution  to forces
     atom    1 type  1   force =     0.00000000   -0.00000000  -33.63169826
     atom    2 type  2   force =    -0.00000000    0.00000000   19.60081116
     atom    3 type  2   force =    -0.00000000    0.00000000  -45.35658915
     atom    4 type  3   force =     0.00000000   -0.00000000   59.38747625
     The local contribution  to forces
     atom    1 type  1   force =    -0.00000000   -0.00000000   33.80550317
     atom    2 type  2   force =    -0.00000000    0.00000000  -19.57004846
     atom    3 type  2   force =    -0.00000000    0.00000000   45.08914872
     atom    4 type  3   force =     0.00000000   -0.00000000  -59.47782942
     The core correction contribution to forces
     atom    1 type  1   force =     0.00000000   -0.00000000    0.00866387
     atom    2 type  2   force =     0.00000000   -0.00000000    0.00359956
     atom    3 type  2   force =     0.00000000   -0.00000000   -0.00156755
     atom    4 type  3   force =     0.00000000   -0.00000000   -0.03519511
     The Hubbard contrib.    to forces
     atom    1 type  1   force =     0.00000000    0.00000000    0.00000000
     atom    2 type  2   force =     0.00000000    0.00000000    0.00000000
     atom    3 type  2   force =     0.00000000    0.00000000    0.00000000
     atom    4 type  3   force =     0.00000000    0.00000000    0.00000000
     The SCF correction term to forces
     atom    1 type  1   force =     0.00000000    0.00000000    0.00038064
     atom    2 type  2   force =    -0.00000000   -0.00000000    0.00002180
     atom    3 type  2   force =     0.00000000   -0.00000000    0.00012990
     atom    4 type  3   force =    -0.00000000    0.00000000    0.00006353

     Total force =     0.076912     Total SCF correction =     0.000408


     Computing stress (Cartesian axis) and pressure


     negative rho (up, down):  4.777E-04 0.000E+00
          total   stress  (Ry/bohr**3)                   (kbar)     P=      -10.90
   0.00000209   0.00000000   0.00000000            0.31        0.00        0.00
   0.00000000   0.00000209   0.00000000            0.00        0.31        0.00
   0.00000000   0.00000000  -0.00022652            0.00        0.00      -33.32

     Energy error            =      7.8E-03 Ry
     Gradient error          =      6.5E-02 Ry/Bohr

     number of scf cycles    =   9
     number of bfgs steps    =   8

     energy             old  =    -658.5614999510 Ry
     energy             new  =    -658.5693410690 Ry

     CASE: energy            _new < energy            _old

     new trust radius        =       0.0518613867 bohr
     new conv_thr            =       0.0000006490 Ry


ATOMIC_POSITIONS (crystal)
Mo            0.0000000000        0.0000000000        0.5003753231
S             0.6666666667        0.3333333333        0.6113276963
S             0.6666666667        0.3333333333        0.4181668513
Co            0.3333333333        0.6666666667        0.6677661931



     Writing config-only to output data dir ./tmp/relax.save/
     NEW-OLD atomic charge density approx. for the potential

     negative rho (up, down):  4.710E-04 0.000E+00

     total cpu time spent up to now is      115.1 secs

     Self-consistent Calculation

     iteration #  1     ecut=    80.00 Ry     beta= 0.70
     Davidson diagonalization with overlap
     ethr =  1.00E-06,  avg # of iterations =  8.6

     negative rho (up, down):  4.714E-04 0.000E+00

     total cpu time spent up to now is      116.5 secs

     total energy              =    -658.57029420 Ry
     estimated scf accuracy    <       0.00109402 Ry

     iteration #  2     ecut=    80.00 Ry     beta= 0.70
     Davidson diagonalization with overlap
     ethr =  3.13E-06,  avg # of iterations =  7.4

     negative rho (up, down):  4.714E-04 0.000E+00

     total cpu time spent up to now is      117.6 secs

     total energy              =    -658.56364795 Ry
     estimated scf accuracy    <       0.19305775 Ry

     iteration #  3     ecut=    80.00 Ry     beta= 0.70
     Davidson diagonalization with overlap
     ethr =  3.13E-06,  avg # of iterations =  7.4

     negative rho (up, down):  4.711E-04 0.000E+00

     total cpu time spent up to now is      118.6 secs

     total energy              =    -658.57050922 Ry
     estimated scf accuracy    <       0.00318151 Ry

     iteration #  4     ecut=    80.00 Ry     beta= 0.70
     Davidson diagonalization with overlap
     ethr =  3.13E-06,  avg # of iterations =  2.4

     negative rho (up, down):  4.714E-04 0.000E+00

     total cpu time spent up to now is      119.4 secs

     total energy              =    -658.57075718 Ry
     estimated scf accuracy    <       0.00064817 Ry

     iteration #  5     ecut=    80.00 Ry     beta= 0.70
     Davidson diagonalization with overlap
     ethr =  1.85E-06,  avg # of iterations =  2.4

     negative rho (up, down):  4.719E-04 0.000E+00

     total cpu time spent up to now is      120.2 secs

     total energy              =    -658.57082232 Ry
     estimated scf accuracy    <       0.00020417 Ry

     iteration #  6     ecut=    80.00 Ry     beta= 0.70
     Davidson diagonalization with overlap
     ethr =  5.83E-07,  avg # of iterations =  2.1

     negative rho (up, down):  4.724E-04 0.000E+00

     total cpu time spent up to now is      120.9 secs

     total energy              =    -658.57084745 Ry
     estimated scf accuracy    <       0.00002709 Ry

     iteration #  7     ecut=    80.00 Ry     beta= 0.70
     Davidson diagonalization with overlap
     ethr =  7.74E-08,  avg # of iterations =  2.1

     negative rho (up, down):  4.727E-04 0.000E+00

     total cpu time spent up to now is      121.7 secs

     total energy              =    -658.57085323 Ry
     estimated scf accuracy    <       0.00000445 Ry

     iteration #  8     ecut=    80.00 Ry     beta= 0.70
     Davidson diagonalization with overlap
     ethr =  1.27E-08,  avg # of iterations =  2.6

     negative rho (up, down):  4.728E-04 0.000E+00

     total cpu time spent up to now is      122.5 secs

     End of self-consistent calculation

          k = 0.0000 0.0000 0.0000 ( 12991 PWs)   bands (ev):

   -59.3255 -33.5193 -33.2390 -33.2390 -13.9937 -12.2326  -5.2967  -3.0827
    -2.2738  -2.2738  -1.0112  -1.0112   0.6713   0.6713   1.0938   1.2633
     1.2736   1.2736   2.8617   4.1824   4.1824   4.5990

          k = 0.0000 0.1155 0.0000 ( 12953 PWs)   bands (ev):

   -59.3218 -33.5127 -33.2755 -33.2474 -13.8670 -12.1309  -5.1533  -3.0138
    -2.5952  -2.2905  -1.2961  -0.9772   0.4845   0.6411   0.8886   1.2954
     1.3102   1.3803   3.1009   3.7818   4.1002   4.3779

          k = 0.0000 0.2309 0.0000 ( 12929 PWs)   bands (ev):

   -59.3121 -33.4955 -33.3701 -33.2695 -13.5122 -11.8505  -4.7896  -3.5121
    -2.8805  -2.3615  -1.7856  -0.9577   0.1444   0.6698   0.6928   1.0478
     1.4648   1.6111   2.7923   3.8435   3.9167   4.3931

          k = 0.0000 0.3464 0.0000 ( 12915 PWs)   bands (ev):

   -59.3001 -33.4926 -33.4668 -33.2966 -13.0125 -11.4670  -4.6646  -4.3054
    -3.1943  -2.4949  -1.9726  -1.0263   0.0458   0.4688   0.8338   0.8540
     1.7573   1.8936   2.3640   3.5862   4.1992   5.0651

          k = 0.0000 0.4619 0.0000 ( 12872 PWs)   bands (ev):

   -59.2903 -33.5796 -33.4541 -33.3184 -12.5347 -11.1127  -5.5003  -4.3241
    -3.3753  -2.6285  -2.1612  -1.1143   0.1546   0.5071   0.8985   1.0463
     1.6307   2.2966   2.5368   3.5825   4.1665   4.9731

          k = 0.0000-0.5774 0.0000 ( 12854 PWs)   bands (ev):

   -59.2866 -33.6142 -33.4476 -33.3267 -12.3268 -10.9619  -5.8605  -4.4308
    -3.3473  -2.6834  -2.2874  -1.1514   0.1842   0.7989   0.9387   1.1562
     1.3694   2.3752   2.8700   3.7573   3.8994   4.8504

          k = 0.1000 0.1732 0.0000 ( 12937 PWs)   bands (ev):

   -59.3151 -33.5008 -33.3384 -33.2653 -13.6260 -11.9396  -4.8961  -3.2333
    -2.8438  -2.3875  -1.6519  -0.9977   0.3351   0.4572   0.8216   1.1077
     1.3776   1.6205   3.2075   3.3938   4.0751   4.1982

          k = 0.1000 0.2887 0.0000 ( 12944 PWs)   bands (ev):

   -59.3042 -33.4829 -33.4353 -33.2964 -13.1961 -11.6050  -4.5305  -4.0576
    -3.0296  -2.6127  -1.8971  -1.0584   0.0410   0.4393   0.7477   0.9231
     1.5889   1.9244   2.6554   3.3454   4.2357   4.4955

          k = 0.1000 0.4041 0.0000 ( 12898 PWs)   bands (ev):

   -59.2934 -33.5364 -33.4590 -33.3277 -12.6973 -11.2279  -5.0653  -4.1892
    -3.3738  -2.8521  -1.9822  -1.1944   0.0050   0.4099   0.8263   1.0265
     1.6904   2.0459   2.5435   3.4844   4.4129   4.6870

          k = 0.1000 0.5196 0.0000 ( 12858 PWs)   bands (ev):

   -59.2866 -33.5949 -33.4476 -33.3469 -12.3379 -10.9633  -5.6716  -4.3126
    -3.3798  -2.9853  -2.1385  -1.3383   0.0870   0.6094   0.9543   1.2406
     1.4529   2.2737   2.6800   3.7269   4.2085   4.6497

          k = 0.2000 0.3464 0.0000 ( 12917 PWs)   bands (ev):

   -59.2945 -33.5084 -33.4602 -33.3438 -12.7596 -11.2705  -4.7724  -4.0710
    -3.3786  -3.1221  -1.9336  -1.1792  -0.2157   0.4257   0.7351   1.0473
     1.6402   2.0498   2.6354   3.4077   4.2560   4.6470

          k = 0.2000 0.4619 0.0000 ( 12869 PWs)   bands (ev):

   -59.2866 -33.5542 -33.4474 -33.3892 -12.3556 -10.9654  -5.2634  -4.0440
    -3.6376  -3.3662  -2.0937  -1.4298  -0.1271   0.4499   0.8868   1.2419
     1.5111   2.2310   2.5083   3.7082   4.1916   4.8330

          k = 0.2000 0.5774 0.0000 ( 12850 PWs)   bands (ev):

   -59.2836 -33.5705 -33.4422 -33.4079 -12.1850 -10.8378  -5.4697  -4.2229
    -3.6393  -3.3432  -2.2178  -1.5726  -0.0183   0.5559   0.9239   1.1626
     1.6456   2.2672   2.7489   3.4953   3.9801   5.0997

          k = 0.3000 0.5196 0.0000 ( 12860 PWs)   bands (ev):

   -59.2825 -33.5356 -33.4573 -33.4400 -12.1287 -10.7890  -5.1476  -4.4732
    -3.6563  -3.4708  -2.4092  -1.5454   0.0220   0.4759   0.7564   1.1848
     1.7550   2.2227   2.8171   3.4901   3.7072   5.6990

     the Fermi energy is     2.0769 ev

!    total energy              =    -658.57085393 Ry
     total all-electron energy =    -12481.744745 Ry
     estimated scf accuracy    <       0.00000010 Ry
     smearing contrib. (-TS)   =      -0.00637255 Ry
     internal energy E=F+TS    =    -658.56448139 Ry

     The total energy is F=E-TS. E is the sum of the following terms:
     one-electron contribution =   -1327.98949598 Ry
     hartree contribution      =     677.75006020 Ry
     xc contribution           =     -62.46815263 Ry
     ewald contribution        =     460.28516059 Ry
     one-center paw contrib.   =    -406.14205357 Ry

     convergence has been achieved in   8 iterations

     negative rho (up, down):  4.728E-04 0.000E+00

     Forces acting on atoms (cartesian axes, Ry/au):

     atom    1 type  1   force =     0.00000000    0.00000000    0.06381400
     atom    2 type  2   force =     0.00000000    0.00000000   -0.02644274
     atom    3 type  2   force =     0.00000000    0.00000000   -0.01096365
     atom    4 type  3   force =     0.00000000    0.00000000   -0.02640761
     The non-local contrib.  to forces
     atom    1 type  1   force =     0.00000000   -0.00000000   -0.12012479
     atom    2 type  2   force =     0.00000000    0.00000000   -0.06604830
     atom    3 type  2   force =     0.00000000    0.00000000    0.25809372
     atom    4 type  3   force =     0.00000000    0.00000000    0.07890386
     The ionic contribution  to forces
     atom    1 type  1   force =     0.00000000   -0.00000000  -33.78709318
     atom    2 type  2   force =    -0.00000000    0.00000000   19.83842095
     atom    3 type  2   force =    -0.00000000    0.00000000  -45.41591071
     atom    4 type  3   force =     0.00000000   -0.00000000   59.36458294
     The local contribution  to forces
     atom    1 type  1   force =     0.00000000    0.00000000   33.96329479
     atom    2 type  2   force =    -0.00000000    0.00000000  -19.80285346
     atom    3 type  2   force =    -0.00000000    0.00000000   45.14890928
     atom    4 type  3   force =     0.00000000   -0.00000000  -59.43352709
     The core correction contribution to forces
     atom    1 type  1   force =    -0.00000000   -0.00000000    0.00886343
     atom    2 type  2   force =     0.00000000   -0.00000000    0.00423092
     atom    3 type  2   force =     0.00000000   -0.00000000   -0.00161464
     atom    4 type  3   force =     0.00000000   -0.00000000   -0.03622641
     The Hubbard contrib.    to forces
     atom    1 type  1   force =     0.00000000    0.00000000    0.00000000
     atom    2 type  2   force =     0.00000000    0.00000000    0.00000000
     atom    3 type  2   force =     0.00000000    0.00000000    0.00000000
     atom    4 type  3   force =     0.00000000    0.00000000    0.00000000
     The SCF correction term to forces
     atom    1 type  1   force =     0.00000000    0.00000000   -0.00113890
     atom    2 type  2   force =     0.00000000    0.00000000   -0.00020549
     atom    3 type  2   force =    -0.00000000    0.00000000   -0.00045395
     atom    4 type  3   force =     0.00000000    0.00000000   -0.00015355

     Total force =     0.074760     Total SCF correction =     0.001253


     Computing stress (Cartesian axis) and pressure


     negative rho (up, down):  4.728E-04 0.000E+00
          total   stress  (Ry/bohr**3)                   (kbar)     P=       -6.30
   0.00004025   0.00000000   0.00000000            5.92        0.00        0.00
   0.00000000   0.00004025  -0.00000000            0.00        5.92       -0.00
   0.00000000  -0.00000000  -0.00020890            0.00       -0.00      -30.73

     Energy error            =      1.5E-03 Ry
     Gradient error          =      6.4E-02 Ry/Bohr

     number of scf cycles    =  10
     number of bfgs steps    =   9

     energy             old  =    -658.5693410690 Ry
     energy             new  =    -658.5708539309 Ry

     CASE: energy            _new < energy            _old

     new trust radius        =       0.0570475254 bohr
     new conv_thr            =       0.0000001513 Ry


ATOMIC_POSITIONS (crystal)
Mo            0.0000000000        0.0000000000        0.5010098463
S             0.6666666667        0.3333333333        0.6119792196
S             0.6666666667        0.3333333333        0.4185404117
Co            0.3333333333        0.6666666667        0.6661065861



     Writing config-only to output data dir ./tmp/relax.save/
     NEW-OLD atomic charge density approx. for the potential

     negative rho (up, down):  4.621E-04 0.000E+00

     total cpu time spent up to now is      125.1 secs

     Self-consistent Calculation

     iteration #  1     ecut=    80.00 Ry     beta= 0.70
     Davidson diagonalization with overlap
     ethr =  1.00E-06,  avg # of iterations =  8.4

     negative rho (up, down):  4.639E-04 0.000E+00

     total cpu time spent up to now is      126.5 secs

     total energy              =    -658.57202593 Ry
     estimated scf accuracy    <       0.00117650 Ry

     iteration #  2     ecut=    80.00 Ry     beta= 0.70
     Davidson diagonalization with overlap
     ethr =  3.36E-06,  avg # of iterations =  7.2

     negative rho (up, down):  4.639E-04 0.000E+00

     total cpu time spent up to now is      127.5 secs

     total energy              =    -658.56602254 Ry
     estimated scf accuracy    <       0.15782636 Ry

     iteration #  3     ecut=    80.00 Ry     beta= 0.70
     Davidson diagonalization with overlap
     ethr =  3.36E-06,  avg # of iterations =  7.4

     negative rho (up, down):  4.634E-04 0.000E+00

     total cpu time spent up to now is      128.5 secs

     total energy              =    -658.57205408 Ry
     estimated scf accuracy    <       0.00676101 Ry

     iteration #  4     ecut=    80.00 Ry     beta= 0.70
     Davidson diagonalization with overlap
     ethr =  3.36E-06,  avg # of iterations =  3.0

     negative rho (up, down):  4.637E-04 0.000E+00

     total cpu time spent up to now is      129.3 secs

     total energy              =    -658.57250288 Ry
     estimated scf accuracy    <       0.00067072 Ry

     iteration #  5     ecut=    80.00 Ry     beta= 0.70
     Davidson diagonalization with overlap
     ethr =  1.92E-06,  avg # of iterations =  2.2

     negative rho (up, down):  4.648E-04 0.000E+00

     total cpu time spent up to now is      130.1 secs

     total energy              =    -658.57258445 Ry
     estimated scf accuracy    <       0.00021606 Ry

     iteration #  6     ecut=    80.00 Ry     beta= 0.70
     Davidson diagonalization with overlap
     ethr =  6.17E-07,  avg # of iterations =  1.8

     negative rho (up, down):  4.654E-04 0.000E+00

     total cpu time spent up to now is      130.8 secs

     total energy              =    -658.57260705 Ry
     estimated scf accuracy    <       0.00003053 Ry

     iteration #  7     ecut=    80.00 Ry     beta= 0.70
     Davidson diagonalization with overlap
     ethr =  8.72E-08,  avg # of iterations =  2.1

     negative rho (up, down):  4.657E-04 0.000E+00

     total cpu time spent up to now is      131.6 secs

     total energy              =    -658.57261338 Ry
     estimated scf accuracy    <       0.00000308 Ry

     iteration #  8     ecut=    80.00 Ry     beta= 0.70
     Davidson diagonalization with overlap
     ethr =  8.81E-09,  avg # of iterations =  3.1

     negative rho (up, down):  4.659E-04 0.000E+00

     total cpu time spent up to now is      132.4 secs

     End of self-consistent calculation

          k = 0.0000 0.0000 0.0000 ( 12991 PWs)   bands (ev):

   -59.3392 -33.5354 -33.2504 -33.2504 -14.0730 -12.2411  -5.3450  -3.0946
    -2.4802  -2.4802  -1.0067  -1.0067   0.5795   0.5795   1.0688   1.2283
     1.2679   1.2679   3.0234   4.2595   4.2595   4.5726

          k = 0.0000 0.1155 0.0000 ( 12953 PWs)   bands (ev):

   -59.3355 -33.5288 -33.2869 -33.2588 -13.9468 -12.1389  -5.2024  -3.0345
    -2.7762  -2.4909  -1.2931  -0.9702   0.3978   0.5482   0.8733   1.2802
     1.2876   1.3615   3.2408   3.8469   4.1607   4.3522

          k = 0.0000 0.2309 0.0000 ( 12929 PWs)   bands (ev):

   -59.3258 -33.5116 -33.3814 -33.2809 -13.5936 -11.8570  -4.8415  -3.6540
    -2.8993  -2.5426  -1.7890  -0.9513   0.0524   0.5698   0.6764   1.0232
     1.4588   1.5972   2.8440   3.8730   3.9701   4.4111

          k = 0.0000 0.3464 0.0000 ( 12915 PWs)   bands (ev):

   -59.3138 -33.5047 -33.4818 -33.3079 -13.0969 -11.4713  -4.7758  -4.3532
    -3.2048  -2.6489  -1.9903  -1.0280  -0.0614   0.4388   0.7265   0.8473
     1.7535   1.8926   2.3729   3.5876   4.1966   5.0402

          k = 0.0000 0.4619 0.0000 ( 12872 PWs)   bands (ev):

   -59.3041 -33.5904 -33.4704 -33.3297 -12.6230 -11.1149  -5.5950  -4.3437
    -3.4053  -2.7614  -2.1863  -1.1222   0.0939   0.4179   0.9014   0.9365
     1.5746   2.2918   2.5550   3.5691   4.1484   4.9415

          k = 0.0000-0.5774 0.0000 ( 12854 PWs)   bands (ev):

   -59.3003 -33.6249 -33.4638 -33.3380 -12.4172 -10.9632  -5.9456  -4.4435
    -3.3859  -2.8090  -2.3137  -1.1611   0.1558   0.6842   0.9428   1.0465
     1.2702   2.3619   2.8947   3.7465   3.8907   4.8144

          k = 0.1000 0.1732 0.0000 ( 12937 PWs)   bands (ev):

   -59.3288 -33.5169 -33.3497 -33.2767 -13.7068 -11.9465  -4.9469  -3.3767
    -2.8763  -2.5709  -1.6517  -0.9930   0.2420   0.3934   0.7763   1.0856
     1.3598   1.6108   3.2652   3.4790   4.1147   4.1825

          k = 0.1000 0.2887 0.0000 ( 12944 PWs)   bands (ev):

   -59.3179 -33.4988 -33.4468 -33.3078 -13.2793 -11.6101  -4.5964  -4.1689
    -3.0402  -2.7638  -1.9078  -1.0642  -0.0433   0.3816   0.6771   0.8892
     1.5683   1.9374   2.6707   3.3691   4.2188   4.5318

          k = 0.1000 0.4041 0.0000 ( 12898 PWs)   bands (ev):

   -59.3071 -33.5474 -33.4752 -33.3390 -12.7841 -11.2308  -5.1707  -4.2211
    -3.3912  -2.9759  -2.0038  -1.2076  -0.0783   0.3443   0.8134   0.9275
     1.6397   2.0663   2.5475   3.4770   4.3944   4.6677

          k = 0.1000 0.5196 0.0000 ( 12858 PWs)   bands (ev):

   -59.3003 -33.6057 -33.4638 -33.3582 -12.4282 -10.9647  -5.7593  -4.3287
    -3.4139  -3.0968  -2.1606  -1.3546   0.0295   0.5123   0.9595   1.1225
     1.3650   2.2718   2.6943   3.7157   4.1946   4.6214

          k = 0.2000 0.3464 0.0000 ( 12917 PWs)   bands (ev):

   -59.3082 -33.5195 -33.4763 -33.3551 -12.8460 -11.2737  -4.8852  -4.1125
    -3.4004  -3.2223  -1.9481  -1.1920  -0.3010   0.3612   0.7058   0.9557
     1.5834   2.0782   2.6400   3.4042   4.2276   4.6471

          k = 0.2000 0.4619 0.0000 ( 12869 PWs)   bands (ev):

   -59.3003 -33.5651 -33.4637 -33.4004 -12.4458 -10.9669  -5.3583  -4.0765
    -3.6995  -3.4136  -2.1022  -1.4509  -0.2288   0.3831   0.8839   1.1254
     1.4286   2.2445   2.5051   3.6888   4.1747   4.8174

          k = 0.2000 0.5774 0.0000 ( 12850 PWs)   bands (ev):

   -59.2973 -33.5813 -33.4585 -33.4191 -12.2772 -10.8386  -5.5557  -4.2599
    -3.7006  -3.3822  -2.2237  -1.5955  -0.1182   0.4777   0.8617   1.1027
     1.5717   2.2474   2.7475   3.4889   3.9551   5.0910

          k = 0.3000 0.5196 0.0000 ( 12860 PWs)   bands (ev):

   -59.2962 -33.5464 -33.4684 -33.4562 -12.2218 -10.7896  -5.2388  -4.5393
    -3.6931  -3.4858  -2.4191  -1.5627  -0.1053   0.4084   0.6761   1.1453
     1.7001   2.1919   2.8022   3.4733   3.6922   5.6775

     the Fermi energy is     2.0821 ev

!    total energy              =    -658.57261397 Ry
     total all-electron energy =    -12481.746505 Ry
     estimated scf accuracy    <       0.00000010 Ry
     smearing contrib. (-TS)   =      -0.00631760 Ry
     internal energy E=F+TS    =    -658.56629636 Ry

     The total energy is F=E-TS. E is the sum of the following terms:
     one-electron contribution =   -1336.38859099 Ry
     hartree contribution      =     681.90806455 Ry
     xc contribution           =     -62.48900302 Ry
     ewald contribution        =     464.54810877 Ry
     one-center paw contrib.   =    -406.14487568 Ry

     convergence has been achieved in   8 iterations

     negative rho (up, down):  4.659E-04 0.000E+00

     Forces acting on atoms (cartesian axes, Ry/au):

     atom    1 type  1   force =     0.00000000    0.00000000    0.06092046
     atom    2 type  2   force =     0.00000000    0.00000000   -0.03651764
     atom    3 type  2   force =     0.00000000    0.00000000   -0.00782728
     atom    4 type  3   force =     0.00000000    0.00000000   -0.01657554
     The non-local contrib.  to forces
     atom    1 type  1   force =     0.00000000    0.00000000   -0.11976762
     atom    2 type  2   force =     0.00000000    0.00000000   -0.08111019
     atom    3 type  2   force =     0.00000000    0.00000000    0.26021192
     atom    4 type  3   force =     0.00000000    0.00000000    0.06594356
     The ionic contribution  to forces
     atom    1 type  1   force =     0.00000000   -0.00000000  -33.99563579
     atom    2 type  2   force =    -0.00000000    0.00000000   20.11684370
     atom    3 type  2   force =    -0.00000000    0.00000000  -45.50701359
     atom    4 type  3   force =     0.00000000   -0.00000000   59.38580568
     The local contribution  to forces
     atom    1 type  1   force =    -0.00000000   -0.00000000   34.16844310
     atom    2 type  2   force =    -0.00000000    0.00000000  -20.07700347
     atom    3 type  2   force =    -0.00000000    0.00000000   45.24110479
     atom    4 type  3   force =     0.00000000   -0.00000000  -59.43107077
     The core correction contribution to forces
     atom    1 type  1   force =    -0.00000000    0.00000000    0.00890413
     atom    2 type  2   force =     0.00000000   -0.00000000    0.00480342
     atom    3 type  2   force =     0.00000000   -0.00000000   -0.00170300
     atom    4 type  3   force =     0.00000000   -0.00000000   -0.03702253
     The Hubbard contrib.    to forces
     atom    1 type  1   force =     0.00000000    0.00000000    0.00000000
     atom    2 type  2   force =     0.00000000    0.00000000    0.00000000
     atom    3 type  2   force =     0.00000000    0.00000000    0.00000000
     atom    4 type  3   force =     0.00000000    0.00000000    0.00000000
     The SCF correction term to forces
     atom    1 type  1   force =     0.00000000    0.00000000   -0.00107494
     atom    2 type  2   force =     0.00000000    0.00000000   -0.00010267
     atom    3 type  2   force =     0.00000000   -0.00000000   -0.00047898
     atom    4 type  3   force =    -0.00000000   -0.00000000   -0.00028307

     Total force =     0.073354     Total SCF correction =     0.001215


     Computing stress (Cartesian axis) and pressure


     negative rho (up, down):  4.659E-04 0.000E+00
          total   stress  (Ry/bohr**3)                   (kbar)     P=       -2.26
   0.00007657   0.00000000   0.00000000           11.26        0.00        0.00
   0.00000000   0.00007657   0.00000000            0.00       11.26        0.00
   0.00000000   0.00000000  -0.00019929            0.00        0.00      -29.32

     Energy error            =      1.8E-03 Ry
     Gradient error          =      6.1E-02 Ry/Bohr

     number of scf cycles    =  11
     number of bfgs steps    =  10

     energy             old  =    -658.5708539309 Ry
     energy             new  =    -658.5726139659 Ry

     CASE: energy            _new < energy            _old

     new trust radius        =       0.0855712881 bohr
     new conv_thr            =       0.0000001760 Ry


ATOMIC_POSITIONS (crystal)
Mo            0.0000000000        0.0000000000        0.5024705552
S             0.6666666667        0.3333333333        0.6122056334
S             0.6666666667        0.3333333333        0.4193426994
Co            0.3333333333        0.6666666667        0.6636171757



     Writing config-only to output data dir ./tmp/relax.save/
     NEW-OLD atomic charge density approx. for the potential

     negative rho (up, down):  4.594E-04 0.000E+00

     total cpu time spent up to now is      135.0 secs

     Self-consistent Calculation

     iteration #  1     ecut=    80.00 Ry     beta= 0.70
     Davidson diagonalization with overlap
     ethr =  1.00E-06,  avg # of iterations =  9.4

     negative rho (up, down):  4.736E-04 0.000E+00

     total cpu time spent up to now is      136.5 secs

     total energy              =    -658.57493527 Ry
     estimated scf accuracy    <       0.00218308 Ry

     iteration #  2     ecut=    80.00 Ry     beta= 0.70
     Davidson diagonalization with overlap
     ethr =  6.24E-06,  avg # of iterations =  4.3

     negative rho (up, down):  4.726E-04 0.000E+00

     total cpu time spent up to now is      137.4 secs

     total energy              =    -658.57215172 Ry
     estimated scf accuracy    <       0.03037794 Ry

     iteration #  3     ecut=    80.00 Ry     beta= 0.70
     Davidson diagonalization with overlap
     ethr =  6.24E-06,  avg # of iterations =  5.3

     negative rho (up, down):  4.722E-04 0.000E+00

     total cpu time spent up to now is      138.3 secs

     total energy              =    -658.57311341 Ry
     estimated scf accuracy    <       0.07076640 Ry

     iteration #  4     ecut=    80.00 Ry     beta= 0.70
     Davidson diagonalization with overlap
     ethr =  6.24E-06,  avg # of iterations =  4.6

     negative rho (up, down):  4.741E-04 0.000E+00

     total cpu time spent up to now is      139.2 secs

     total energy              =    -658.57561488 Ry
     estimated scf accuracy    <       0.00164515 Ry

     iteration #  5     ecut=    80.00 Ry     beta= 0.70
     Davidson diagonalization with overlap
     ethr =  4.70E-06,  avg # of iterations =  2.4

     negative rho (up, down):  4.792E-04 0.000E+00

     total cpu time spent up to now is      139.9 secs

     total energy              =    -658.57585607 Ry
     estimated scf accuracy    <       0.00032504 Ry

     iteration #  6     ecut=    80.00 Ry     beta= 0.70
     Davidson diagonalization with overlap
     ethr =  9.29E-07,  avg # of iterations =  1.7

     negative rho (up, down):  4.800E-04 0.000E+00

     total cpu time spent up to now is      140.7 secs

     total energy              =    -658.57588719 Ry
     estimated scf accuracy    <       0.00000496 Ry

     iteration #  7     ecut=    80.00 Ry     beta= 0.70
     Davidson diagonalization with overlap
     ethr =  1.42E-08,  avg # of iterations =  5.6

     negative rho (up, down):  4.801E-04 0.000E+00

     total cpu time spent up to now is      141.6 secs

     total energy              =    -658.57589051 Ry
     estimated scf accuracy    <       0.00000129 Ry

     iteration #  8     ecut=    80.00 Ry     beta= 0.70
     Davidson diagonalization with overlap
     ethr =  3.69E-09,  avg # of iterations =  2.4

     negative rho (up, down):  4.801E-04 0.000E+00

     total cpu time spent up to now is      142.4 secs

     total energy              =    -658.57589060 Ry
     estimated scf accuracy    <       0.00000029 Ry

     iteration #  9     ecut=    80.00 Ry     beta= 0.70
     Davidson diagonalization with overlap
     ethr =  8.16E-10,  avg # of iterations =  2.5

     negative rho (up, down):  4.801E-04 0.000E+00

     total cpu time spent up to now is      143.2 secs

     End of self-consistent calculation

          k = 0.0000 0.0000 0.0000 ( 12991 PWs)   bands (ev):

   -59.3699 -33.5709 -33.2766 -33.2766 -14.1888 -12.2484  -5.4225  -3.0787
    -2.7409  -2.7409  -0.9866  -0.9866   0.4765   0.4765   1.0168   1.1670
     1.2311   1.2311   3.2568   4.3721   4.3721   4.5076

          k = 0.0000 0.1155 0.0000 ( 12953 PWs)   bands (ev):

   -59.3662 -33.5643 -33.3131 -33.2850 -14.0631 -12.1457  -5.2807  -3.0985
    -2.9461  -2.7449  -1.2737  -0.9476   0.2908   0.4397   0.8350   1.2193
     1.2535   1.3333   3.4415   3.9492   4.2432   4.2890

          k = 0.0000 0.2309 0.0000 ( 12929 PWs)   bands (ev):

   -59.3565 -33.5470 -33.4074 -33.3070 -13.7116 -11.8623  -4.9224  -3.8538
    -2.9026  -2.7763  -1.7781  -0.9294  -0.0681   0.4509   0.6527   0.9714
     1.4309   1.5841   2.9370   3.9138   4.0114   4.4497

          k = 0.0000 0.3464 0.0000 ( 12915 PWs)   bands (ev):

   -59.3446 -33.5335 -33.5141 -33.3340 -13.2186 -11.4737  -4.9312  -4.4393
    -3.2074  -2.8548  -2.0070  -1.0136  -0.1981   0.3832   0.6011   0.8469
     1.7513   1.8676   2.4242   3.5943   4.1839   4.9945

          k = 0.0000 0.4619 0.0000 ( 12872 PWs)   bands (ev):

   -59.3349 -33.6157 -33.5059 -33.3558 -12.7500 -11.1135  -5.7349  -4.3857
    -3.4453  -2.9457  -2.2197  -1.1120  -0.0100   0.3198   0.8085   0.9167
     1.5100   2.2589   2.6201   3.5556   4.1429   4.8939

          k = 0.0000-0.5774 0.0000 ( 12854 PWs)   bands (ev):

   -59.3311 -33.6501 -33.4994 -33.3641 -12.5471 -10.9600  -6.0745  -4.4710
    -3.4456  -2.9856  -2.3499  -1.1517   0.1004   0.5471   0.9187   0.9436
     1.1771   2.3202   2.9633   3.7290   3.9070   4.7675

          k = 0.1000 0.1732 0.0000 ( 12937 PWs)   bands (ev):

   -59.3595 -33.5523 -33.3758 -33.3029 -13.8242 -11.9524  -5.0267  -3.5834
    -2.8890  -2.8038  -1.6362  -0.9738   0.1282   0.2963   0.7302   1.0382
     1.3199   1.5975   3.3571   3.6085   4.0789   4.2201

          k = 0.1000 0.2887 0.0000 ( 12944 PWs)   bands (ev):

   -59.3487 -33.5336 -33.4731 -33.3339 -13.3994 -11.6137  -4.6962  -4.3320
    -3.0518  -2.9554  -1.9122  -1.0571  -0.1553   0.2997   0.5976   0.8502
     1.5325   1.9505   2.7166   3.4133   4.1681   4.5727

          k = 0.1000 0.4041 0.0000 ( 12898 PWs)   bands (ev):

   -59.3379 -33.5727 -33.5108 -33.3650 -12.9091 -11.2309  -5.3216  -4.2859
    -3.4124  -3.1464  -2.0281  -1.2101  -0.1955   0.2656   0.7578   0.8654
     1.5708   2.0998   2.5676   3.4820   4.3609   4.6376

          k = 0.1000 0.5196 0.0000 ( 12858 PWs)   bands (ev):

   -59.3311 -33.6309 -33.4994 -33.3842 -12.5580 -10.9616  -5.8911  -4.3634
    -3.4725  -3.2513  -2.1910  -1.3579  -0.0604   0.4046   0.9719   0.9826
     1.2706   2.2540   2.7500   3.7090   4.1951   4.5729

          k = 0.2000 0.3464 0.0000 ( 12917 PWs)   bands (ev):

   -59.3390 -33.5452 -33.5115 -33.3811 -12.9703 -11.2743  -5.0422  -4.1956
    -3.4842  -3.3030  -1.9617  -1.1967  -0.4191   0.2909   0.6575   0.8705
     1.5028   2.1334   2.6529   3.4208   4.1620   4.6476

          k = 0.2000 0.4619 0.0000 ( 12869 PWs)   bands (ev):

   -59.3311 -33.5904 -33.4992 -33.4263 -12.5753 -10.9640  -5.4978  -4.1445
    -3.8156  -3.4553  -2.1093  -1.4740  -0.3625   0.3105   0.8907   0.9938
     1.3238   2.2712   2.5273   3.6638   4.1617   4.7912

          k = 0.2000 0.5774 0.0000 ( 12850 PWs)   bands (ev):

   -59.3281 -33.6066 -33.4940 -33.4449 -12.4094 -10.8340  -5.6857  -4.3329
    -3.8048  -3.4276  -2.2296  -1.6212  -0.2479   0.3939   0.7445   1.0903
     1.4801   2.2212   2.7843   3.4866   3.9369   5.0687

          k = 0.3000 0.5196 0.0000 ( 12860 PWs)   bands (ev):

   -59.3270 -33.5717 -33.4942 -33.4917 -12.3550 -10.7845  -5.3737  -4.6541
    -3.7693  -3.4955  -2.4292  -1.5883  -0.2601   0.3297   0.5672   1.1379
     1.6267   2.1599   2.8088   3.4401   3.7138   5.6311

     the Fermi energy is     2.0906 ev

!    total energy              =    -658.57589064 Ry
     total all-electron energy =    -12481.749781 Ry
     estimated scf accuracy    <       0.00000004 Ry
     smearing contrib. (-TS)   =      -0.00626118 Ry
     internal energy E=F+TS    =    -658.56962946 Ry

     The total energy is F=E-TS. E is the sum of the following terms:
     one-electron contribution =   -1352.02452919 Ry
     hartree contribution      =     689.67025590 Ry
     xc contribution           =     -62.51967927 Ry
     ewald contribution        =     472.45246251 Ry
     one-center paw contrib.   =    -406.14813941 Ry

     convergence has been achieved in   9 iterations

     negative rho (up, down):  4.801E-04 0.000E+00

     Forces acting on atoms (cartesian axes, Ry/au):

     atom    1 type  1   force =     0.00000000    0.00000000    0.05321630
     atom    2 type  2   force =     0.00000000    0.00000000   -0.04894878
     atom    3 type  2   force =     0.00000000    0.00000000   -0.00096291
     atom    4 type  3   force =     0.00000000    0.00000000   -0.00330461
     The non-local contrib.  to forces
     atom    1 type  1   force =     0.00000000    0.00000000   -0.11402581
     atom    2 type  2   force =     0.00000000    0.00000000   -0.10096065
     atom    3 type  2   force =     0.00000000    0.00000000    0.26389534
     atom    4 type  3   force =     0.00000000    0.00000000    0.04677053
     The ionic contribution  to forces
     atom    1 type  1   force =     0.00000000   -0.00000000  -34.38091538
     atom    2 type  2   force =    -0.00000000    0.00000000   20.54146311
     atom    3 type  2   force =    -0.00000000    0.00000000  -45.69420764
     atom    4 type  3   force =     0.00000000   -0.00000000   59.53365991
     The local contribution  to forces
     atom    1 type  1   force =    -0.00000000   -0.00000000   34.53917385
     atom    2 type  2   force =    -0.00000000    0.00000000  -20.49517806
     atom    3 type  2   force =    -0.00000000    0.00000000   45.43128519
     atom    4 type  3   force =     0.00000000   -0.00000000  -59.54625409
     The core correction contribution to forces
     atom    1 type  1   force =    -0.00000000   -0.00000000    0.00862801
     atom    2 type  2   force =     0.00000000   -0.00000000    0.00541533
     atom    3 type  2   force =     0.00000000   -0.00000000   -0.00187259
     atom    4 type  3   force =     0.00000000   -0.00000000   -0.03786780
     The Hubbard contrib.    to forces
     atom    1 type  1   force =     0.00000000    0.00000000    0.00000000
     atom    2 type  2   force =     0.00000000    0.00000000    0.00000000
     atom    3 type  2   force =     0.00000000    0.00000000    0.00000000
     atom    4 type  3   force =     0.00000000    0.00000000    0.00000000
     The SCF correction term to forces
     atom    1 type  1   force =    -0.00000000   -0.00000000    0.00037726
     atom    2 type  2   force =     0.00000000    0.00000000    0.00033311
     atom    3 type  2   force =    -0.00000000   -0.00000000   -0.00004156
     atom    4 type  3   force =    -0.00000000   -0.00000000    0.00040848

     Total force =     0.072386     Total SCF correction =     0.000650


     Computing stress (Cartesian axis) and pressure


     negative rho (up, down):  4.801E-04 0.000E+00
          total   stress  (Ry/bohr**3)                   (kbar)     P=        3.25
   0.00012802   0.00000000   0.00000000           18.83        0.00        0.00
   0.00000000   0.00012802  -0.00000000            0.00       18.83       -0.00
   0.00000000   0.00000000  -0.00018975            0.00        0.00      -27.91

     Energy error            =      3.3E-03 Ry
     Gradient error          =      5.3E-02 Ry/Bohr

     number of scf cycles    =  12
     number of bfgs steps    =  11

     energy             old  =    -658.5726139659 Ry
     energy             new  =    -658.5758906378 Ry

     CASE: energy            _new < energy            _old

     new trust radius        =       0.1283569321 bohr
     new conv_thr            =       0.0000003277 Ry


ATOMIC_POSITIONS (crystal)
Mo            0.0000000000        0.0000000000        0.5054294374
S             0.6666666667        0.3333333333        0.6112888245
S             0.6666666667        0.3333333333        0.4210347418
Co            0.3333333333        0.6666666667        0.6598830601



     Writing config-only to output data dir ./tmp/relax.save/
     NEW-OLD atomic charge density approx. for the potential

     negative rho (up, down):  4.488E-04 0.000E+00

     total cpu time spent up to now is      145.8 secs

     Self-consistent Calculation

     iteration #  1     ecut=    80.00 Ry     beta= 0.70
     Davidson diagonalization with overlap
     ethr =  1.00E-06,  avg # of iterations = 12.6

     negative rho (up, down):  4.836E-04 0.000E+00

     total cpu time spent up to now is      147.7 secs

     total energy              =    -658.57774555 Ry
     estimated scf accuracy    <       0.00746069 Ry

     iteration #  2     ecut=    80.00 Ry     beta= 0.70
     Davidson diagonalization with overlap
     ethr =  2.13E-05,  avg # of iterations =  4.7

     negative rho (up, down):  4.803E-04 0.000E+00

     total cpu time spent up to now is      148.6 secs

     total energy              =    -658.56425353 Ry
     estimated scf accuracy    <       0.20891970 Ry

     iteration #  3     ecut=    80.00 Ry     beta= 0.70
     Davidson diagonalization with overlap
     ethr =  2.13E-05,  avg # of iterations =  6.3

     negative rho (up, down):  4.791E-04 0.000E+00

     total cpu time spent up to now is      149.5 secs

     total energy              =    -658.57167477 Ry
     estimated scf accuracy    <       0.17667553 Ry

     iteration #  4     ecut=    80.00 Ry     beta= 0.70
     Davidson diagonalization with overlap
     ethr =  2.13E-05,  avg # of iterations =  3.7

     negative rho (up, down):  4.834E-04 0.000E+00

     total cpu time spent up to now is      150.4 secs

     total energy              =    -658.58139392 Ry
     estimated scf accuracy    <       0.00727213 Ry

     iteration #  5     ecut=    80.00 Ry     beta= 0.70
     Davidson diagonalization with overlap
     ethr =  2.08E-05,  avg # of iterations =  1.6

     negative rho (up, down):  4.948E-04 0.000E+00

     total cpu time spent up to now is      151.1 secs

     total energy              =    -658.58190939 Ry
     estimated scf accuracy    <       0.00093047 Ry

     iteration #  6     ecut=    80.00 Ry     beta= 0.70
     Davidson diagonalization with overlap
     ethr =  2.66E-06,  avg # of iterations =  3.1

     negative rho (up, down):  4.959E-04 0.000E+00

     total cpu time spent up to now is      151.9 secs

     total energy              =    -658.58197417 Ry
     estimated scf accuracy    <       0.00012656 Ry

     iteration #  7     ecut=    80.00 Ry     beta= 0.70
     Davidson diagonalization with overlap
     ethr =  3.62E-07,  avg # of iterations =  2.2

     negative rho (up, down):  4.966E-04 0.000E+00

     total cpu time spent up to now is      152.7 secs

     total energy              =    -658.58199108 Ry
     estimated scf accuracy    <       0.00002586 Ry

     iteration #  8     ecut=    80.00 Ry     beta= 0.70
     Davidson diagonalization with overlap
     ethr =  7.39E-08,  avg # of iterations =  2.3

     negative rho (up, down):  4.968E-04 0.000E+00

     total cpu time spent up to now is      153.4 secs

     total energy              =    -658.58199410 Ry
     estimated scf accuracy    <       0.00000081 Ry

     iteration #  9     ecut=    80.00 Ry     beta= 0.70
     Davidson diagonalization with overlap
     ethr =  2.31E-09,  avg # of iterations =  5.6

     negative rho (up, down):  4.969E-04 0.000E+00

     total cpu time spent up to now is      154.3 secs

     End of self-consistent calculation

          k = 0.0000 0.0000 0.0000 ( 12991 PWs)   bands (ev):

   -59.4266 -33.6365 -33.3273 -33.3273 -14.3579 -12.2450  -5.5482  -3.0540
    -3.0540  -2.9961  -0.9519  -0.9519   0.3761   0.3761   0.8889   1.0999
     1.1254   1.1254   3.5783   4.3827   4.3844   4.5362

          k = 0.0000 0.1155 0.0000 ( 12953 PWs)   bands (ev):

   -59.4229 -33.6298 -33.3638 -33.3358 -14.2326 -12.1423  -5.4064  -3.3623
    -3.0527  -2.9189  -1.2352  -0.9082   0.1651   0.3232   0.7486   1.1111
     1.1626   1.2937   3.7065   4.0862   4.2014   4.3118

          k = 0.0000 0.2309 0.0000 ( 12929 PWs)   bands (ev):

   -59.4133 -33.6121 -33.4582 -33.3577 -13.8830 -11.8582  -5.0480  -4.1298
    -3.0687  -2.8728  -1.7422  -0.8872  -0.2223   0.3184   0.5999   0.8947
     1.3558   1.5766   3.1007   3.9590   3.9770   4.5638

          k = 0.0000 0.3464 0.0000 ( 12915 PWs)   bands (ev):

   -59.4013 -33.5925 -33.5706 -33.3847 -13.3950 -11.4665  -5.1494  -4.5899
    -3.1922  -3.1271  -2.0160  -0.9735  -0.3631   0.2774   0.4671   0.8675
     1.7536   1.7902   2.5648   3.6092   4.1560   4.9350

          k = 0.0000 0.4619 0.0000 ( 12872 PWs)   bands (ev):

   -59.3917 -33.6658 -33.5710 -33.4064 -12.9342 -11.1008  -5.9431  -4.4752
    -3.4875  -3.2022  -2.2654  -1.0684  -0.1606   0.2062   0.6736   0.9518
     1.4613   2.1690   2.7733   3.5454   4.1790   4.8414

          k = 0.0000-0.5774 0.0000 ( 12854 PWs)   bands (ev):

   -59.3879 -33.7002 -33.5643 -33.4147 -12.7358 -10.9441  -6.2719  -4.5317
    -3.5255  -3.2365  -2.4040  -1.1055  -0.0074   0.4060   0.7842   0.8867
     1.1877   2.2258   3.1079   3.7000   3.9916   4.7262

          k = 0.1000 0.1732 0.0000 ( 12937 PWs)   bands (ev):

   -59.4163 -33.6175 -33.4266 -33.3536 -13.9949 -11.9486  -5.1524  -3.8650
    -3.1057  -2.8467  -1.5973  -0.9385  -0.0042   0.1634   0.6716   0.9568
     1.2376   1.5804   3.5081   3.7853   3.9408   4.3047

          k = 0.1000 0.2887 0.0000 ( 12944 PWs)   bands (ev):

   -59.4055 -33.5980 -33.5244 -33.3845 -13.5736 -11.6079  -4.8401  -4.5768
    -3.2550  -3.0006  -1.9012  -1.0349  -0.2916   0.1803   0.5226   0.8064
     1.4652   1.9621   2.8273   3.4886   4.0634   4.6130

          k = 0.1000 0.4041 0.0000 ( 12898 PWs)   bands (ev):

   -59.3947 -33.6229 -33.5760 -33.4156 -13.0902 -11.2202  -5.5394  -4.4123
    -3.4838  -3.3297  -2.0523  -1.1925  -0.3453   0.1661   0.6416   0.8837
     1.4837   2.1359   2.6414   3.5139   4.3019   4.6192

          k = 0.1000 0.5196 0.0000 ( 12858 PWs)   bands (ev):

   -59.3880 -33.6810 -33.5643 -33.4348 -12.7463 -10.9457  -6.0919  -4.4391
    -3.5995  -3.4299  -2.2337  -1.3312  -0.1955   0.2979   0.8290   0.9746
     1.2251   2.2014   2.8854   3.7152   4.2452   4.5056

          k = 0.2000 0.3464 0.0000 ( 12917 PWs)   bands (ev):

   -59.3958 -33.5960 -33.5761 -33.4316 -13.1503 -11.2643  -5.2629  -4.3500
    -3.7049  -3.3054  -1.9671  -1.1835  -0.5784   0.2139   0.5922   0.8175
     1.3936   2.2342   2.6894   3.4801   4.0415   4.6596

          k = 0.2000 0.4619 0.0000 ( 12869 PWs)   bands (ev):

   -59.3880 -33.6405 -33.5642 -33.4768 -12.7630 -10.9481  -5.7059  -4.2879
    -4.0157  -3.4762  -2.1085  -1.4891  -0.5312   0.2381   0.8233   0.9584
     1.2062   2.3033   2.6225   3.6385   4.1612   4.7700

          k = 0.2000 0.5774 0.0000 ( 12850 PWs)   bands (ev):

   -59.3850 -33.6568 -33.5588 -33.4955 -12.6011 -10.8151  -5.8853  -4.4818
    -3.9797  -3.4682  -2.2315  -1.6394  -0.4076   0.3138   0.5951   1.1306
     1.3850   2.1878   2.8892   3.4962   3.9672   5.0295

          k = 0.3000 0.5196 0.0000 ( 12860 PWs)   bands (ev):

   -59.3838 -33.6220 -33.5566 -33.5446 -12.5479 -10.7644  -5.5758  -4.8599
    -3.9211  -3.4838  -2.4290  -1.6199  -0.4344   0.2364   0.4538   1.1842
     1.5388   2.1330   2.8580   3.3887   3.8336   5.5533

     the Fermi energy is     2.0894 ev

!    total energy              =    -658.58199456 Ry
     total all-electron energy =    -12481.755885 Ry
     estimated scf accuracy    <       0.00000012 Ry
     smearing contrib. (-TS)   =      -0.00611487 Ry
     internal energy E=F+TS    =    -658.57587969 Ry

     The total energy is F=E-TS. E is the sum of the following terms:
     one-electron contribution =   -1380.83447170 Ry
     hartree contribution      =     703.99723935 Ry
     xc contribution           =     -62.56645031 Ry
     ewald contribution        =     486.97921284 Ry
     one-center paw contrib.   =    -406.15140988 Ry

     convergence has been achieved in   9 iterations

     negative rho (up, down):  4.969E-04 0.000E+00

     Forces acting on atoms (cartesian axes, Ry/au):

     atom    1 type  1   force =     0.00000000    0.00000000    0.03679647
     atom    2 type  2   force =     0.00000000    0.00000000   -0.05886559
     atom    3 type  2   force =     0.00000000    0.00000000    0.01071309
     atom    4 type  3   force =     0.00000000    0.00000000    0.01135603
     The non-local contrib.  to forces
     atom    1 type  1   force =     0.00000000   -0.00000000   -0.09759166
     atom    2 type  2   force =     0.00000000    0.00000000   -0.12008049
     atom    3 type  2   force =     0.00000000    0.00000000    0.26953295
     atom    4 type  3   force =     0.00000000    0.00000000    0.01973435
     The ionic contribution  to forces
     atom    1 type  1   force =     0.00000000   -0.00000000  -35.05740287
     atom    2 type  2   force =    -0.00000000    0.00000000   21.14307454
     atom    3 type  2   force =    -0.00000000    0.00000000  -46.05585727
     atom    4 type  3   force =     0.00000000   -0.00000000   59.97018560
     The local contribution  to forces
     atom    1 type  1   force =     0.00000000   -0.00000000   35.18403237
     atom    2 type  2   force =    -0.00000000    0.00000000  -21.08683232
     atom    3 type  2   force =    -0.00000000    0.00000000   45.79926845
     atom    4 type  3   force =     0.00000000   -0.00000000  -59.93862217
     The core correction contribution to forces
     atom    1 type  1   force =    -0.00000000   -0.00000000    0.00779132
     atom    2 type  2   force =     0.00000000   -0.00000000    0.00577277
     atom    3 type  2   force =     0.00000000   -0.00000000   -0.00215035
     atom    4 type  3   force =     0.00000000   -0.00000000   -0.03884907
     The Hubbard contrib.    to forces
     atom    1 type  1   force =     0.00000000    0.00000000    0.00000000
     atom    2 type  2   force =     0.00000000    0.00000000    0.00000000
     atom    3 type  2   force =     0.00000000    0.00000000    0.00000000
     atom    4 type  3   force =     0.00000000    0.00000000    0.00000000
     The SCF correction term to forces
     atom    1 type  1   force =    -0.00000000   -0.00000000   -0.00013354
     atom    2 type  2   force =     0.00000000   -0.00000000   -0.00090095
     atom    3 type  2   force =     0.00000000    0.00000000   -0.00018153
     atom    4 type  3   force =    -0.00000000   -0.00000000   -0.00119353

     Total force =     0.071154     Total SCF correction =     0.001512


     Computing stress (Cartesian axis) and pressure


     negative rho (up, down):  4.969E-04 0.000E+00
          total   stress  (Ry/bohr**3)                   (kbar)     P=       10.53
   0.00019396   0.00000000   0.00000000           28.53        0.00        0.00
   0.00000000   0.00019396  -0.00000000            0.00       28.53       -0.00
   0.00000000   0.00000000  -0.00017310            0.00        0.00      -25.46

     Energy error            =      6.1E-03 Ry
     Gradient error          =      5.9E-02 Ry/Bohr

     number of scf cycles    =  13
     number of bfgs steps    =  12

     energy             old  =    -658.5758906378 Ry
     energy             new  =    -658.5819945628 Ry

     CASE: energy            _new < energy            _old

     new trust radius        =       0.1925353982 bohr
     new conv_thr            =       0.0000005887 Ry


ATOMIC_POSITIONS (crystal)
Mo            0.0000000000        0.0000000000        0.5108945858
S             0.6666666667        0.3333333333        0.6079969536
S             0.6666666667        0.3333333333        0.4244626378
Co            0.3333333333        0.6666666667        0.6542818866



     Writing config-only to output data dir ./tmp/relax.save/
     NEW-OLD atomic charge density approx. for the potential

     negative rho (up, down):  4.220E-04 0.000E+00

     total cpu time spent up to now is      156.9 secs

     Self-consistent Calculation

     iteration #  1     ecut=    80.00 Ry     beta= 0.70
     Davidson diagonalization with overlap
     ethr =  1.00E-06,  avg # of iterations = 19.0

     negative rho (up, down):  5.001E-04 0.000E+00

     total cpu time spent up to now is      159.4 secs

     total energy              =    -658.57174791 Ry
     estimated scf accuracy    <       0.02746137 Ry

     iteration #  2     ecut=    80.00 Ry     beta= 0.70
     Davidson diagonalization with overlap
     ethr =  7.85E-05,  avg # of iterations =  4.3

     negative rho (up, down):  4.884E-04 0.000E+00

     total cpu time spent up to now is      160.3 secs

     total energy              =    -658.50910824 Ry
     estimated scf accuracy    <       1.11308109 Ry

     iteration #  3     ecut=    80.00 Ry     beta= 0.70
     Davidson diagonalization with overlap
     ethr =  7.85E-05,  avg # of iterations =  6.0

     negative rho (up, down):  4.847E-04 0.000E+00

     total cpu time spent up to now is      161.3 secs

     total energy              =    -658.56001177 Ry
     estimated scf accuracy    <       0.40036078 Ry

     iteration #  4     ecut=    80.00 Ry     beta= 0.70
     Davidson diagonalization with overlap
     ethr =  7.85E-05,  avg # of iterations =  4.1

     negative rho (up, down):  4.946E-04 0.000E+00

     total cpu time spent up to now is      162.1 secs

     total energy              =    -658.58803304 Ry
     estimated scf accuracy    <       0.01669249 Ry

     iteration #  5     ecut=    80.00 Ry     beta= 0.70
     Davidson diagonalization with overlap
     ethr =  4.77E-05,  avg # of iterations =  2.1

     negative rho (up, down):  5.160E-04 0.000E+00

     total cpu time spent up to now is      162.9 secs

     total energy              =    -658.58938716 Ry
     estimated scf accuracy    <       0.00333689 Ry

     iteration #  6     ecut=    80.00 Ry     beta= 0.70
     Davidson diagonalization with overlap
     ethr =  9.53E-06,  avg # of iterations =  2.6

     negative rho (up, down):  5.232E-04 0.000E+00

     total cpu time spent up to now is      163.6 secs

     total energy              =    -658.58963186 Ry
     estimated scf accuracy    <       0.00136125 Ry

     iteration #  7     ecut=    80.00 Ry     beta= 0.70
     Davidson diagonalization with overlap
     ethr =  3.89E-06,  avg # of iterations =  1.9

     negative rho (up, down):  5.256E-04 0.000E+00

     total cpu time spent up to now is      164.4 secs

     total energy              =    -658.58972647 Ry
     estimated scf accuracy    <       0.00019687 Ry

     iteration #  8     ecut=    80.00 Ry     beta= 0.70
     Davidson diagonalization with overlap
     ethr =  5.62E-07,  avg # of iterations =  2.1

     negative rho (up, down):  5.256E-04 0.000E+00

     total cpu time spent up to now is      165.1 secs

     total energy              =    -658.58974020 Ry
     estimated scf accuracy    <       0.00001255 Ry

     iteration #  9     ecut=    80.00 Ry     beta= 0.70
     Davidson diagonalization with overlap
     ethr =  3.59E-08,  avg # of iterations =  4.5

     negative rho (up, down):  5.256E-04 0.000E+00

     total cpu time spent up to now is      166.0 secs

     total energy              =    -658.58974468 Ry
     estimated scf accuracy    <       0.00000221 Ry

     iteration # 10     ecut=    80.00 Ry     beta= 0.70
     Davidson diagonalization with overlap
     ethr =  6.32E-09,  avg # of iterations =  2.6

     negative rho (up, down):  5.257E-04 0.000E+00

     total cpu time spent up to now is      166.7 secs

     End of self-consistent calculation

          k = 0.0000 0.0000 0.0000 ( 12991 PWs)   bands (ev):

   -59.5047 -33.7368 -33.4056 -33.4056 -14.6255 -12.2068  -5.7759  -3.4669
    -3.4669  -2.7569  -0.9457  -0.9457   0.2889   0.2889   0.6341   0.8785
     0.8785   1.0402   3.9760   4.1859   4.1859   4.7868

          k = 0.0000 0.1155 0.0000 ( 12953 PWs)   bands (ev):

   -59.5010 -33.7296 -33.4426 -33.4141 -14.5010 -12.1055  -5.6319  -3.7735
    -3.4656  -2.7285  -1.2075  -0.8883  -0.0057   0.1892   0.5925   0.9271
     0.9659   1.2443   3.8242   4.1638   4.2043   4.4121

          k = 0.0000 0.2309 0.0000 ( 12929 PWs)   bands (ev):

   -59.4913 -33.7108 -33.5386 -33.4362 -14.1558 -11.8238  -5.2657  -4.5465
    -3.4822  -2.7805  -1.6796  -0.8436  -0.4349   0.1571   0.4495   0.8477
     1.1938   1.5811   3.3590   3.8377   3.9641   4.7866

          k = 0.0000 0.3464 0.0000 ( 12915 PWs)   bands (ev):

   -59.4792 -33.6876 -33.6551 -33.4635 -13.6793 -11.4316  -5.5035  -4.8435
    -3.5418  -3.1492  -2.0118  -0.9054  -0.5747   0.0925   0.3200   0.9353
     1.6094   1.7703   2.8544   3.6219   4.1086   4.9236

          k = 0.0000 0.4619 0.0000 ( 12872 PWs)   bands (ev):

   -59.4695 -33.7484 -33.6683 -33.4854 -13.2362 -11.0606  -6.2801  -4.6617
    -3.6179  -3.5090  -2.3440  -0.9702  -0.3730   0.0694   0.5297   0.9939
     1.4956   1.9688   3.0631   3.5338   4.3012   4.8497

          k = 0.0000-0.5774 0.0000 ( 12854 PWs)   bands (ev):

   -59.4657 -33.7835 -33.6610 -33.4938 -13.0478 -10.8998  -6.5934  -4.6699
    -3.6524  -3.6042  -2.5072  -0.9942  -0.2106   0.2864   0.6399   0.7716
     1.3766   2.0312   3.3582   3.6468   4.2262   4.7635

          k = 0.1000 0.1732 0.0000 ( 12937 PWs)   bands (ev):

   -59.4943 -33.7166 -33.5064 -33.4321 -14.2659 -11.9136  -5.3732  -4.2808
    -3.5184  -2.7261  -1.5433  -0.9244  -0.1754  -0.0133   0.5739   0.8460
     1.0724   1.5696   3.6325   3.8224   3.9628   4.4044

          k = 0.1000 0.2887 0.0000 ( 12944 PWs)   bands (ev):

   -59.4834 -33.6955 -33.6062 -33.4634 -13.8528 -11.5735  -5.0923  -4.9517
    -3.6658  -2.9432  -1.8622  -1.0427  -0.4377   0.0138   0.4294   0.7793
     1.3236   1.9852   3.0512   3.5748   3.9081   4.6732

          k = 0.1000 0.4041 0.0000 ( 12898 PWs)   bands (ev):

   -59.4725 -33.7044 -33.6740 -33.4948 -13.3850 -11.1819  -5.8900  -4.6462
    -3.8548  -3.3456  -2.0785  -1.1571  -0.5346   0.0429   0.5056   0.9541
     1.3632   2.1343   2.8586   3.5749   4.2121   4.6861

          k = 0.1000 0.5196 0.0000 ( 12858 PWs)   bands (ev):

   -59.4657 -33.7640 -33.6610 -33.5142 -13.0571 -10.9008  -6.4199  -4.6051
    -3.9771  -3.5172  -2.3107  -1.2465  -0.3982   0.2007   0.6723   0.9053
     1.3217   2.0857   3.1361   3.7444   4.4010   4.4810

          k = 0.2000 0.3464 0.0000 ( 12917 PWs)   bands (ev):

   -59.4737 -33.6784 -33.6730 -33.5110 -13.4425 -11.2263  -5.6171  -4.6179
    -4.1089  -3.2558  -1.9491  -1.1683  -0.7865   0.1210   0.5239   0.8008
     1.2408   2.3765   2.8205   3.5916   3.8642   4.7209

          k = 0.2000 0.4619 0.0000 ( 12869 PWs)   bands (ev):

   -59.4657 -33.7229 -33.6611 -33.5567 -13.0719 -10.9023  -6.0465  -4.6055
    -4.3445  -3.4529  -2.0923  -1.4763  -0.7559   0.1668   0.6856   0.9904
     1.1173   2.3169   2.8691   3.6358   4.1544   4.8358

          k = 0.2000 0.5774 0.0000 ( 12850 PWs)   bands (ev):

   -59.4627 -33.7395 -33.6552 -33.5756 -12.9186 -10.7647  -6.2160  -4.8048
    -4.2819  -3.4686  -2.2295  -1.6251  -0.6108   0.2327   0.4512   1.1699
     1.3376   2.1389   3.0663   3.5470   4.1472   5.0084

          k = 0.3000 0.5196 0.0000 ( 12860 PWs)   bands (ev):

   -59.4616 -33.7045 -33.6530 -33.6251 -12.8677 -10.7114  -5.9068  -5.2525
    -4.2008  -3.4264  -2.3922  -1.6514  -0.6349   0.1113   0.3759   1.2847
     1.4374   2.1043   2.9524   3.3533   4.1640   5.4684

     the Fermi energy is     2.0400 ev

!    total energy              =    -658.58974474 Ry
     total all-electron energy =    -12481.763636 Ry
     estimated scf accuracy    <       0.00000021 Ry
     smearing contrib. (-TS)   =      -0.00587644 Ry
     internal energy E=F+TS    =    -658.58386830 Ry

     The total energy is F=E-TS. E is the sum of the following terms:
     one-electron contribution =   -1432.94136707 Ry
     hartree contribution      =     729.95964352 Ry
     xc contribution           =     -62.65688106 Ry
     ewald contribution        =     513.21027432 Ry
     one-center paw contrib.   =    -406.15553800 Ry

     convergence has been achieved in  10 iterations

     negative rho (up, down):  5.257E-04 0.000E+00

     Forces acting on atoms (cartesian axes, Ry/au):

     atom    1 type  1   force =     0.00000000    0.00000000   -0.00429116
     atom    2 type  2   force =     0.00000000    0.00000000   -0.05033162
     atom    3 type  2   force =     0.00000000    0.00000000    0.02420035
     atom    4 type  3   force =     0.00000000    0.00000000    0.03042244
     The non-local contrib.  to forces
     atom    1 type  1   force =     0.00000000    0.00000000   -0.06366575
     atom    2 type  2   force =     0.00000000    0.00000000   -0.11432601
     atom    3 type  2   force =     0.00000000    0.00000000    0.27611035
     atom    4 type  3   force =     0.00000000    0.00000000   -0.01317488
     The ionic contribution  to forces
     atom    1 type  1   force =     0.00000000   -0.00000000  -36.10305093
     atom    2 type  2   force =    -0.00000000    0.00000000   21.84577418
     atom    3 type  2   force =    -0.00000000    0.00000000  -46.71677637
     atom    4 type  3   force =     0.00000000   -0.00000000   60.97405313
     The local contribution  to forces
     atom    1 type  1   force =     0.00000000   -0.00000000   36.15616864
     atom    2 type  2   force =    -0.00000000    0.00000000  -21.78560238
     atom    3 type  2   force =    -0.00000000    0.00000000   46.46731896
     atom    4 type  3   force =     0.00000000   -0.00000000  -60.88924574
     The core correction contribution to forces
     atom    1 type  1   force =    -0.00000000    0.00000000    0.00592580
     atom    2 type  2   force =     0.00000000   -0.00000000    0.00491213
     atom    3 type  2   force =     0.00000000   -0.00000000   -0.00252423
     atom    4 type  3   force =     0.00000000   -0.00000000   -0.03983874
     The Hubbard contrib.    to forces
     atom    1 type  1   force =     0.00000000    0.00000000    0.00000000
     atom    2 type  2   force =     0.00000000    0.00000000    0.00000000
     atom    3 type  2   force =     0.00000000    0.00000000    0.00000000
     atom    4 type  3   force =     0.00000000    0.00000000    0.00000000
     The SCF correction term to forces
     atom    1 type  1   force =    -0.00000000   -0.00000000    0.00020242
     atom    2 type  2   force =     0.00000000    0.00000000   -0.00121820
     atom    3 type  2   force =    -0.00000000   -0.00000000   -0.00005703
     atom    4 type  3   force =     0.00000000    0.00000000   -0.00150001

     Total force =     0.063741     Total SCF correction =     0.001944


     Computing stress (Cartesian axis) and pressure


     negative rho (up, down):  5.257E-04 0.000E+00
          total   stress  (Ry/bohr**3)                   (kbar)     P=       24.65
   0.00029180   0.00000000   0.00000000           42.93        0.00        0.00
   0.00000000   0.00029180  -0.00000000            0.00       42.93       -0.00
   0.00000000   0.00000000  -0.00008083            0.00        0.00      -11.89

     Energy error            =      7.8E-03 Ry
     Gradient error          =      5.0E-02 Ry/Bohr

     number of scf cycles    =  14
     number of bfgs steps    =  13

     energy             old  =    -658.5819945628 Ry
     energy             new  =    -658.5897447372 Ry

     CASE: energy            _new < energy            _old

     new trust radius        =       0.0817038871 bohr
     new conv_thr            =       0.0000005033 Ry


ATOMIC_POSITIONS (crystal)
Mo            0.0000000000        0.0000000000        0.5121240281
S             0.6666666667        0.3333333333        0.6056200523
S             0.6666666667        0.3333333333        0.4255142201
Co            0.3333333333        0.6666666667        0.6543777633



     Writing config-only to output data dir ./tmp/relax.save/
     NEW-OLD atomic charge density approx. for the potential

     negative rho (up, down):  5.204E-04 0.000E+00

     total cpu time spent up to now is      169.3 secs

     Self-consistent Calculation

     iteration #  1     ecut=    80.00 Ry     beta= 0.70
     Davidson diagonalization with overlap
     ethr =  1.00E-06,  avg # of iterations =  9.1

     negative rho (up, down):  5.238E-04 0.000E+00

     total cpu time spent up to now is      170.7 secs

     total energy              =    -658.59264312 Ry
     estimated scf accuracy    <       0.00107608 Ry

     iteration #  2     ecut=    80.00 Ry     beta= 0.70
     Davidson diagonalization with overlap
     ethr =  3.07E-06,  avg # of iterations =  4.1

     negative rho (up, down):  5.225E-04 0.000E+00

     total cpu time spent up to now is      171.6 secs

     total energy              =    -658.59120316 Ry
     estimated scf accuracy    <       0.01798826 Ry

     iteration #  3     ecut=    80.00 Ry     beta= 0.70
     Davidson diagonalization with overlap
     ethr =  3.07E-06,  avg # of iterations =  5.1

     negative rho (up, down):  5.226E-04 0.000E+00

     total cpu time spent up to now is      172.4 secs

     total energy              =    -658.59253784 Ry
     estimated scf accuracy    <       0.00950500 Ry

     iteration #  4     ecut=    80.00 Ry     beta= 0.70
     Davidson diagonalization with overlap
     ethr =  3.07E-06,  avg # of iterations =  3.1

     negative rho (up, down):  5.235E-04 0.000E+00

     total cpu time spent up to now is      173.2 secs

     total energy              =    -658.59316827 Ry
     estimated scf accuracy    <       0.00111886 Ry

     iteration #  5     ecut=    80.00 Ry     beta= 0.70
     Davidson diagonalization with overlap
     ethr =  3.07E-06,  avg # of iterations =  1.1

     negative rho (up, down):  5.247E-04 0.000E+00

     total cpu time spent up to now is      173.8 secs

     total energy              =    -658.59324165 Ry
     estimated scf accuracy    <       0.00005441 Ry

     iteration #  6     ecut=    80.00 Ry     beta= 0.70
     Davidson diagonalization with overlap
     ethr =  1.55E-07,  avg # of iterations =  2.6

     negative rho (up, down):  5.250E-04 0.000E+00

     total cpu time spent up to now is      174.6 secs

     total energy              =    -658.59325594 Ry
     estimated scf accuracy    <       0.00000774 Ry

     iteration #  7     ecut=    80.00 Ry     beta= 0.70
     Davidson diagonalization with overlap
     ethr =  2.21E-08,  avg # of iterations =  2.8

     negative rho (up, down):  5.251E-04 0.000E+00

     total cpu time spent up to now is      175.3 secs

     total energy              =    -658.59325789 Ry
     estimated scf accuracy    <       0.00000166 Ry

     iteration #  8     ecut=    80.00 Ry     beta= 0.70
     Davidson diagonalization with overlap
     ethr =  4.74E-09,  avg # of iterations =  3.0

     negative rho (up, down):  5.251E-04 0.000E+00

     total cpu time spent up to now is      176.1 secs

     End of self-consistent calculation

          k = 0.0000 0.0000 0.0000 ( 12991 PWs)   bands (ev):

   -59.5343 -33.7779 -33.4415 -33.4415 -14.6510 -12.2134  -5.8352  -3.3807
    -3.3807  -2.6678  -0.9827  -0.9827   0.3584   0.3584   0.5537   0.7601
     0.7601   1.0930   3.8781   4.1220   4.1220   4.7783

          k = 0.0000 0.1155 0.0000 ( 12953 PWs)   bands (ev):

   -59.5305 -33.7705 -33.4791 -33.4501 -14.5264 -12.1141  -5.6892  -3.7125
    -3.3905  -2.6595  -1.2321  -0.9271   0.0158   0.2360   0.5525   0.8664
     0.8853   1.2853   3.7270   4.1200   4.1443   4.4145

          k = 0.0000 0.2309 0.0000 ( 12929 PWs)   bands (ev):

   -59.5207 -33.7511 -33.5766 -33.4725 -14.1818 -11.8374  -5.3191  -4.5342
    -3.4402  -2.7630  -1.6786  -0.8761  -0.3866   0.2231   0.3876   0.8515
     1.1209   1.6271   3.3793   3.7935   3.9378   4.7335

          k = 0.0000 0.3464 0.0000 ( 12915 PWs)   bands (ev):

   -59.5086 -33.7270 -33.6949 -33.5001 -13.7082 -11.4507  -5.5240  -4.9011
    -3.5434  -3.1593  -2.0067  -0.9132  -0.5200   0.0656   0.4192   0.9614
     1.5188   1.8170   2.9333   3.6263   4.0813   4.9653

          k = 0.0000 0.4619 0.0000 ( 12872 PWs)   bands (ev):

   -59.4987 -33.7892 -33.7074 -33.5222 -13.2701 -11.0830  -6.3158  -4.7241
    -3.6526  -3.5217  -2.3545  -0.9576  -0.3776   0.1460   0.6445   1.0644
     1.5518   1.8929   3.1265   3.5317   4.3273   4.9180

          k = 0.0000-0.5774 0.0000 ( 12854 PWs)   bands (ev):

   -59.4949 -33.8248 -33.6999 -33.5307 -13.0847 -10.9228  -6.6326  -4.7299
    -3.6987  -3.6234  -2.5233  -0.9751  -0.2661   0.4275   0.7579   0.9158
     1.3981   1.9806   3.4093   3.6167   4.2793   4.8500

          k = 0.1000 0.1732 0.0000 ( 12937 PWs)   bands (ev):

   -59.5238 -33.7571 -33.5439 -33.4683 -14.2916 -11.9257  -5.4278  -4.2520
    -3.4733  -2.6902  -1.5545  -0.9498  -0.1360   0.0046   0.5721   0.8172
     1.0197   1.5992   3.5530   3.8535   3.9408   4.3585

          k = 0.1000 0.2887 0.0000 ( 12944 PWs)   bands (ev):

   -59.5128 -33.7354 -33.6451 -33.4999 -13.8803 -11.5908  -5.1106  -4.9956
    -3.6666  -2.9473  -1.8637  -1.0268  -0.4220   0.0557   0.4716   0.7747
     1.3001   1.9944   3.1134   3.5672   3.8740   4.6666

          k = 0.1000 0.4041 0.0000 ( 12898 PWs)   bands (ev):

   -59.5017 -33.7445 -33.7135 -33.5317 -13.4168 -11.2030  -5.9219  -4.7069
    -3.8978  -3.3531  -2.0826  -1.1303  -0.5290   0.0961   0.6112   0.9742
     1.4001   2.1168   2.9274   3.5849   4.1948   4.7303

          k = 0.1000 0.5196 0.0000 ( 12858 PWs)   bands (ev):

   -59.4949 -33.8051 -33.6999 -33.5513 -13.0933 -10.9233  -6.4610  -4.6632
    -4.0564  -3.5148  -2.3265  -1.2179  -0.4044   0.2933   0.8098   1.0191
     1.3325   2.0633   3.1861   3.7467   4.4401   4.5209

          k = 0.2000 0.3464 0.0000 ( 12917 PWs)   bands (ev):

   -59.5029 -33.7164 -33.7143 -33.5482 -13.4732 -11.2467  -5.6456  -4.6784
    -4.1552  -3.2694  -1.9553  -1.1280  -0.7790   0.1875   0.6020   0.8014
     1.2990   2.3877   2.8853   3.6152   3.8199   4.7386

          k = 0.2000 0.4619 0.0000 ( 12869 PWs)   bands (ev):

   -59.4949 -33.7634 -33.7000 -33.5945 -13.1070 -10.9238  -6.0900  -4.6830
    -4.4120  -3.4582  -2.1078  -1.4569  -0.6930   0.2284   0.8016   1.0190
     1.2004   2.3432   2.9362   3.6479   4.1337   4.8665

          k = 0.2000 0.5774 0.0000 ( 12850 PWs)   bands (ev):

   -59.4919 -33.7804 -33.6939 -33.6136 -12.9558 -10.7862  -6.2656  -4.8826
    -4.3623  -3.4677  -2.2539  -1.6038  -0.5341   0.3059   0.5829   1.2282
     1.3969   2.1791   3.0820   3.5757   4.2104   5.0063

          k = 0.3000 0.5196 0.0000 ( 12860 PWs)   bands (ev):

   -59.4907 -33.7451 -33.6916 -33.6635 -12.9051 -10.7323  -5.9576  -5.3463
    -4.2688  -3.4359  -2.4004  -1.6614  -0.5061   0.2133   0.4602   1.2862
     1.5474   2.1837   2.9494   3.3463   4.2676   5.4665

     the Fermi energy is     2.0376 ev

!    total energy              =    -658.59325823 Ry
     total all-electron energy =    -12481.767149 Ry
     estimated scf accuracy    <       0.00000006 Ry
     smearing contrib. (-TS)   =      -0.00564704 Ry
     internal energy E=F+TS    =    -658.58761119 Ry

     The total energy is F=E-TS. E is the sum of the following terms:
     one-electron contribution =   -1442.50523144 Ry
     hartree contribution      =     734.73826170 Ry
     xc contribution           =     -62.66778290 Ry
     ewald contribution        =     518.00026461 Ry
     one-center paw contrib.   =    -406.15312317 Ry

     convergence has been achieved in   8 iterations

     negative rho (up, down):  5.251E-04 0.000E+00

     Forces acting on atoms (cartesian axes, Ry/au):

     atom    1 type  1   force =     0.00000000    0.00000000   -0.01689557
     atom    2 type  2   force =     0.00000000    0.00000000   -0.02329634
     atom    3 type  2   force =     0.00000000    0.00000000    0.02141980
     atom    4 type  3   force =     0.00000000    0.00000000    0.01877211
     The non-local contrib.  to forces
     atom    1 type  1   force =     0.00000000    0.00000000   -0.04971071
     atom    2 type  2   force =     0.00000000    0.00000000   -0.08570751
     atom    3 type  2   force =     0.00000000    0.00000000    0.27501092
     atom    4 type  3   force =     0.00000000    0.00000000   -0.02212700
     The ionic contribution  to forces
     atom    1 type  1   force =     0.00000000   -0.00000000  -36.19390211
     atom    2 type  2   force =    -0.00000000    0.00000000   21.54556680
     atom    3 type  2   force =    -0.00000000    0.00000000  -46.86944395
     atom    4 type  3   force =     0.00000000   -0.00000000   61.51777926
     The local contribution  to forces
     atom    1 type  1   force =    -0.00000000   -0.00000000   36.22084362
     atom    2 type  2   force =    -0.00000000    0.00000000  -21.48693270
     atom    3 type  2   force =    -0.00000000    0.00000000   46.61772872
     atom    4 type  3   force =     0.00000000   -0.00000000  -61.43675115
     The core correction contribution to forces
     atom    1 type  1   force =    -0.00000000    0.00000000    0.00513858
     atom    2 type  2   force =     0.00000000   -0.00000000    0.00364005
     atom    3 type  2   force =     0.00000000   -0.00000000   -0.00250908
     atom    4 type  3   force =     0.00000000   -0.00000000   -0.03993033
     The Hubbard contrib.    to forces
     atom    1 type  1   force =     0.00000000    0.00000000    0.00000000
     atom    2 type  2   force =     0.00000000    0.00000000    0.00000000
     atom    3 type  2   force =     0.00000000    0.00000000    0.00000000
     atom    4 type  3   force =     0.00000000    0.00000000    0.00000000
     The SCF correction term to forces
     atom    1 type  1   force =    -0.00000000   -0.00000000    0.00061595
     atom    2 type  2   force =    -0.00000000    0.00000000    0.00001790
     atom    3 type  2   force =     0.00000000    0.00000000    0.00051408
     atom    4 type  3   force =    -0.00000000   -0.00000000   -0.00031778

     Total force =     0.040489     Total SCF correction =     0.000863


     Computing stress (Cartesian axis) and pressure


     negative rho (up, down):  5.251E-04 0.000E+00
          total   stress  (Ry/bohr**3)                   (kbar)     P=       23.88
   0.00026711  -0.00000000   0.00000000           39.29       -0.00        0.00
  -0.00000000   0.00026711   0.00000000           -0.00       39.29        0.00
   0.00000000  -0.00000000  -0.00004714            0.00       -0.00       -6.93

     Energy error            =      3.5E-03 Ry
     Gradient error          =      2.3E-02 Ry/Bohr

     number of scf cycles    =  15
     number of bfgs steps    =  14

     energy             old  =    -658.5897447372 Ry
     energy             new  =    -658.5932582289 Ry

     CASE: energy            _new < energy            _old

     new trust radius        =       0.0741066885 bohr
     new conv_thr            =       0.0000002330 Ry


ATOMIC_POSITIONS (crystal)
Mo            0.0000000000        0.0000000000        0.5113767468
S             0.6666666667        0.3333333333        0.6040388654
S             0.6666666667        0.3333333333        0.4256868020
Co            0.3333333333        0.6666666667        0.6565336495



     Writing config-only to output data dir ./tmp/relax.save/
     NEW-OLD atomic charge density approx. for the potential

     negative rho (up, down):  5.271E-04 0.000E+00

     total cpu time spent up to now is      178.5 secs

     Self-consistent Calculation

     iteration #  1     ecut=    80.00 Ry     beta= 0.70
     Davidson diagonalization with overlap
     ethr =  1.00E-06,  avg # of iterations = 11.9

     negative rho (up, down):  5.337E-04 0.000E+00

     total cpu time spent up to now is      180.1 secs

     total energy              =    -658.58975131 Ry
     estimated scf accuracy    <       0.00677328 Ry

     iteration #  2     ecut=    80.00 Ry     beta= 0.70
     Davidson diagonalization with overlap
     ethr =  1.94E-05,  avg # of iterations =  7.1

     negative rho (up, down):  5.328E-04 0.000E+00

     total cpu time spent up to now is      181.2 secs

     total energy              =    -658.51306555 Ry
     estimated scf accuracy    <       2.24485922 Ry

     iteration #  3     ecut=    80.00 Ry     beta= 0.70
     Davidson diagonalization with overlap
     ethr =  1.94E-05,  avg # of iterations =  7.3

     negative rho (up, down):  5.323E-04 0.000E+00

     total cpu time spent up to now is      182.2 secs

     total energy              =    -658.59366261 Ry
     estimated scf accuracy    <       0.00872028 Ry

     iteration #  4     ecut=    80.00 Ry     beta= 0.70
     Davidson diagonalization with overlap
     ethr =  1.94E-05,  avg # of iterations =  2.1

     negative rho (up, down):  5.333E-04 0.000E+00

     total cpu time spent up to now is      183.0 secs

     total energy              =    -658.59468057 Ry
     estimated scf accuracy    <       0.00078928 Ry

     iteration #  5     ecut=    80.00 Ry     beta= 0.70
     Davidson diagonalization with overlap
     ethr =  2.26E-06,  avg # of iterations =  2.9

     negative rho (up, down):  5.346E-04 0.000E+00

     total cpu time spent up to now is      183.8 secs

     total energy              =    -658.59481309 Ry
     estimated scf accuracy    <       0.00067555 Ry

     iteration #  6     ecut=    80.00 Ry     beta= 0.70
     Davidson diagonalization with overlap
     ethr =  1.93E-06,  avg # of iterations =  2.1

     negative rho (up, down):  5.342E-04 0.000E+00

     total cpu time spent up to now is      184.6 secs

     total energy              =    -658.59489157 Ry
     estimated scf accuracy    <       0.00010794 Ry

     iteration #  7     ecut=    80.00 Ry     beta= 0.70
     Davidson diagonalization with overlap
     ethr =  3.08E-07,  avg # of iterations =  2.0

     negative rho (up, down):  5.342E-04 0.000E+00

     total cpu time spent up to now is      185.4 secs

     total energy              =    -658.59490705 Ry
     estimated scf accuracy    <       0.00000629 Ry

     iteration #  8     ecut=    80.00 Ry     beta= 0.70
     Davidson diagonalization with overlap
     ethr =  1.80E-08,  avg # of iterations =  4.4

     negative rho (up, down):  5.342E-04 0.000E+00

     total cpu time spent up to now is      186.2 secs

     total energy              =    -658.59490949 Ry
     estimated scf accuracy    <       0.00000055 Ry

     iteration #  9     ecut=    80.00 Ry     beta= 0.70
     Davidson diagonalization with overlap
     ethr =  1.58E-09,  avg # of iterations =  2.4

     negative rho (up, down):  5.342E-04 0.000E+00

     total cpu time spent up to now is      187.0 secs

     End of self-consistent calculation

          k = 0.0000 0.0000 0.0000 ( 12991 PWs)   bands (ev):

   -59.5413 -33.7875 -33.4548 -33.4548 -14.5752 -12.2431  -5.8049  -3.1069
    -3.1069  -2.6708  -1.0329  -1.0329   0.4805   0.4805   0.5801   0.7307
     0.7307   1.1744   3.6262   4.1365   4.1366   4.6639

          k = 0.0000 0.1155 0.0000 ( 12953 PWs)   bands (ev):

   -59.5375 -33.7800 -33.4927 -33.4634 -14.4495 -12.1460  -5.6584  -3.4705
    -3.1279  -2.6660  -1.2770  -0.9907   0.1176   0.3511   0.5827   0.8776
     0.8816   1.3515   3.6350   4.0092   4.1584   4.3181

          k = 0.0000 0.2309 0.0000 ( 12929 PWs)   bands (ev):

   -59.5277 -33.7603 -33.5911 -33.4860 -14.1017 -11.8753  -5.2891  -4.3528
    -3.2133  -2.7886  -1.7037  -0.9488  -0.2350   0.3753   0.3966   0.8714
     1.1084   1.6740   3.3367   3.7841   3.9375   4.5846

          k = 0.0000 0.3464 0.0000 ( 12915 PWs)   bands (ev):

   -59.5154 -33.7359 -33.7105 -33.5137 -13.6238 -11.4969  -5.3992  -4.8773
    -3.3653  -3.1973  -1.9944  -0.9672  -0.3820   0.1380   0.6042   0.9614
     1.4872   1.8612   2.9216   3.6389   4.0846   5.0049

          k = 0.0000 0.4619 0.0000 ( 12872 PWs)   bands (ev):

   -59.5055 -33.8057 -33.7160 -33.5360 -13.1813 -11.1369  -6.2213  -4.7303
    -3.5408  -3.5113  -2.3187  -0.9986  -0.3179   0.3258   0.8444   1.0955
     1.6258   1.8787   3.1008   3.5380   4.3274   4.9894

          k = 0.0000-0.5774 0.0000 ( 12854 PWs)   bands (ev):

   -59.5017 -33.8416 -33.7084 -33.5445 -12.9938 -10.9801  -6.5501  -4.7499
    -3.6314  -3.5703  -2.4811  -1.0129  -0.2400   0.6399   0.9612   1.1086
     1.3626   1.9905   3.3900   3.6039   4.2576   4.9339

          k = 0.1000 0.1732 0.0000 ( 12937 PWs)   bands (ev):

   -59.5307 -33.7664 -33.5581 -33.4818 -14.2125 -11.9617  -5.3973  -4.0499
    -3.2471  -2.7030  -1.5961  -0.9962  -0.0141   0.0923   0.6451   0.8429
     1.0146   1.6362   3.5605   3.7974   3.8737   4.2720

          k = 0.1000 0.2887 0.0000 ( 12944 PWs)   bands (ev):

   -59.5196 -33.7444 -33.6603 -33.5136 -13.7974 -11.6339  -5.0390  -4.8893
    -3.4908  -2.9863  -1.8813  -1.0187  -0.3411   0.1636   0.5965   0.7950
     1.3194   1.9926   3.1113   3.5551   3.8807   4.6247

          k = 0.1000 0.4041 0.0000 ( 12898 PWs)   bands (ev):

   -59.5085 -33.7606 -33.7221 -33.5457 -13.3293 -11.2542  -5.8152  -4.6953
    -3.7783  -3.3740  -2.0695  -1.1317  -0.4447   0.2251   0.7991   0.9689
     1.4941   2.1009   2.9217   3.5839   4.2156   4.7551

          k = 0.1000 0.5196 0.0000 ( 12858 PWs)   bands (ev):

   -59.5017 -33.8217 -33.7084 -33.5654 -13.0022 -10.9801  -6.3768  -4.6720
    -3.9846  -3.4904  -2.3036  -1.2344  -0.3300   0.4611   1.0311   1.1357
     1.3589   2.0712   3.1647   3.7410   4.4504   4.5527

          k = 0.2000 0.3464 0.0000 ( 12917 PWs)   bands (ev):

   -59.5097 -33.7309 -33.7243 -33.5623 -13.3862 -11.2967  -5.5306  -4.6571
    -4.0328  -3.3177  -1.9739  -1.1069  -0.6640   0.3051   0.6763   0.8955
     1.4076   2.3567   2.8948   3.6156   3.8400   4.7372

          k = 0.2000 0.4619 0.0000 ( 12869 PWs)   bands (ev):

   -59.5017 -33.7797 -33.7085 -33.6089 -13.0157 -10.9799  -6.0010  -4.6365
    -4.3727  -3.4832  -2.1361  -1.4461  -0.5219   0.3432   0.9271   1.0913
     1.3570   2.3657   2.9216   3.6693   4.1375   4.8627

          k = 0.2000 0.5774 0.0000 ( 12850 PWs)   bands (ev):

   -59.4986 -33.7968 -33.7023 -33.6281 -12.8624 -10.8447  -6.1885  -4.8288
    -4.3539  -3.4758  -2.2849  -1.5912  -0.3614   0.4391   0.7878   1.2384
     1.5472   2.2379   3.0560   3.5905   4.2198   4.9953

          k = 0.3000 0.5196 0.0000 ( 12860 PWs)   bands (ev):

   -59.4974 -33.7614 -33.7000 -33.6783 -12.8106 -10.7913  -5.8812  -5.2892
    -4.2516  -3.4826  -2.4310  -1.6556  -0.2718   0.3631   0.6148   1.2782
     1.7007   2.2869   2.9247   3.3496   4.2703   5.4932

     the Fermi energy is     2.0484 ev

!    total energy              =    -658.59490955 Ry
     total all-electron energy =    -12481.768800 Ry
     estimated scf accuracy    <       0.00000006 Ry
     smearing contrib. (-TS)   =      -0.00562943 Ry
     internal energy E=F+TS    =    -658.58928012 Ry

     The total energy is F=E-TS. E is the sum of the following terms:
     one-electron contribution =   -1434.51969983 Ry
     hartree contribution      =     730.78519386 Ry
     xc contribution           =     -62.64684691 Ry
     ewald contribution        =     513.94122375 Ry
     one-center paw contrib.   =    -406.14915099 Ry

     convergence has been achieved in   9 iterations

     negative rho (up, down):  5.342E-04 0.000E+00

     Forces acting on atoms (cartesian axes, Ry/au):

     atom    1 type  1   force =     0.00000000    0.00000000   -0.00909265
     atom    2 type  2   force =     0.00000000    0.00000000    0.00035723
     atom    3 type  2   force =     0.00000000    0.00000000    0.01043656
     atom    4 type  3   force =     0.00000000    0.00000000   -0.00170114
     The non-local contrib.  to forces
     atom    1 type  1   force =     0.00000000   -0.00000000   -0.04785175
     atom    2 type  2   force =     0.00000000    0.00000000   -0.06037688
     atom    3 type  2   force =     0.00000000    0.00000000    0.26983489
     atom    4 type  3   force =     0.00000000    0.00000000   -0.01844530
     The ionic contribution  to forces
     atom    1 type  1   force =     0.00000000   -0.00000000  -35.96270945
     atom    2 type  2   force =    -0.00000000    0.00000000   21.04406531
     atom    3 type  2   force =    -0.00000000    0.00000000  -46.81248654
     atom    4 type  3   force =     0.00000000   -0.00000000   61.73113069
     The local contribution  to forces
     atom    1 type  1   force =     0.00000000    0.00000000   35.99621077
     atom    2 type  2   force =    -0.00000000    0.00000000  -20.98630668
     atom    3 type  2   force =    -0.00000000    0.00000000   46.55519376
     atom    4 type  3   force =     0.00000000   -0.00000000  -61.67593181
     The core correction contribution to forces
     atom    1 type  1   force =    -0.00000000    0.00000000    0.00503237
     atom    2 type  2   force =     0.00000000   -0.00000000    0.00263792
     atom    3 type  2   force =     0.00000000   -0.00000000   -0.00226049
     atom    4 type  3   force =     0.00000000   -0.00000000   -0.03919259
     The Hubbard contrib.    to forces
     atom    1 type  1   force =     0.00000000    0.00000000    0.00000000
     atom    2 type  2   force =     0.00000000    0.00000000    0.00000000
     atom    3 type  2   force =     0.00000000    0.00000000    0.00000000
     atom    4 type  3   force =     0.00000000    0.00000000    0.00000000
     The SCF correction term to forces
     atom    1 type  1   force =    -0.00000000   -0.00000000    0.00025203
     atom    2 type  2   force =    -0.00000000   -0.00000000    0.00036417
     atom    3 type  2   force =     0.00000000    0.00000000    0.00018155
     atom    4 type  3   force =     0.00000000    0.00000000    0.00076447

     Total force =     0.013951     Total SCF correction =     0.000902


     Computing stress (Cartesian axis) and pressure


     negative rho (up, down):  5.342E-04 0.000E+00
          total   stress  (Ry/bohr**3)                   (kbar)     P=       18.66
   0.00021067   0.00000000   0.00000000           30.99        0.00        0.00
   0.00000000   0.00021067   0.00000000            0.00       30.99        0.00
   0.00000000   0.00000000  -0.00004080            0.00        0.00       -6.00

     Energy error            =      1.7E-03 Ry
     Gradient error          =      1.0E-02 Ry/Bohr

     number of scf cycles    =  16
     number of bfgs steps    =  15

     energy             old  =    -658.5932582289 Ry
     energy             new  =    -658.5949095509 Ry

     CASE: energy            _new < energy            _old

     new trust radius        =       0.0097211979 bohr
     new conv_thr            =       0.0000001044 Ry


ATOMIC_POSITIONS (crystal)
Mo            0.0000000000        0.0000000000        0.5112766217
S             0.6666666667        0.3333333333        0.6039433163
S             0.6666666667        0.3333333333        0.4259696078
Co            0.3333333333        0.6666666667        0.6564465181



     Writing config-only to output data dir ./tmp/relax.save/
     NEW-OLD atomic charge density approx. for the potential

     negative rho (up, down):  5.348E-04 0.000E+00

     total cpu time spent up to now is      189.7 secs

     Self-consistent Calculation

     iteration #  1     ecut=    80.00 Ry     beta= 0.70
     Davidson diagonalization with overlap
     ethr =  1.00E-06,  avg # of iterations =  4.4

     Threshold (ethr) on eigenvalues was too large:
     Diagonalizing with lowered threshold

     Davidson diagonalization with overlap
     ethr =  1.93E-08,  avg # of iterations =  4.1

     negative rho (up, down):  5.345E-04 0.000E+00

     total cpu time spent up to now is      191.4 secs

     total energy              =    -658.59501271 Ry
     estimated scf accuracy    <       0.00000949 Ry

     iteration #  2     ecut=    80.00 Ry     beta= 0.70
     Davidson diagonalization with overlap
     ethr =  2.71E-08,  avg # of iterations =  4.7

     negative rho (up, down):  5.345E-04 0.000E+00

     total cpu time spent up to now is      192.3 secs

     total energy              =    -658.59497659 Ry
     estimated scf accuracy    <       0.00076395 Ry

     iteration #  3     ecut=    80.00 Ry     beta= 0.70
     Davidson diagonalization with overlap
     ethr =  2.71E-08,  avg # of iterations =  4.8

     negative rho (up, down):  5.343E-04 0.000E+00

     total cpu time spent up to now is      193.2 secs

     total energy              =    -658.59501512 Ry
     estimated scf accuracy    <       0.00002103 Ry

     iteration #  4     ecut=    80.00 Ry     beta= 0.70
     Davidson diagonalization with overlap
     ethr =  2.71E-08,  avg # of iterations =  2.1

     negative rho (up, down):  5.343E-04 0.000E+00

     total cpu time spent up to now is      194.0 secs

     total energy              =    -658.59501717 Ry
     estimated scf accuracy    <       0.00000484 Ry

     iteration #  5     ecut=    80.00 Ry     beta= 0.70
     Davidson diagonalization with overlap
     ethr =  1.38E-08,  avg # of iterations =  2.1

     negative rho (up, down):  5.343E-04 0.000E+00

     total cpu time spent up to now is      194.7 secs

     total energy              =    -658.59501773 Ry
     estimated scf accuracy    <       0.00000223 Ry

     iteration #  6     ecut=    80.00 Ry     beta= 0.70
     Davidson diagonalization with overlap
     ethr =  6.38E-09,  avg # of iterations =  2.0

     negative rho (up, down):  5.343E-04 0.000E+00

     total cpu time spent up to now is      195.5 secs

     total energy              =    -658.59501803 Ry
     estimated scf accuracy    <       0.00000015 Ry

     iteration #  7     ecut=    80.00 Ry     beta= 0.70
     Davidson diagonalization with overlap
     ethr =  4.42E-10,  avg # of iterations =  2.9

     negative rho (up, down):  5.344E-04 0.000E+00

     total cpu time spent up to now is      196.3 secs

     End of self-consistent calculation

          k = 0.0000 0.0000 0.0000 ( 12991 PWs)   bands (ev):

   -59.5403 -33.7874 -33.4556 -33.4556 -14.5786 -12.2518  -5.8086  -3.1089
    -3.1089  -2.6816  -1.0622  -1.0622   0.4768   0.4768   0.6030   0.7240
     0.7240   1.1732   3.6230   4.1526   4.1526   4.6595

          k = 0.0000 0.1155 0.0000 ( 12953 PWs)   bands (ev):

   -59.5365 -33.7799 -33.4937 -33.4643 -14.4527 -12.1551  -5.6624  -3.4727
    -3.1296  -2.6777  -1.3036  -1.0210   0.1176   0.3472   0.5884   0.8762
     0.8844   1.3493   3.6392   4.0190   4.1757   4.3140

          k = 0.0000 0.2309 0.0000 ( 12929 PWs)   bands (ev):

   -59.5266 -33.7601 -33.5923 -33.4869 -14.1045 -11.8857  -5.2938  -4.3550
    -3.2149  -2.8053  -1.7202  -0.9790  -0.2356   0.3719   0.4023   0.8757
     1.1034   1.6717   3.3370   3.7982   3.9471   4.5824

          k = 0.0000 0.3464 0.0000 ( 12915 PWs)   bands (ev):

   -59.5143 -33.7357 -33.7120 -33.5147 -13.6260 -11.5095  -5.4017  -4.8831
    -3.3675  -3.2153  -2.0008  -0.9943  -0.3791   0.1416   0.6013   0.9593
     1.4816   1.8591   2.9192   3.6424   4.1008   5.0159

          k = 0.0000 0.4619 0.0000 ( 12872 PWs)   bands (ev):

   -59.5043 -33.8074 -33.7156 -33.5371 -13.1832 -11.1520  -6.2231  -4.7397
    -3.5508  -3.5144  -2.3234  -1.0229  -0.3110   0.3252   0.8421   1.0917
     1.6231   1.8749   3.0983   3.5363   4.3386   5.0022

          k = 0.0000-0.5774 0.0000 ( 12854 PWs)   bands (ev):

   -59.5005 -33.8434 -33.7080 -33.5456 -12.9955 -10.9963  -6.5517  -4.7604
    -3.6369  -3.5737  -2.4866  -1.0363  -0.2318   0.6381   0.9591   1.1061
     1.3586   1.9883   3.3904   3.6000   4.2611   4.9462

          k = 0.1000 0.1732 0.0000 ( 12937 PWs)   bands (ev):

   -59.5296 -33.7662 -33.5592 -33.4827 -14.2154 -11.9717  -5.4017  -4.0523
    -3.2487  -2.7177  -1.6172  -1.0244  -0.0163   0.0903   0.6471   0.8513
     1.0100   1.6330   3.5779   3.7953   3.8734   4.2816

          k = 0.1000 0.2887 0.0000 ( 12944 PWs)   bands (ev):

   -59.5185 -33.7441 -33.6617 -33.5146 -13.7998 -11.6456  -5.0445  -4.8913
    -3.4925  -3.0064  -1.8920  -1.0417  -0.3430   0.1646   0.5954   0.7972
     1.3155   1.9892   3.1123   3.5599   3.8905   4.6339

          k = 0.1000 0.4041 0.0000 ( 12898 PWs)   bands (ev):

   -59.5074 -33.7622 -33.7218 -33.5467 -13.3313 -11.2683  -5.8173  -4.7026
    -3.7822  -3.3881  -2.0754  -1.1514  -0.4421   0.2249   0.7966   0.9650
     1.4917   2.0981   2.9217   3.5813   4.2292   4.7675

          k = 0.1000 0.5196 0.0000 ( 12858 PWs)   bands (ev):

   -59.5005 -33.8235 -33.7080 -33.5665 -13.0040 -10.9961  -6.3785  -4.6822
    -3.9891  -3.4966  -2.3099  -1.2527  -0.3251   0.4600   1.0291   1.1316
     1.3551   2.0703   3.1625   3.7388   4.4578   4.5630

          k = 0.2000 0.3464 0.0000 ( 12917 PWs)   bands (ev):

   -59.5086 -33.7325 -33.7240 -33.5634 -13.3882 -11.3103  -5.5331  -4.6629
    -4.0352  -3.3368  -1.9833  -1.1198  -0.6645   0.3041   0.6728   0.8949
     1.4056   2.3547   2.8951   3.6109   3.8551   4.7502

          k = 0.2000 0.4619 0.0000 ( 12869 PWs)   bands (ev):

   -59.5005 -33.7814 -33.7081 -33.6100 -13.0174 -10.9956  -6.0032  -4.6432
    -4.3772  -3.4965  -2.1467  -1.4507  -0.5236   0.3421   0.9227   1.0880
     1.3552   2.3646   2.9203   3.6751   4.1444   4.8699

          k = 0.2000 0.5774 0.0000 ( 12850 PWs)   bands (ev):

   -59.4975 -33.7986 -33.7019 -33.6294 -12.8641 -10.8613  -6.1904  -4.8351
    -4.3600  -3.4857  -2.2954  -1.5956  -0.3619   0.4382   0.7850   1.2331
     1.5450   2.2378   3.0510   3.5970   4.2251   5.0006

          k = 0.3000 0.5196 0.0000 ( 12860 PWs)   bands (ev):

   -59.4963 -33.7631 -33.6996 -33.6796 -12.8123 -10.8082  -5.8836  -5.2930
    -4.2571  -3.4992  -2.4388  -1.6551  -0.2743   0.3607   0.6123   1.2729
     1.6989   2.2852   2.9181   3.3623   4.2717   5.5069

     the Fermi energy is     2.0462 ev

!    total energy              =    -658.59501807 Ry
     total all-electron energy =    -12481.768909 Ry
     estimated scf accuracy    <       0.00000001 Ry
     smearing contrib. (-TS)   =      -0.00561519 Ry
     internal energy E=F+TS    =    -658.58940288 Ry

     The total energy is F=E-TS. E is the sum of the following terms:
     one-electron contribution =   -1435.67651993 Ry
     hartree contribution      =     731.36259947 Ry
     xc contribution           =     -62.65244449 Ry
     ewald contribution        =     514.52663492 Ry
     one-center paw contrib.   =    -406.14967284 Ry

     convergence has been achieved in   7 iterations

     negative rho (up, down):  5.344E-04 0.000E+00

     Forces acting on atoms (cartesian axes, Ry/au):

     atom    1 type  1   force =     0.00000000    0.00000000   -0.00522305
     atom    2 type  2   force =     0.00000000    0.00000000    0.00097735
     atom    3 type  2   force =     0.00000000    0.00000000    0.00604630
     atom    4 type  3   force =     0.00000000    0.00000000   -0.00180060
     The non-local contrib.  to forces
     atom    1 type  1   force =     0.00000000    0.00000000   -0.04946624
     atom    2 type  2   force =     0.00000000    0.00000000   -0.05988861
     atom    3 type  2   force =     0.00000000    0.00000000    0.26796994
     atom    4 type  3   force =     0.00000000    0.00000000   -0.01847869
     The ionic contribution  to forces
     atom    1 type  1   force =     0.00000000   -0.00000000  -35.97305793
     atom    2 type  2   force =    -0.00000000    0.00000000   21.05479644
     atom    3 type  2   force =    -0.00000000    0.00000000  -46.82899661
     atom    4 type  3   force =     0.00000000   -0.00000000   61.74725809
     The local contribution  to forces
     atom    1 type  1   force =    -0.00000000   -0.00000000   36.01228180
     atom    2 type  2   force =    -0.00000000    0.00000000  -20.99652597
     atom    3 type  2   force =    -0.00000000    0.00000000   46.56927097
     atom    4 type  3   force =     0.00000000   -0.00000000  -61.69172758
     The core correction contribution to forces
     atom    1 type  1   force =    -0.00000000   -0.00000000    0.00512738
     atom    2 type  2   force =     0.00000000   -0.00000000    0.00262761
     atom    3 type  2   force =     0.00000000   -0.00000000   -0.00216658
     atom    4 type  3   force =     0.00000000   -0.00000000   -0.03916587
     The Hubbard contrib.    to forces
     atom    1 type  1   force =     0.00000000    0.00000000    0.00000000
     atom    2 type  2   force =     0.00000000    0.00000000    0.00000000
     atom    3 type  2   force =     0.00000000    0.00000000    0.00000000
     atom    4 type  3   force =     0.00000000    0.00000000    0.00000000
     The SCF correction term to forces
     atom    1 type  1   force =     0.00000000   -0.00000000   -0.00006918
     atom    2 type  2   force =    -0.00000000   -0.00000000    0.00000675
     atom    3 type  2   force =    -0.00000000   -0.00000000    0.00000746
     atom    4 type  3   force =    -0.00000000    0.00000000    0.00035233

     Total force =     0.008248     Total SCF correction =     0.000359


     Computing stress (Cartesian axis) and pressure


     negative rho (up, down):  5.344E-04 0.000E+00
          total   stress  (Ry/bohr**3)                   (kbar)     P=       20.20
   0.00021803   0.00000000   0.00000000           32.07        0.00        0.00
   0.00000000   0.00021803  -0.00000000            0.00       32.07       -0.00
   0.00000000  -0.00000000  -0.00002406            0.00       -0.00       -3.54

     Energy error            =      1.1E-04 Ry
     Gradient error          =      6.0E-03 Ry/Bohr

     number of scf cycles    =  17
     number of bfgs steps    =  16

     energy             old  =    -658.5949095509 Ry
     energy             new  =    -658.5950180692 Ry

     CASE: energy            _new < energy            _old

     new trust radius        =       0.0106933177 bohr
     new conv_thr            =       0.0000000109 Ry


ATOMIC_POSITIONS (crystal)
Mo            0.0000000000        0.0000000000        0.5112310128
S             0.6666666667        0.3333333333        0.6039127212
S             0.6666666667        0.3333333333        0.4262806941
Co            0.3333333333        0.6666666667        0.6562116357



     Writing config-only to output data dir ./tmp/relax.save/
     NEW-OLD atomic charge density approx. for the potential

     negative rho (up, down):  5.353E-04 0.000E+00

     total cpu time spent up to now is      198.9 secs

     Self-consistent Calculation

     iteration #  1     ecut=    80.00 Ry     beta= 0.70
     Davidson diagonalization with overlap
     ethr =  1.00E-06,  avg # of iterations =  4.6

     negative rho (up, down):  5.346E-04 0.000E+00

     total cpu time spent up to now is      199.9 secs

     total energy              =    -658.59501608 Ry
     estimated scf accuracy    <       0.00008032 Ry

     iteration #  2     ecut=    80.00 Ry     beta= 0.70
     Davidson diagonalization with overlap
     ethr =  2.29E-07,  avg # of iterations =  5.8

     negative rho (up, down):  5.347E-04 0.000E+00

     total cpu time spent up to now is      200.9 secs

     total energy              =    -658.59451459 Ry
     estimated scf accuracy    <       0.01209100 Ry

     iteration #  3     ecut=    80.00 Ry     beta= 0.70
     Davidson diagonalization with overlap
     ethr =  2.29E-07,  avg # of iterations =  5.7

     negative rho (up, down):  5.347E-04 0.000E+00

     total cpu time spent up to now is      201.8 secs

     total energy              =    -658.59507057 Ry
     estimated scf accuracy    <       0.00002142 Ry

     iteration #  4     ecut=    80.00 Ry     beta= 0.70
     Davidson diagonalization with overlap
     ethr =  6.12E-08,  avg # of iterations =  2.4

     negative rho (up, down):  5.348E-04 0.000E+00

     total cpu time spent up to now is      202.6 secs

     total energy              =    -658.59507439 Ry
     estimated scf accuracy    <       0.00002182 Ry

     iteration #  5     ecut=    80.00 Ry     beta= 0.70
     Davidson diagonalization with overlap
     ethr =  6.12E-08,  avg # of iterations =  1.9

     negative rho (up, down):  5.349E-04 0.000E+00

     total cpu time spent up to now is      203.3 secs

     total energy              =    -658.59507673 Ry
     estimated scf accuracy    <       0.00000162 Ry

     iteration #  6     ecut=    80.00 Ry     beta= 0.70
     Davidson diagonalization with overlap
     ethr =  4.63E-09,  avg # of iterations =  2.1

     negative rho (up, down):  5.350E-04 0.000E+00

     total cpu time spent up to now is      204.1 secs

     total energy              =    -658.59507704 Ry
     estimated scf accuracy    <       0.00000023 Ry

     iteration #  7     ecut=    80.00 Ry     beta= 0.70
     Davidson diagonalization with overlap
     ethr =  6.70E-10,  avg # of iterations =  3.6

     negative rho (up, down):  5.350E-04 0.000E+00

     total cpu time spent up to now is      204.9 secs

     total energy              =    -658.59507709 Ry
     estimated scf accuracy    <       0.00000011 Ry

     iteration #  8     ecut=    80.00 Ry     beta= 0.70
     Davidson diagonalization with overlap
     ethr =  3.03E-10,  avg # of iterations =  2.1

     negative rho (up, down):  5.350E-04 0.000E+00

     total cpu time spent up to now is      205.7 secs

     End of self-consistent calculation

          k = 0.0000 0.0000 0.0000 ( 12991 PWs)   bands (ev):

   -59.5385 -33.7868 -33.4557 -33.4557 -14.5876 -12.2595  -5.8153  -3.1276
    -3.1276  -2.6922  -1.0912  -1.0912   0.4660   0.4660   0.6255   0.7170
     0.7170   1.1681   3.6349   4.1686   4.1686   4.6626

          k = 0.0000 0.1155 0.0000 ( 12953 PWs)   bands (ev):

   -59.5347 -33.7792 -33.4939 -33.4644 -14.4616 -12.1632  -5.6694  -3.4899
    -3.1475  -2.6893  -1.3298  -1.0503   0.1112   0.3363   0.5916   0.8695
     0.8915   1.3437   3.6513   4.0341   4.1934   4.3163

          k = 0.0000 0.2309 0.0000 ( 12929 PWs)   bands (ev):

   -59.5248 -33.7594 -33.5927 -33.4871 -14.1131 -11.8948  -5.3016  -4.3687
    -3.2308  -2.8218  -1.7365  -1.0075  -0.2453   0.3595   0.4071   0.8797
     1.0979   1.6672   3.3409   3.8138   3.9576   4.5891

          k = 0.0000 0.3464 0.0000 ( 12915 PWs)   bands (ev):

   -59.5125 -33.7349 -33.7127 -33.5149 -13.6343 -11.5205  -5.4126  -4.8917
    -3.3815  -3.2326  -2.0085  -1.0204  -0.3841   0.1407   0.5879   0.9578
     1.4767   1.8553   2.9186   3.6458   4.1181   5.0263

          k = 0.0000 0.4619 0.0000 ( 12872 PWs)   bands (ev):

   -59.5025 -33.8084 -33.7147 -33.5373 -13.1915 -11.1652  -6.2316  -4.7502
    -3.5607  -3.5273  -2.3308  -1.0467  -0.3072   0.3144   0.8287   1.0879
     1.6157   1.8712   3.0982   3.5342   4.3510   5.0129

          k = 0.0000-0.5774 0.0000 ( 12854 PWs)   bands (ev):

   -59.4987 -33.8445 -33.7071 -33.5459 -13.0040 -11.0106  -6.5592  -4.7714
    -3.6427  -3.5863  -2.4956  -1.0591  -0.2252   0.6248   0.9457   1.0952
     1.3552   1.9852   3.3929   3.5964   4.2669   4.9557

          k = 0.1000 0.1732 0.0000 ( 12937 PWs)   bands (ev):

   -59.5279 -33.7655 -33.5596 -33.4829 -14.2241 -11.9804  -5.4091  -4.0674
    -3.2644  -2.7328  -1.6374  -1.0521  -0.0258   0.0826   0.6438   0.8593
     1.0049   1.6279   3.5958   3.7974   3.8785   4.2964

          k = 0.1000 0.2887 0.0000 ( 12944 PWs)   bands (ev):

   -59.5168 -33.7433 -33.6623 -33.5148 -13.8082 -11.6558  -5.0542  -4.9020
    -3.5057  -3.0259  -1.9025  -1.0660  -0.3508   0.1595   0.5871   0.7984
     1.3102   1.9863   3.1145   3.5661   3.9010   4.6472

          k = 0.1000 0.4041 0.0000 ( 12898 PWs)   bands (ev):

   -59.5056 -33.7631 -33.7209 -33.5470 -13.3396 -11.2806  -5.8269  -4.7121
    -3.7944  -3.4027  -2.0827  -1.1719  -0.4448   0.2173   0.7843   0.9610
     1.4843   2.0965   2.9230   3.5788   4.2430   4.7803

          k = 0.1000 0.5196 0.0000 ( 12858 PWs)   bands (ev):

   -59.4987 -33.8245 -33.7071 -33.5668 -13.0124 -11.0102  -6.3863  -4.6933
    -3.9991  -3.5054  -2.3183  -1.2712  -0.3244   0.4493   1.0154   1.1244
     1.3467   2.0691   3.1622   3.7369   4.4664   4.5725

          k = 0.2000 0.3464 0.0000 ( 12917 PWs)   bands (ev):

   -59.5068 -33.7333 -33.7231 -33.5637 -13.3965 -11.3223  -5.5437  -4.6713
    -4.0463  -3.3548  -1.9926  -1.1339  -0.6727   0.2966   0.6671   0.8865
     1.3980   2.3552   2.8959   3.6063   3.8701   4.7649

          k = 0.2000 0.4619 0.0000 ( 12869 PWs)   bands (ev):

   -59.4987 -33.7824 -33.7071 -33.6105 -13.0258 -11.0094  -6.0118  -4.6540
    -4.3857  -3.5096  -2.1564  -1.4561  -0.5353   0.3345   0.9155   1.0768
     1.3447   2.3632   2.9206   3.6799   4.1520   4.8785

          k = 0.2000 0.5774 0.0000 ( 12850 PWs)   bands (ev):

   -59.4956 -33.7996 -33.7010 -33.6299 -12.8726 -10.8761  -6.1981  -4.8463
    -4.3682  -3.4963  -2.3049  -1.6009  -0.3722   0.4299   0.7714   1.2273
     1.5343   2.2351   3.0473   3.6037   4.2312   5.0073

          k = 0.3000 0.5196 0.0000 ( 12860 PWs)   bands (ev):

   -59.4945 -33.7641 -33.6986 -33.6802 -12.8208 -10.8231  -5.8919  -5.3021
    -4.2649  -3.5145  -2.4453  -1.6550  -0.2900   0.3506   0.6009   1.2672
     1.6894   2.2787   2.9124   3.3759   4.2742   5.5206

     the Fermi energy is     2.0437 ev

!    total energy              =    -658.59507710 Ry
     total all-electron energy =    -12481.768968 Ry
     estimated scf accuracy    <          1.8E-09 Ry
     smearing contrib. (-TS)   =      -0.00559092 Ry
     internal energy E=F+TS    =    -658.58948618 Ry

     The total energy is F=E-TS. E is the sum of the following terms:
     one-electron contribution =   -1437.57955972 Ry
     hartree contribution      =     732.30809608 Ry
     xc contribution           =     -62.65944025 Ry
     ewald contribution        =     515.49185033 Ry
     one-center paw contrib.   =    -406.15043263 Ry

     convergence has been achieved in   8 iterations

     negative rho (up, down):  5.350E-04 0.000E+00

     Forces acting on atoms (cartesian axes, Ry/au):

     atom    1 type  1   force =     0.00000000    0.00000000   -0.00162155
     atom    2 type  2   force =     0.00000000    0.00000000    0.00049800
     atom    3 type  2   force =     0.00000000    0.00000000    0.00195057
     atom    4 type  3   force =     0.00000000    0.00000000   -0.00082702
     The non-local contrib.  to forces
     atom    1 type  1   force =     0.00000000    0.00000000   -0.05118756
     atom    2 type  2   force =     0.00000000    0.00000000   -0.06063830
     atom    3 type  2   force =     0.00000000    0.00000000    0.26620450
     atom    4 type  3   force =     0.00000000    0.00000000   -0.01892046
     The ionic contribution  to forces
     atom    1 type  1   force =     0.00000000   -0.00000000  -36.00084453
     atom    2 type  2   force =    -0.00000000    0.00000000   21.09390496
     atom    3 type  2   force =    -0.00000000   -0.00000000  -46.85234996
     atom    4 type  3   force =     0.00000000   -0.00000000   61.75928953
     The local contribution  to forces
     atom    1 type  1   force =     0.00000000   -0.00000000   36.04492150
     atom    2 type  2   force =    -0.00000000    0.00000000  -21.03544620
     atom    3 type  2   force =    -0.00000000    0.00000000   46.59011831
     atom    4 type  3   force =     0.00000000   -0.00000000  -61.70199475
     The core correction contribution to forces
     atom    1 type  1   force =     0.00000000    0.00000000    0.00522554
     atom    2 type  2   force =     0.00000000   -0.00000000    0.00266429
     atom    3 type  2   force =     0.00000000   -0.00000000   -0.00207897
     atom    4 type  3   force =     0.00000000   -0.00000000   -0.03919365
     The Hubbard contrib.    to forces
     atom    1 type  1   force =     0.00000000    0.00000000    0.00000000
     atom    2 type  2   force =     0.00000000    0.00000000    0.00000000
     atom    3 type  2   force =     0.00000000    0.00000000    0.00000000
     atom    4 type  3   force =     0.00000000    0.00000000    0.00000000
     The SCF correction term to forces
     atom    1 type  1   force =     0.00000000    0.00000000    0.00024672
     atom    2 type  2   force =     0.00000000    0.00000000   -0.00000353
     atom    3 type  2   force =     0.00000000    0.00000000    0.00003992
     atom    4 type  3   force =    -0.00000000   -0.00000000   -0.00002446

     Total force =     0.002714     Total SCF correction =     0.000251


     Computing stress (Cartesian axis) and pressure


     negative rho (up, down):  5.350E-04 0.000E+00
          total   stress  (Ry/bohr**3)                   (kbar)     P=       21.58
   0.00022506   0.00000000   0.00000000           33.11        0.00        0.00
   0.00000000   0.00022506   0.00000000            0.00       33.11        0.00
   0.00000000   0.00000000  -0.00001012            0.00        0.00       -1.49

     Energy error            =      5.9E-05 Ry
     Gradient error          =      2.0E-03 Ry/Bohr

     number of scf cycles    =  18
     number of bfgs steps    =  17

     energy             old  =    -658.5950180692 Ry
     energy             new  =    -658.5950771044 Ry

     CASE: energy            _new < energy            _old

     new trust radius        =       0.0058928297 bohr
     new conv_thr            =       0.0000000100 Ry


ATOMIC_POSITIONS (crystal)
Mo            0.0000000000        0.0000000000        0.5112309636
S             0.6666666667        0.3333333333        0.6039062483
S             0.6666666667        0.3333333333        0.4264521263
Co            0.3333333333        0.6666666667        0.6560467256



     Writing config-only to output data dir ./tmp/relax.save/
     NEW-OLD atomic charge density approx. for the potential

     negative rho (up, down):  5.356E-04 0.000E+00

     total cpu time spent up to now is      208.3 secs

     Self-consistent Calculation

     iteration #  1     ecut=    80.00 Ry     beta= 0.70
     Davidson diagonalization with overlap
     ethr =  1.00E-06,  avg # of iterations =  3.7

     Threshold (ethr) on eigenvalues was too large:
     Diagonalizing with lowered threshold

     Davidson diagonalization with overlap
     ethr =  6.45E-08,  avg # of iterations =  2.9

     negative rho (up, down):  5.353E-04 0.000E+00

     total cpu time spent up to now is      209.9 secs

     total energy              =    -658.59506456 Ry
     estimated scf accuracy    <       0.00002785 Ry

     iteration #  2     ecut=    80.00 Ry     beta= 0.70
     Davidson diagonalization with overlap
     ethr =  7.96E-08,  avg # of iterations =  6.0

     negative rho (up, down):  5.353E-04 0.000E+00

     total cpu time spent up to now is      210.8 secs

     total energy              =    -658.59489991 Ry
     estimated scf accuracy    <       0.00388165 Ry

     iteration #  3     ecut=    80.00 Ry     beta= 0.70
     Davidson diagonalization with overlap
     ethr =  7.96E-08,  avg # of iterations =  5.4

     negative rho (up, down):  5.353E-04 0.000E+00

     total cpu time spent up to now is      211.7 secs

     total energy              =    -658.59508101 Ry
     estimated scf accuracy    <       0.00001778 Ry

     iteration #  4     ecut=    80.00 Ry     beta= 0.70
     Davidson diagonalization with overlap
     ethr =  5.08E-08,  avg # of iterations =  2.1

     negative rho (up, down):  5.353E-04 0.000E+00

     total cpu time spent up to now is      212.4 secs

     total energy              =    -658.59508366 Ry
     estimated scf accuracy    <       0.00000798 Ry

     iteration #  5     ecut=    80.00 Ry     beta= 0.70
     Davidson diagonalization with overlap
     ethr =  2.28E-08,  avg # of iterations =  2.0

     negative rho (up, down):  5.354E-04 0.000E+00

     total cpu time spent up to now is      213.2 secs

     total energy              =    -658.59508463 Ry
     estimated scf accuracy    <       0.00000073 Ry

     iteration #  6     ecut=    80.00 Ry     beta= 0.70
     Davidson diagonalization with overlap
     ethr =  2.08E-09,  avg # of iterations =  2.3

     negative rho (up, down):  5.354E-04 0.000E+00

     total cpu time spent up to now is      214.0 secs

     total energy              =    -658.59508476 Ry
     estimated scf accuracy    <       0.00000009 Ry

     iteration #  7     ecut=    80.00 Ry     beta= 0.70
     Davidson diagonalization with overlap
     ethr =  2.46E-10,  avg # of iterations =  3.6

     negative rho (up, down):  5.354E-04 0.000E+00

     total cpu time spent up to now is      214.8 secs

     total energy              =    -658.59508478 Ry
     estimated scf accuracy    <       0.00000005 Ry

     iteration #  8     ecut=    80.00 Ry     beta= 0.70
     Davidson diagonalization with overlap
     ethr =  1.40E-10,  avg # of iterations =  2.1

     negative rho (up, down):  5.354E-04 0.000E+00

     total cpu time spent up to now is      215.6 secs

     End of self-consistent calculation

          k = 0.0000 0.0000 0.0000 ( 12991 PWs)   bands (ev):

   -59.5380 -33.7869 -33.4561 -33.4561 -14.5944 -12.2632  -5.8202  -3.1424
    -3.1424  -2.6972  -1.1061  -1.1061   0.4582   0.4582   0.6361   0.7127
     0.7127   1.1643   3.6452   4.1762   4.1762   4.6662

          k = 0.0000 0.1155 0.0000 ( 12953 PWs)   bands (ev):

   -59.5342 -33.7793 -33.4943 -33.4647 -14.4683 -12.1670  -5.6744  -3.5035
    -3.1617  -2.6950  -1.3431  -1.0650   0.1057   0.3285   0.5921   0.8653
     0.8948   1.3399   3.6593   4.0429   4.2021   4.3194

          k = 0.0000 0.2309 0.0000 ( 12929 PWs)   bands (ev):

   -59.5242 -33.7594 -33.5932 -33.4874 -14.1197 -11.8992  -5.3070  -4.3797
    -3.2435  -2.8302  -1.7448  -1.0216  -0.2530   0.3503   0.4088   0.8815
     1.0945   1.6644   3.3440   3.8217   3.9628   4.5951

          k = 0.0000 0.3464 0.0000 ( 12915 PWs)   bands (ev):

   -59.5119 -33.7349 -33.7133 -33.5153 -13.6409 -11.5257  -5.4213  -4.8974
    -3.3926  -3.2412  -2.0129  -1.0335  -0.3893   0.1389   0.5779   0.9571
     1.4738   1.8528   2.9190   3.6472   4.1268   5.0315

          k = 0.0000 0.4619 0.0000 ( 12872 PWs)   bands (ev):

   -59.5019 -33.8092 -33.7147 -33.5378 -13.1982 -11.1714  -6.2385  -4.7564
    -3.5659  -3.5375  -2.3356  -1.0586  -0.3067   0.3061   0.8186   1.0859
     1.6107   1.8687   3.0991   3.5327   4.3576   5.0178

          k = 0.0000-0.5774 0.0000 ( 12854 PWs)   bands (ev):

   -59.4981 -33.8454 -33.7070 -33.5463 -13.0108 -11.0174  -6.5654  -4.7774
    -3.6460  -3.5961  -2.5013  -1.0704  -0.2227   0.6148   0.9356   1.0871
     1.3539   1.9827   3.3950   3.5943   4.2706   4.9598

          k = 0.1000 0.1732 0.0000 ( 12937 PWs)   bands (ev):

   -59.5273 -33.7656 -33.5601 -33.4832 -14.2307 -11.9846  -5.4144  -4.0794
    -3.2770  -2.7405  -1.6475  -1.0661  -0.0331   0.0767   0.6403   0.8631
     1.0018   1.6247   3.6045   3.7995   3.8827   4.3051

          k = 0.1000 0.2887 0.0000 ( 12944 PWs)   bands (ev):

   -59.5162 -33.7433 -33.6629 -33.5152 -13.8148 -11.6606  -5.0613  -4.9103
    -3.5163  -3.0357  -1.9079  -1.0789  -0.3568   0.1550   0.5806   0.7985
     1.3067   1.9848   3.1160   3.5694   3.9060   4.6551

          k = 0.1000 0.4041 0.0000 ( 12898 PWs)   bands (ev):

   -59.5050 -33.7639 -33.7208 -33.5474 -13.3462 -11.2865  -5.8346  -4.7180
    -3.8037  -3.4105  -2.0869  -1.1825  -0.4482   0.2113   0.7751   0.9588
     1.4788   2.0957   2.9242   3.5773   4.2496   4.7870

          k = 0.1000 0.5196 0.0000 ( 12858 PWs)   bands (ev):

   -59.4981 -33.8253 -33.7070 -33.5673 -13.0192 -11.0169  -6.3927  -4.6997
    -4.0067  -3.5109  -2.3233  -1.2806  -0.3257   0.4413   1.0050   1.1196
     1.3412   2.0680   3.1627   3.7357   4.4710   4.5770

          k = 0.2000 0.3464 0.0000 ( 12917 PWs)   bands (ev):

   -59.5062 -33.7340 -33.7230 -33.5642 -13.4032 -11.3280  -5.5521  -4.6768
    -4.0551  -3.3637  -1.9973  -1.1414  -0.6794   0.2908   0.6633   0.8801
     1.3922   2.3560   2.8965   3.6038   3.8772   4.7728

          k = 0.2000 0.4619 0.0000 ( 12869 PWs)   bands (ev):

   -59.4981 -33.7831 -33.7071 -33.6110 -13.0327 -11.0160  -6.0188  -4.6614
    -4.3919  -3.5164  -2.1613  -1.4591  -0.5442   0.3287   0.9107   1.0689
     1.3368   2.3622   2.9214   3.6818   4.1558   4.8832

          k = 0.2000 0.5774 0.0000 ( 12850 PWs)   bands (ev):

   -59.4950 -33.8004 -33.7009 -33.6304 -12.8795 -10.8831  -6.2044  -4.8541
    -4.3737  -3.5020  -2.3096  -1.6039  -0.3803   0.4234   0.7614   1.2242
     1.5262   2.2327   3.0457   3.6071   4.2346   5.0108

          k = 0.3000 0.5196 0.0000 ( 12860 PWs)   bands (ev):

   -59.4939 -33.7649 -33.6985 -33.6807 -12.8278 -10.8301  -5.8985  -5.3090
    -4.2702  -3.5220  -2.4484  -1.6552  -0.3018   0.3430   0.5927   1.2642
     1.6824   2.2738   2.9094   3.3829   4.2761   5.5272

     the Fermi energy is     2.0420 ev

!    total energy              =    -658.59508479 Ry
     total all-electron energy =    -12481.768976 Ry
     estimated scf accuracy    <          9.7E-10 Ry
     smearing contrib. (-TS)   =      -0.00557625 Ry
     internal energy E=F+TS    =    -658.58950854 Ry

     The total energy is F=E-TS. E is the sum of the following terms:
     one-electron contribution =   -1438.82581215 Ry
     hartree contribution      =     732.92826226 Ry
     xc contribution           =     -62.66378349 Ry
     ewald contribution        =     516.12273315 Ry
     one-center paw contrib.   =    -406.15090831 Ry

     convergence has been achieved in   8 iterations

     negative rho (up, down):  5.354E-04 0.000E+00

     Forces acting on atoms (cartesian axes, Ry/au):

     atom    1 type  1   force =     0.00000000    0.00000000    0.00001272
     atom    2 type  2   force =     0.00000000    0.00000000   -0.00000148
     atom    3 type  2   force =     0.00000000    0.00000000   -0.00009746
     atom    4 type  3   force =     0.00000000    0.00000000    0.00008622
     The non-local contrib.  to forces
     atom    1 type  1   force =     0.00000000    0.00000000   -0.05199491
     atom    2 type  2   force =     0.00000000    0.00000000   -0.06126529
     atom    3 type  2   force =     0.00000000    0.00000000    0.26535964
     atom    4 type  3   force =     0.00000000    0.00000000   -0.01920678
     The ionic contribution  to forces
     atom    1 type  1   force =     0.00000000   -0.00000000  -36.02070129
     atom    2 type  2   force =    -0.00000000    0.00000000   21.12151690
     atom    3 type  2   force =    -0.00000000    0.00000000  -46.86706264
     atom    4 type  3   force =     0.00000000   -0.00000000   61.76624703
     The local contribution  to forces
     atom    1 type  1   force =    -0.00000000   -0.00000000   36.06726232
     atom    2 type  2   force =    -0.00000000    0.00000000  -21.06299941
     atom    3 type  2   force =    -0.00000000    0.00000000   46.60360726
     atom    4 type  3   force =     0.00000000   -0.00000000  -61.70781142
     The core correction contribution to forces
     atom    1 type  1   force =     0.00000000    0.00000000    0.00527376
     atom    2 type  2   force =     0.00000000   -0.00000000    0.00269129
     atom    3 type  2   force =     0.00000000   -0.00000000   -0.00203707
     atom    4 type  3   force =     0.00000000   -0.00000000   -0.03922031
     The Hubbard contrib.    to forces
     atom    1 type  1   force =     0.00000000    0.00000000    0.00000000
     atom    2 type  2   force =     0.00000000    0.00000000    0.00000000
     atom    3 type  2   force =     0.00000000    0.00000000    0.00000000
     atom    4 type  3   force =     0.00000000    0.00000000    0.00000000
     The SCF correction term to forces
     atom    1 type  1   force =    -0.00000000   -0.00000000    0.00016184
     atom    2 type  2   force =     0.00000000   -0.00000000    0.00004403
     atom    3 type  2   force =    -0.00000000   -0.00000000    0.00002435
     atom    4 type  3   force =    -0.00000000   -0.00000000    0.00006671

     Total force =     0.000131     Total SCF correction =     0.000182
     SCF correction compared to forces is large: reduce conv_thr to get better values


     Computing stress (Cartesian axis) and pressure


     negative rho (up, down):  5.354E-04 0.000E+00
          total   stress  (Ry/bohr**3)                   (kbar)     P=       22.49
   0.00023022   0.00000000   0.00000000           33.87        0.00        0.00
   0.00000000   0.00023022   0.00000000            0.00       33.87        0.00
   0.00000000  -0.00000000  -0.00000186            0.00       -0.00       -0.27

     Energy error            =      7.7E-06 Ry
     Gradient error          =      9.7E-05 Ry/Bohr

     bfgs converged in  19 scf cycles and  18 bfgs steps
     (criteria: energy <  1.0E-04 Ry, force <  1.0E-03 Ry/Bohr)

     End of BFGS Geometry Optimization

     Final energy             =    -658.5950847909 Ry

     File ./tmp/relax.bfgs deleted, as requested
Begin final coordinates

ATOMIC_POSITIONS (crystal)
Mo            0.0000000000        0.0000000000        0.5112309636
S             0.6666666667        0.3333333333        0.6039062483
S             0.6666666667        0.3333333333        0.4264521263
Co            0.3333333333        0.6666666667        0.6560467256
End final coordinates



     Writing all to output data dir ./tmp/relax.save/
 
     init_run     :      0.65s CPU      0.83s WALL (       1 calls)
     electrons    :    153.41s CPU    167.15s WALL (      19 calls)
     update_pot   :      6.77s CPU      8.80s WALL (      18 calls)
     forces       :      6.21s CPU      6.36s WALL (      19 calls)
     stress       :     30.39s CPU     31.10s WALL (      19 calls)

     Called by init_run:
     wfcinit      :      0.12s CPU      0.17s WALL (       1 calls)
     potinit      :      0.17s CPU      0.18s WALL (       1 calls)
     hinit0       :      0.26s CPU      0.36s WALL (       1 calls)

     Called by electrons:
     c_bands      :    104.37s CPU    113.70s WALL (     183 calls)
     sum_band     :     22.34s CPU     25.96s WALL (     183 calls)
     v_of_rho     :      1.33s CPU      1.51s WALL (     200 calls)
     newd         :     12.52s CPU     12.80s WALL (     200 calls)
     PAW_pot      :     16.43s CPU     16.84s WALL (     218 calls)
     mix_rho      :      0.36s CPU      0.38s WALL (     183 calls)

     Called by c_bands:
     init_us_2    :      1.92s CPU      2.07s WALL (    5922 calls)
     init_us_2:cp :      1.91s CPU      2.06s WALL (    5922 calls)
     cegterg      :     76.87s CPU     85.91s WALL (    2578 calls)

     Called by *egterg:
     cdiaghg      :      5.91s CPU      6.35s WALL (   13832 calls)
     h_psi        :     53.52s CPU     60.68s WALL (   14142 calls)
     s_psi        :      1.69s CPU      1.90s WALL (   14142 calls)
     g_psi        :      0.25s CPU      0.27s WALL (   11550 calls)

     Called by h_psi:
     h_psi:calbec :      5.64s CPU      6.42s WALL (   14142 calls)
     vloc_psi     :     45.02s CPU     51.06s WALL (   14142 calls)
     add_vuspsi   :      2.37s CPU      2.68s WALL (   14142 calls)

     General routines
     calbec       :     15.63s CPU     17.00s WALL (   18286 calls)
     fft          :      4.04s CPU      6.27s WALL (    2695 calls)
     ffts         :      0.04s CPU      0.05s WALL (     183 calls)
     fftw         :     47.09s CPU     53.58s WALL (  422490 calls)
 
     Parallel routines
 
     PWSCF        :   3m20.54s CPU   3m37.62s WALL

 
   This run was terminated on:  14:12:18  12Jun2025            

=------------------------------------------------------------------------------=
   JOB DONE.
=------------------------------------------------------------------------------=
