
     Program PWSCF v.7.2 starts on 22Jul2025 at 16:16:25 

     This program is part of the open-source Quantum ESPRESSO suite
     for quantum simulation of materials; please cite
         "P. Giannozzi et al., J. Phys.:Condens. Matter 21 395502 (2009);
         "P. Giannozzi et al., J. Phys.:Condens. Matter 29 465901 (2017);
         "P. Giannozzi et al., J. Chem. Phys. 152 154105 (2020);
          URL http://www.quantum-espresso.org", 
     in publications or presentations arising from this work. More details at
     http://www.quantum-espresso.org/quote

     Parallel version (MPI), running on    16 processors

     MPI processes distributed on     1 nodes
     9079 MiB available memory on the printing compute node when the environment starts
 
     Waiting for input...
     Reading input from standard input

     Current dimensions of program PWSCF are:
     Max number of different atomic species (ntypx) = 10
     Max number of k-points (npk) =  40000
     Max angular momentum in pseudopotentials (lmaxx) =  4
     file Co.pbe-n-kjpaw_psl.1.0.0.UPF: wavefunction(s)  4S 3D renormalized
     Message from routine setup:
     using ibrav=0 with symmetry is DISCOURAGED, use correct ibrav instead
 
     R & G space division:  proc/nbgrp/npool/nimage =      16
     Subspace diagonalization in iterative solution of the eigenvalue problem:
     a serial algorithm will be used

 
     Parallelization info
     --------------------
     sticks:   dense  smooth     PW     G-vecs:    dense   smooth      PW
     Min         108      42     12                21751     5486     866
     Max         110      43     13                21762     5513     891
     Sum        1735     685    199               348105    87947   14017
 
     Using Slab Decomposition
 


     bravais-lattice index     =            0
     lattice parameter (alat)  =       5.9812  a.u.
     unit-cell volume          =    1112.3958 (a.u.)^3
     number of atoms/cell      =            1
     number of atomic types    =            1
     number of electrons       =         9.00
     number of Kohn-Sham states=            9
     kinetic-energy cutoff     =      70.0000  Ry
     charge density cutoff     =     700.0000  Ry
     scf convergence threshold =      1.0E-06
     mixing beta               =       0.7000
     number of iterations used =            8  plain     mixing
     Exchange-correlation= SLA  PW   PBX  PBC
                           (   1   4   3   4   0   0   0)

     celldm(1)=   5.981197  celldm(2)=   0.000000  celldm(3)=   0.000000
     celldm(4)=   0.000000  celldm(5)=   0.000000  celldm(6)=   0.000000

     crystal axes: (cart. coord. in units of alat)
               a(1) = (   1.000000   0.000000   0.000000 )  
               a(2) = (  -0.500000   0.866025   0.000000 )  
               a(3) = (   0.000000   0.000000   6.002945 )  

     reciprocal axes: (cart. coord. in units 2 pi/alat)
               b(1) = (  1.000000  0.577350  0.000000 )  
               b(2) = (  0.000000  1.154701  0.000000 )  
               b(3) = (  0.000000  0.000000  0.166585 )  


     PseudoPot. # 1 for Co read from file:
     /shared/ESPRESSO/PSLIBRARY/1.0.0/pbe/PSEUDOPOTENTIALS/Co.pbe-n-kjpaw_psl.1.0.0.UPF
     MD5 check sum: 17e7ab8db721b244d1352252ea6cb8e7
     Pseudo is Projector augmented-wave + core cor, Zval =  9.0
     Generated using "atomic" code by A. Dal Corso  (Quantum ESPRESSO distribution)
     Shape of augmentation charge: PSQ
     Using radial grid of 1193 points,  6 beta functions with: 
                l(1) =   0
                l(2) =   0
                l(3) =   1
                l(4) =   1
                l(5) =   2
                l(6) =   2
     Q(r) pseudized with 0 coefficients 


     atomic species   valence    mass     pseudopotential
        Co             9.00    58.93320     Co( 1.00)

     Starting magnetic structure 
     atomic species   magnetization
        Co           0.800

     24 Sym. Ops., with inversion, found



   Cartesian axes

     site n.     atom                  positions (alat units)
         1           Co  tau(   1) = (   0.0000000   0.0000000   3.0014723  )

     --------------------------------------------
     DFT-D3 Dispersion Correction (3-body terms):
     --------------------------------------------
       Reference C6 values for interpolation: 

         atom   Coordination number   C6
         Co         0.000          1065.56
         Co         1.715           373.09
         Co         2.926           296.13
         Co         7.779           236.57

       Values used:

         atom   Coordination number  R0_AB[au]  C6      C8
         Co         0.450            3.243   1062.21  93395.45

         Molecular C6 ( Ry / a.u.^6 ) =      1062.21


     number of k points=    19  Gaussian smearing, width (Ry)=  0.0073
                       cart. coord. in units 2pi/alat
        k(    1) = (   0.0000000   0.0000000   0.0000000), wk =   0.0069444
        k(    2) = (   0.0000000   0.0962250   0.0000000), wk =   0.0416667
        k(    3) = (   0.0000000   0.1924501   0.0000000), wk =   0.0416667
        k(    4) = (   0.0000000   0.2886751   0.0000000), wk =   0.0416667
        k(    5) = (   0.0000000   0.3849002   0.0000000), wk =   0.0416667
        k(    6) = (   0.0000000   0.4811252   0.0000000), wk =   0.0416667
        k(    7) = (   0.0000000  -0.5773503   0.0000000), wk =   0.0208333
        k(    8) = (   0.0833333   0.1443376   0.0000000), wk =   0.0416667
        k(    9) = (   0.0833333   0.2405626   0.0000000), wk =   0.0833333
        k(   10) = (   0.0833333   0.3367877   0.0000000), wk =   0.0833333
        k(   11) = (   0.0833333   0.4330127   0.0000000), wk =   0.0833333
        k(   12) = (   0.0833333   0.5292377   0.0000000), wk =   0.0833333
        k(   13) = (   0.1666667   0.2886751   0.0000000), wk =   0.0416667
        k(   14) = (   0.1666667   0.3849002   0.0000000), wk =   0.0833333
        k(   15) = (   0.1666667   0.4811252   0.0000000), wk =   0.0833333
        k(   16) = (   0.1666667   0.5773503   0.0000000), wk =   0.0416667
        k(   17) = (   0.2500000   0.4330127   0.0000000), wk =   0.0416667
        k(   18) = (   0.2500000   0.5292377   0.0000000), wk =   0.0833333
        k(   19) = (   0.3333333   0.5773503   0.0000000), wk =   0.0138889

     Dense  grid:   348105 G-vectors     FFT dimensions: (  54,  54, 320)

     Smooth grid:    87947 G-vectors     FFT dimensions: (  32,  32, 192)

     Estimated max dynamical RAM per process >      95.01 MB

     Estimated total dynamical RAM >       1.48 GB
     Generating pointlists ...
     new r_m :   0.4125 (alat units)  2.4672 (a.u.) for type    1

     Initial potential from superposition of free atoms

     starting charge       8.9997, renormalised to       9.0000

     negative rho (up, down):  1.887E-05 2.096E-06
     Starting wfcs are    9 randomized atomic wfcs
     Checking if some PAW data can be deallocated... 

     total cpu time spent up to now is        0.9 secs

     Self-consistent Calculation

     iteration #  1     ecut=    70.00 Ry     beta= 0.70
     Davidson diagonalization with overlap
     ethr =  1.00E-02,  avg # of iterations =  5.0

     negative rho (up, down):  1.291E-06 0.000E+00

     total cpu time spent up to now is        1.8 secs

     total energy              =    -161.72138802 Ry
     estimated scf accuracy    <       0.44521750 Ry

     total magnetization       =     2.70 Bohr mag/cell
     absolute magnetization    =     2.70 Bohr mag/cell

     iteration #  2     ecut=    70.00 Ry     beta= 0.70
     Davidson diagonalization with overlap
     ethr =  4.95E-03,  avg # of iterations =  2.2

     negative rho (up, down):  4.038E-07 3.157E-10

     total cpu time spent up to now is        2.6 secs

     total energy              =    -161.47861857 Ry
     estimated scf accuracy    <       1.30713462 Ry

     total magnetization       =     3.30 Bohr mag/cell
     absolute magnetization    =     3.39 Bohr mag/cell

     iteration #  3     ecut=    70.00 Ry     beta= 0.70
     Davidson diagonalization with overlap
     ethr =  4.95E-03,  avg # of iterations =  2.0

     negative rho (up, down):  2.737E-07 0.000E+00

     total cpu time spent up to now is        3.4 secs

     total energy              =    -161.79404063 Ry
     estimated scf accuracy    <       0.53290600 Ry

     total magnetization       =     1.97 Bohr mag/cell
     absolute magnetization    =     1.97 Bohr mag/cell

     iteration #  4     ecut=    70.00 Ry     beta= 0.70
     Davidson diagonalization with overlap
     ethr =  4.95E-03,  avg # of iterations =  1.2

     negative rho (up, down):  4.284E-07 0.000E+00

     total cpu time spent up to now is        4.2 secs

     total energy              =    -161.83269550 Ry
     estimated scf accuracy    <       0.03358609 Ry

     total magnetization       =     2.18 Bohr mag/cell
     absolute magnetization    =     2.27 Bohr mag/cell

     iteration #  5     ecut=    70.00 Ry     beta= 0.70
     Davidson diagonalization with overlap
     ethr =  3.73E-04,  avg # of iterations =  2.6

     negative rho (up, down):  9.533E-07 1.062E-09

     total cpu time spent up to now is        5.0 secs

     total energy              =    -161.83643011 Ry
     estimated scf accuracy    <       0.00896817 Ry

     total magnetization       =     2.18 Bohr mag/cell
     absolute magnetization    =     2.27 Bohr mag/cell

     iteration #  6     ecut=    70.00 Ry     beta= 0.70
     Davidson diagonalization with overlap
     ethr =  9.96E-05,  avg # of iterations =  2.7

     negative rho (up, down):  6.208E-04 6.374E-03

     total cpu time spent up to now is        5.8 secs

     total energy              =    -161.83438631 Ry
     estimated scf accuracy    <       0.00381986 Ry

     total magnetization       =     2.18 Bohr mag/cell
     absolute magnetization    =     2.28 Bohr mag/cell

     iteration #  7     ecut=    70.00 Ry     beta= 0.70
     Davidson diagonalization with overlap
     ethr =  4.24E-05,  avg # of iterations =  7.0

     negative rho (up, down):  3.352E-06 1.543E-06

     total cpu time spent up to now is        6.7 secs

     total energy              =    -161.83764221 Ry
     estimated scf accuracy    <       0.00506009 Ry

     total magnetization       =     2.18 Bohr mag/cell
     absolute magnetization    =     2.28 Bohr mag/cell

     iteration #  8     ecut=    70.00 Ry     beta= 0.70
     Davidson diagonalization with overlap
     ethr =  4.24E-05,  avg # of iterations =  3.0

     negative rho (up, down):  4.105E-06 8.501E-07

     total cpu time spent up to now is        7.5 secs

     total energy              =    -161.83889156 Ry
     estimated scf accuracy    <       0.00002712 Ry

     total magnetization       =     2.18 Bohr mag/cell
     absolute magnetization    =     2.28 Bohr mag/cell

     iteration #  9     ecut=    70.00 Ry     beta= 0.70
     Davidson diagonalization with overlap
     c_bands:  1 eigenvalues not converged
     c_bands:  1 eigenvalues not converged
     c_bands:  1 eigenvalues not converged
     c_bands:  1 eigenvalues not converged
     ethr =  3.01E-07,  avg # of iterations =  8.8

     negative rho (up, down):  5.612E-06 4.735E-06

     total cpu time spent up to now is        8.5 secs

     total energy              =    -161.83891033 Ry
     estimated scf accuracy    <       0.00001944 Ry

     total magnetization       =     2.18 Bohr mag/cell
     absolute magnetization    =     2.28 Bohr mag/cell

     iteration # 10     ecut=    70.00 Ry     beta= 0.70
     Davidson diagonalization with overlap
     ethr =  2.16E-07,  avg # of iterations =  1.5

     negative rho (up, down):  5.784E-06 6.707E-06

     total cpu time spent up to now is        9.3 secs

     total energy              =    -161.83891474 Ry
     estimated scf accuracy    <       0.00000226 Ry

     total magnetization       =     2.18 Bohr mag/cell
     absolute magnetization    =     2.28 Bohr mag/cell

     iteration # 11     ecut=    70.00 Ry     beta= 0.70
     Davidson diagonalization with overlap
     ethr =  2.51E-08,  avg # of iterations =  2.0

     negative rho (up, down):  5.696E-06 5.669E-06
 
     Magnetic moment per site  (integrated on atomic sphere of radius R)
     atom   1 (R=0.412)  charge=  8.0139  magn=  2.2022

     total cpu time spent up to now is       10.1 secs

     End of self-consistent calculation

 ------ SPIN UP ------------


          k = 0.0000 0.0000 0.0000 ( 10889 PWs)   bands (ev):

    -6.9301  -5.5649  -5.1733  -5.1733  -4.3681  -4.3681  -1.8264   0.9039
     1.5285

          k = 0.0000 0.0962 0.0000 ( 10909 PWs)   bands (ev):

    -6.7904  -5.5418  -5.1932  -5.1378  -4.4272  -4.3749  -1.6436   1.0405
     1.6700

          k = 0.0000 0.1925 0.0000 ( 10956 PWs)   bands (ev):

    -6.4024  -5.4686  -5.2230  -5.0387  -4.5646  -4.3935  -1.1325   1.4503
     2.0939

          k = 0.0000 0.2887 0.0000 ( 11000 PWs)   bands (ev):

    -5.9584  -5.4099  -4.9993  -4.8984  -4.7153  -4.4188  -0.3530   2.1340
     2.7941

          k = 0.0000 0.3849 0.0000 ( 11018 PWs)   bands (ev):

    -5.7863  -5.4149  -4.8394  -4.7517  -4.4440  -4.1396   0.6528   2.8833
     3.1626

          k = 0.0000 0.4811 0.0000 ( 11000 PWs)   bands (ev):

    -5.7763  -5.4021  -4.9185  -4.6398  -4.4624  -2.8405   0.7873   1.8171
     4.3461

          k = 0.0000-0.5774 0.0000 ( 11026 PWs)   bands (ev):

    -5.7846  -5.3936  -4.9455  -4.5979  -4.4692  -1.5162  -0.8187   2.6310
     4.5673

          k = 0.0833 0.1443 0.0000 ( 10950 PWs)   bands (ev):

    -6.5241  -5.4923  -5.2319  -5.0604  -4.5222  -4.3897  -1.2978   1.3139
     1.9574

          k = 0.0833 0.2406 0.0000 ( 10994 PWs)   bands (ev):

    -6.0824  -5.3929  -5.2470  -4.8874  -4.6571  -4.4169  -0.6558   1.8607
     2.5145

          k = 0.0833 0.3368 0.0000 ( 10995 PWs)   bands (ev):

    -5.7799  -5.4000  -4.9801  -4.7838  -4.4489  -4.4286   0.2354   2.6793
     3.3712

          k = 0.0833 0.4330 0.0000 ( 11002 PWs)   bands (ev):

    -5.7228  -5.4052  -4.8765  -4.7768  -4.4768  -3.3765   1.3329   1.9295
     3.7970

          k = 0.0833 0.5292 0.0000 ( 11028 PWs)   bands (ev):

    -5.7339  -5.3928  -4.9247  -4.6807  -4.4929  -1.9425  -0.0778   2.4728
     4.9433

          k = 0.1667 0.2887 0.0000 ( 10978 PWs)   bands (ev):

    -5.7548  -5.3417  -5.2049  -4.7540  -4.4602  -4.4540   0.0950   2.5452
     3.2153

          k = 0.1667 0.3849 0.0000 ( 11010 PWs)   bands (ev):

    -5.6144  -5.3851  -5.0195  -4.8294  -4.5098  -3.5788   1.0833   3.2492
     3.5583

          k = 0.1667 0.4811 0.0000 ( 11023 PWs)   bands (ev):

    -5.6025  -5.3858  -4.8849  -4.8741  -4.5494  -2.3037   1.1882   2.2415
     4.6179

          k = 0.1667 0.5774 0.0000 ( 11024 PWs)   bands (ev):

    -5.6114  -5.3782  -4.8885  -4.8368  -4.5645  -0.8429  -0.5510   3.0629
     4.4682

          k = 0.2500 0.4330 0.0000 ( 11000 PWs)   bands (ev):

    -5.5101  -5.3640  -5.0331  -4.8407  -4.5857  -2.4184   2.1495   2.4205
     3.1716

          k = 0.2500 0.5292 0.0000 ( 11044 PWs)   bands (ev):

    -5.4837  -5.3311  -5.0288  -4.8282  -4.6467  -0.9690   0.7354   2.5586
     3.2646

          k = 0.3333 0.5774 0.0000 ( 11052 PWs)   bands (ev):

    -5.4492  -5.1911  -5.1911  -4.7468  -4.7468   0.2822   0.8192   0.8192
     3.8615

 ------ SPIN DOWN ----------


          k = 0.0000 0.0000 0.0000 ( 10889 PWs)   bands (ev):

    -6.5686  -2.9669  -2.9669  -2.9344  -2.9344  -2.5262  -1.6598   0.9713
     1.5372

          k = 0.0000 0.0962 0.0000 ( 10909 PWs)   bands (ev):

    -6.4197  -3.0712  -2.9753  -2.9681  -2.8900  -2.4965  -1.4354   1.1054
     1.6801

          k = 0.0000 0.1925 0.0000 ( 10956 PWs)   bands (ev):

    -5.9804  -3.2717  -3.0531  -2.9979  -2.7655  -2.4156  -0.8702   1.5094
     2.1073

          k = 0.0000 0.2887 0.0000 ( 11000 PWs)   bands (ev):

    -5.2841  -3.4587  -3.1329  -3.0288  -2.5866  -2.3065  -0.0634   2.1854
     2.8966

          k = 0.0000 0.3849 0.0000 ( 11018 PWs)   bands (ev):

    -4.4738  -3.5992  -3.0596  -3.0436  -2.3961  -2.1992   0.9577   3.1138
     3.4883

          k = 0.0000 0.4811 0.0000 ( 11000 PWs)   bands (ev):

    -4.0078  -3.6848  -3.0820  -2.3574  -2.2481  -2.1138   1.4110   2.1550
     4.3783

          k = 0.0000-0.5774 0.0000 ( 11026 PWs)   bands (ev):

    -3.9286  -3.7134  -3.0902  -2.1919  -2.1034  -1.4954   0.1826   3.0618
     4.6253

          k = 0.0833 0.1443 0.0000 ( 10950 PWs)   bands (ev):

    -6.1252  -3.2144  -3.0305  -2.9934  -2.8032  -2.4408  -1.0471   1.3745
     1.9660

          k = 0.0833 0.2406 0.0000 ( 10994 PWs)   bands (ev):

    -5.5532  -3.3893  -3.1274  -3.0271  -2.6419  -2.3439  -0.3725   1.9146
     2.5319

          k = 0.0833 0.3368 0.0000 ( 10995 PWs)   bands (ev):

    -4.7698  -3.5363  -3.1785  -3.0667  -2.4311  -2.2314   0.5357   2.7275
     3.3740

          k = 0.0833 0.4330 0.0000 ( 11002 PWs)   bands (ev):

    -4.0750  -3.6371  -3.1014  -2.9373  -2.1940  -2.0945   1.6529   2.4808
     3.8335

          k = 0.0833 0.5292 0.0000 ( 11028 PWs)   bands (ev):

    -3.8714  -3.6876  -3.1216  -2.4841  -2.1056  -1.4505   0.6502   2.8631
     5.0539

          k = 0.1667 0.2887 0.0000 ( 10978 PWs)   bands (ev):

    -4.8770  -3.5018  -3.2286  -3.0816  -2.4343  -2.2389   0.3946   2.5930
     3.2356

          k = 0.1667 0.3849 0.0000 ( 11010 PWs)   bands (ev):

    -4.0877  -3.5817  -3.2643  -3.1446  -2.2016  -2.0432   1.3993   3.5248
     3.8288

          k = 0.1667 0.4811 0.0000 ( 11023 PWs)   bands (ev):

    -3.6980  -3.6252  -3.1954  -2.9720  -2.1096  -1.4206   1.7557   2.5990
     5.0409

          k = 0.1667 0.5774 0.0000 ( 11024 PWs)   bands (ev):

    -3.6683  -3.6383  -3.2151  -2.7651  -2.0834  -0.4915   0.3464   3.5377
     4.8712

          k = 0.2500 0.4330 0.0000 ( 11000 PWs)   bands (ev):

    -3.5842  -3.4487  -3.3424  -3.2421  -2.1116  -1.4139   2.4989   2.9606
     3.5785

          k = 0.2500 0.5292 0.0000 ( 11044 PWs)   bands (ev):

    -3.5600  -3.4124  -3.3215  -3.0753  -2.0726  -0.2887   1.3040   3.0014
     3.7241

          k = 0.3333 0.5774 0.0000 ( 11052 PWs)   bands (ev):

    -3.4520  -3.4520  -3.2148  -3.2148  -2.0604   1.0383   1.2621   1.2621
     4.4913

     the Fermi energy is    -3.0048 ev

!    total energy              =    -161.83891526 Ry
     total all-electron energy =     -2786.682591 Ry
     estimated scf accuracy    <       0.00000007 Ry
     smearing contrib. (-TS)   =      -0.00180104 Ry
     internal energy E=F+TS    =    -161.83711422 Ry

     The total energy is F=E-TS. E is the sum of the following terms:
     one-electron contribution =    -183.48989688 Ry
     hartree contribution      =      99.39381713 Ry
     xc contribution           =     -32.44330140 Ry
     ewald contribution        =      41.24127132 Ry
     DFT-D3 Dispersion         =      -0.01204458 Ry
     one-center paw contrib.   =     -86.52695982 Ry

     total magnetization       =     2.18 Bohr mag/cell
     absolute magnetization    =     2.28 Bohr mag/cell

     convergence has been achieved in  11 iterations

     negative rho (up, down):  5.696E-06 5.669E-06

     Forces acting on atoms (cartesian axes, Ry/au):

     atom    1 type  1   force =     0.00000000    0.00000000    0.00000000
     The non-local contrib.  to forces
     atom    1 type  1   force =     0.00000000    0.00000000    0.00000000
     The ionic contribution  to forces
     atom    1 type  1   force =    -0.00000000    0.00000000    0.00000000
     The local contribution  to forces
     atom    1 type  1   force =     0.00000000   -0.00000000    0.00000000
     The core correction contribution to forces
     atom    1 type  1   force =     0.00000000    0.00000000   -0.00000000
     The Hubbard contrib.    to forces
     atom    1 type  1   force =     0.00000000    0.00000000    0.00000000
     The SCF correction term to forces
     atom    1 type  1   force =    -0.00000000   -0.00000000   -0.00000000

     DFT-D3 dispersion contribution to forces:
     atom    1 type  1   force =     0.00000000    0.00000000    0.00000000

     Total force =     0.000000     Total SCF correction =     0.000000


     Computing stress (Cartesian axis) and pressure


     negative rho (up, down):  5.696E-06 5.669E-06
          total   stress  (Ry/bohr**3)                   (kbar)     P=      -22.43
  -0.00022837   0.00000000  -0.00000000          -33.59        0.00       -0.00
   0.00000000  -0.00022837   0.00000000            0.00      -33.59        0.00
   0.00000000   0.00000000  -0.00000074            0.00        0.00       -0.11


     Writing all to output data dir ./tmp/scf.save/
 
     init_run     :      0.52s CPU      0.64s WALL (       1 calls)
     electrons    :      7.69s CPU      9.18s WALL (       1 calls)
     forces       :      0.37s CPU      0.44s WALL (       1 calls)
     force_dftd3  :      0.00s CPU      0.00s WALL (       1 calls)
     stress       :      0.74s CPU      0.96s WALL (       1 calls)
     stres_dftd3  :      0.00s CPU      0.00s WALL (       1 calls)

     Called by init_run:
     wfcinit      :      0.05s CPU      0.07s WALL (       1 calls)
     potinit      :      0.16s CPU      0.19s WALL (       1 calls)
     hinit0       :      0.13s CPU      0.17s WALL (       1 calls)

     Called by electrons:
     c_bands      :      2.78s CPU      2.87s WALL (      11 calls)
     sum_band     :      2.18s CPU      2.89s WALL (      11 calls)
     v_of_rho     :      0.58s CPU      0.67s WALL (      12 calls)
     newd         :      1.27s CPU      1.87s WALL (      12 calls)
     PAW_pot      :      0.93s CPU      0.95s WALL (      12 calls)
     mix_rho      :      0.07s CPU      0.07s WALL (      11 calls)
     energy_dftd3 :      0.00s CPU      0.00s WALL (       1 calls)

     Called by c_bands:
     init_us_2    :      0.08s CPU      0.08s WALL (     950 calls)
     init_us_2:cp :      0.08s CPU      0.08s WALL (     950 calls)
     cegterg      :      1.86s CPU      1.94s WALL (     418 calls)

     Called by *egterg:
     cdiaghg      :      0.13s CPU      0.14s WALL (    1862 calls)
     h_psi        :      1.51s CPU      1.59s WALL (    1900 calls)
     s_psi        :      0.03s CPU      0.03s WALL (    1900 calls)
     g_psi        :      0.01s CPU      0.01s WALL (    1444 calls)

     Called by h_psi:
     h_psi:calbec :      0.08s CPU      0.08s WALL (    1900 calls)
     vloc_psi     :      1.39s CPU      1.46s WALL (    1900 calls)
     add_vuspsi   :      0.03s CPU      0.03s WALL (    1900 calls)

     General routines
     calbec       :      0.12s CPU      0.12s WALL (    2508 calls)
     fft          :      0.37s CPU      0.49s WALL (     338 calls)
     ffts         :      0.01s CPU      0.01s WALL (      46 calls)
     fftw         :      1.18s CPU      1.24s WALL (   23690 calls)
     interpolate  :      0.03s CPU      0.03s WALL (      24 calls)
 
     Parallel routines
 
     PWSCF        :      9.46s CPU     11.79s WALL

 
   This run was terminated on:  16:16:37  22Jul2025            

=------------------------------------------------------------------------------=
   JOB DONE.
=------------------------------------------------------------------------------=
