
     Program PWSCF v.7.2 starts on 23Jul2025 at 11:36:44 

     This program is part of the open-source Quantum ESPRESSO suite
     for quantum simulation of materials; please cite
         "P. Giannozzi et al., J. Phys.:Condens. Matter 21 395502 (2009);
         "P. Giannozzi et al., J. Phys.:Condens. Matter 29 465901 (2017);
         "P. Giannozzi et al., J. Chem. Phys. 152 154105 (2020);
          URL http://www.quantum-espresso.org", 
     in publications or presentations arising from this work. More details at
     http://www.quantum-espresso.org/quote

     Parallel version (MPI), running on     4 processors

     MPI processes distributed on     1 nodes
     17480 MiB available memory on the printing compute node when the environment starts
 
     Waiting for input...
     Reading input from standard input

     Current dimensions of program PWSCF are:
     Max number of different atomic species (ntypx) = 10
     Max number of k-points (npk) =  40000
     Max angular momentum in pseudopotentials (lmaxx) =  4
     file Mo.rel-pbe-spn-rrkjus_psl.1.0.0.UPF: wavefunction(s)  4S renormalized
     file Co.rel-pbe-n-rrkjus_psl.1.0.0.UPF: wavefunction(s)  3D renormalized
 
     R & G space division:  proc/nbgrp/npool/nimage =       4
     Subspace diagonalization in iterative solution of the eigenvalue problem:
     a serial algorithm will be used

 
     Parallelization info
     --------------------
     sticks:   dense  smooth     PW     G-vecs:    dense   smooth      PW
     Min         433     170     52               114411    28932    5108
     Max         435     172     53               114426    28948    5139
     Sum        1735     685    211               457675   115763   20511
 
     Using Slab Decomposition
 


     bravais-lattice index     =            0
     lattice parameter (alat)  =       5.9812  a.u.
     unit-cell volume          =    1463.6779 (a.u.)^3
     number of atoms/cell      =            4
     number of atomic types    =            3
     number of electrons       =        35.00
     number of Kohn-Sham states=           44
     kinetic-energy cutoff     =      70.0000  Ry
     charge density cutoff     =     700.0000  Ry
     scf convergence threshold =      1.0E-06
     mixing beta               =       0.7000
     number of iterations used =            8  plain     mixing
     Exchange-correlation= PBE
                           (   1   4   3   4   0   0   0)
     Non magnetic calculation with spin-orbit


     celldm(1)=   5.981197  celldm(2)=   0.000000  celldm(3)=   0.000000
     celldm(4)=   0.000000  celldm(5)=   0.000000  celldm(6)=   0.000000

     crystal axes: (cart. coord. in units of alat)
               a(1) = (   1.000000   0.000000   0.000000 )  
               a(2) = (  -0.500000   0.866025   0.000000 )  
               a(3) = (   0.000000   0.000000   7.898612 )  

     reciprocal axes: (cart. coord. in units 2 pi/alat)
               b(1) = (  1.000000  0.577351  0.000000 )  
               b(2) = (  0.000000  1.154701  0.000000 )  
               b(3) = (  0.000000  0.000000  0.126605 )  


     PseudoPot. # 1 for Mo read from file:
     /apps/softwares/qe/PP/1.0.0_2019/rel-pbe/PSEUDOPOTENTIALS/Mo.rel-pbe-spn-rrkjus_psl.1.0.0.UPF
     MD5 check sum: 891b0f0e8ab39d4b488c0423a9db7c1a
     Pseudo is Ultrasoft + core correction, Zval = 14.0
     Generated using "atomic" code by A. Dal Corso  (Quantum ESPRESSO distribution)
     Using radial grid of 1229 points, 10 beta functions with: 
                l(1) =   0
                l(2) =   0
                l(3) =   1
                l(4) =   1
                l(5) =   1
                l(6) =   1
                l(7) =   2
                l(8) =   2
                l(9) =   2
               l(10) =   2
     Q(r) pseudized with 0 coefficients 


     PseudoPot. # 2 for S  read from file:
     /apps/softwares/qe/PP/1.0.0_2019/rel-pbe/PSEUDOPOTENTIALS/S.rel-pbe-n-rrkjus_psl.1.0.0.UPF
     MD5 check sum: 7b1e11608d17457d7c93146861991a3e
     Pseudo is Ultrasoft + core correction, Zval =  6.0
     Generated using "atomic" code by A. Dal Corso  (Quantum ESPRESSO distribution)
     Using radial grid of 1151 points, 10 beta functions with: 
                l(1) =   0
                l(2) =   0
                l(3) =   1
                l(4) =   1
                l(5) =   1
                l(6) =   1
                l(7) =   2
                l(8) =   2
                l(9) =   2
               l(10) =   2
     Q(r) pseudized with 0 coefficients 


     PseudoPot. # 3 for Co read from file:
     /apps/softwares/qe/PP/1.0.0_2019/rel-pbe/PSEUDOPOTENTIALS/Co.rel-pbe-n-rrkjus_psl.1.0.0.UPF
     MD5 check sum: f8a64588c9730e533e085657a24568ba
     Pseudo is Ultrasoft + core correction, Zval =  9.0
     Generated using "atomic" code by A. Dal Corso  (Quantum ESPRESSO distribution)
     Using radial grid of 1193 points, 10 beta functions with: 
                l(1) =   0
                l(2) =   0
                l(3) =   1
                l(4) =   1
                l(5) =   1
                l(6) =   1
                l(7) =   2
                l(8) =   2
                l(9) =   2
               l(10) =   2
     Q(r) pseudized with 0 coefficients 


     atomic species   valence    mass     pseudopotential
        Mo            14.00    95.94000     Mo( 1.00)
        S              6.00    32.06500     S ( 1.00)
        Co             9.00    58.93320     Co( 1.00)

     No symmetry found



   Cartesian axes

     site n.     atom                  positions (alat units)
         1           Mo  tau(   1) = (   0.0000000   0.0000000   3.0578643  )
         2           S   tau(   2) = (   0.5000000   0.2886750   3.6010876  )
         3           S   tau(   3) = (   0.5000000   0.2886750   2.5702797  )
         4           Co  tau(   4) = (   0.0000000   0.0000000   3.9034939  )

     --------------------------------------------
     DFT-D3 Dispersion Correction (3-body terms):
     --------------------------------------------
       Reference C6 values for interpolation: 

         atom   Coordination number   C6
         S          0.000           268.01
         S          0.995           261.99
         S          1.990           251.62
         Co         0.000          1065.56
         Co         1.715           373.09
         Co         2.926           296.13
         Co         7.779           236.57
         Mo         0.000          1691.79
         Mo         1.942          1004.01
         Mo        11.056           674.22

       Values used:

         atom   Coordination number  R0_AB[au]  C6      C8
         Mo        10.952            3.547    674.22  77634.20
         S          6.609            3.128    251.62  12327.25
         S          3.685            3.128    251.62  12327.25
         Co         4.404            3.243    296.13  26037.62

         Molecular C6 ( Ry / a.u.^6 ) =      5593.57


     number of k points=   100  Gaussian smearing, width (Ry)=  0.0073

     Number of k-points >= 100: set verbosity='high' to print them.

     Dense  grid:   457675 G-vectors     FFT dimensions: (  54,  54, 400)

     Smooth grid:   115763 G-vectors     FFT dimensions: (  32,  32, 256)

     Estimated max dynamical RAM per process >       1.78 GB

     Estimated total dynamical RAM >       7.12 GB

     Initial potential from superposition of free atoms

     starting charge      34.9988, renormalised to      35.0000

     negative rho (up, down):  1.047E-04 0.000E+00
     Starting wfcs are   54 randomized atomic wfcs

     total cpu time spent up to now is       31.7 secs

     Self-consistent Calculation

     iteration #  1     ecut=    70.00 Ry     beta= 0.70
     Davidson diagonalization with overlap
     ethr =  1.00E-02,  avg # of iterations =  2.3

     negative rho (up, down):  7.845E-06 0.000E+00

     total cpu time spent up to now is      124.0 secs

     total energy              =    -256.46492396 Ry
     estimated scf accuracy    <       1.55372100 Ry

     iteration #  2     ecut=    70.00 Ry     beta= 0.70
     Davidson diagonalization with overlap
     ethr =  4.44E-03,  avg # of iterations =  8.2

     negative rho (up, down):  1.164E-05 0.000E+00

     total cpu time spent up to now is      276.1 secs

     total energy              =    -251.35375767 Ry
     estimated scf accuracy    <     235.26332845 Ry

     iteration #  3     ecut=    70.00 Ry     beta= 0.70
     Davidson diagonalization with overlap
     ethr =  4.44E-03,  avg # of iterations =  9.3

     negative rho (up, down):  5.164E-06 0.000E+00

     total cpu time spent up to now is      486.2 secs

     total energy              =    -256.81290605 Ry
     estimated scf accuracy    <       9.78807026 Ry

     iteration #  4     ecut=    70.00 Ry     beta= 0.70
     Davidson diagonalization with overlap
     ethr =  4.44E-03,  avg # of iterations =  4.8

     negative rho (up, down):  3.888E-06 0.000E+00

     total cpu time spent up to now is      578.5 secs

     total energy              =    -257.65563645 Ry
     estimated scf accuracy    <       0.54825060 Ry

     iteration #  5     ecut=    70.00 Ry     beta= 0.70
     Davidson diagonalization with overlap
     ethr =  1.57E-03,  avg # of iterations =  2.6

     negative rho (up, down):  1.711E-05 0.000E+00

     total cpu time spent up to now is      660.5 secs

     total energy              =    -257.68455115 Ry
     estimated scf accuracy    <       1.16380421 Ry

     iteration #  6     ecut=    70.00 Ry     beta= 0.70
     Davidson diagonalization with overlap
     ethr =  1.57E-03,  avg # of iterations =  2.0

     negative rho (up, down):  2.592E-05 0.000E+00

     total cpu time spent up to now is      740.3 secs

     total energy              =    -257.71439979 Ry
     estimated scf accuracy    <       0.04860659 Ry

     iteration #  7     ecut=    70.00 Ry     beta= 0.70
     Davidson diagonalization with overlap
     ethr =  1.39E-04,  avg # of iterations =  4.2

     negative rho (up, down):  5.498E-05 0.000E+00

     total cpu time spent up to now is      821.9 secs

     total energy              =    -257.71720828 Ry
     estimated scf accuracy    <       0.01613421 Ry

     iteration #  8     ecut=    70.00 Ry     beta= 0.70
     Davidson diagonalization with overlap
     ethr =  4.61E-05,  avg # of iterations =  4.5

     negative rho (up, down):  6.393E-05 0.000E+00

     total cpu time spent up to now is      902.3 secs

     total energy              =    -257.71789924 Ry
     estimated scf accuracy    <       0.00401081 Ry

     iteration #  9     ecut=    70.00 Ry     beta= 0.70
     Davidson diagonalization with overlap
     c_bands:  1 eigenvalues not converged
     ethr =  1.15E-05,  avg # of iterations =  6.1

     negative rho (up, down):  7.588E-05 0.000E+00

     total cpu time spent up to now is      992.1 secs

     total energy              =    -257.71767728 Ry
     estimated scf accuracy    <       0.01975003 Ry

     iteration # 10     ecut=    70.00 Ry     beta= 0.70
     Davidson diagonalization with overlap
     ethr =  1.15E-05,  avg # of iterations =  2.0

     negative rho (up, down):  9.213E-05 0.000E+00

     total cpu time spent up to now is     1085.4 secs

     total energy              =    -257.71821603 Ry
     estimated scf accuracy    <       0.00034265 Ry

     iteration # 11     ecut=    70.00 Ry     beta= 0.70
     Davidson diagonalization with overlap
     ethr =  9.79E-07,  avg # of iterations =  3.4

     negative rho (up, down):  1.034E-04 0.000E+00

     total cpu time spent up to now is     1184.5 secs

     total energy              =    -257.71824545 Ry
     estimated scf accuracy    <       0.00003898 Ry

     iteration # 12     ecut=    70.00 Ry     beta= 0.70
     Davidson diagonalization with overlap
     ethr =  1.11E-07,  avg # of iterations =  3.3

     negative rho (up, down):  1.133E-04 0.000E+00

     total cpu time spent up to now is     1269.7 secs

     total energy              =    -257.71824658 Ry
     estimated scf accuracy    <       0.00004904 Ry

     iteration # 13     ecut=    70.00 Ry     beta= 0.70
     Davidson diagonalization with overlap
     ethr =  1.11E-07,  avg # of iterations =  2.5

     negative rho (up, down):  1.107E-04 0.000E+00

     total cpu time spent up to now is     1353.7 secs

     total energy              =    -257.71824258 Ry
     estimated scf accuracy    <       0.00036444 Ry

     iteration # 14     ecut=    70.00 Ry     beta= 0.70
     Davidson diagonalization with overlap
     ethr =  1.11E-07,  avg # of iterations =  2.0

     negative rho (up, down):  1.101E-04 0.000E+00

     total cpu time spent up to now is     1436.8 secs

     total energy              =    -257.71825367 Ry
     estimated scf accuracy    <       0.00000447 Ry

     iteration # 15     ecut=    70.00 Ry     beta= 0.70
     Davidson diagonalization with overlap
     ethr =  1.28E-08,  avg # of iterations =  2.1

     negative rho (up, down):  1.105E-04 0.000E+00

     total cpu time spent up to now is     1517.9 secs

     total energy              =    -257.71825382 Ry
     estimated scf accuracy    <       0.00001143 Ry

     iteration # 16     ecut=    70.00 Ry     beta= 0.70
     Davidson diagonalization with overlap
     ethr =  1.28E-08,  avg # of iterations =  2.0

     negative rho (up, down):  1.131E-04 0.000E+00

     total cpu time spent up to now is     1599.3 secs

     total energy              =    -257.71825405 Ry
     estimated scf accuracy    <       0.00000731 Ry

     iteration # 17     ecut=    70.00 Ry     beta= 0.70
     Davidson diagonalization with overlap
     ethr =  1.28E-08,  avg # of iterations =  2.0

     negative rho (up, down):  1.157E-04 0.000E+00

     total cpu time spent up to now is     1692.2 secs

     End of self-consistent calculation

     Number of k-points >= 100: set verbosity='high' to print the bands.

     the Fermi energy is    -0.0098 ev

!    total energy              =    -257.71825426 Ry
     estimated scf accuracy    <       0.00000019 Ry
     smearing contrib. (-TS)   =      -0.00125786 Ry
     internal energy E=F+TS    =    -257.71699640 Ry

     The total energy is F=E-TS. E is the sum of the following terms:
     one-electron contribution =   -2433.39271897 Ry
     hartree contribution      =    1225.08014876 Ry
     xc contribution           =     -62.64177437 Ry
     ewald contribution        =    1013.30709610 Ry
     DFT-D3 Dispersion         =      -0.06974793 Ry

     convergence has been achieved in  17 iterations

     negative rho (up, down):  1.157E-04 0.000E+00

     Forces acting on atoms (cartesian axes, Ry/au):

     atom    1 type  1   force =    -0.00026120   -0.00022470    0.00177090
     atom    2 type  2   force =    -0.00026219   -0.00022499    0.00070176
     atom    3 type  2   force =    -0.00026078   -0.00022457    0.00046326
     atom    4 type  3   force =     0.00078417    0.00067426   -0.00293592
     The non-local contrib.  to forces
     atom    1 type  1   force =     0.00000029   -0.00000002   -0.06860249
     atom    2 type  2   force =     0.00000130   -0.00000168   -0.08725704
     atom    3 type  2   force =     0.00000035    0.00000026    0.26385571
     atom    4 type  3   force =     0.00101176    0.00087728    0.01894180
     The ionic contribution  to forces
     atom    1 type  1   force =     0.00000000    0.00000452  -41.17485529
     atom    2 type  2   force =    -0.00000000   -0.00000601   23.59948379
     atom    3 type  2   force =    -0.00000000   -0.00000261  -52.58388555
     atom    4 type  3   force =     0.00000000    0.00000410   70.15925705
     The local contribution  to forces
     atom    1 type  1   force =     0.00000060   -0.00000478   41.23468286
     atom    2 type  2   force =    -0.00000197    0.00000657  -23.51528808
     atom    3 type  2   force =     0.00000008    0.00000236   52.31784672
     atom    4 type  3   force =     0.00012891    0.00010980  -70.12832301
     The core correction contribution to forces
     atom    1 type  1   force =     0.00000000    0.00000001    0.00450254
     atom    2 type  2   force =    -0.00000006    0.00000005    0.00369185
     atom    3 type  2   force =    -0.00000000    0.00000000   -0.00209379
     atom    4 type  3   force =     0.00001136    0.00001048   -0.04609744
     The Hubbard contrib.    to forces
     atom    1 type  1   force =     0.00000000    0.00000000    0.00000000
     atom    2 type  2   force =     0.00000000    0.00000000    0.00000000
     atom    3 type  2   force =     0.00000000    0.00000000    0.00000000
     atom    4 type  3   force =     0.00000000    0.00000000    0.00000000
     The SCF correction term to forces
     atom    1 type  1   force =    -0.00000108    0.00000035   -0.00091124
     atom    2 type  2   force =    -0.00000046    0.00000084   -0.00044897
     atom    3 type  2   force =    -0.00000019    0.00000019    0.00005650
     atom    4 type  3   force =    -0.00010685   -0.00010264   -0.00026725

     DFT-D3 dispersion contribution to forces:
     atom    1 type  1   force =     0.00000000   -0.00000000    0.00552670
     atom    2 type  2   force =    -0.00000000    0.00000000   -0.00090762
     atom    3 type  2   force =    -0.00000000    0.00000000    0.00325582
     atom    4 type  3   force =     0.00000000   -0.00000000   -0.00787490

     Total force =     0.003727     Total SCF correction =     0.001062
     SCF correction compared to forces is large: reduce conv_thr to get better values


     Computing stress (Cartesian axis) and pressure


     negative rho (up, down):  1.157E-04 0.000E+00
          total   stress  (Ry/bohr**3)                   (kbar)     P=        4.30
   0.00004298  -0.00000000  -0.00000001            6.32       -0.00       -0.00
  -0.00000000   0.00004297  -0.00000000           -0.00        6.32       -0.00
  -0.00000001  -0.00000000   0.00000178           -0.00       -0.00        0.26


     Writing all to output data dir ./tmp/pwscf.save/
 
     init_run     :     29.19s CPU     31.22s WALL (       1 calls)
     electrons    :   1465.11s CPU   1660.58s WALL (       1 calls)
     forces       :      8.85s CPU     10.12s WALL (       1 calls)
     force_dftd3  :      0.02s CPU      0.02s WALL (       1 calls)
     stress       :     79.98s CPU     83.83s WALL (       1 calls)
     stres_dftd3  :      0.02s CPU      0.02s WALL (       1 calls)

     Called by init_run:
     wfcinit      :     24.29s CPU     24.95s WALL (       1 calls)
     potinit      :      0.74s CPU      0.79s WALL (       1 calls)
     hinit0       :      1.85s CPU      1.93s WALL (       1 calls)

     Called by electrons:
     c_bands      :   1175.43s CPU   1329.87s WALL (      17 calls)
     sum_band     :    249.92s CPU    271.27s WALL (      17 calls)
     v_of_rho     :      1.60s CPU      1.71s WALL (      18 calls)
     newd         :     38.97s CPU     59.79s WALL (      18 calls)
     mix_rho      :      0.96s CPU      0.96s WALL (      17 calls)
     energy_dftd3 :      0.01s CPU      0.01s WALL (       1 calls)

     Called by c_bands:
     init_us_2    :      6.82s CPU      6.86s WALL (    3700 calls)
     init_us_2:cp :      6.81s CPU      6.85s WALL (    3700 calls)
     cegterg      :   1023.03s CPU   1177.36s WALL (    1700 calls)

     Called by *egterg:
     cdiaghg      :     12.08s CPU     12.09s WALL (    8027 calls)
     h_psi        :    891.83s CPU   1046.58s WALL (    8127 calls)
     s_psi        :     26.52s CPU     26.57s WALL (    8127 calls)
     g_psi        :      2.40s CPU      2.41s WALL (    6327 calls)

     Called by h_psi:
     h_psi:calbec :     26.18s CPU     26.44s WALL (    8127 calls)
     vloc_psi     :    834.42s CPU    988.75s WALL (    8127 calls)
     add_vuspsi   :     27.24s CPU     27.31s WALL (    8127 calls)

     General routines
     calbec       :     38.27s CPU     38.57s WALL (   10327 calls)
     fft          :      1.82s CPU      2.04s WALL (     464 calls)
     ffts         :      0.07s CPU      0.07s WALL (     140 calls)
     fftw         :    467.22s CPU    616.23s WALL (  983624 calls)
     interpolate  :      0.33s CPU      0.34s WALL (      72 calls)
 
     Parallel routines
 
     PWSCF        :  26m24.30s CPU  29m48.05s WALL

 
   This run was terminated on:  12: 6:32  23Jul2025            

=------------------------------------------------------------------------------=
   JOB DONE.
=------------------------------------------------------------------------------=
