
     Program PWSCF v.7.2 starts on  8Jul2025 at 11:51: 2 

     This program is part of the open-source Quantum ESPRESSO suite
     for quantum simulation of materials; please cite
         "P. Giannozzi et al., J. Phys.:Condens. Matter 21 395502 (2009);
         "P. Giannozzi et al., J. Phys.:Condens. Matter 29 465901 (2017);
         "P. Giannozzi et al., J. Chem. Phys. 152 154105 (2020);
          URL http://www.quantum-espresso.org", 
     in publications or presentations arising from this work. More details at
     http://www.quantum-espresso.org/quote

     Parallel version (MPI), running on    16 processors

     MPI processes distributed on     1 nodes
     16833 MiB available memory on the printing compute node when the environment starts
 
     Waiting for input...
     Reading input from standard input

     Current dimensions of program PWSCF are:
     Max number of different atomic species (ntypx) = 10
     Max number of k-points (npk) =  40000
     Max angular momentum in pseudopotentials (lmaxx) =  4
     file Mo.rel-pbe-spn-kjpaw_psl.1.0.0.UPF: wavefunction(s)  4S 4P 4D renormalized
     file S.rel-pbe-n-kjpaw_psl.1.0.0.UPF: wavefunction(s)  3S 3P 3P renormalized
     file Co.rel-pbe-n-kjpaw_psl.1.0.0.UPF: wavefunction(s)  4S 3D 3D renormalized

     Fixed quantization axis for GGA:     0.000000    0.000000    1.000000
     Message from routine setup:
     using ibrav=0 with symmetry is DISCOURAGED, use correct ibrav instead
 
     R & G space division:  proc/nbgrp/npool/nimage =      16
     Subspace diagonalization in iterative solution of the eigenvalue problem:
     a serial algorithm will be used

 
     Parallelization info
     --------------------
     sticks:   dense  smooth     PW     G-vecs:    dense   smooth      PW
     Min         141      49     13                31415     6439     975
     Max         142      50     14                31430     6452     996
     Sum        2263     793    223               502741   103119   15795
 
     Using Slab Decomposition
 


     bravais-lattice index     =            0
     lattice parameter (alat)  =       5.9876  a.u.
     unit-cell volume          =    1067.2523 (a.u.)^3
     number of atoms/cell      =            4
     number of atomic types    =            3
     number of electrons       =        35.00
     number of Kohn-Sham states=           44
     kinetic-energy cutoff     =      80.0000  Ry
     charge density cutoff     =     920.0000  Ry
     scf convergence threshold =      1.0E-05
     mixing beta               =       0.7000
     number of iterations used =            8  plain     mixing
     Exchange-correlation= SLA  PW   PBX  PBC
                           (   1   4   3   4   0   0   0)
     Noncollinear calculation with spin-orbit


     celldm(1)=   5.987597  celldm(2)=   0.000000  celldm(3)=   0.000000
     celldm(4)=   0.000000  celldm(5)=   0.000000  celldm(6)=   0.000000

     crystal axes: (cart. coord. in units of alat)
               a(1) = (   1.000000   0.000000   0.000000 )  
               a(2) = (  -0.500000   0.866025   0.000000 )  
               a(3) = (   0.000000   0.000000   5.740887 )  

     reciprocal axes: (cart. coord. in units 2 pi/alat)
               b(1) = (  1.000000  0.577351  0.000000 )  
               b(2) = (  0.000000  1.154701  0.000000 )  
               b(3) = (  0.000000  0.000000  0.174189 )  


     PseudoPot. # 1 for Mo read from file:
     /home/antonio/PROJ_MetalTMD/antonio/PSEUDO/Mo.rel-pbe-spn-kjpaw_psl.1.0.0.UPF
     MD5 check sum: 6cda9dff73cdab358834687290e4775f
     Pseudo is Projector augmented-wave + core cor, Zval = 14.0
     Generated using &quot;atomic&quot; code by A. Dal Corso  v.6.3
     Shape of augmentation charge: PSQ
     Using radial grid of 1229 points, 10 beta functions with: 
                l(1) =   0
                l(2) =   0
                l(3) =   1
                l(4) =   1
                l(5) =   1
                l(6) =   1
                l(7) =   2
                l(8) =   2
                l(9) =   2
               l(10) =   2
     Q(r) pseudized with 0 coefficients 


     PseudoPot. # 2 for S  read from file:
     /home/antonio/PROJ_MetalTMD/antonio/PSEUDO/S.rel-pbe-n-kjpaw_psl.1.0.0.UPF
     MD5 check sum: 665a6610193808042cdd4f03574b9f7b
     Pseudo is Projector augmented-wave + core cor, Zval =  6.0
     Generated using &quot;atomic&quot; code by A. Dal Corso  v.6.3
     Shape of augmentation charge: PSQ
     Using radial grid of 1151 points, 10 beta functions with: 
                l(1) =   0
                l(2) =   0
                l(3) =   1
                l(4) =   1
                l(5) =   1
                l(6) =   1
                l(7) =   2
                l(8) =   2
                l(9) =   2
               l(10) =   2
     Q(r) pseudized with 0 coefficients 


     PseudoPot. # 3 for Co read from file:
     /home/antonio/PROJ_MetalTMD/antonio/PSEUDO/Co.rel-pbe-n-kjpaw_psl.1.0.0.UPF
     MD5 check sum: 24189b0fbe424dfc94bf49ee084f82bd
     Pseudo is Projector augmented-wave + core cor, Zval =  9.0
     Generated using "atomic" code by A. Dal Corso  (Quantum ESPRESSO distribution)
     Shape of augmentation charge: PSQ
     Using radial grid of 1193 points, 10 beta functions with: 
                l(1) =   0
                l(2) =   0
                l(3) =   1
                l(4) =   1
                l(5) =   1
                l(6) =   1
                l(7) =   2
                l(8) =   2
                l(9) =   2
               l(10) =   2
     Q(r) pseudized with 0 coefficients 


     atomic species   valence    mass     pseudopotential
        Mo            14.00    95.94000     Mo( 1.00)
        S              6.00    32.06500     S ( 1.00)
        Co             9.00    58.93320     Co( 1.00)

      6 Sym. Ops. (no inversion) found



   Cartesian axes

     site n.     atom                  positions (alat units)
         1           Mo  tau(   1) = (   0.0000000   0.0000000   2.9271509  )
         2           S   tau(   2) = (   0.5000000   0.2886750   3.4712610  )
         3           S   tau(   3) = (   0.5000000   0.2886750   2.4386667  )
         4           Co  tau(   4) = (   0.0000000   0.0000000   3.7793017  )

     number of k points=    22  Fermi-Dirac smearing, width (Ry)=  0.0070
                       cart. coord. in units 2pi/alat
        k(    1) = (   0.0000000   0.0000000   0.0000000), wk =   0.0100000
        k(    2) = (   0.0000000   0.1154701   0.0000000), wk =   0.0600000
        k(    3) = (   0.0000000   0.2309402   0.0000000), wk =   0.0600000
        k(    4) = (   0.0000000   0.3464103   0.0000000), wk =   0.0600000
        k(    5) = (   0.0000000   0.4618804   0.0000000), wk =   0.0600000
        k(    6) = (   0.0000000  -0.5773505   0.0000000), wk =   0.0300000
        k(    7) = (   0.1000000   0.1732052   0.0000000), wk =   0.0300000
        k(    8) = (   0.1000000   0.2886753   0.0000000), wk =   0.0600000
        k(    9) = (   0.1000000   0.4041454   0.0000000), wk =   0.0600000
        k(   10) = (   0.1000000   0.5196155   0.0000000), wk =   0.0600000
        k(   11) = (   0.2000000   0.3464103   0.0000000), wk =   0.0300000
        k(   12) = (   0.2000000   0.4618804   0.0000000), wk =   0.0600000
        k(   13) = (   0.2000000   0.5773505   0.0000000), wk =   0.0300000
        k(   14) = (   0.3000000   0.5196155   0.0000000), wk =   0.0300000
        k(   15) = (  -0.1000000   0.1732052   0.0000000), wk =   0.0300000
        k(   16) = (  -0.1000000   0.2886753   0.0000000), wk =   0.0600000
        k(   17) = (  -0.1000000   0.4041454   0.0000000), wk =   0.0600000
        k(   18) = (  -0.1000000   0.5196155   0.0000000), wk =   0.0600000
        k(   19) = (  -0.2000000   0.3464103   0.0000000), wk =   0.0300000
        k(   20) = (  -0.2000000   0.4618804   0.0000000), wk =   0.0600000
        k(   21) = (  -0.2000000   0.5773505   0.0000000), wk =   0.0300000
        k(   22) = (  -0.3000000   0.5196155   0.0000000), wk =   0.0300000

     Dense  grid:   502741 G-vectors     FFT dimensions: (  60,  60, 360)

     Smooth grid:   103119 G-vectors     FFT dimensions: (  36,  36, 200)

     Estimated max dynamical RAM per process >     406.21 MB

     Estimated total dynamical RAM >       6.35 GB
     Generating pointlists ...
     new r_m :   0.3120 (alat units)  1.8679 (a.u.) for type    1
     new r_m :   0.2699 (alat units)  1.6163 (a.u.) for type    2
     new r_m :   0.2699 (alat units)  1.6163 (a.u.) for type    3

     Initial potential from superposition of free atoms

     starting charge      34.9988, renormalised to      35.0000

     negative rho (up, down):  7.007E-05 6.803E-02

 ==============================================================================
     atom number    1 relative position :    0.0000   0.0000   2.9272
     charge :    10.849863  (integrated on a sphere of radius 0.312)
     magnetization :          0.000000    0.000000    0.020862
     magnetization/charge:    0.000000    0.000000    0.001923
     polar coord.: r, theta, phi [deg] :     0.020862    0.000000  360.000000

 ==============================================================================

 ==============================================================================
     atom number    2 relative position :    0.5000   0.2887   3.4713
     charge :     3.274961  (integrated on a sphere of radius 0.270)
     magnetization :          0.000000    0.000000    0.168823
     magnetization/charge:    0.000000    0.000000    0.051550
     polar coord.: r, theta, phi [deg] :     0.168823    0.000000  360.000000

 ==============================================================================

 ==============================================================================
     atom number    3 relative position :    0.5000   0.2887   2.4387
     charge :     3.102921  (integrated on a sphere of radius 0.270)
     magnetization :          0.000000    0.000000    0.000181
     magnetization/charge:    0.000000    0.000000    0.000058
     polar coord.: r, theta, phi [deg] :     0.000181    0.000000  360.000000

 ==============================================================================

 ==============================================================================
     atom number    4 relative position :    0.0000   0.0000   3.7793
     charge :     6.689182  (integrated on a sphere of radius 0.270)
     magnetization :          0.000000    0.000000    5.161365
     magnetization/charge:    0.000000    0.000000    0.771599
     polar coord.: r, theta, phi [deg] :     5.161365    0.000000  360.000000

 ==============================================================================
     Starting wfcs are   54 randomized atomic wfcs
     Checking if some PAW data can be deallocated... 

     total cpu time spent up to now is       13.2 secs

     Self-consistent Calculation

     iteration #  1     ecut=    80.00 Ry     beta= 0.70
     Davidson diagonalization with overlap
     ethr =  1.00E-02,  avg # of iterations =  7.1

     negative rho (up, down):  1.749E+01 4.961E-01

     total cpu time spent up to now is       51.8 secs

     total energy              =    -819.71971447 Ry
     estimated scf accuracy    <   94819.61732374 Ry

     total magnetization       =    -0.00     0.00     3.85 Bohr mag/cell
     absolute magnetization    =   708.61 Bohr mag/cell

     iteration #  2     ecut=    80.00 Ry     beta= 0.70
     Davidson diagonalization with overlap
     ethr =  1.00E-02,  avg # of iterations =  9.4

     negative rho (up, down):  1.106E+01 4.440E-01

     total cpu time spent up to now is       91.0 secs

     total energy              =    -579.19638804 Ry
     estimated scf accuracy    <    9538.75571242 Ry

     total magnetization       =    -0.00    -0.00     0.89 Bohr mag/cell
     absolute magnetization    =   355.32 Bohr mag/cell

     iteration #  3     ecut=    80.00 Ry     beta= 0.70
     Davidson diagonalization with overlap
     ethr =  1.00E-02,  avg # of iterations = 15.5

     negative rho (up, down):  1.090E+01 1.321E-01

     total cpu time spent up to now is      153.5 secs

     total energy              =    -789.34535923 Ry
     estimated scf accuracy    <   43397.22795094 Ry

     total magnetization       =     0.00     0.00     0.85 Bohr mag/cell
     absolute magnetization    =   220.75 Bohr mag/cell

     iteration #  4     ecut=    80.00 Ry     beta= 0.70
     Davidson diagonalization with overlap
     ethr =  1.00E-02,  avg # of iterations = 11.9

     negative rho (up, down):  1.095E+01 1.504E-01

     total cpu time spent up to now is      207.6 secs

     total energy              =    -864.72763167 Ry
     estimated scf accuracy    <   34510.65061027 Ry

     total magnetization       =    -0.00    -0.00     1.24 Bohr mag/cell
     absolute magnetization    =   179.08 Bohr mag/cell

     iteration #  5     ecut=    80.00 Ry     beta= 0.70
     Davidson diagonalization with overlap
     ethr =  1.00E-02,  avg # of iterations =  1.3

     negative rho (up, down):  4.433E+01 5.382E-02

     total cpu time spent up to now is      232.6 secs

     total energy              =   -1254.89716134 Ry
     estimated scf accuracy    <   34228.38972164 Ry

     total magnetization       =    -0.00    -0.00     1.15 Bohr mag/cell
     absolute magnetization    =   182.10 Bohr mag/cell

     iteration #  6     ecut=    80.00 Ry     beta= 0.70
     Davidson diagonalization with overlap
     c_bands:  4 eigenvalues not converged
     c_bands:  2 eigenvalues not converged
     c_bands:  3 eigenvalues not converged
     c_bands:  1 eigenvalues not converged
     c_bands:  3 eigenvalues not converged
     c_bands:  2 eigenvalues not converged
     c_bands:  2 eigenvalues not converged
     c_bands:  1 eigenvalues not converged
     c_bands:  4 eigenvalues not converged
     c_bands:  3 eigenvalues not converged
     c_bands:  4 eigenvalues not converged
     c_bands:  1 eigenvalues not converged
     c_bands:  2 eigenvalues not converged
     c_bands:  2 eigenvalues not converged
     c_bands:  5 eigenvalues not converged
     c_bands:  3 eigenvalues not converged
     c_bands:  3 eigenvalues not converged
     c_bands:  2 eigenvalues not converged
     ethr =  1.00E-02,  avg # of iterations = 20.0

     negative rho (up, down):  4.958E+01 1.411E-01

     total cpu time spent up to now is      312.8 secs

     total energy              =   -1660.55485483 Ry
     estimated scf accuracy    <   31761.93860448 Ry

     total magnetization       =    -0.00    -0.00     0.11 Bohr mag/cell
     absolute magnetization    =    36.15 Bohr mag/cell

     iteration #  7     ecut=    80.00 Ry     beta= 0.70
     Davidson diagonalization with overlap
     ethr =  1.00E-02,  avg # of iterations =  9.9

     negative rho (up, down):  5.712E+01 1.458E-01

     total cpu time spent up to now is      357.9 secs

     total energy              =   -1800.25787158 Ry
     estimated scf accuracy    <   27636.46141836 Ry

     total magnetization       =     0.00     0.00     0.07 Bohr mag/cell
     absolute magnetization    =    51.13 Bohr mag/cell

     iteration #  8     ecut=    80.00 Ry     beta= 0.70
     Davidson diagonalization with overlap
     ethr =  1.00E-02,  avg # of iterations = 10.0

     negative rho (up, down):  5.454E+01 3.343E-01

     total cpu time spent up to now is      396.5 secs

     total energy              =    -877.81847577 Ry
     estimated scf accuracy    <   16273.11321652 Ry

     total magnetization       =     0.00     0.00    -0.12 Bohr mag/cell
     absolute magnetization    =    57.46 Bohr mag/cell

     iteration #  9     ecut=    80.00 Ry     beta= 0.70
     Davidson diagonalization with overlap
     ethr =  1.00E-02,  avg # of iterations = 14.9

     negative rho (up, down):  4.483E+01 5.976E-01

     total cpu time spent up to now is      457.5 secs

     total energy              =   -1725.94173404 Ry
     estimated scf accuracy    <  139518.42141207 Ry

     total magnetization       =     0.00     0.00    -0.67 Bohr mag/cell
     absolute magnetization    =   202.23 Bohr mag/cell

     iteration # 10     ecut=    80.00 Ry     beta= 0.70
     Davidson diagonalization with overlap
     ethr =  1.00E-02,  avg # of iterations = 11.1

     negative rho (up, down):  8.581E+01 6.162E-02

     total cpu time spent up to now is      495.0 secs

     total energy              =    -245.95804479 Ry
     estimated scf accuracy    <   93705.32166057 Ry

     total magnetization       =     0.00     0.00    -0.42 Bohr mag/cell
     absolute magnetization    =   110.90 Bohr mag/cell

     iteration # 11     ecut=    80.00 Ry     beta= 0.70
     Davidson diagonalization with overlap
     ethr =  1.00E-02,  avg # of iterations = 35.4

     negative rho (up, down):  6.377E+01 2.968E-01

     total cpu time spent up to now is      603.9 secs

     total energy              =    -233.49332802 Ry
     estimated scf accuracy    <   50889.60930071 Ry

     total magnetization       =     0.00     0.00    -0.44 Bohr mag/cell
     absolute magnetization    =   300.60 Bohr mag/cell

     iteration # 12     ecut=    80.00 Ry     beta= 0.70
     Davidson diagonalization with overlap
     c_bands:  1 eigenvalues not converged
     ethr =  1.00E-02,  avg # of iterations = 16.6

     negative rho (up, down):  1.617E+01 1.223E-01

     total cpu time spent up to now is      672.9 secs

     total energy              =    -164.87097401 Ry
     estimated scf accuracy    <   81256.77599610 Ry

     total magnetization       =    -0.00     0.00    -0.63 Bohr mag/cell
     absolute magnetization    =   101.72 Bohr mag/cell

     iteration # 13     ecut=    80.00 Ry     beta= 0.70
     Davidson diagonalization with overlap
     ethr =  1.00E-02,  avg # of iterations = 15.3

     negative rho (up, down):  2.675E+01 5.074E-01

     total cpu time spent up to now is      733.5 secs

     total energy              =   -1105.13842971 Ry
     estimated scf accuracy    <   13537.23746498 Ry

     total magnetization       =     0.00     0.00     0.83 Bohr mag/cell
     absolute magnetization    =   253.35 Bohr mag/cell

     iteration # 14     ecut=    80.00 Ry     beta= 0.70
     Davidson diagonalization with overlap
     ethr =  1.00E-02,  avg # of iterations =  8.8

     negative rho (up, down):  3.659E+01 2.282E-01

     total cpu time spent up to now is      766.9 secs

     total energy              =   -1426.53146998 Ry
     estimated scf accuracy    <   28324.47886083 Ry

     total magnetization       =     0.00     0.00    -0.03 Bohr mag/cell
     absolute magnetization    =   299.62 Bohr mag/cell

     iteration # 15     ecut=    80.00 Ry     beta= 0.70
     Davidson diagonalization with overlap
     ethr =  1.00E-02,  avg # of iterations = 13.7

     negative rho (up, down):  4.176E+01 1.038E-01

     total cpu time spent up to now is      813.2 secs

     total energy              =   -1754.02770554 Ry
     estimated scf accuracy    <   19266.98144978 Ry

     total magnetization       =     0.00     0.00    -0.25 Bohr mag/cell
     absolute magnetization    =   163.19 Bohr mag/cell

     iteration # 16     ecut=    80.00 Ry     beta= 0.70
     Davidson diagonalization with overlap
     ethr =  1.00E-02,  avg # of iterations =  5.0

     negative rho (up, down):  4.860E+01 3.561E-02

     total cpu time spent up to now is      845.1 secs

     total energy              =   -1921.80879136 Ry
     estimated scf accuracy    <   19886.85626615 Ry

     total magnetization       =    -0.00     0.00    -0.13 Bohr mag/cell
     absolute magnetization    =    65.80 Bohr mag/cell

     iteration # 17     ecut=    80.00 Ry     beta= 0.70
     Davidson diagonalization with overlap
     ethr =  1.00E-02,  avg # of iterations =  4.1

     negative rho (up, down):  6.003E+01 3.102E-02

     total cpu time spent up to now is      873.3 secs

     total energy              =   -2079.81888066 Ry
     estimated scf accuracy    <   18844.66347102 Ry

     total magnetization       =     0.00    -0.00     0.03 Bohr mag/cell
     absolute magnetization    =    31.78 Bohr mag/cell

     iteration # 18     ecut=    80.00 Ry     beta= 0.70
     Davidson diagonalization with overlap
     ethr =  1.00E-02,  avg # of iterations =  4.2

     negative rho (up, down):  3.887E+01 6.113E-02

     total cpu time spent up to now is      902.0 secs

     total energy              =   -1462.37785459 Ry
     estimated scf accuracy    <   15419.72294763 Ry

     total magnetization       =    -0.00    -0.00     0.07 Bohr mag/cell
     absolute magnetization    =    42.66 Bohr mag/cell

     iteration # 19     ecut=    80.00 Ry     beta= 0.70
     Davidson diagonalization with overlap
     ethr =  1.00E-02,  avg # of iterations = 10.7

     negative rho (up, down):  5.356E+01 4.278E-02

     total cpu time spent up to now is      947.9 secs

     total energy              =   -1595.55958511 Ry
     estimated scf accuracy    <   17767.89700869 Ry

     total magnetization       =     0.00     0.00    -0.37 Bohr mag/cell
     absolute magnetization    =   180.82 Bohr mag/cell

     iteration # 20     ecut=    80.00 Ry     beta= 0.70
     Davidson diagonalization with overlap
     ethr =  1.00E-02,  avg # of iterations = 10.6

     negative rho (up, down):  5.498E+01 5.955E-01

     total cpu time spent up to now is      986.2 secs

     total energy              =   -1605.89033006 Ry
     estimated scf accuracy    <   41932.56008151 Ry

     total magnetization       =     0.00     0.00     0.94 Bohr mag/cell
     absolute magnetization    =   318.16 Bohr mag/cell

     iteration # 21     ecut=    80.00 Ry     beta= 0.70
     Davidson diagonalization with overlap
     c_bands:  2 eigenvalues not converged
     c_bands:  2 eigenvalues not converged
     c_bands:  1 eigenvalues not converged
     c_bands:  3 eigenvalues not converged
     c_bands:  2 eigenvalues not converged
     c_bands:  2 eigenvalues not converged
     c_bands:  2 eigenvalues not converged
     c_bands:  3 eigenvalues not converged
     c_bands:  4 eigenvalues not converged
     c_bands:  5 eigenvalues not converged
     ethr =  1.00E-02,  avg # of iterations = 16.3

     negative rho (up, down):  8.307E+01 4.273E-01

     total cpu time spent up to now is     1021.2 secs

     total energy              =   -1942.92600744 Ry
     estimated scf accuracy    <    1512.74648179 Ry

     total magnetization       =     0.00    -0.00     0.68 Bohr mag/cell
     absolute magnetization    =    85.81 Bohr mag/cell

     iteration # 22     ecut=    80.00 Ry     beta= 0.70
     Davidson diagonalization with overlap
     ethr =  1.00E-02,  avg # of iterations = 16.1

     negative rho (up, down):  6.074E+01 2.557E-01

     total cpu time spent up to now is     1090.2 secs

     total energy              =    -654.20091738 Ry
     estimated scf accuracy    <  134228.85767726 Ry

     total magnetization       =    -0.00    -0.00     0.41 Bohr mag/cell
     absolute magnetization    =   136.45 Bohr mag/cell

     iteration # 23     ecut=    80.00 Ry     beta= 0.70
     Davidson diagonalization with overlap
     ethr =  1.00E-02,  avg # of iterations = 18.7

     negative rho (up, down):  6.784E+01 1.624E-01

     total cpu time spent up to now is     1159.6 secs

     total energy              =   -2083.45407719 Ry
     estimated scf accuracy    <   16903.99985268 Ry

     total magnetization       =    -0.00    -0.00     0.07 Bohr mag/cell
     absolute magnetization    =    74.92 Bohr mag/cell

     iteration # 24     ecut=    80.00 Ry     beta= 0.70
     Davidson diagonalization with overlap
     ethr =  1.00E-02,  avg # of iterations =  5.6

     negative rho (up, down):  5.107E+01 4.976E-02

     total cpu time spent up to now is     1189.3 secs

     total energy              =   -1865.63986329 Ry
     estimated scf accuracy    <   14585.32601245 Ry

     total magnetization       =     0.00     0.00     0.09 Bohr mag/cell
     absolute magnetization    =   199.90 Bohr mag/cell

     iteration # 25     ecut=    80.00 Ry     beta= 0.70
     Davidson diagonalization with overlap
     ethr =  1.00E-02,  avg # of iterations =  5.9

     negative rho (up, down):  6.078E+01 4.642E-02

     total cpu time spent up to now is     1220.3 secs

     total energy              =   -2031.88789665 Ry
     estimated scf accuracy    <   18283.34065500 Ry

     total magnetization       =     0.00    -0.00     0.84 Bohr mag/cell
     absolute magnetization    =    22.50 Bohr mag/cell

     iteration # 26     ecut=    80.00 Ry     beta= 0.70
     Davidson diagonalization with overlap
     ethr =  1.00E-02,  avg # of iterations =  6.0

     negative rho (up, down):  5.303E+01 8.784E-02

     total cpu time spent up to now is     1249.6 secs

     total energy              =   -1972.23710816 Ry
     estimated scf accuracy    <   13792.37263583 Ry

     total magnetization       =    -0.00    -0.00    -0.15 Bohr mag/cell
     absolute magnetization    =    53.80 Bohr mag/cell

     iteration # 27     ecut=    80.00 Ry     beta= 0.70
     Davidson diagonalization with overlap
     ethr =  1.00E-02,  avg # of iterations =  5.0

     negative rho (up, down):  5.595E+01 1.873E-01

     total cpu time spent up to now is     1278.5 secs

     total energy              =   -2101.62712050 Ry
     estimated scf accuracy    <   24279.21109911 Ry

     total magnetization       =    -0.00     0.00    -0.01 Bohr mag/cell
     absolute magnetization    =    75.91 Bohr mag/cell

     iteration # 28     ecut=    80.00 Ry     beta= 0.70
     Davidson diagonalization with overlap
     ethr =  1.00E-02,  avg # of iterations =  5.8

     negative rho (up, down):  6.874E+01 1.713E-01

     total cpu time spent up to now is     1306.6 secs

     total energy              =   -2471.40289992 Ry
     estimated scf accuracy    <   21760.37976701 Ry

     total magnetization       =     0.00     0.00     0.01 Bohr mag/cell
     absolute magnetization    =    48.78 Bohr mag/cell

     iteration # 29     ecut=    80.00 Ry     beta= 0.70
     Davidson diagonalization with overlap
     ethr =  1.00E-02,  avg # of iterations =  5.8

     negative rho (up, down):  7.910E+01 1.453E-01

     total cpu time spent up to now is     1337.7 secs

     total energy              =   -2661.82626356 Ry
     estimated scf accuracy    <   14342.03191039 Ry

     total magnetization       =     0.00     0.00    -0.25 Bohr mag/cell
     absolute magnetization    =    21.56 Bohr mag/cell

     iteration # 30     ecut=    80.00 Ry     beta= 0.70
     Davidson diagonalization with overlap
     ethr =  1.00E-02,  avg # of iterations = 10.5

     negative rho (up, down):  2.003E+02 3.380E-01

     total cpu time spent up to now is     1376.4 secs

     total energy              =   -5132.68762191 Ry
     estimated scf accuracy    <   15796.41895276 Ry

     total magnetization       =    -0.00     0.00     0.18 Bohr mag/cell
     absolute magnetization    =    51.75 Bohr mag/cell

     iteration # 31     ecut=    80.00 Ry     beta= 0.70
     Davidson diagonalization with overlap
     c_bands:  3 eigenvalues not converged
     c_bands:  4 eigenvalues not converged
     c_bands:  4 eigenvalues not converged
     c_bands:  1 eigenvalues not converged
     c_bands:  3 eigenvalues not converged
     c_bands:  1 eigenvalues not converged
     c_bands:  4 eigenvalues not converged
     ethr =  1.00E-02,  avg # of iterations = 26.7

     negative rho (up, down):  1.865E+02 3.436E-01

     total cpu time spent up to now is     1446.0 secs

     total energy              =   -5187.09839674 Ry
     estimated scf accuracy    <   17805.50070167 Ry

     total magnetization       =     0.00     0.00     0.18 Bohr mag/cell
     absolute magnetization    =    72.88 Bohr mag/cell

     iteration # 32     ecut=    80.00 Ry     beta= 0.70
     Davidson diagonalization with overlap
     ethr =  1.00E-02,  avg # of iterations =  8.0

     negative rho (up, down):  2.016E+02 3.543E-01

     total cpu time spent up to now is     1479.7 secs

     total energy              =   -5617.55884157 Ry
     estimated scf accuracy    <   16176.82146488 Ry

     total magnetization       =    -0.00     0.00     0.08 Bohr mag/cell
     absolute magnetization    =    67.27 Bohr mag/cell

     iteration # 33     ecut=    80.00 Ry     beta= 0.70
     Davidson diagonalization with overlap
     ethr =  1.00E-02,  avg # of iterations =  3.7

     negative rho (up, down):  2.086E+02 2.882E-01

     total cpu time spent up to now is     1508.9 secs

     total energy              =   -6004.18638528 Ry
     estimated scf accuracy    <   19205.00884765 Ry

     total magnetization       =     0.00    -0.00     0.05 Bohr mag/cell
     absolute magnetization    =    73.52 Bohr mag/cell

     iteration # 34     ecut=    80.00 Ry     beta= 0.70
     Davidson diagonalization with overlap
     c_bands:  1 eigenvalues not converged
     c_bands:  1 eigenvalues not converged
     ethr =  1.00E-02,  avg # of iterations = 36.0

     negative rho (up, down):  5.059E+01 5.676E-02

     total cpu time spent up to now is     1615.6 secs

     total energy              =    -743.93272445 Ry
     estimated scf accuracy    <  161165.61051418 Ry

     total magnetization       =    -0.00    -0.00     0.61 Bohr mag/cell
     absolute magnetization    =   144.40 Bohr mag/cell

     iteration # 35     ecut=    80.00 Ry     beta= 0.70
     Davidson diagonalization with overlap
     c_bands:  1 eigenvalues not converged
     c_bands:  1 eigenvalues not converged
     c_bands:  2 eigenvalues not converged
     ethr =  1.00E-02,  avg # of iterations = 17.2

     negative rho (up, down):  7.447E+01 2.765E-01

     total cpu time spent up to now is     1690.1 secs

     total energy              =   -2456.58966892 Ry
     estimated scf accuracy    <   34291.63322205 Ry

     total magnetization       =    -0.00     0.00     0.52 Bohr mag/cell
     absolute magnetization    =   148.14 Bohr mag/cell

     iteration # 36     ecut=    80.00 Ry     beta= 0.70
     Davidson diagonalization with overlap
     ethr =  1.00E-02,  avg # of iterations = 11.7

     negative rho (up, down):  5.835E+01 1.545E-01

     total cpu time spent up to now is     1733.4 secs

     total energy              =   -2206.74867056 Ry
     estimated scf accuracy    <   17856.79892968 Ry

     total magnetization       =     0.00    -0.00     0.04 Bohr mag/cell
     absolute magnetization    =   107.34 Bohr mag/cell

     iteration # 37     ecut=    80.00 Ry     beta= 0.70
     Davidson diagonalization with overlap
     c_bands:  4 eigenvalues not converged
     c_bands:  1 eigenvalues not converged
     ethr =  1.00E-02,  avg # of iterations = 15.7

     negative rho (up, down):  1.213E+01 1.218E-01

     total cpu time spent up to now is     1780.4 secs

     total energy              =    -244.77355885 Ry
     estimated scf accuracy    <   15495.88883679 Ry

     total magnetization       =    -0.00     0.00     0.18 Bohr mag/cell
     absolute magnetization    =    72.00 Bohr mag/cell

     iteration # 38     ecut=    80.00 Ry     beta= 0.70
     Davidson diagonalization with overlap
     ethr =  1.00E-02,  avg # of iterations = 14.8

     negative rho (up, down):  2.843E+01 8.394E-02

     total cpu time spent up to now is     1834.2 secs

     total energy              =     -53.54100796 Ry
     estimated scf accuracy    <   25330.95310727 Ry

     total magnetization       =     0.00    -0.00     0.20 Bohr mag/cell
     absolute magnetization    =   261.86 Bohr mag/cell

     iteration # 39     ecut=    80.00 Ry     beta= 0.70
     Davidson diagonalization with overlap
     ethr =  1.00E-02,  avg # of iterations = 18.5

     negative rho (up, down):  1.797E+01 1.960E-02

     total cpu time spent up to now is     1891.2 secs

     total energy              =   -1203.83016428 Ry
     estimated scf accuracy    <   22632.54840494 Ry

     total magnetization       =     0.00     0.00    -0.14 Bohr mag/cell
     absolute magnetization    =   110.90 Bohr mag/cell

     iteration # 40     ecut=    80.00 Ry     beta= 0.70
     Davidson diagonalization with overlap
     ethr =  1.00E-02,  avg # of iterations =  8.7

     negative rho (up, down):  4.345E+00 6.546E-02

     total cpu time spent up to now is     1926.7 secs

     total energy              =    -797.56819417 Ry
     estimated scf accuracy    <   27898.02082539 Ry

     total magnetization       =    -0.00    -0.00     0.86 Bohr mag/cell
     absolute magnetization    =    47.88 Bohr mag/cell

     iteration # 41     ecut=    80.00 Ry     beta= 0.70
     Davidson diagonalization with overlap
     ethr =  1.00E-02,  avg # of iterations = 10.1

     negative rho (up, down):  7.688E+01 1.572E-01

     total cpu time spent up to now is     1961.6 secs

     total energy              =   -2267.11370560 Ry
     estimated scf accuracy    <   28497.66906298 Ry

     total magnetization       =    -0.00    -0.00     0.16 Bohr mag/cell
     absolute magnetization    =   179.12 Bohr mag/cell

     iteration # 42     ecut=    80.00 Ry     beta= 0.70
     Davidson diagonalization with overlap
     ethr =  1.00E-02,  avg # of iterations = 14.2

     negative rho (up, down):  8.420E+01 1.332E-01

     total cpu time spent up to now is     2005.7 secs

     total energy              =   -2735.69635424 Ry
     estimated scf accuracy    <   11211.47315591 Ry

     total magnetization       =     0.00     0.00     0.05 Bohr mag/cell
     absolute magnetization    =    96.39 Bohr mag/cell

     iteration # 43     ecut=    80.00 Ry     beta= 0.70
     Davidson diagonalization with overlap
     c_bands:  1 eigenvalues not converged
     c_bands:  1 eigenvalues not converged
     ethr =  1.00E-02,  avg # of iterations = 14.3

     negative rho (up, down):  1.072E+02 1.062E-01

     total cpu time spent up to now is     2042.8 secs

     total energy              =   -3343.45630484 Ry
     estimated scf accuracy    <   11048.84917600 Ry

     total magnetization       =     0.00    -0.00     0.15 Bohr mag/cell
     absolute magnetization    =    78.38 Bohr mag/cell

     iteration # 44     ecut=    80.00 Ry     beta= 0.70
     Davidson diagonalization with overlap
     ethr =  1.00E-02,  avg # of iterations =  7.3

     negative rho (up, down):  8.917E+01 1.043E-01

     total cpu time spent up to now is     2076.1 secs

     total energy              =   -2889.03585437 Ry
     estimated scf accuracy    <   12083.62427089 Ry

     total magnetization       =     0.00     0.00    -0.10 Bohr mag/cell
     absolute magnetization    =   133.87 Bohr mag/cell

     iteration # 45     ecut=    80.00 Ry     beta= 0.70
     Davidson diagonalization with overlap
     ethr =  1.00E-02,  avg # of iterations =  5.6

     negative rho (up, down):  5.345E+01 1.020E-01

     total cpu time spent up to now is     2104.3 secs

     total energy              =   -2259.62484009 Ry
     estimated scf accuracy    <    9100.24910792 Ry

     total magnetization       =     0.00    -0.00     0.00 Bohr mag/cell
     absolute magnetization    =    33.37 Bohr mag/cell

     iteration # 46     ecut=    80.00 Ry     beta= 0.70
     Davidson diagonalization with overlap
     ethr =  1.00E-02,  avg # of iterations =  8.3

     negative rho (up, down):  4.425E+01 1.483E-01

     total cpu time spent up to now is     2137.7 secs

     total energy              =   -2022.43461989 Ry
     estimated scf accuracy    <   22795.42695598 Ry

     total magnetization       =     0.00    -0.00     0.10 Bohr mag/cell
     absolute magnetization    =    63.31 Bohr mag/cell

     iteration # 47     ecut=    80.00 Ry     beta= 0.70
     Davidson diagonalization with overlap
     ethr =  1.00E-02,  avg # of iterations =  9.6

     negative rho (up, down):  2.027E+02 4.655E-01

     total cpu time spent up to now is     2167.3 secs

     total energy              =   -4609.10865523 Ry
     estimated scf accuracy    <   22659.37072331 Ry

     total magnetization       =     0.00    -0.00    -0.11 Bohr mag/cell
     absolute magnetization    =     7.41 Bohr mag/cell

     iteration # 48     ecut=    80.00 Ry     beta= 0.70
     Davidson diagonalization with overlap
     c_bands:  2 eigenvalues not converged
     c_bands:  3 eigenvalues not converged
     ethr =  1.00E-02,  avg # of iterations = 29.0

     negative rho (up, down):  2.106E+02 5.330E-01

     total cpu time spent up to now is     2259.7 secs

     total energy              =   -5940.00660581 Ry
     estimated scf accuracy    <   18313.34702029 Ry

     total magnetization       =     0.00    -0.00    -0.24 Bohr mag/cell
     absolute magnetization    =    36.94 Bohr mag/cell

     iteration # 49     ecut=    80.00 Ry     beta= 0.70
     Davidson diagonalization with overlap
     ethr =  1.00E-02,  avg # of iterations = 10.7

     negative rho (up, down):  2.025E+02 3.808E-01

     total cpu time spent up to now is     2289.8 secs

     total energy              =   -5616.30289039 Ry
     estimated scf accuracy    <   30666.07269812 Ry

     total magnetization       =    -0.00     0.00    -0.21 Bohr mag/cell
     absolute magnetization    =     9.86 Bohr mag/cell

     iteration # 50     ecut=    80.00 Ry     beta= 0.70
     Davidson diagonalization with overlap
     c_bands:  1 eigenvalues not converged
     c_bands:  2 eigenvalues not converged
     c_bands:  4 eigenvalues not converged
     c_bands:  2 eigenvalues not converged
     c_bands:  3 eigenvalues not converged
     c_bands:  3 eigenvalues not converged
     c_bands:  2 eigenvalues not converged
     c_bands:  4 eigenvalues not converged
     c_bands:  5 eigenvalues not converged
     c_bands:  5 eigenvalues not converged
     c_bands:  4 eigenvalues not converged
     c_bands:  4 eigenvalues not converged
     c_bands:  2 eigenvalues not converged
     c_bands:  1 eigenvalues not converged
     ethr =  1.00E-02,  avg # of iterations = 21.9

     negative rho (up, down):  1.882E+02 4.396E-01

     total cpu time spent up to now is     2342.3 secs

     total energy              =   -4830.85491902 Ry
     estimated scf accuracy    <   16688.59560507 Ry

     total magnetization       =     0.00    -0.00    -0.41 Bohr mag/cell
     absolute magnetization    =    93.55 Bohr mag/cell

     iteration # 51     ecut=    80.00 Ry     beta= 0.70
     Davidson diagonalization with overlap
     c_bands:  2 eigenvalues not converged
     ethr =  1.00E-02,  avg # of iterations = 32.5

     negative rho (up, down):  1.858E+02 1.871E-01

     total cpu time spent up to now is     2435.5 secs

     total energy              =   -4678.66349519 Ry
     estimated scf accuracy    <   22237.61037315 Ry

     total magnetization       =     0.00    -0.00    -0.28 Bohr mag/cell
     absolute magnetization    =   188.67 Bohr mag/cell

     iteration # 52     ecut=    80.00 Ry     beta= 0.70
     Davidson diagonalization with overlap
     ethr =  1.00E-02,  avg # of iterations = 33.9

     negative rho (up, down):  1.855E+02 2.059E-01

     total cpu time spent up to now is     2519.6 secs

     total energy              =   -5012.84158294 Ry
     estimated scf accuracy    <    2927.03515771 Ry

     total magnetization       =    -0.00     0.00     0.55 Bohr mag/cell
     absolute magnetization    =    74.10 Bohr mag/cell

     iteration # 53     ecut=    80.00 Ry     beta= 0.70
     Davidson diagonalization with overlap
     c_bands:  3 eigenvalues not converged
     c_bands:  2 eigenvalues not converged
     c_bands:  5 eigenvalues not converged
     c_bands:  1 eigenvalues not converged
     c_bands:  3 eigenvalues not converged
     c_bands:  3 eigenvalues not converged
     c_bands:  1 eigenvalues not converged
     c_bands:  1 eigenvalues not converged
     c_bands:  2 eigenvalues not converged
     c_bands:  3 eigenvalues not converged
     c_bands:  2 eigenvalues not converged
     c_bands:  1 eigenvalues not converged
     c_bands:  3 eigenvalues not converged
     c_bands:  2 eigenvalues not converged
     c_bands:  3 eigenvalues not converged
     c_bands:  5 eigenvalues not converged
     ethr =  1.00E-02,  avg # of iterations = 20.5

     negative rho (up, down):  1.771E+02 2.690E-01

     total cpu time spent up to now is     2585.5 secs

     total energy              =   -5172.35128192 Ry
     estimated scf accuracy    <   19151.01389053 Ry

     total magnetization       =    -0.00    -0.00     1.54 Bohr mag/cell
     absolute magnetization    =    51.02 Bohr mag/cell

     iteration # 54     ecut=    80.00 Ry     beta= 0.70
     Davidson diagonalization with overlap
     ethr =  1.00E-02,  avg # of iterations = 15.5

     negative rho (up, down):  1.745E+02 3.119E-01

     total cpu time spent up to now is     2634.6 secs

     total energy              =   -5090.82935493 Ry
     estimated scf accuracy    <   52647.48597235 Ry

     total magnetization       =     0.00     0.00    -0.02 Bohr mag/cell
     absolute magnetization    =   162.28 Bohr mag/cell

     iteration # 55     ecut=    80.00 Ry     beta= 0.70
     Davidson diagonalization with overlap
     c_bands:  3 eigenvalues not converged
     ethr =  1.00E-02,  avg # of iterations = 13.3

     negative rho (up, down):  1.635E+02 2.799E-01

     total cpu time spent up to now is     2670.2 secs

     total energy              =   -4963.12923865 Ry
     estimated scf accuracy    <   40265.19902691 Ry

     total magnetization       =     0.00    -0.00    -0.01 Bohr mag/cell
     absolute magnetization    =   107.69 Bohr mag/cell

     iteration # 56     ecut=    80.00 Ry     beta= 0.70
     Davidson diagonalization with overlap
     c_bands:  3 eigenvalues not converged
     c_bands:  2 eigenvalues not converged
     c_bands:  4 eigenvalues not converged
     c_bands:  5 eigenvalues not converged
     c_bands:  2 eigenvalues not converged
     c_bands:  3 eigenvalues not converged
     c_bands:  1 eigenvalues not converged
     c_bands:  2 eigenvalues not converged
     c_bands:  5 eigenvalues not converged
     c_bands:  3 eigenvalues not converged
     c_bands:  4 eigenvalues not converged
     ethr =  1.00E-02,  avg # of iterations = 24.7

     negative rho (up, down):  1.552E+02 2.298E-01

     total cpu time spent up to now is     2728.5 secs

     total energy              =   -4260.55205761 Ry
     estimated scf accuracy    <   96401.55505370 Ry

     total magnetization       =     0.00    -0.00     0.81 Bohr mag/cell
     absolute magnetization    =   289.76 Bohr mag/cell

     iteration # 57     ecut=    80.00 Ry     beta= 0.70
     Davidson diagonalization with overlap
     ethr =  1.00E-02,  avg # of iterations = 10.9

     negative rho (up, down):  1.658E+02 1.007E-01

     total cpu time spent up to now is     2768.2 secs

     total energy              =   -4586.02918753 Ry
     estimated scf accuracy    <    8531.47377111 Ry

     total magnetization       =    -0.00    -0.00    -0.03 Bohr mag/cell
     absolute magnetization    =    50.75 Bohr mag/cell

     iteration # 58     ecut=    80.00 Ry     beta= 0.70
     Davidson diagonalization with overlap
     c_bands:  4 eigenvalues not converged
     c_bands:  1 eigenvalues not converged
     c_bands:  4 eigenvalues not converged
     c_bands:  2 eigenvalues not converged
     c_bands:  4 eigenvalues not converged
     c_bands:  3 eigenvalues not converged
     c_bands:  1 eigenvalues not converged
     c_bands:  3 eigenvalues not converged
     c_bands:  1 eigenvalues not converged
     ethr =  1.00E-02,  avg # of iterations = 25.6

     negative rho (up, down):  1.612E+02 1.560E-01

     total cpu time spent up to now is     2839.4 secs

     total energy              =   -4557.30605604 Ry
     estimated scf accuracy    <   13940.93972421 Ry

     total magnetization       =     0.00    -0.00     0.70 Bohr mag/cell
     absolute magnetization    =   264.07 Bohr mag/cell

     iteration # 59     ecut=    80.00 Ry     beta= 0.70
     Davidson diagonalization with overlap
     c_bands:  1 eigenvalues not converged
     ethr =  1.00E-02,  avg # of iterations =  9.6

     negative rho (up, down):  1.601E+02 2.518E-01

     total cpu time spent up to now is     2875.3 secs

     total energy              =   -4544.65870828 Ry
     estimated scf accuracy    <   12833.28526465 Ry

     total magnetization       =    -0.00    -0.00     0.34 Bohr mag/cell
     absolute magnetization    =   157.73 Bohr mag/cell

     iteration # 60     ecut=    80.00 Ry     beta= 0.70
     Davidson diagonalization with overlap
     c_bands:  2 eigenvalues not converged
     c_bands:  4 eigenvalues not converged
     c_bands:  3 eigenvalues not converged
     c_bands:  4 eigenvalues not converged
     c_bands:  5 eigenvalues not converged
     c_bands:  2 eigenvalues not converged
     c_bands:  3 eigenvalues not converged
     c_bands:  3 eigenvalues not converged
     c_bands:  4 eigenvalues not converged
     c_bands:  5 eigenvalues not converged
     c_bands:  1 eigenvalues not converged
     c_bands:  3 eigenvalues not converged
     c_bands:  1 eigenvalues not converged
     ethr =  1.00E-02,  avg # of iterations = 20.1

     negative rho (up, down):  1.688E+02 3.087E-01

     total cpu time spent up to now is     2914.8 secs

     total energy              =   -4696.56174415 Ry
     estimated scf accuracy    <   18689.39294606 Ry

     total magnetization       =     0.00    -0.00     0.99 Bohr mag/cell
     absolute magnetization    =   166.96 Bohr mag/cell

     iteration # 61     ecut=    80.00 Ry     beta= 0.70
     Davidson diagonalization with overlap
     c_bands:  3 eigenvalues not converged
     ethr =  1.00E-02,  avg # of iterations = 16.9

     negative rho (up, down):  1.715E+02 5.648E-01

     total cpu time spent up to now is     2958.2 secs

     total energy              =   -4834.69566537 Ry
     estimated scf accuracy    <   14096.79622220 Ry

     total magnetization       =    -0.00     0.00     0.22 Bohr mag/cell
     absolute magnetization    =    36.18 Bohr mag/cell

     iteration # 62     ecut=    80.00 Ry     beta= 0.70
     Davidson diagonalization with overlap
     ethr =  1.00E-02,  avg # of iterations = 13.5

     negative rho (up, down):  1.701E+02 5.753E-01

     total cpu time spent up to now is     2997.3 secs

     total energy              =   -4644.17597993 Ry
     estimated scf accuracy    <   21052.13343319 Ry

     total magnetization       =     0.00    -0.00     0.27 Bohr mag/cell
     absolute magnetization    =   195.23 Bohr mag/cell

     iteration # 63     ecut=    80.00 Ry     beta= 0.70
     Davidson diagonalization with overlap
     ethr =  1.00E-02,  avg # of iterations =  5.6

     negative rho (up, down):  1.701E+02 5.735E-01

     total cpu time spent up to now is     3024.3 secs

     total energy              =   -4616.78677673 Ry
     estimated scf accuracy    <    3930.25581440 Ry

     total magnetization       =    -0.00     0.00     0.02 Bohr mag/cell
     absolute magnetization    =    40.54 Bohr mag/cell

     iteration # 64     ecut=    80.00 Ry     beta= 0.70
     Davidson diagonalization with overlap
     c_bands:  1 eigenvalues not converged
     ethr =  1.00E-02,  avg # of iterations =  6.5

     negative rho (up, down):  1.699E+02 4.127E-01

     total cpu time spent up to now is     3050.3 secs

     total energy              =   -4626.79362230 Ry
     estimated scf accuracy    <      85.67494181 Ry

     total magnetization       =    -0.00    -0.00     0.11 Bohr mag/cell
     absolute magnetization    =    45.42 Bohr mag/cell

     iteration # 65     ecut=    80.00 Ry     beta= 0.70
     Davidson diagonalization with overlap
     ethr =  1.00E-02,  avg # of iterations =  1.2

     negative rho (up, down):  1.689E+02 2.887E-01

     total cpu time spent up to now is     3073.1 secs

     total energy              =   -4606.13451959 Ry
     estimated scf accuracy    <      92.66621425 Ry

     total magnetization       =     0.00    -0.00     0.15 Bohr mag/cell
     absolute magnetization    =    44.78 Bohr mag/cell

     iteration # 66     ecut=    80.00 Ry     beta= 0.70
     Davidson diagonalization with overlap
     ethr =  1.00E-02,  avg # of iterations =  3.3

     negative rho (up, down):  1.685E+02 2.352E-01

     total cpu time spent up to now is     3096.2 secs

     total energy              =   -4594.02767669 Ry
     estimated scf accuracy    <     177.48069773 Ry

     total magnetization       =    -0.00    -0.00     0.11 Bohr mag/cell
     absolute magnetization    =    39.55 Bohr mag/cell

     iteration # 67     ecut=    80.00 Ry     beta= 0.70
     Davidson diagonalization with overlap
     ethr =  1.00E-02,  avg # of iterations =  1.0

     negative rho (up, down):  1.681E+02 1.848E-01

     total cpu time spent up to now is     3118.7 secs

     total energy              =   -4581.16049355 Ry
     estimated scf accuracy    <     119.84881899 Ry

     total magnetization       =     0.00    -0.00     0.10 Bohr mag/cell
     absolute magnetization    =    39.82 Bohr mag/cell

     iteration # 68     ecut=    80.00 Ry     beta= 0.70
     Davidson diagonalization with overlap
     ethr =  1.00E-02,  avg # of iterations =  2.2

     negative rho (up, down):  1.676E+02 9.617E-02

     total cpu time spent up to now is     3144.3 secs

     total energy              =   -4569.77837576 Ry
     estimated scf accuracy    <      10.01304262 Ry

     total magnetization       =    -0.00     0.00     0.11 Bohr mag/cell
     absolute magnetization    =    50.96 Bohr mag/cell

     iteration # 69     ecut=    80.00 Ry     beta= 0.70
     Davidson diagonalization with overlap
     ethr =  1.00E-02,  avg # of iterations =  1.0

     negative rho (up, down):  1.675E+02 6.971E-02

     total cpu time spent up to now is     3169.4 secs

     total energy              =   -4566.72720591 Ry
     estimated scf accuracy    <       2.72128248 Ry

     total magnetization       =    -0.00     0.00     0.08 Bohr mag/cell
     absolute magnetization    =    52.91 Bohr mag/cell

     iteration # 70     ecut=    80.00 Ry     beta= 0.70
     Davidson diagonalization with overlap
     ethr =  7.78E-03,  avg # of iterations =  1.0

     negative rho (up, down):  1.672E+02 5.388E-02

     total cpu time spent up to now is     3194.6 secs

     total energy              =   -4560.07243358 Ry
     estimated scf accuracy    <       3.78877454 Ry

     total magnetization       =    -0.00    -0.00     0.09 Bohr mag/cell
     absolute magnetization    =    52.58 Bohr mag/cell

     iteration # 71     ecut=    80.00 Ry     beta= 0.70
     Davidson diagonalization with overlap
     ethr =  7.78E-03,  avg # of iterations =  1.0

     negative rho (up, down):  1.670E+02 3.666E-02

     total cpu time spent up to now is     3220.1 secs

     total energy              =   -4554.72527728 Ry
     estimated scf accuracy    <       1.22449787 Ry

     total magnetization       =     0.00     0.00     0.10 Bohr mag/cell
     absolute magnetization    =    53.62 Bohr mag/cell

     iteration # 72     ecut=    80.00 Ry     beta= 0.70
     Davidson diagonalization with overlap
     ethr =  3.50E-03,  avg # of iterations =  1.2

     negative rho (up, down):  1.670E+02 3.110E-02

     total cpu time spent up to now is     3244.1 secs

     total energy              =   -4554.58280625 Ry
     estimated scf accuracy    <       0.00120381 Ry

     total magnetization       =     0.00    -0.00     0.10 Bohr mag/cell
     absolute magnetization    =    55.06 Bohr mag/cell

     iteration # 73     ecut=    80.00 Ry     beta= 0.70
     Davidson diagonalization with overlap
     c_bands:  2 eigenvalues not converged
     c_bands:  4 eigenvalues not converged
     c_bands:  4 eigenvalues not converged
     c_bands:  1 eigenvalues not converged
     c_bands:  4 eigenvalues not converged
     c_bands:  2 eigenvalues not converged
     c_bands:  5 eigenvalues not converged
     c_bands:  5 eigenvalues not converged
     c_bands:  2 eigenvalues not converged
     c_bands:  4 eigenvalues not converged
     c_bands:  2 eigenvalues not converged
     c_bands:  3 eigenvalues not converged
     c_bands:  4 eigenvalues not converged
     c_bands:  4 eigenvalues not converged
     c_bands:  3 eigenvalues not converged
     c_bands:  4 eigenvalues not converged
     c_bands:  4 eigenvalues not converged
     c_bands:  4 eigenvalues not converged
     c_bands:  2 eigenvalues not converged
     ethr =  3.44E-06,  avg # of iterations = 58.4

     negative rho (up, down):  1.670E+02 3.053E-02

     total cpu time spent up to now is     3359.0 secs

     total energy              =   -4556.47303272 Ry
     estimated scf accuracy    <       4.14533340 Ry

     total magnetization       =     0.00     0.00    -0.01 Bohr mag/cell
     absolute magnetization    =    55.42 Bohr mag/cell

     iteration # 74     ecut=    80.00 Ry     beta= 0.70
     Davidson diagonalization with overlap
     c_bands:  4 eigenvalues not converged
     c_bands:  2 eigenvalues not converged
     c_bands:  3 eigenvalues not converged
     c_bands:  2 eigenvalues not converged
     c_bands:  2 eigenvalues not converged
     c_bands:  3 eigenvalues not converged
     c_bands:  2 eigenvalues not converged
     c_bands:  3 eigenvalues not converged
     c_bands:  2 eigenvalues not converged
     c_bands:  2 eigenvalues not converged
     ethr =  3.44E-06,  avg # of iterations = 14.4

     negative rho (up, down):  1.670E+02 3.091E-02

     total cpu time spent up to now is     3389.9 secs

     total energy              =   -4556.44478495 Ry
     estimated scf accuracy    <       4.14885468 Ry

     total magnetization       =    -0.00     0.00    -0.02 Bohr mag/cell
     absolute magnetization    =    55.68 Bohr mag/cell

     iteration # 75     ecut=    80.00 Ry     beta= 0.70
     Davidson diagonalization with overlap
     c_bands:  3 eigenvalues not converged
     c_bands:  2 eigenvalues not converged
     c_bands:  3 eigenvalues not converged
     ethr =  3.44E-06,  avg # of iterations =  7.5

     negative rho (up, down):  1.670E+02 3.110E-02

     total cpu time spent up to now is     3415.7 secs

     total energy              =   -4556.46556525 Ry
     estimated scf accuracy    <       4.12793681 Ry

     total magnetization       =    -0.00     0.00    -0.05 Bohr mag/cell
     absolute magnetization    =    55.67 Bohr mag/cell

     iteration # 76     ecut=    80.00 Ry     beta= 0.70
     Davidson diagonalization with overlap
     ethr =  3.44E-06,  avg # of iterations =  3.3

     negative rho (up, down):  1.670E+02 3.122E-02

     total cpu time spent up to now is     3439.6 secs

     total energy              =   -4556.48842513 Ry
     estimated scf accuracy    <       4.17593777 Ry

     total magnetization       =    -0.00    -0.00    -0.04 Bohr mag/cell
     absolute magnetization    =    55.69 Bohr mag/cell

     iteration # 77     ecut=    80.00 Ry     beta= 0.70
     Davidson diagonalization with overlap
     ethr =  3.44E-06,  avg # of iterations =  3.1

     negative rho (up, down):  1.670E+02 3.160E-02

     total cpu time spent up to now is     3466.2 secs

     total energy              =   -4556.55615780 Ry
     estimated scf accuracy    <       4.23314740 Ry

     total magnetization       =    -0.00     0.00    -0.03 Bohr mag/cell
     absolute magnetization    =    55.75 Bohr mag/cell

     iteration # 78     ecut=    80.00 Ry     beta= 0.70
     Davidson diagonalization with overlap
     ethr =  3.44E-06,  avg # of iterations =  4.1

     negative rho (up, down):  1.670E+02 3.153E-02

     total cpu time spent up to now is     3497.6 secs

     total energy              =   -4556.56831324 Ry
     estimated scf accuracy    <       4.36584763 Ry

     total magnetization       =     0.00    -0.00    -0.03 Bohr mag/cell
     absolute magnetization    =    55.69 Bohr mag/cell

     iteration # 79     ecut=    80.00 Ry     beta= 0.70
     Davidson diagonalization with overlap
     ethr =  3.44E-06,  avg # of iterations =  3.0

     negative rho (up, down):  1.670E+02 3.189E-02

     total cpu time spent up to now is     3527.3 secs

     total energy              =   -4556.68308793 Ry
     estimated scf accuracy    <       4.37405813 Ry

     total magnetization       =     0.00    -0.00    -0.03 Bohr mag/cell
     absolute magnetization    =    55.63 Bohr mag/cell

     iteration # 80     ecut=    80.00 Ry     beta= 0.70
     Davidson diagonalization with overlap
     ethr =  3.44E-06,  avg # of iterations =  3.0

     negative rho (up, down):  1.670E+02 3.220E-02

     total cpu time spent up to now is     3558.5 secs

     total energy              =   -4556.68565464 Ry
     estimated scf accuracy    <       4.67741497 Ry

     total magnetization       =     0.00    -0.00    -0.02 Bohr mag/cell
     absolute magnetization    =    55.87 Bohr mag/cell

     iteration # 81     ecut=    80.00 Ry     beta= 0.70
     Davidson diagonalization with overlap
     ethr =  3.44E-06,  avg # of iterations =  2.1

     negative rho (up, down):  1.671E+02 5.280E-02

     total cpu time spent up to now is     3588.0 secs

     total energy              =   -4555.23668789 Ry
     estimated scf accuracy    <       4.49403907 Ry

     total magnetization       =     0.00    -0.00    -0.03 Bohr mag/cell
     absolute magnetization    =    55.74 Bohr mag/cell

     iteration # 82     ecut=    80.00 Ry     beta= 0.70
     Davidson diagonalization with overlap
     c_bands:  5 eigenvalues not converged
     c_bands:  4 eigenvalues not converged
     c_bands:  4 eigenvalues not converged
     c_bands:  4 eigenvalues not converged
     c_bands:  3 eigenvalues not converged
     c_bands:  4 eigenvalues not converged
     c_bands:  4 eigenvalues not converged
     c_bands:  2 eigenvalues not converged
     c_bands:  2 eigenvalues not converged
     c_bands:  2 eigenvalues not converged
     c_bands:  2 eigenvalues not converged
     c_bands:  4 eigenvalues not converged
     c_bands:  4 eigenvalues not converged
     c_bands:  3 eigenvalues not converged
     c_bands:  3 eigenvalues not converged
     c_bands:  4 eigenvalues not converged
     c_bands:  4 eigenvalues not converged
     c_bands:  2 eigenvalues not converged
     c_bands:  3 eigenvalues not converged
     c_bands:  3 eigenvalues not converged
     c_bands:  4 eigenvalues not converged
     c_bands:  4 eigenvalues not converged
     ethr =  3.44E-06,  avg # of iterations = 41.8

     negative rho (up, down):  1.670E+02 2.906E-02

     total cpu time spent up to now is     3682.5 secs

     total energy              =   -4558.22807959 Ry
     estimated scf accuracy    <       7.70618714 Ry

     total magnetization       =    -0.00     0.00    -0.47 Bohr mag/cell
     absolute magnetization    =    58.79 Bohr mag/cell

     iteration # 83     ecut=    80.00 Ry     beta= 0.70
     Davidson diagonalization with overlap
     c_bands:  4 eigenvalues not converged
     c_bands:  3 eigenvalues not converged
     c_bands:  5 eigenvalues not converged
     c_bands:  2 eigenvalues not converged
     c_bands:  5 eigenvalues not converged
     c_bands:  2 eigenvalues not converged
     c_bands:  2 eigenvalues not converged
     c_bands:  3 eigenvalues not converged
     c_bands:  3 eigenvalues not converged
     c_bands:  5 eigenvalues not converged
     c_bands:  2 eigenvalues not converged
     c_bands:  3 eigenvalues not converged
     c_bands:  2 eigenvalues not converged
     c_bands:  2 eigenvalues not converged
     c_bands:  2 eigenvalues not converged
     c_bands:  3 eigenvalues not converged
     c_bands:  4 eigenvalues not converged
     c_bands:  2 eigenvalues not converged
     c_bands:  2 eigenvalues not converged
     ethr =  3.44E-06,  avg # of iterations = 27.0

     negative rho (up, down):  1.670E+02 4.303E-02

     total cpu time spent up to now is     3745.8 secs

     total energy              =   -4556.62923680 Ry
     estimated scf accuracy    <       7.09922299 Ry

     total magnetization       =     0.00     0.00    -0.22 Bohr mag/cell
     absolute magnetization    =    60.99 Bohr mag/cell

     iteration # 84     ecut=    80.00 Ry     beta= 0.70
     Davidson diagonalization with overlap
     c_bands:  3 eigenvalues not converged
     c_bands:  2 eigenvalues not converged
     c_bands:  1 eigenvalues not converged
     c_bands:  2 eigenvalues not converged
     c_bands:  2 eigenvalues not converged
     c_bands:  2 eigenvalues not converged
     c_bands:  5 eigenvalues not converged
     c_bands:  2 eigenvalues not converged
     c_bands:  2 eigenvalues not converged
     c_bands:  3 eigenvalues not converged
     c_bands:  2 eigenvalues not converged
     c_bands:  2 eigenvalues not converged
     c_bands:  3 eigenvalues not converged
     c_bands:  2 eigenvalues not converged
     c_bands:  2 eigenvalues not converged
     c_bands:  1 eigenvalues not converged
     c_bands:  1 eigenvalues not converged
     c_bands:  2 eigenvalues not converged
     c_bands:  3 eigenvalues not converged
     c_bands:  2 eigenvalues not converged
     c_bands:  2 eigenvalues not converged
     ethr =  3.44E-06,  avg # of iterations = 23.5

     negative rho (up, down):  1.670E+02 5.150E-02

     total cpu time spent up to now is     3797.8 secs

     total energy              =   -4556.25184220 Ry
     estimated scf accuracy    <       6.60693689 Ry

     total magnetization       =    -0.00    -0.00    -0.08 Bohr mag/cell
     absolute magnetization    =    61.29 Bohr mag/cell

     iteration # 85     ecut=    80.00 Ry     beta= 0.70
     Davidson diagonalization with overlap
     c_bands:  3 eigenvalues not converged
     c_bands:  2 eigenvalues not converged
     c_bands:  2 eigenvalues not converged
     c_bands:  4 eigenvalues not converged
     c_bands:  2 eigenvalues not converged
     c_bands:  4 eigenvalues not converged
     c_bands:  3 eigenvalues not converged
     c_bands:  2 eigenvalues not converged
     c_bands:  2 eigenvalues not converged
     c_bands:  2 eigenvalues not converged
     c_bands:  2 eigenvalues not converged
     c_bands:  4 eigenvalues not converged
     c_bands:  3 eigenvalues not converged
     c_bands:  2 eigenvalues not converged
     c_bands:  1 eigenvalues not converged
     c_bands:  3 eigenvalues not converged
     c_bands:  2 eigenvalues not converged
     c_bands:  2 eigenvalues not converged
     c_bands:  2 eigenvalues not converged
     ethr =  3.44E-06,  avg # of iterations = 23.7

     negative rho (up, down):  1.670E+02 5.314E-02

     total cpu time spent up to now is     3839.6 secs

     total energy              =   -4555.02716004 Ry
     estimated scf accuracy    <       6.26485354 Ry

     total magnetization       =    -0.00     0.00    -0.01 Bohr mag/cell
     absolute magnetization    =    61.35 Bohr mag/cell

     iteration # 86     ecut=    80.00 Ry     beta= 0.70
     Davidson diagonalization with overlap
     c_bands:  5 eigenvalues not converged
     c_bands:  1 eigenvalues not converged
     c_bands:  4 eigenvalues not converged
     c_bands:  4 eigenvalues not converged
     c_bands:  4 eigenvalues not converged
     c_bands:  2 eigenvalues not converged
     c_bands:  2 eigenvalues not converged
     c_bands:  2 eigenvalues not converged
     c_bands:  3 eigenvalues not converged
     c_bands:  2 eigenvalues not converged
     c_bands:  2 eigenvalues not converged
     c_bands:  4 eigenvalues not converged
     c_bands:  1 eigenvalues not converged
     c_bands:  3 eigenvalues not converged
     c_bands:  2 eigenvalues not converged
     c_bands:  3 eigenvalues not converged
     c_bands:  4 eigenvalues not converged
     ethr =  3.44E-06,  avg # of iterations = 53.4

     negative rho (up, down):  1.670E+02 5.301E-02

     total cpu time spent up to now is     3927.9 secs

     total energy              =   -4555.55467681 Ry
     estimated scf accuracy    <       3.96001292 Ry

     total magnetization       =     0.00    -0.00    -0.01 Bohr mag/cell
     absolute magnetization    =    61.59 Bohr mag/cell

     iteration # 87     ecut=    80.00 Ry     beta= 0.70
     Davidson diagonalization with overlap
     c_bands:  3 eigenvalues not converged
     c_bands:  2 eigenvalues not converged
     c_bands:  3 eigenvalues not converged
     c_bands:  1 eigenvalues not converged
     c_bands:  2 eigenvalues not converged
     c_bands:  2 eigenvalues not converged
     c_bands:  5 eigenvalues not converged
     ethr =  3.44E-06,  avg # of iterations = 19.9

     negative rho (up, down):  1.670E+02 4.657E-02

     total cpu time spent up to now is     3966.6 secs

     total energy              =   -4555.79654249 Ry
     estimated scf accuracy    <       2.54896956 Ry

     total magnetization       =     0.00     0.00    -0.04 Bohr mag/cell
     absolute magnetization    =    61.12 Bohr mag/cell

     iteration # 88     ecut=    80.00 Ry     beta= 0.70
     Davidson diagonalization with overlap
     c_bands:  2 eigenvalues not converged
     c_bands:  1 eigenvalues not converged
     c_bands:  2 eigenvalues not converged
     c_bands:  2 eigenvalues not converged
     c_bands:  3 eigenvalues not converged
     ethr =  3.44E-06,  avg # of iterations = 13.0

     negative rho (up, down):  1.669E+02 3.605E-02

     total cpu time spent up to now is     4000.0 secs

     total energy              =   -4556.31697490 Ry
     estimated scf accuracy    <       2.08111963 Ry

     total magnetization       =     0.00     0.00    -0.10 Bohr mag/cell
     absolute magnetization    =    60.38 Bohr mag/cell

     iteration # 89     ecut=    80.00 Ry     beta= 0.70
     Davidson diagonalization with overlap
     c_bands:  3 eigenvalues not converged
     c_bands:  1 eigenvalues not converged
     c_bands:  2 eigenvalues not converged
     c_bands:  2 eigenvalues not converged
     c_bands:  1 eigenvalues not converged
     ethr =  3.44E-06,  avg # of iterations = 10.7

     negative rho (up, down):  1.669E+02 3.479E-02

     total cpu time spent up to now is     4031.5 secs

     total energy              =   -4555.25113726 Ry
     estimated scf accuracy    <       2.37630460 Ry

     total magnetization       =     0.00     0.00     0.00 Bohr mag/cell
     absolute magnetization    =    59.23 Bohr mag/cell

     iteration # 90     ecut=    80.00 Ry     beta= 0.70
     Davidson diagonalization with overlap
     c_bands:  2 eigenvalues not converged
     c_bands:  1 eigenvalues not converged
     c_bands:  5 eigenvalues not converged
     c_bands:  1 eigenvalues not converged
     c_bands:  2 eigenvalues not converged
     c_bands:  1 eigenvalues not converged
     c_bands:  3 eigenvalues not converged
     c_bands:  5 eigenvalues not converged
     ethr =  3.44E-06,  avg # of iterations = 26.3

     negative rho (up, down):  1.669E+02 3.232E-02

     total cpu time spent up to now is     4077.0 secs

     total energy              =   -4555.80465861 Ry
     estimated scf accuracy    <       2.45442278 Ry

     total magnetization       =    -0.00     0.00    -0.09 Bohr mag/cell
     absolute magnetization    =    60.42 Bohr mag/cell

     iteration # 91     ecut=    80.00 Ry     beta= 0.70
     Davidson diagonalization with overlap
     c_bands:  5 eigenvalues not converged
     c_bands:  1 eigenvalues not converged
     c_bands:  1 eigenvalues not converged
     ethr =  3.44E-06,  avg # of iterations = 10.9

     negative rho (up, down):  1.669E+02 2.971E-02

     total cpu time spent up to now is     4110.6 secs

     total energy              =   -4555.99297691 Ry
     estimated scf accuracy    <       1.76386813 Ry

     total magnetization       =    -0.00    -0.00    -0.06 Bohr mag/cell
     absolute magnetization    =    59.11 Bohr mag/cell

     iteration # 92     ecut=    80.00 Ry     beta= 0.70
     Davidson diagonalization with overlap
     c_bands:  1 eigenvalues not converged
     c_bands:  1 eigenvalues not converged
     c_bands:  4 eigenvalues not converged
     ethr =  3.44E-06,  avg # of iterations =  9.0

     negative rho (up, down):  1.669E+02 2.930E-02

     total cpu time spent up to now is     4138.5 secs

     total energy              =   -4556.02341854 Ry
     estimated scf accuracy    <       0.55507862 Ry

     total magnetization       =    -0.00     0.00    -0.09 Bohr mag/cell
     absolute magnetization    =    59.14 Bohr mag/cell

     iteration # 93     ecut=    80.00 Ry     beta= 0.70
     Davidson diagonalization with overlap
     c_bands:  1 eigenvalues not converged
     c_bands:  1 eigenvalues not converged
     c_bands:  1 eigenvalues not converged
     ethr =  3.44E-06,  avg # of iterations =  7.2

     negative rho (up, down):  1.669E+02 2.928E-02

     total cpu time spent up to now is     4164.5 secs

     total energy              =   -4556.06443709 Ry
     estimated scf accuracy    <       0.61318815 Ry

     total magnetization       =     0.00     0.00    -0.06 Bohr mag/cell
     absolute magnetization    =    59.13 Bohr mag/cell

     iteration # 94     ecut=    80.00 Ry     beta= 0.70
     Davidson diagonalization with overlap
     c_bands:  2 eigenvalues not converged
     ethr =  3.44E-06,  avg # of iterations =  6.0

     negative rho (up, down):  1.669E+02 2.925E-02

     total cpu time spent up to now is     4191.8 secs

     total energy              =   -4556.01132869 Ry
     estimated scf accuracy    <       1.02997060 Ry

     total magnetization       =    -0.00     0.00    -0.18 Bohr mag/cell
     absolute magnetization    =    59.21 Bohr mag/cell

     iteration # 95     ecut=    80.00 Ry     beta= 0.70
     Davidson diagonalization with overlap
     c_bands:  2 eigenvalues not converged
     ethr =  3.44E-06,  avg # of iterations =  9.6

     negative rho (up, down):  1.669E+02 2.910E-02

     total cpu time spent up to now is     4222.8 secs

     total energy              =   -4555.93721992 Ry
     estimated scf accuracy    <       0.44588284 Ry

     total magnetization       =     0.00     0.00    -0.08 Bohr mag/cell
     absolute magnetization    =    59.18 Bohr mag/cell

     iteration # 96     ecut=    80.00 Ry     beta= 0.70
     Davidson diagonalization with overlap
     c_bands:  4 eigenvalues not converged
     ethr =  3.44E-06,  avg # of iterations = 10.0

     negative rho (up, down):  1.669E+02 2.918E-02

     total cpu time spent up to now is     4254.0 secs

     total energy              =   -4555.92695219 Ry
     estimated scf accuracy    <       0.03104126 Ry

     total magnetization       =     0.00    -0.00    -0.07 Bohr mag/cell
     absolute magnetization    =    59.07 Bohr mag/cell

     iteration # 97     ecut=    80.00 Ry     beta= 0.70
     Davidson diagonalization with overlap
     c_bands:  1 eigenvalues not converged
     ethr =  3.44E-06,  avg # of iterations =  6.8

     negative rho (up, down):  1.669E+02 2.918E-02

     total cpu time spent up to now is     4282.0 secs

     total energy              =   -4555.93266151 Ry
     estimated scf accuracy    <       0.00929559 Ry

     total magnetization       =     0.00     0.00    -0.07 Bohr mag/cell
     absolute magnetization    =    59.13 Bohr mag/cell

     iteration # 98     ecut=    80.00 Ry     beta= 0.70
     Davidson diagonalization with overlap
     ethr =  3.44E-06,  avg # of iterations =  8.6

     negative rho (up, down):  1.669E+02 2.912E-02

     total cpu time spent up to now is     4311.4 secs

     total energy              =   -4555.92673160 Ry
     estimated scf accuracy    <       0.00439561 Ry

     total magnetization       =    -0.00    -0.00    -0.13 Bohr mag/cell
     absolute magnetization    =    59.18 Bohr mag/cell

     iteration # 99     ecut=    80.00 Ry     beta= 0.70
     Davidson diagonalization with overlap
     ethr =  3.44E-06,  avg # of iterations =  7.4

     negative rho (up, down):  1.669E+02 2.910E-02

     total cpu time spent up to now is     4340.5 secs

     total energy              =   -4555.92667748 Ry
     estimated scf accuracy    <       0.00090021 Ry

     total magnetization       =     0.00    -0.00    -0.07 Bohr mag/cell
     absolute magnetization    =    59.13 Bohr mag/cell

     iteration #100     ecut=    80.00 Ry     beta= 0.70
     Davidson diagonalization with overlap
     ethr =  2.57E-06,  avg # of iterations =  5.9

     negative rho (up, down):  1.669E+02 2.908E-02

     total cpu time spent up to now is     4368.9 secs

     total energy              =   -4555.92762154 Ry
     estimated scf accuracy    <       0.00052910 Ry

     total magnetization       =     0.00    -0.00    -0.12 Bohr mag/cell
     absolute magnetization    =    59.13 Bohr mag/cell

     iteration #101     ecut=    80.00 Ry     beta= 0.70
     Davidson diagonalization with overlap
     ethr =  1.51E-06,  avg # of iterations =  8.1

     negative rho (up, down):  1.669E+02 2.905E-02

     total cpu time spent up to now is     4399.7 secs

     total energy              =   -4555.92780301 Ry
     estimated scf accuracy    <       0.00066148 Ry

     total magnetization       =    -0.00     0.00    -0.07 Bohr mag/cell
     absolute magnetization    =    59.16 Bohr mag/cell

     iteration #102     ecut=    80.00 Ry     beta= 0.70
     Davidson diagonalization with overlap
     ethr =  1.51E-06,  avg # of iterations =  9.9

     negative rho (up, down):  1.669E+02 2.904E-02

     total cpu time spent up to now is     4430.8 secs

     total energy              =   -4555.92929021 Ry
     estimated scf accuracy    <       0.00066287 Ry

     total magnetization       =     0.00     0.00    -0.05 Bohr mag/cell
     absolute magnetization    =    59.18 Bohr mag/cell

     iteration #103     ecut=    80.00 Ry     beta= 0.70
     Davidson diagonalization with overlap
     ethr =  1.51E-06,  avg # of iterations = 10.4

     negative rho (up, down):  1.669E+02 2.902E-02

     total cpu time spent up to now is     4463.5 secs

     total energy              =   -4555.92581212 Ry
     estimated scf accuracy    <       0.00073371 Ry

     total magnetization       =    -0.00     0.00    -0.08 Bohr mag/cell
     absolute magnetization    =    59.24 Bohr mag/cell

     iteration #104     ecut=    80.00 Ry     beta= 0.70
     Davidson diagonalization with overlap
     ethr =  1.51E-06,  avg # of iterations = 10.8

     negative rho (up, down):  1.669E+02 2.886E-02

     total cpu time spent up to now is     4496.2 secs

     total energy              =   -4555.94065262 Ry
     estimated scf accuracy    <       0.00041696 Ry

     total magnetization       =    -0.00     0.00    -0.05 Bohr mag/cell
     absolute magnetization    =    59.12 Bohr mag/cell

     iteration #105     ecut=    80.00 Ry     beta= 0.70
     Davidson diagonalization with overlap
     ethr =  1.19E-06,  avg # of iterations =  7.7

     negative rho (up, down):  1.669E+02 2.882E-02

     total cpu time spent up to now is     4526.4 secs

     total energy              =   -4555.93935601 Ry
     estimated scf accuracy    <       0.00043899 Ry

     total magnetization       =    -0.00     0.00    -0.11 Bohr mag/cell
     absolute magnetization    =    59.10 Bohr mag/cell

     iteration #106     ecut=    80.00 Ry     beta= 0.70
     Davidson diagonalization with overlap
     ethr =  1.19E-06,  avg # of iterations =  9.7

     negative rho (up, down):  1.669E+02 2.871E-02

     total cpu time spent up to now is     4558.3 secs

     total energy              =   -4555.96862135 Ry
     estimated scf accuracy    <       0.00043150 Ry

     total magnetization       =    -0.00    -0.00    -0.08 Bohr mag/cell
     absolute magnetization    =    59.14 Bohr mag/cell

     iteration #107     ecut=    80.00 Ry     beta= 0.70
     Davidson diagonalization with overlap
     c_bands:  1 eigenvalues not converged
     ethr =  1.19E-06,  avg # of iterations = 10.9

     negative rho (up, down):  1.669E+02 2.876E-02

     total cpu time spent up to now is     4591.4 secs

     total energy              =   -4555.96824852 Ry
     estimated scf accuracy    <       0.00108597 Ry

     total magnetization       =    -0.00     0.00    -0.04 Bohr mag/cell
     absolute magnetization    =    59.10 Bohr mag/cell

     iteration #108     ecut=    80.00 Ry     beta= 0.70
     Davidson diagonalization with overlap
     ethr =  1.19E-06,  avg # of iterations = 11.8

     negative rho (up, down):  1.669E+02 2.877E-02

     total cpu time spent up to now is     4625.2 secs

     total energy              =   -4555.97131099 Ry
     estimated scf accuracy    <       0.00103568 Ry

     total magnetization       =    -0.00     0.00    -0.10 Bohr mag/cell
     absolute magnetization    =    59.10 Bohr mag/cell

     iteration #109     ecut=    80.00 Ry     beta= 0.70
     Davidson diagonalization with overlap
     ethr =  1.19E-06,  avg # of iterations =  7.2

     negative rho (up, down):  1.669E+02 2.875E-02

     total cpu time spent up to now is     4653.2 secs

     total energy              =   -4555.97079128 Ry
     estimated scf accuracy    <       0.00105184 Ry

     total magnetization       =    -0.00     0.00    -0.09 Bohr mag/cell
     absolute magnetization    =    59.10 Bohr mag/cell

     iteration #110     ecut=    80.00 Ry     beta= 0.70
     Davidson diagonalization with overlap
     ethr =  1.19E-06,  avg # of iterations =  9.2

     negative rho (up, down):  1.669E+02 2.876E-02

     total cpu time spent up to now is     4684.8 secs

     total energy              =   -4555.96871615 Ry
     estimated scf accuracy    <       0.00100497 Ry

     total magnetization       =    -0.00    -0.00    -0.12 Bohr mag/cell
     absolute magnetization    =    59.12 Bohr mag/cell

     iteration #111     ecut=    80.00 Ry     beta= 0.70
     Davidson diagonalization with overlap
     ethr =  1.19E-06,  avg # of iterations = 10.3

     negative rho (up, down):  1.669E+02 2.876E-02

     total cpu time spent up to now is     4717.3 secs

     total energy              =   -4555.97031070 Ry
     estimated scf accuracy    <       0.00095043 Ry

     total magnetization       =     0.00    -0.00    -0.04 Bohr mag/cell
     absolute magnetization    =    59.09 Bohr mag/cell

     iteration #112     ecut=    80.00 Ry     beta= 0.70
     Davidson diagonalization with overlap
     c_bands:  4 eigenvalues not converged
     ethr =  1.19E-06,  avg # of iterations =  9.6

     negative rho (up, down):  1.669E+02 2.876E-02

     total cpu time spent up to now is     4745.8 secs

     total energy              =   -4555.96906155 Ry
     estimated scf accuracy    <       0.00100929 Ry

     total magnetization       =    -0.00    -0.00    -0.06 Bohr mag/cell
     absolute magnetization    =    59.07 Bohr mag/cell

     iteration #113     ecut=    80.00 Ry     beta= 0.70
     Davidson diagonalization with overlap
     c_bands:  1 eigenvalues not converged
     ethr =  1.19E-06,  avg # of iterations = 16.0

     negative rho (up, down):  1.669E+02 2.875E-02

     total cpu time spent up to now is     4783.2 secs

     total energy              =   -4555.96647780 Ry
     estimated scf accuracy    <       0.00107422 Ry

     total magnetization       =    -0.00    -0.00    -0.06 Bohr mag/cell
     absolute magnetization    =    59.16 Bohr mag/cell

     iteration #114     ecut=    80.00 Ry     beta= 0.70
     Davidson diagonalization with overlap
     ethr =  1.19E-06,  avg # of iterations = 10.5

     negative rho (up, down):  1.669E+02 2.875E-02

     total cpu time spent up to now is     4815.6 secs

     total energy              =   -4555.97309269 Ry
     estimated scf accuracy    <       0.00119104 Ry

     total magnetization       =    -0.00    -0.00    -0.03 Bohr mag/cell
     absolute magnetization    =    59.11 Bohr mag/cell

     iteration #115     ecut=    80.00 Ry     beta= 0.70
     Davidson diagonalization with overlap
     ethr =  1.19E-06,  avg # of iterations = 11.8

     negative rho (up, down):  1.669E+02 2.879E-02

     total cpu time spent up to now is     4849.0 secs

     total energy              =   -4555.96568180 Ry
     estimated scf accuracy    <       0.00406302 Ry

     total magnetization       =    -0.00     0.00    -0.08 Bohr mag/cell
     absolute magnetization    =    59.01 Bohr mag/cell

     iteration #116     ecut=    80.00 Ry     beta= 0.70
     Davidson diagonalization with overlap
     ethr =  1.19E-06,  avg # of iterations =  6.4

     negative rho (up, down):  1.669E+02 2.878E-02

     total cpu time spent up to now is     4879.3 secs

     total energy              =   -4555.97302731 Ry
     estimated scf accuracy    <       0.00152583 Ry

     total magnetization       =    -0.00     0.00    -0.08 Bohr mag/cell
     absolute magnetization    =    59.05 Bohr mag/cell

     iteration #117     ecut=    80.00 Ry     beta= 0.70
     Davidson diagonalization with overlap
     ethr =  1.19E-06,  avg # of iterations =  6.9

     negative rho (up, down):  1.669E+02 2.881E-02

     total cpu time spent up to now is     4908.0 secs

     total energy              =   -4555.96761715 Ry
     estimated scf accuracy    <       0.00182200 Ry

     total magnetization       =    -0.00    -0.00    -0.07 Bohr mag/cell
     absolute magnetization    =    59.01 Bohr mag/cell

     iteration #118     ecut=    80.00 Ry     beta= 0.70
     Davidson diagonalization with overlap
     ethr =  1.19E-06,  avg # of iterations =  7.6

     negative rho (up, down):  1.669E+02 2.877E-02

     total cpu time spent up to now is     4937.3 secs

     total energy              =   -4555.96853658 Ry
     estimated scf accuracy    <       0.00014979 Ry

     total magnetization       =     0.00     0.00    -0.09 Bohr mag/cell
     absolute magnetization    =    59.06 Bohr mag/cell

     iteration #119     ecut=    80.00 Ry     beta= 0.70
     Davidson diagonalization with overlap
     ethr =  4.28E-07,  avg # of iterations = 10.9

     negative rho (up, down):  1.669E+02 2.876E-02

     total cpu time spent up to now is     4970.1 secs

     total energy              =   -4555.97184244 Ry
     estimated scf accuracy    <       0.00008121 Ry

     total magnetization       =     0.00     0.00    -0.08 Bohr mag/cell
     absolute magnetization    =    59.04 Bohr mag/cell

     iteration #120     ecut=    80.00 Ry     beta= 0.70
     Davidson diagonalization with overlap
     c_bands:  1 eigenvalues not converged
     ethr =  2.32E-07,  avg # of iterations = 14.2

     negative rho (up, down):  1.669E+02 2.874E-02

     total cpu time spent up to now is     5004.9 secs

     total energy              =   -4555.97113042 Ry
     estimated scf accuracy    <       0.00007541 Ry

     total magnetization       =    -0.00    -0.00    -0.09 Bohr mag/cell
     absolute magnetization    =    59.06 Bohr mag/cell

     iteration #121     ecut=    80.00 Ry     beta= 0.70
     Davidson diagonalization with overlap
     ethr =  2.15E-07,  avg # of iterations = 10.5

     negative rho (up, down):  1.669E+02 2.875E-02

     total cpu time spent up to now is     5038.6 secs

     total energy              =   -4555.97026562 Ry
     estimated scf accuracy    <       0.00007072 Ry

     total magnetization       =     0.00    -0.00    -0.06 Bohr mag/cell
     absolute magnetization    =    59.08 Bohr mag/cell

     iteration #122     ecut=    80.00 Ry     beta= 0.70
     Davidson diagonalization with overlap
     ethr =  2.02E-07,  avg # of iterations = 13.3

     negative rho (up, down):  1.669E+02 2.872E-02

     total cpu time spent up to now is     5073.2 secs

     total energy              =   -4555.97040797 Ry
     estimated scf accuracy    <       0.00007681 Ry

     total magnetization       =    -0.00    -0.00    -0.11 Bohr mag/cell
     absolute magnetization    =    59.06 Bohr mag/cell

     iteration #123     ecut=    80.00 Ry     beta= 0.70
     Davidson diagonalization with overlap
     ethr =  2.02E-07,  avg # of iterations = 15.0

     negative rho (up, down):  1.669E+02 2.873E-02

     total cpu time spent up to now is     5109.2 secs

     total energy              =   -4555.96482439 Ry
     estimated scf accuracy    <       0.00008215 Ry

     total magnetization       =    -0.00     0.00    -0.13 Bohr mag/cell
     absolute magnetization    =    59.10 Bohr mag/cell

     iteration #124     ecut=    80.00 Ry     beta= 0.70
     Davidson diagonalization with overlap
     c_bands:  2 eigenvalues not converged
     c_bands:  3 eigenvalues not converged
     c_bands:  2 eigenvalues not converged
     c_bands:  1 eigenvalues not converged
     c_bands:  1 eigenvalues not converged
     c_bands:  1 eigenvalues not converged
     c_bands:  2 eigenvalues not converged
     c_bands:  2 eigenvalues not converged
     ethr =  2.02E-07,  avg # of iterations = 18.0

     negative rho (up, down):  1.669E+02 2.876E-02

     total cpu time spent up to now is     5150.5 secs

     total energy              =   -4555.97362974 Ry
     estimated scf accuracy    <       0.00040661 Ry

     total magnetization       =     0.00     0.00    -0.06 Bohr mag/cell
     absolute magnetization    =    59.14 Bohr mag/cell

     iteration #125     ecut=    80.00 Ry     beta= 0.70
     Davidson diagonalization with overlap
     ethr =  2.02E-07,  avg # of iterations =  9.0

     negative rho (up, down):  1.669E+02 2.876E-02

     total cpu time spent up to now is     5180.9 secs

     total energy              =   -4555.97108422 Ry
     estimated scf accuracy    <       0.00027637 Ry

     total magnetization       =    -0.00     0.00    -0.05 Bohr mag/cell
     absolute magnetization    =    59.14 Bohr mag/cell

     iteration #126     ecut=    80.00 Ry     beta= 0.70
     Davidson diagonalization with overlap
     ethr =  2.02E-07,  avg # of iterations = 13.4

     negative rho (up, down):  1.669E+02 2.874E-02

     total cpu time spent up to now is     5215.8 secs

     total energy              =   -4555.97112781 Ry
     estimated scf accuracy    <       0.00019151 Ry

     total magnetization       =     0.00    -0.00    -0.07 Bohr mag/cell
     absolute magnetization    =    59.12 Bohr mag/cell

     iteration #127     ecut=    80.00 Ry     beta= 0.70
     Davidson diagonalization with overlap
     c_bands:  3 eigenvalues not converged
     c_bands:  1 eigenvalues not converged
     ethr =  2.02E-07,  avg # of iterations = 16.5

     negative rho (up, down):  1.669E+02 2.873E-02

     total cpu time spent up to now is     5253.5 secs

     total energy              =   -4555.97311706 Ry
     estimated scf accuracy    <       0.00016092 Ry

     total magnetization       =     0.00     0.00    -0.08 Bohr mag/cell
     absolute magnetization    =    59.14 Bohr mag/cell

     iteration #128     ecut=    80.00 Ry     beta= 0.70
     Davidson diagonalization with overlap
     ethr =  2.02E-07,  avg # of iterations =  9.8

     negative rho (up, down):  1.669E+02 2.873E-02

     total cpu time spent up to now is     5282.7 secs

     total energy              =   -4555.97206086 Ry
     estimated scf accuracy    <       0.00016305 Ry

     total magnetization       =     0.00    -0.00    -0.08 Bohr mag/cell
     absolute magnetization    =    59.14 Bohr mag/cell

     iteration #129     ecut=    80.00 Ry     beta= 0.70
     Davidson diagonalization with overlap
     ethr =  2.02E-07,  avg # of iterations = 14.0

     negative rho (up, down):  1.669E+02 2.872E-02

     total cpu time spent up to now is     5320.6 secs

     total energy              =   -4555.97088886 Ry
     estimated scf accuracy    <       0.00021246 Ry

     total magnetization       =    -0.00     0.00    -0.05 Bohr mag/cell
     absolute magnetization    =    59.17 Bohr mag/cell

     iteration #130     ecut=    80.00 Ry     beta= 0.70
     Davidson diagonalization with overlap
     c_bands:  2 eigenvalues not converged
     c_bands:  1 eigenvalues not converged
     c_bands:  2 eigenvalues not converged
     c_bands:  1 eigenvalues not converged
     c_bands:  1 eigenvalues not converged
     ethr =  2.02E-07,  avg # of iterations = 17.9

     negative rho (up, down):  1.669E+02 2.872E-02

     total cpu time spent up to now is     5361.2 secs

     total energy              =   -4555.96735316 Ry
     estimated scf accuracy    <       0.00016830 Ry

     total magnetization       =     0.00     0.00    -0.10 Bohr mag/cell
     absolute magnetization    =    59.15 Bohr mag/cell

     iteration #131     ecut=    80.00 Ry     beta= 0.70
     Davidson diagonalization with overlap
     c_bands:  1 eigenvalues not converged
     ethr =  2.02E-07,  avg # of iterations = 16.8

     negative rho (up, down):  1.669E+02 2.872E-02

     total cpu time spent up to now is     5401.8 secs

     total energy              =   -4555.97065784 Ry
     estimated scf accuracy    <       0.00013680 Ry

     total magnetization       =    -0.00     0.00    -0.05 Bohr mag/cell
     absolute magnetization    =    59.09 Bohr mag/cell

     iteration #132     ecut=    80.00 Ry     beta= 0.70
     Davidson diagonalization with overlap
     c_bands:  1 eigenvalues not converged
     c_bands:  1 eigenvalues not converged
     ethr =  2.02E-07,  avg # of iterations = 15.4

     negative rho (up, down):  1.669E+02 2.875E-02

     total cpu time spent up to now is     5439.9 secs

     total energy              =   -4555.97087449 Ry
     estimated scf accuracy    <       0.00008535 Ry

     total magnetization       =     0.00    -0.00    -0.09 Bohr mag/cell
     absolute magnetization    =    59.13 Bohr mag/cell

     iteration #133     ecut=    80.00 Ry     beta= 0.70
     Davidson diagonalization with overlap
     c_bands:  1 eigenvalues not converged
     ethr =  2.02E-07,  avg # of iterations = 15.7

     negative rho (up, down):  1.669E+02 2.875E-02

     total cpu time spent up to now is     5478.0 secs

     total energy              =   -4555.96976924 Ry
     estimated scf accuracy    <       0.00007759 Ry

     total magnetization       =     0.00     0.00    -0.10 Bohr mag/cell
     absolute magnetization    =    59.07 Bohr mag/cell

     iteration #134     ecut=    80.00 Ry     beta= 0.70
     Davidson diagonalization with overlap
     c_bands:  3 eigenvalues not converged
     c_bands:  2 eigenvalues not converged
     c_bands:  2 eigenvalues not converged
     c_bands:  1 eigenvalues not converged
     c_bands:  1 eigenvalues not converged
     ethr =  2.02E-07,  avg # of iterations = 16.7

     negative rho (up, down):  1.669E+02 2.874E-02

     total cpu time spent up to now is     5517.3 secs

     total energy              =   -4555.97049619 Ry
     estimated scf accuracy    <       0.00009817 Ry

     total magnetization       =    -0.00     0.00    -0.09 Bohr mag/cell
     absolute magnetization    =    59.11 Bohr mag/cell

     iteration #135     ecut=    80.00 Ry     beta= 0.70
     Davidson diagonalization with overlap
     c_bands:  1 eigenvalues not converged
     c_bands:  1 eigenvalues not converged
     c_bands:  3 eigenvalues not converged
     c_bands:  2 eigenvalues not converged
     c_bands:  1 eigenvalues not converged
     c_bands:  3 eigenvalues not converged
     c_bands:  4 eigenvalues not converged
     c_bands:  1 eigenvalues not converged
     ethr =  2.02E-07,  avg # of iterations = 17.0

     negative rho (up, down):  1.669E+02 2.874E-02

     total cpu time spent up to now is     5557.6 secs

     total energy              =   -4555.97148370 Ry
     estimated scf accuracy    <       0.00011919 Ry

     total magnetization       =    -0.00    -0.00    -0.09 Bohr mag/cell
     absolute magnetization    =    59.16 Bohr mag/cell

     iteration #136     ecut=    80.00 Ry     beta= 0.70
     Davidson diagonalization with overlap
     c_bands:  2 eigenvalues not converged
     c_bands:  2 eigenvalues not converged
     c_bands:  3 eigenvalues not converged
     c_bands:  5 eigenvalues not converged
     c_bands:  1 eigenvalues not converged
     c_bands:  1 eigenvalues not converged
     c_bands:  2 eigenvalues not converged
     c_bands:  1 eigenvalues not converged
     ethr =  2.02E-07,  avg # of iterations = 17.4

     negative rho (up, down):  1.669E+02 2.875E-02

     total cpu time spent up to now is     5599.4 secs

     total energy              =   -4555.96860441 Ry
     estimated scf accuracy    <       0.00006680 Ry

     total magnetization       =     0.00    -0.00    -0.07 Bohr mag/cell
     absolute magnetization    =    59.11 Bohr mag/cell

     iteration #137     ecut=    80.00 Ry     beta= 0.70
     Davidson diagonalization with overlap
     c_bands:  2 eigenvalues not converged
     c_bands:  1 eigenvalues not converged
     c_bands:  3 eigenvalues not converged
     c_bands:  3 eigenvalues not converged
     c_bands:  1 eigenvalues not converged
     c_bands:  1 eigenvalues not converged
     ethr =  1.91E-07,  avg # of iterations = 17.9

     negative rho (up, down):  1.669E+02 2.876E-02

     total cpu time spent up to now is     5643.1 secs

     total energy              =   -4555.97159766 Ry
     estimated scf accuracy    <       0.00014920 Ry

     total magnetization       =     0.00     0.00    -0.11 Bohr mag/cell
     absolute magnetization    =    59.14 Bohr mag/cell

     iteration #138     ecut=    80.00 Ry     beta= 0.70
     Davidson diagonalization with overlap
     ethr =  1.91E-07,  avg # of iterations = 14.5

     negative rho (up, down):  1.669E+02 2.873E-02

     total cpu time spent up to now is     5681.5 secs

     total energy              =   -4555.97117282 Ry
     estimated scf accuracy    <       0.00011956 Ry

     total magnetization       =     0.00     0.00    -0.10 Bohr mag/cell
     absolute magnetization    =    59.13 Bohr mag/cell

     iteration #139     ecut=    80.00 Ry     beta= 0.70
     Davidson diagonalization with overlap
     c_bands:  1 eigenvalues not converged
     ethr =  1.91E-07,  avg # of iterations = 14.2

     negative rho (up, down):  1.669E+02 2.873E-02

     total cpu time spent up to now is     5721.7 secs

     total energy              =   -4555.97067339 Ry
     estimated scf accuracy    <       0.00013633 Ry

     total magnetization       =     0.00     0.00    -0.11 Bohr mag/cell
     absolute magnetization    =    59.13 Bohr mag/cell

     iteration #140     ecut=    80.00 Ry     beta= 0.70
     Davidson diagonalization with overlap
     c_bands:  2 eigenvalues not converged
     c_bands:  3 eigenvalues not converged
     c_bands:  2 eigenvalues not converged
     c_bands:  5 eigenvalues not converged
     c_bands:  2 eigenvalues not converged
     c_bands:  2 eigenvalues not converged
     c_bands:  4 eigenvalues not converged
     ethr =  1.91E-07,  avg # of iterations = 17.8

     negative rho (up, down):  1.669E+02 2.874E-02

     total cpu time spent up to now is     5767.9 secs

     total energy              =   -4555.96672475 Ry
     estimated scf accuracy    <       0.00026100 Ry

     total magnetization       =     0.00     0.00    -0.10 Bohr mag/cell
     absolute magnetization    =    59.22 Bohr mag/cell

     iteration #141     ecut=    80.00 Ry     beta= 0.70
     Davidson diagonalization with overlap
     c_bands:  4 eigenvalues not converged
     c_bands:  1 eigenvalues not converged
     c_bands:  3 eigenvalues not converged
     c_bands:  3 eigenvalues not converged
     c_bands:  1 eigenvalues not converged
     c_bands:  2 eigenvalues not converged
     c_bands:  4 eigenvalues not converged
     c_bands:  5 eigenvalues not converged
     c_bands:  1 eigenvalues not converged
     ethr =  1.91E-07,  avg # of iterations = 19.7

     negative rho (up, down):  1.669E+02 2.874E-02

     total cpu time spent up to now is     5820.1 secs

     total energy              =   -4555.96534407 Ry
     estimated scf accuracy    <       0.00024598 Ry

     total magnetization       =    -0.00     0.00    -0.02 Bohr mag/cell
     absolute magnetization    =    59.23 Bohr mag/cell

     iteration #142     ecut=    80.00 Ry     beta= 0.70
     Davidson diagonalization with overlap
     c_bands:  3 eigenvalues not converged
     c_bands:  2 eigenvalues not converged
     c_bands:  2 eigenvalues not converged
     c_bands:  2 eigenvalues not converged
     c_bands:  2 eigenvalues not converged
     c_bands:  1 eigenvalues not converged
     c_bands:  4 eigenvalues not converged
     c_bands:  3 eigenvalues not converged
     c_bands:  1 eigenvalues not converged
     c_bands:  3 eigenvalues not converged
     c_bands:  1 eigenvalues not converged
     c_bands:  1 eigenvalues not converged
     c_bands:  1 eigenvalues not converged
     ethr =  1.91E-07,  avg # of iterations = 19.8

     negative rho (up, down):  1.669E+02 2.871E-02

     total cpu time spent up to now is     5869.9 secs

     total energy              =   -4555.97434829 Ry
     estimated scf accuracy    <       0.00018313 Ry

     total magnetization       =    -0.00    -0.00    -0.13 Bohr mag/cell
     absolute magnetization    =    59.13 Bohr mag/cell

     iteration #143     ecut=    80.00 Ry     beta= 0.70
     Davidson diagonalization with overlap
     c_bands:  1 eigenvalues not converged
     ethr =  1.91E-07,  avg # of iterations = 15.6

     negative rho (up, down):  1.669E+02 2.874E-02

     total cpu time spent up to now is     5916.3 secs

     total energy              =   -4555.96206620 Ry
     estimated scf accuracy    <       0.00017144 Ry

     total magnetization       =     0.00     0.00    -0.12 Bohr mag/cell
     absolute magnetization    =    59.15 Bohr mag/cell

     iteration #144     ecut=    80.00 Ry     beta= 0.70
     Davidson diagonalization with overlap
     c_bands:  1 eigenvalues not converged
     c_bands:  5 eigenvalues not converged
     c_bands:  3 eigenvalues not converged
     c_bands:  3 eigenvalues not converged
     c_bands:  1 eigenvalues not converged
     c_bands:  1 eigenvalues not converged
     c_bands:  3 eigenvalues not converged
     c_bands:  3 eigenvalues not converged
     c_bands:  5 eigenvalues not converged
     c_bands:  2 eigenvalues not converged
     c_bands:  2 eigenvalues not converged
     c_bands:  1 eigenvalues not converged
     c_bands:  3 eigenvalues not converged
     c_bands:  1 eigenvalues not converged
     c_bands:  1 eigenvalues not converged
     ethr =  1.91E-07,  avg # of iterations = 19.4

     negative rho (up, down):  1.669E+02 2.874E-02

     total cpu time spent up to now is     5964.2 secs

     total energy              =   -4555.96501750 Ry
     estimated scf accuracy    <       0.00014138 Ry

     total magnetization       =     0.00    -0.00    -0.07 Bohr mag/cell
     absolute magnetization    =    59.15 Bohr mag/cell

     iteration #145     ecut=    80.00 Ry     beta= 0.70
     Davidson diagonalization with overlap
     c_bands:  4 eigenvalues not converged
     c_bands:  1 eigenvalues not converged
     c_bands:  4 eigenvalues not converged
     c_bands:  3 eigenvalues not converged
     c_bands:  4 eigenvalues not converged
     c_bands:  4 eigenvalues not converged
     c_bands:  2 eigenvalues not converged
     c_bands:  3 eigenvalues not converged
     c_bands:  1 eigenvalues not converged
     c_bands:  3 eigenvalues not converged
     c_bands:  1 eigenvalues not converged
     c_bands:  1 eigenvalues not converged
     ethr =  1.91E-07,  avg # of iterations = 19.1

     negative rho (up, down):  1.669E+02 2.870E-02

     total cpu time spent up to now is     6013.1 secs

     total energy              =   -4555.97054707 Ry
     estimated scf accuracy    <       0.00013926 Ry

     total magnetization       =     0.00    -0.00    -0.11 Bohr mag/cell
     absolute magnetization    =    59.12 Bohr mag/cell

     iteration #146     ecut=    80.00 Ry     beta= 0.70
     Davidson diagonalization with overlap
     ethr =  1.91E-07,  avg # of iterations = 15.6

     negative rho (up, down):  1.669E+02 2.879E-02

     total cpu time spent up to now is     6055.3 secs

     total energy              =   -4555.97104595 Ry
     estimated scf accuracy    <       0.00029272 Ry

     total magnetization       =    -0.00    -0.00    -0.08 Bohr mag/cell
     absolute magnetization    =    59.10 Bohr mag/cell

     iteration #147     ecut=    80.00 Ry     beta= 0.70
     Davidson diagonalization with overlap
     c_bands:  1 eigenvalues not converged
     ethr =  1.91E-07,  avg # of iterations = 16.1

     negative rho (up, down):  1.669E+02 2.874E-02

     total cpu time spent up to now is     6096.0 secs

     total energy              =   -4555.96996562 Ry
     estimated scf accuracy    <       0.00011298 Ry

     total magnetization       =     0.00    -0.00    -0.06 Bohr mag/cell
     absolute magnetization    =    59.09 Bohr mag/cell

     iteration #148     ecut=    80.00 Ry     beta= 0.70
     Davidson diagonalization with overlap
     c_bands:  1 eigenvalues not converged
     c_bands:  1 eigenvalues not converged
     c_bands:  1 eigenvalues not converged
     ethr =  1.91E-07,  avg # of iterations = 16.0

     negative rho (up, down):  1.669E+02 2.874E-02

     total cpu time spent up to now is     6136.6 secs

     total energy              =   -4555.96983652 Ry
     estimated scf accuracy    <       0.00005129 Ry

     total magnetization       =    -0.00    -0.00    -0.07 Bohr mag/cell
     absolute magnetization    =    59.08 Bohr mag/cell

     iteration #149     ecut=    80.00 Ry     beta= 0.70
     Davidson diagonalization with overlap
     c_bands:  1 eigenvalues not converged
     c_bands:  5 eigenvalues not converged
     c_bands:  2 eigenvalues not converged
     c_bands:  1 eigenvalues not converged
     c_bands:  1 eigenvalues not converged
     c_bands:  1 eigenvalues not converged
     ethr =  1.47E-07,  avg # of iterations = 18.8

     negative rho (up, down):  1.669E+02 2.873E-02

     total cpu time spent up to now is     6183.7 secs

     total energy              =   -4555.97016635 Ry
     estimated scf accuracy    <       0.00015758 Ry

     total magnetization       =    -0.00     0.00    -0.15 Bohr mag/cell
     absolute magnetization    =    59.12 Bohr mag/cell

     iteration #150     ecut=    80.00 Ry     beta= 0.70
     Davidson diagonalization with overlap
     c_bands:  1 eigenvalues not converged
     c_bands:  1 eigenvalues not converged
     c_bands:  1 eigenvalues not converged
     ethr =  1.47E-07,  avg # of iterations = 18.0

     negative rho (up, down):  1.669E+02 2.872E-02

     total cpu time spent up to now is     6228.4 secs

     total energy              =   -4555.96907787 Ry
     estimated scf accuracy    <       0.00009120 Ry

     total magnetization       =    -0.00    -0.00    -0.11 Bohr mag/cell
     absolute magnetization    =    59.12 Bohr mag/cell

     iteration #151     ecut=    80.00 Ry     beta= 0.70
     Davidson diagonalization with overlap
     c_bands:  2 eigenvalues not converged
     c_bands:  1 eigenvalues not converged
     c_bands:  1 eigenvalues not converged
     c_bands:  1 eigenvalues not converged
     c_bands:  2 eigenvalues not converged
     ethr =  1.47E-07,  avg # of iterations = 17.5

     negative rho (up, down):  1.669E+02 2.872E-02

     total cpu time spent up to now is     6274.7 secs

     total energy              =   -4555.96739350 Ry
     estimated scf accuracy    <       0.00015328 Ry

     total magnetization       =    -0.00     0.00    -0.00 Bohr mag/cell
     absolute magnetization    =    59.18 Bohr mag/cell

     iteration #152     ecut=    80.00 Ry     beta= 0.70
     Davidson diagonalization with overlap
     c_bands:  2 eigenvalues not converged
     c_bands:  4 eigenvalues not converged
     c_bands:  2 eigenvalues not converged
     c_bands:  3 eigenvalues not converged
     c_bands:  1 eigenvalues not converged
     c_bands:  2 eigenvalues not converged
     c_bands:  1 eigenvalues not converged
     c_bands:  1 eigenvalues not converged
     c_bands:  3 eigenvalues not converged
     c_bands:  1 eigenvalues not converged
     c_bands:  1 eigenvalues not converged
     c_bands:  1 eigenvalues not converged
     c_bands:  1 eigenvalues not converged
     ethr =  1.47E-07,  avg # of iterations = 18.7

     negative rho (up, down):  1.669E+02 2.872E-02

     total cpu time spent up to now is     6324.1 secs

     total energy              =   -4555.96910063 Ry
     estimated scf accuracy    <       0.00011217 Ry

     total magnetization       =    -0.00    -0.00    -0.13 Bohr mag/cell
     absolute magnetization    =    59.11 Bohr mag/cell

     iteration #153     ecut=    80.00 Ry     beta= 0.70
     Davidson diagonalization with overlap
     ethr =  1.47E-07,  avg # of iterations = 15.9

     negative rho (up, down):  1.669E+02 2.874E-02

     total cpu time spent up to now is     6371.7 secs

     total energy              =   -4555.96786780 Ry
     estimated scf accuracy    <       0.00020737 Ry

     total magnetization       =    -0.00    -0.00    -0.05 Bohr mag/cell
     absolute magnetization    =    59.11 Bohr mag/cell

     iteration #154     ecut=    80.00 Ry     beta= 0.70
     Davidson diagonalization with overlap
     c_bands:  5 eigenvalues not converged
     c_bands:  2 eigenvalues not converged
     c_bands:  4 eigenvalues not converged
     c_bands:  3 eigenvalues not converged
     c_bands:  5 eigenvalues not converged
     c_bands:  2 eigenvalues not converged
     ethr =  1.47E-07,  avg # of iterations = 19.4

     negative rho (up, down):  1.669E+02 2.872E-02

     total cpu time spent up to now is     6426.1 secs

     total energy              =   -4555.96390741 Ry
     estimated scf accuracy    <       0.00020963 Ry

     total magnetization       =    -0.00     0.00    -0.05 Bohr mag/cell
     absolute magnetization    =    59.23 Bohr mag/cell

     iteration #155     ecut=    80.00 Ry     beta= 0.70
     Davidson diagonalization with overlap
     c_bands:  1 eigenvalues not converged
     c_bands:  4 eigenvalues not converged
     c_bands:  2 eigenvalues not converged
     c_bands:  4 eigenvalues not converged
     c_bands:  2 eigenvalues not converged
     c_bands:  2 eigenvalues not converged
     c_bands:  1 eigenvalues not converged
     c_bands:  2 eigenvalues not converged
     c_bands:  1 eigenvalues not converged
     c_bands:  3 eigenvalues not converged
     c_bands:  5 eigenvalues not converged
     c_bands:  1 eigenvalues not converged
     c_bands:  2 eigenvalues not converged
     c_bands:  4 eigenvalues not converged
     c_bands:  5 eigenvalues not converged
     c_bands:  1 eigenvalues not converged
     c_bands:  3 eigenvalues not converged
     c_bands:  2 eigenvalues not converged
     c_bands:  3 eigenvalues not converged
     ethr =  1.47E-07,  avg # of iterations = 20.7

     negative rho (up, down):  1.669E+02 2.873E-02

     total cpu time spent up to now is     6476.9 secs

     total energy              =   -4555.96845932 Ry
     estimated scf accuracy    <       0.00010192 Ry

     total magnetization       =    -0.00     0.00    -0.17 Bohr mag/cell
     absolute magnetization    =    59.16 Bohr mag/cell

     iteration #156     ecut=    80.00 Ry     beta= 0.70
     Davidson diagonalization with overlap
     c_bands:  2 eigenvalues not converged
     c_bands:  2 eigenvalues not converged
     c_bands:  2 eigenvalues not converged
     c_bands:  1 eigenvalues not converged
     c_bands:  2 eigenvalues not converged
     c_bands:  2 eigenvalues not converged
     c_bands:  2 eigenvalues not converged
     c_bands:  2 eigenvalues not converged
     c_bands:  4 eigenvalues not converged
     c_bands:  1 eigenvalues not converged
     c_bands:  1 eigenvalues not converged
     c_bands:  1 eigenvalues not converged
     ethr =  1.47E-07,  avg # of iterations = 18.8

     negative rho (up, down):  1.669E+02 2.873E-02

     total cpu time spent up to now is     6523.1 secs

     total energy              =   -4555.96926781 Ry
     estimated scf accuracy    <       0.00015654 Ry

     total magnetization       =    -0.00     0.00    -0.05 Bohr mag/cell
     absolute magnetization    =    59.15 Bohr mag/cell

     iteration #157     ecut=    80.00 Ry     beta= 0.70
     Davidson diagonalization with overlap
     c_bands:  2 eigenvalues not converged
     c_bands:  2 eigenvalues not converged
     c_bands:  1 eigenvalues not converged
     c_bands:  2 eigenvalues not converged
     c_bands:  1 eigenvalues not converged
     c_bands:  1 eigenvalues not converged
     ethr =  1.47E-07,  avg # of iterations = 17.8

     negative rho (up, down):  1.669E+02 2.873E-02

     total cpu time spent up to now is     6566.6 secs

     total energy              =   -4555.97271664 Ry
     estimated scf accuracy    <       0.00012081 Ry

     total magnetization       =    -0.00    -0.00    -0.11 Bohr mag/cell
     absolute magnetization    =    59.10 Bohr mag/cell

     iteration #158     ecut=    80.00 Ry     beta= 0.70
     Davidson diagonalization with overlap
     c_bands:  1 eigenvalues not converged
     c_bands:  2 eigenvalues not converged
     c_bands:  2 eigenvalues not converged
     c_bands:  1 eigenvalues not converged
     ethr =  1.47E-07,  avg # of iterations = 16.0

     negative rho (up, down):  1.669E+02 2.881E-02

     total cpu time spent up to now is     6608.9 secs

     total energy              =   -4555.97221705 Ry
     estimated scf accuracy    <       0.00035062 Ry

     total magnetization       =    -0.00     0.00    -0.03 Bohr mag/cell
     absolute magnetization    =    59.17 Bohr mag/cell

     iteration #159     ecut=    80.00 Ry     beta= 0.70
     Davidson diagonalization with overlap
     c_bands:  4 eigenvalues not converged
     c_bands:  2 eigenvalues not converged
     c_bands:  4 eigenvalues not converged
     c_bands:  2 eigenvalues not converged
     c_bands:  1 eigenvalues not converged
     c_bands:  2 eigenvalues not converged
     c_bands:  2 eigenvalues not converged
     c_bands:  3 eigenvalues not converged
     c_bands:  3 eigenvalues not converged
     c_bands:  1 eigenvalues not converged
     c_bands:  3 eigenvalues not converged
     ethr =  1.47E-07,  avg # of iterations = 18.7

     negative rho (up, down):  1.669E+02 2.882E-02

     total cpu time spent up to now is     6652.9 secs

     total energy              =   -4555.97011126 Ry
     estimated scf accuracy    <       0.00036532 Ry

     total magnetization       =     0.00     0.00    -0.04 Bohr mag/cell
     absolute magnetization    =    59.16 Bohr mag/cell

     iteration #160     ecut=    80.00 Ry     beta= 0.70
     Davidson diagonalization with overlap
     ethr =  1.47E-07,  avg # of iterations = 14.9

     negative rho (up, down):  1.669E+02 2.876E-02

     total cpu time spent up to now is     6696.9 secs

     total energy              =   -4555.97134888 Ry
     estimated scf accuracy    <       0.00007658 Ry

     total magnetization       =    -0.00    -0.00    -0.06 Bohr mag/cell
     absolute magnetization    =    59.13 Bohr mag/cell

     iteration #161     ecut=    80.00 Ry     beta= 0.70
     Davidson diagonalization with overlap
     c_bands:  1 eigenvalues not converged
     c_bands:  1 eigenvalues not converged
     c_bands:  1 eigenvalues not converged
     c_bands:  4 eigenvalues not converged
     c_bands:  1 eigenvalues not converged
     c_bands:  2 eigenvalues not converged
     c_bands:  3 eigenvalues not converged
     c_bands:  1 eigenvalues not converged
     c_bands:  2 eigenvalues not converged
     c_bands:  1 eigenvalues not converged
     c_bands:  4 eigenvalues not converged
     c_bands:  2 eigenvalues not converged
     c_bands:  1 eigenvalues not converged
     ethr =  1.47E-07,  avg # of iterations = 18.8

     negative rho (up, down):  1.669E+02 2.883E-02

     total cpu time spent up to now is     6743.9 secs

     total energy              =   -4555.96373817 Ry
     estimated scf accuracy    <       0.00036262 Ry

     total magnetization       =     0.00    -0.00    -0.07 Bohr mag/cell
     absolute magnetization    =    59.19 Bohr mag/cell

     iteration #162     ecut=    80.00 Ry     beta= 0.70
     Davidson diagonalization with overlap
     ethr =  1.47E-07,  avg # of iterations = 16.9

     negative rho (up, down):  1.669E+02 2.871E-02

     total cpu time spent up to now is     6788.7 secs

     total energy              =   -4555.96871859 Ry
     estimated scf accuracy    <       0.00029828 Ry

     total magnetization       =     0.00    -0.00    -0.12 Bohr mag/cell
     absolute magnetization    =    59.09 Bohr mag/cell

     iteration #163     ecut=    80.00 Ry     beta= 0.70
     Davidson diagonalization with overlap
     c_bands:  1 eigenvalues not converged
     c_bands:  1 eigenvalues not converged
     c_bands:  1 eigenvalues not converged
     ethr =  1.47E-07,  avg # of iterations = 16.5

     negative rho (up, down):  1.669E+02 2.870E-02

     total cpu time spent up to now is     6829.5 secs

     total energy              =   -4555.97218341 Ry
     estimated scf accuracy    <       0.00007505 Ry

     total magnetization       =    -0.00     0.00    -0.08 Bohr mag/cell
     absolute magnetization    =    59.08 Bohr mag/cell

     iteration #164     ecut=    80.00 Ry     beta= 0.70
     Davidson diagonalization with overlap
     c_bands:  1 eigenvalues not converged
     c_bands:  4 eigenvalues not converged
     c_bands:  5 eigenvalues not converged
     c_bands:  1 eigenvalues not converged
     c_bands:  1 eigenvalues not converged
     c_bands:  3 eigenvalues not converged
     c_bands:  2 eigenvalues not converged
     c_bands:  4 eigenvalues not converged
     c_bands:  3 eigenvalues not converged
     c_bands:  3 eigenvalues not converged
     c_bands:  2 eigenvalues not converged
     c_bands:  3 eigenvalues not converged
     c_bands:  1 eigenvalues not converged
     c_bands:  2 eigenvalues not converged
     ethr =  1.47E-07,  avg # of iterations = 20.0

     negative rho (up, down):  1.669E+02 2.880E-02

     total cpu time spent up to now is     6878.8 secs

     total energy              =   -4555.96432675 Ry
     estimated scf accuracy    <       0.00054720 Ry

     total magnetization       =    -0.00    -0.00    -0.08 Bohr mag/cell
     absolute magnetization    =    59.29 Bohr mag/cell

     iteration #165     ecut=    80.00 Ry     beta= 0.70
     Davidson diagonalization with overlap
     c_bands:  2 eigenvalues not converged
     c_bands:  5 eigenvalues not converged
     c_bands:  4 eigenvalues not converged
     c_bands:  1 eigenvalues not converged
     c_bands:  4 eigenvalues not converged
     c_bands:  2 eigenvalues not converged
     c_bands:  3 eigenvalues not converged
     c_bands:  3 eigenvalues not converged
     c_bands:  1 eigenvalues not converged
     c_bands:  2 eigenvalues not converged
     c_bands:  1 eigenvalues not converged
     c_bands:  4 eigenvalues not converged
     c_bands:  5 eigenvalues not converged
     c_bands:  3 eigenvalues not converged
     c_bands:  3 eigenvalues not converged
     c_bands:  2 eigenvalues not converged
     c_bands:  4 eigenvalues not converged
     c_bands:  4 eigenvalues not converged
     ethr =  1.47E-07,  avg # of iterations = 20.9

     negative rho (up, down):  1.669E+02 2.877E-02

     total cpu time spent up to now is     6928.1 secs

     total energy              =   -4555.96655600 Ry
     estimated scf accuracy    <       0.00004754 Ry

     total magnetization       =    -0.00     0.00    -0.13 Bohr mag/cell
     absolute magnetization    =    59.10 Bohr mag/cell

     iteration #166     ecut=    80.00 Ry     beta= 0.70
     Davidson diagonalization with overlap
     c_bands:  1 eigenvalues not converged
     c_bands:  1 eigenvalues not converged
     c_bands:  1 eigenvalues not converged
     ethr =  1.36E-07,  avg # of iterations = 16.1

     negative rho (up, down):  1.669E+02 2.873E-02

     total cpu time spent up to now is     6971.4 secs

     total energy              =   -4555.97104101 Ry
     estimated scf accuracy    <       0.00078060 Ry

     total magnetization       =     0.00    -0.00    -0.08 Bohr mag/cell
     absolute magnetization    =    59.06 Bohr mag/cell

     iteration #167     ecut=    80.00 Ry     beta= 0.70
     Davidson diagonalization with overlap
     ethr =  1.36E-07,  avg # of iterations = 15.7

     negative rho (up, down):  1.669E+02 2.873E-02

     total cpu time spent up to now is     7015.6 secs

     total energy              =   -4555.96719022 Ry
     estimated scf accuracy    <       0.00010125 Ry

     total magnetization       =     0.00    -0.00    -0.13 Bohr mag/cell
     absolute magnetization    =    59.14 Bohr mag/cell

     iteration #168     ecut=    80.00 Ry     beta= 0.70
     Davidson diagonalization with overlap
     c_bands:  5 eigenvalues not converged
     c_bands:  2 eigenvalues not converged
     c_bands:  2 eigenvalues not converged
     c_bands:  4 eigenvalues not converged
     c_bands:  1 eigenvalues not converged
     c_bands:  4 eigenvalues not converged
     c_bands:  1 eigenvalues not converged
     c_bands:  1 eigenvalues not converged
     c_bands:  1 eigenvalues not converged
     ethr =  1.36E-07,  avg # of iterations = 18.9

     negative rho (up, down):  1.669E+02 2.876E-02

     total cpu time spent up to now is     7060.6 secs

     total energy              =   -4555.96870913 Ry
     estimated scf accuracy    <       0.00019583 Ry

     total magnetization       =    -0.00     0.00    -0.09 Bohr mag/cell
     absolute magnetization    =    59.12 Bohr mag/cell

     iteration #169     ecut=    80.00 Ry     beta= 0.70
     Davidson diagonalization with overlap
     c_bands:  1 eigenvalues not converged
     c_bands:  1 eigenvalues not converged
     c_bands:  4 eigenvalues not converged
     c_bands:  4 eigenvalues not converged
     c_bands:  2 eigenvalues not converged
     c_bands:  4 eigenvalues not converged
     c_bands:  2 eigenvalues not converged
     c_bands:  1 eigenvalues not converged
     ethr =  1.36E-07,  avg # of iterations = 18.4

     negative rho (up, down):  1.669E+02 2.870E-02

     total cpu time spent up to now is     7105.7 secs

     total energy              =   -4555.97158545 Ry
     estimated scf accuracy    <       0.00012821 Ry

     total magnetization       =    -0.00    -0.00     0.01 Bohr mag/cell
     absolute magnetization    =    59.17 Bohr mag/cell

     iteration #170     ecut=    80.00 Ry     beta= 0.70
     Davidson diagonalization with overlap
     c_bands:  1 eigenvalues not converged
     c_bands:  2 eigenvalues not converged
     c_bands:  2 eigenvalues not converged
     c_bands:  2 eigenvalues not converged
     c_bands:  2 eigenvalues not converged
     c_bands:  1 eigenvalues not converged
     c_bands:  1 eigenvalues not converged
     ethr =  1.36E-07,  avg # of iterations = 18.2

     negative rho (up, down):  1.669E+02 2.880E-02

     total cpu time spent up to now is     7150.8 secs

     total energy              =   -4555.96609417 Ry
     estimated scf accuracy    <       0.00035215 Ry

     total magnetization       =     0.00    -0.00    -0.09 Bohr mag/cell
     absolute magnetization    =    59.16 Bohr mag/cell

     iteration #171     ecut=    80.00 Ry     beta= 0.70
     Davidson diagonalization with overlap
     c_bands:  1 eigenvalues not converged
     c_bands:  5 eigenvalues not converged
     c_bands:  4 eigenvalues not converged
     c_bands:  5 eigenvalues not converged
     c_bands:  3 eigenvalues not converged
     c_bands:  3 eigenvalues not converged
     c_bands:  3 eigenvalues not converged
     c_bands:  1 eigenvalues not converged
     c_bands:  1 eigenvalues not converged
     c_bands:  3 eigenvalues not converged
     c_bands:  2 eigenvalues not converged
     c_bands:  2 eigenvalues not converged
     c_bands:  2 eigenvalues not converged
     c_bands:  2 eigenvalues not converged
     c_bands:  1 eigenvalues not converged
     ethr =  1.36E-07,  avg # of iterations = 19.6

     negative rho (up, down):  1.669E+02 2.882E-02

     total cpu time spent up to now is     7196.0 secs

     total energy              =   -4555.96876937 Ry
     estimated scf accuracy    <       0.00024926 Ry

     total magnetization       =     0.00     0.00    -0.13 Bohr mag/cell
     absolute magnetization    =    59.17 Bohr mag/cell

     iteration #172     ecut=    80.00 Ry     beta= 0.70
     Davidson diagonalization with overlap
     c_bands:  3 eigenvalues not converged
     c_bands:  1 eigenvalues not converged
     c_bands:  1 eigenvalues not converged
     c_bands:  1 eigenvalues not converged
     c_bands:  1 eigenvalues not converged
     c_bands:  1 eigenvalues not converged
     c_bands:  1 eigenvalues not converged
     c_bands:  2 eigenvalues not converged
     c_bands:  1 eigenvalues not converged
     c_bands:  1 eigenvalues not converged
     c_bands:  1 eigenvalues not converged
     c_bands:  4 eigenvalues not converged
     c_bands:  1 eigenvalues not converged
     ethr =  1.36E-07,  avg # of iterations = 19.8

     negative rho (up, down):  1.669E+02 2.874E-02

     total cpu time spent up to now is     7243.7 secs

     total energy              =   -4555.96593465 Ry
     estimated scf accuracy    <       0.00019036 Ry

     total magnetization       =    -0.00    -0.00    -0.17 Bohr mag/cell
     absolute magnetization    =    59.23 Bohr mag/cell

     iteration #173     ecut=    80.00 Ry     beta= 0.70
     Davidson diagonalization with overlap
     c_bands:  2 eigenvalues not converged
     c_bands:  1 eigenvalues not converged
     c_bands:  1 eigenvalues not converged
     c_bands:  5 eigenvalues not converged
     c_bands:  3 eigenvalues not converged
     c_bands:  3 eigenvalues not converged
     c_bands:  4 eigenvalues not converged
     c_bands:  4 eigenvalues not converged
     c_bands:  5 eigenvalues not converged
     c_bands:  1 eigenvalues not converged
     c_bands:  1 eigenvalues not converged
     c_bands:  2 eigenvalues not converged
     c_bands:  2 eigenvalues not converged
     ethr =  1.36E-07,  avg # of iterations = 19.4

     negative rho (up, down):  1.669E+02 2.872E-02

     total cpu time spent up to now is     7289.7 secs

     total energy              =   -4555.97114291 Ry
     estimated scf accuracy    <       0.00012927 Ry

     total magnetization       =     0.00     0.00    -0.05 Bohr mag/cell
     absolute magnetization    =    59.15 Bohr mag/cell

     iteration #174     ecut=    80.00 Ry     beta= 0.70
     Davidson diagonalization with overlap
     c_bands:  2 eigenvalues not converged
     c_bands:  2 eigenvalues not converged
     c_bands:  2 eigenvalues not converged
     c_bands:  5 eigenvalues not converged
     c_bands:  3 eigenvalues not converged
     c_bands:  3 eigenvalues not converged
     c_bands:  1 eigenvalues not converged
     c_bands:  4 eigenvalues not converged
     c_bands:  2 eigenvalues not converged
     c_bands:  5 eigenvalues not converged
     c_bands:  3 eigenvalues not converged
     c_bands:  2 eigenvalues not converged
     c_bands:  4 eigenvalues not converged
     c_bands:  2 eigenvalues not converged
     c_bands:  5 eigenvalues not converged
     c_bands:  4 eigenvalues not converged
     c_bands:  4 eigenvalues not converged
     c_bands:  3 eigenvalues not converged
     ethr =  1.36E-07,  avg # of iterations = 20.2

     negative rho (up, down):  1.669E+02 2.881E-02

     total cpu time spent up to now is     7337.5 secs

     total energy              =   -4555.96429573 Ry
     estimated scf accuracy    <       0.00043572 Ry

     total magnetization       =    -0.00    -0.00    -0.08 Bohr mag/cell
     absolute magnetization    =    59.23 Bohr mag/cell

     iteration #175     ecut=    80.00 Ry     beta= 0.70
     Davidson diagonalization with overlap
     c_bands:  1 eigenvalues not converged
     c_bands:  1 eigenvalues not converged
     c_bands:  2 eigenvalues not converged
     c_bands:  1 eigenvalues not converged
     c_bands:  1 eigenvalues not converged
     c_bands:  1 eigenvalues not converged
     c_bands:  1 eigenvalues not converged
     c_bands:  1 eigenvalues not converged
     ethr =  1.36E-07,  avg # of iterations = 17.4

     negative rho (up, down):  1.669E+02 2.871E-02

     total cpu time spent up to now is     7381.4 secs

     total energy              =   -4555.97065770 Ry
     estimated scf accuracy    <       0.00025903 Ry

     total magnetization       =     0.00     0.00    -0.10 Bohr mag/cell
     absolute magnetization    =    59.15 Bohr mag/cell

     iteration #176     ecut=    80.00 Ry     beta= 0.70
     Davidson diagonalization with overlap
     c_bands:  1 eigenvalues not converged
     c_bands:  2 eigenvalues not converged
     c_bands:  3 eigenvalues not converged
     c_bands:  1 eigenvalues not converged
     c_bands:  3 eigenvalues not converged
     c_bands:  3 eigenvalues not converged
     c_bands:  4 eigenvalues not converged
     c_bands:  4 eigenvalues not converged
     c_bands:  4 eigenvalues not converged
     c_bands:  4 eigenvalues not converged
     c_bands:  1 eigenvalues not converged
     c_bands:  4 eigenvalues not converged
     c_bands:  4 eigenvalues not converged
     c_bands:  3 eigenvalues not converged
     c_bands:  4 eigenvalues not converged
     c_bands:  5 eigenvalues not converged
     c_bands:  4 eigenvalues not converged
     ethr =  1.36E-07,  avg # of iterations = 19.4

     negative rho (up, down):  1.669E+02 2.881E-02

     total cpu time spent up to now is     7425.3 secs

     total energy              =   -4555.96977798 Ry
     estimated scf accuracy    <       0.00031896 Ry

     total magnetization       =    -0.00     0.00    -0.09 Bohr mag/cell
     absolute magnetization    =    59.16 Bohr mag/cell

     iteration #177     ecut=    80.00 Ry     beta= 0.70
     Davidson diagonalization with overlap
     c_bands:  4 eigenvalues not converged
     c_bands:  1 eigenvalues not converged
     c_bands:  2 eigenvalues not converged
     c_bands:  2 eigenvalues not converged
     c_bands:  3 eigenvalues not converged
     c_bands:  1 eigenvalues not converged
     c_bands:  1 eigenvalues not converged
     c_bands:  1 eigenvalues not converged
     c_bands:  2 eigenvalues not converged
     c_bands:  3 eigenvalues not converged
     c_bands:  1 eigenvalues not converged
     c_bands:  2 eigenvalues not converged
     c_bands:  2 eigenvalues not converged
     ethr =  1.36E-07,  avg # of iterations = 19.2

     negative rho (up, down):  1.669E+02 2.874E-02

     total cpu time spent up to now is     7468.1 secs

     total energy              =   -4555.96951777 Ry
     estimated scf accuracy    <       0.00008526 Ry

     total magnetization       =    -0.00     0.00    -0.14 Bohr mag/cell
     absolute magnetization    =    59.14 Bohr mag/cell

     iteration #178     ecut=    80.00 Ry     beta= 0.70
     Davidson diagonalization with overlap
     c_bands:  1 eigenvalues not converged
     c_bands:  2 eigenvalues not converged
     c_bands:  1 eigenvalues not converged
     c_bands:  2 eigenvalues not converged
     c_bands:  3 eigenvalues not converged
     c_bands:  1 eigenvalues not converged
     c_bands:  5 eigenvalues not converged
     c_bands:  1 eigenvalues not converged
     c_bands:  1 eigenvalues not converged
     c_bands:  2 eigenvalues not converged
     c_bands:  2 eigenvalues not converged
     c_bands:  2 eigenvalues not converged
     c_bands:  3 eigenvalues not converged
     ethr =  1.36E-07,  avg # of iterations = 19.1

     negative rho (up, down):  1.669E+02 2.873E-02

     total cpu time spent up to now is     7512.6 secs

     total energy              =   -4555.96883763 Ry
     estimated scf accuracy    <       0.00006514 Ry

     total magnetization       =     0.00     0.00    -0.07 Bohr mag/cell
     absolute magnetization    =    59.12 Bohr mag/cell

     iteration #179     ecut=    80.00 Ry     beta= 0.70
     Davidson diagonalization with overlap
     c_bands:  2 eigenvalues not converged
     c_bands:  1 eigenvalues not converged
     c_bands:  1 eigenvalues not converged
     c_bands:  2 eigenvalues not converged
     c_bands:  4 eigenvalues not converged
     ethr =  1.36E-07,  avg # of iterations = 17.5

     negative rho (up, down):  1.669E+02 2.872E-02

     total cpu time spent up to now is     7553.6 secs

     total energy              =   -4555.97327621 Ry
     estimated scf accuracy    <       0.00006572 Ry

     total magnetization       =     0.00    -0.00    -0.03 Bohr mag/cell
     absolute magnetization    =    59.11 Bohr mag/cell

     iteration #180     ecut=    80.00 Ry     beta= 0.70
     Davidson diagonalization with overlap
     c_bands:  1 eigenvalues not converged
     c_bands:  1 eigenvalues not converged
     c_bands:  1 eigenvalues not converged
     c_bands:  1 eigenvalues not converged
     c_bands:  1 eigenvalues not converged
     ethr =  1.36E-07,  avg # of iterations = 16.9

     negative rho (up, down):  1.669E+02 2.881E-02

     total cpu time spent up to now is     7596.3 secs

     total energy              =   -4555.97220048 Ry
     estimated scf accuracy    <       0.00036508 Ry

     total magnetization       =     0.00    -0.00    -0.03 Bohr mag/cell
     absolute magnetization    =    59.18 Bohr mag/cell

     iteration #181     ecut=    80.00 Ry     beta= 0.70
     Davidson diagonalization with overlap
     c_bands:  1 eigenvalues not converged
     c_bands:  5 eigenvalues not converged
     c_bands:  1 eigenvalues not converged
     c_bands:  4 eigenvalues not converged
     c_bands:  1 eigenvalues not converged
     c_bands:  2 eigenvalues not converged
     c_bands:  1 eigenvalues not converged
     c_bands:  1 eigenvalues not converged
     c_bands:  2 eigenvalues not converged
     ethr =  1.36E-07,  avg # of iterations = 18.1

     negative rho (up, down):  1.669E+02 2.882E-02

     total cpu time spent up to now is     7638.7 secs

     total energy              =   -4555.96736738 Ry
     estimated scf accuracy    <       0.00039678 Ry

     total magnetization       =    -0.00    -0.00    -0.07 Bohr mag/cell
     absolute magnetization    =    59.19 Bohr mag/cell

     iteration #182     ecut=    80.00 Ry     beta= 0.70
     Davidson diagonalization with overlap
     c_bands:  4 eigenvalues not converged
     c_bands:  2 eigenvalues not converged
     c_bands:  2 eigenvalues not converged
     c_bands:  2 eigenvalues not converged
     c_bands:  4 eigenvalues not converged
     c_bands:  2 eigenvalues not converged
     c_bands:  3 eigenvalues not converged
     c_bands:  2 eigenvalues not converged
     c_bands:  1 eigenvalues not converged
     c_bands:  4 eigenvalues not converged
     c_bands:  4 eigenvalues not converged
     c_bands:  2 eigenvalues not converged
     c_bands:  1 eigenvalues not converged
     c_bands:  1 eigenvalues not converged
     c_bands:  4 eigenvalues not converged
     ethr =  1.36E-07,  avg # of iterations = 20.0

     negative rho (up, down):  1.669E+02 2.875E-02

     total cpu time spent up to now is     7686.9 secs

     total energy              =   -4555.96737396 Ry
     estimated scf accuracy    <       0.00013780 Ry

     total magnetization       =    -0.00     0.00    -0.10 Bohr mag/cell
     absolute magnetization    =    59.17 Bohr mag/cell

     iteration #183     ecut=    80.00 Ry     beta= 0.70
     Davidson diagonalization with overlap
     c_bands:  1 eigenvalues not converged
     c_bands:  2 eigenvalues not converged
     c_bands:  2 eigenvalues not converged
     c_bands:  1 eigenvalues not converged
     c_bands:  1 eigenvalues not converged
     c_bands:  1 eigenvalues not converged
     c_bands:  1 eigenvalues not converged
     c_bands:  3 eigenvalues not converged
     c_bands:  1 eigenvalues not converged
     ethr =  1.36E-07,  avg # of iterations = 18.7

     negative rho (up, down):  1.669E+02 2.873E-02

     total cpu time spent up to now is     7730.4 secs

     total energy              =   -4555.96870345 Ry
     estimated scf accuracy    <       0.00006890 Ry

     total magnetization       =    -0.00     0.00    -0.07 Bohr mag/cell
     absolute magnetization    =    59.11 Bohr mag/cell

     iteration #184     ecut=    80.00 Ry     beta= 0.70
     Davidson diagonalization with overlap
     c_bands:  3 eigenvalues not converged
     c_bands:  2 eigenvalues not converged
     c_bands:  5 eigenvalues not converged
     c_bands:  3 eigenvalues not converged
     c_bands:  3 eigenvalues not converged
     c_bands:  3 eigenvalues not converged
     c_bands:  5 eigenvalues not converged
     c_bands:  3 eigenvalues not converged
     c_bands:  3 eigenvalues not converged
     c_bands:  4 eigenvalues not converged
     c_bands:  1 eigenvalues not converged
     c_bands:  5 eigenvalues not converged
     c_bands:  3 eigenvalues not converged
     c_bands:  1 eigenvalues not converged
     c_bands:  3 eigenvalues not converged
     ethr =  1.36E-07,  avg # of iterations = 19.9

     negative rho (up, down):  1.669E+02 2.872E-02

     total cpu time spent up to now is     7774.6 secs

     total energy              =   -4555.96542800 Ry
     estimated scf accuracy    <       0.00013691 Ry

     total magnetization       =    -0.00     0.00    -0.08 Bohr mag/cell
     absolute magnetization    =    59.17 Bohr mag/cell

     iteration #185     ecut=    80.00 Ry     beta= 0.70
     Davidson diagonalization with overlap
     c_bands:  4 eigenvalues not converged
     c_bands:  1 eigenvalues not converged
     c_bands:  1 eigenvalues not converged
     c_bands:  2 eigenvalues not converged
     ethr =  1.36E-07,  avg # of iterations = 17.5

     negative rho (up, down):  1.669E+02 2.872E-02

     total cpu time spent up to now is     7816.9 secs

     total energy              =   -4555.97106582 Ry
     estimated scf accuracy    <       0.00102484 Ry

     total magnetization       =     0.00     0.00    -0.10 Bohr mag/cell
     absolute magnetization    =    59.00 Bohr mag/cell

     iteration #186     ecut=    80.00 Ry     beta= 0.70
     Davidson diagonalization with overlap
     c_bands:  2 eigenvalues not converged
     c_bands:  2 eigenvalues not converged
     c_bands:  2 eigenvalues not converged
     c_bands:  1 eigenvalues not converged
     c_bands:  1 eigenvalues not converged
     c_bands:  2 eigenvalues not converged
     ethr =  1.36E-07,  avg # of iterations = 16.8

     negative rho (up, down):  1.669E+02 2.875E-02

     total cpu time spent up to now is     7859.1 secs

     total energy              =   -4555.96893873 Ry
     estimated scf accuracy    <       0.00007223 Ry

     total magnetization       =    -0.00    -0.00    -0.13 Bohr mag/cell
     absolute magnetization    =    59.13 Bohr mag/cell

     iteration #187     ecut=    80.00 Ry     beta= 0.70
     Davidson diagonalization with overlap
     c_bands:  1 eigenvalues not converged
     c_bands:  2 eigenvalues not converged
     c_bands:  2 eigenvalues not converged
     c_bands:  2 eigenvalues not converged
     c_bands:  2 eigenvalues not converged
     c_bands:  2 eigenvalues not converged
     c_bands:  3 eigenvalues not converged
     c_bands:  2 eigenvalues not converged
     c_bands:  1 eigenvalues not converged
     c_bands:  1 eigenvalues not converged
     c_bands:  4 eigenvalues not converged
     c_bands:  3 eigenvalues not converged
     c_bands:  4 eigenvalues not converged
     ethr =  1.36E-07,  avg # of iterations = 19.4

     negative rho (up, down):  1.669E+02 2.872E-02

     total cpu time spent up to now is     7901.3 secs

     total energy              =   -4555.97045791 Ry
     estimated scf accuracy    <       0.00005366 Ry

     total magnetization       =    -0.00     0.00    -0.13 Bohr mag/cell
     absolute magnetization    =    59.10 Bohr mag/cell

     iteration #188     ecut=    80.00 Ry     beta= 0.70
     Davidson diagonalization with overlap
     c_bands:  1 eigenvalues not converged
     c_bands:  1 eigenvalues not converged
     c_bands:  1 eigenvalues not converged
     c_bands:  1 eigenvalues not converged
     c_bands:  1 eigenvalues not converged
     ethr =  1.36E-07,  avg # of iterations = 18.2

     negative rho (up, down):  1.669E+02 2.873E-02

     total cpu time spent up to now is     7943.8 secs

     total energy              =   -4555.96851490 Ry
     estimated scf accuracy    <       0.00005812 Ry

     total magnetization       =     0.00     0.00    -0.11 Bohr mag/cell
     absolute magnetization    =    59.11 Bohr mag/cell

     iteration #189     ecut=    80.00 Ry     beta= 0.70
     Davidson diagonalization with overlap
     c_bands:  1 eigenvalues not converged
     c_bands:  3 eigenvalues not converged
     c_bands:  1 eigenvalues not converged
     c_bands:  2 eigenvalues not converged
     c_bands:  2 eigenvalues not converged
     c_bands:  1 eigenvalues not converged
     c_bands:  2 eigenvalues not converged
     c_bands:  3 eigenvalues not converged
     c_bands:  2 eigenvalues not converged
     ethr =  1.36E-07,  avg # of iterations = 18.9

     negative rho (up, down):  1.669E+02 2.872E-02

     total cpu time spent up to now is     7989.9 secs

     total energy              =   -4555.97116811 Ry
     estimated scf accuracy    <       0.00010887 Ry

     total magnetization       =    -0.00    -0.00    -0.06 Bohr mag/cell
     absolute magnetization    =    59.17 Bohr mag/cell

     iteration #190     ecut=    80.00 Ry     beta= 0.70
     Davidson diagonalization with overlap
     c_bands:  1 eigenvalues not converged
     c_bands:  4 eigenvalues not converged
     c_bands:  4 eigenvalues not converged
     c_bands:  1 eigenvalues not converged
     ethr =  1.36E-07,  avg # of iterations = 18.7

     negative rho (up, down):  1.669E+02 2.880E-02

     total cpu time spent up to now is     8038.0 secs

     total energy              =   -4555.96127163 Ry
     estimated scf accuracy    <       0.00040035 Ry

     total magnetization       =    -0.00    -0.00    -0.11 Bohr mag/cell
     absolute magnetization    =    59.24 Bohr mag/cell

     iteration #191     ecut=    80.00 Ry     beta= 0.70
     Davidson diagonalization with overlap
     c_bands:  1 eigenvalues not converged
     c_bands:  1 eigenvalues not converged
     c_bands:  5 eigenvalues not converged
     c_bands:  5 eigenvalues not converged
     c_bands:  1 eigenvalues not converged
     c_bands:  1 eigenvalues not converged
     c_bands:  4 eigenvalues not converged
     c_bands:  2 eigenvalues not converged
     c_bands:  2 eigenvalues not converged
     c_bands:  5 eigenvalues not converged
     c_bands:  2 eigenvalues not converged
     ethr =  1.36E-07,  avg # of iterations = 19.7

     negative rho (up, down):  1.669E+02 2.871E-02

     total cpu time spent up to now is     8090.2 secs

     total energy              =   -4555.97184203 Ry
     estimated scf accuracy    <       0.00019473 Ry

     total magnetization       =    -0.00     0.00    -0.07 Bohr mag/cell
     absolute magnetization    =    59.10 Bohr mag/cell

     iteration #192     ecut=    80.00 Ry     beta= 0.70
     Davidson diagonalization with overlap
     c_bands:  2 eigenvalues not converged
     c_bands:  5 eigenvalues not converged
     c_bands:  1 eigenvalues not converged
     c_bands:  2 eigenvalues not converged
     c_bands:  2 eigenvalues not converged
     c_bands:  4 eigenvalues not converged
     c_bands:  3 eigenvalues not converged
     c_bands:  2 eigenvalues not converged
     c_bands:  1 eigenvalues not converged
     ethr =  1.36E-07,  avg # of iterations = 19.7

     negative rho (up, down):  1.669E+02 2.884E-02

     total cpu time spent up to now is     8143.2 secs

     total energy              =   -4555.96759166 Ry
     estimated scf accuracy    <       0.00045036 Ry

     total magnetization       =     0.00     0.00    -0.08 Bohr mag/cell
     absolute magnetization    =    59.24 Bohr mag/cell

     iteration #193     ecut=    80.00 Ry     beta= 0.70
     Davidson diagonalization with overlap
     c_bands:  1 eigenvalues not converged
     c_bands:  1 eigenvalues not converged
     c_bands:  2 eigenvalues not converged
     c_bands:  1 eigenvalues not converged
     c_bands:  1 eigenvalues not converged
     c_bands:  2 eigenvalues not converged
     ethr =  1.36E-07,  avg # of iterations = 19.0

     negative rho (up, down):  1.669E+02 2.875E-02

     total cpu time spent up to now is     8191.0 secs

     total energy              =   -4555.97265969 Ry
     estimated scf accuracy    <       0.00008761 Ry

     total magnetization       =    -0.00     0.00    -0.06 Bohr mag/cell
     absolute magnetization    =    59.10 Bohr mag/cell

     iteration #194     ecut=    80.00 Ry     beta= 0.70
     Davidson diagonalization with overlap
     c_bands:  1 eigenvalues not converged
     ethr =  1.36E-07,  avg # of iterations = 16.2

     negative rho (up, down):  1.669E+02 2.882E-02

     total cpu time spent up to now is     8232.3 secs

     total energy              =   -4555.97085000 Ry
     estimated scf accuracy    <       0.00033096 Ry

     total magnetization       =     0.00    -0.00    -0.08 Bohr mag/cell
     absolute magnetization    =    59.12 Bohr mag/cell

     iteration #195     ecut=    80.00 Ry     beta= 0.70
     Davidson diagonalization with overlap
     ethr =  1.36E-07,  avg # of iterations = 11.0

     negative rho (up, down):  1.669E+02 2.874E-02

     total cpu time spent up to now is     8268.8 secs

     total energy              =   -4555.96611861 Ry
     estimated scf accuracy    <       0.00004061 Ry

     total magnetization       =    -0.00     0.00    -0.07 Bohr mag/cell
     absolute magnetization    =    59.09 Bohr mag/cell

     iteration #196     ecut=    80.00 Ry     beta= 0.70
     Davidson diagonalization with overlap
     c_bands:  1 eigenvalues not converged
     c_bands:  2 eigenvalues not converged
     c_bands:  2 eigenvalues not converged
     c_bands:  2 eigenvalues not converged
     c_bands:  4 eigenvalues not converged
     c_bands:  4 eigenvalues not converged
     c_bands:  3 eigenvalues not converged
     c_bands:  2 eigenvalues not converged
     c_bands:  1 eigenvalues not converged
     c_bands:  1 eigenvalues not converged
     c_bands:  2 eigenvalues not converged
     c_bands:  1 eigenvalues not converged
     c_bands:  3 eigenvalues not converged
     ethr =  1.16E-07,  avg # of iterations = 18.8

     negative rho (up, down):  1.669E+02 2.872E-02

     total cpu time spent up to now is     8312.2 secs

     total energy              =   -4555.96874531 Ry
     estimated scf accuracy    <       0.00013127 Ry

     total magnetization       =    -0.00    -0.00    -0.13 Bohr mag/cell
     absolute magnetization    =    59.12 Bohr mag/cell

     iteration #197     ecut=    80.00 Ry     beta= 0.70
     Davidson diagonalization with overlap
     c_bands:  1 eigenvalues not converged
     c_bands:  1 eigenvalues not converged
     c_bands:  2 eigenvalues not converged
     c_bands:  3 eigenvalues not converged
     c_bands:  1 eigenvalues not converged
     c_bands:  3 eigenvalues not converged
     c_bands:  4 eigenvalues not converged
     c_bands:  4 eigenvalues not converged
     c_bands:  2 eigenvalues not converged
     c_bands:  1 eigenvalues not converged
     c_bands:  2 eigenvalues not converged
     c_bands:  1 eigenvalues not converged
     c_bands:  2 eigenvalues not converged
     c_bands:  3 eigenvalues not converged
     ethr =  1.16E-07,  avg # of iterations = 19.5

     negative rho (up, down):  1.669E+02 2.872E-02

     total cpu time spent up to now is     8356.0 secs

     total energy              =   -4555.96972995 Ry
     estimated scf accuracy    <       0.00008369 Ry

     total magnetization       =     0.00     0.00    -0.03 Bohr mag/cell
     absolute magnetization    =    59.15 Bohr mag/cell

     iteration #198     ecut=    80.00 Ry     beta= 0.70
     Davidson diagonalization with overlap
     c_bands:  2 eigenvalues not converged
     c_bands:  1 eigenvalues not converged
     c_bands:  2 eigenvalues not converged
     c_bands:  1 eigenvalues not converged
     c_bands:  2 eigenvalues not converged
     c_bands:  3 eigenvalues not converged
     c_bands:  1 eigenvalues not converged
     c_bands:  1 eigenvalues not converged
     c_bands:  2 eigenvalues not converged
     ethr =  1.16E-07,  avg # of iterations = 18.6

     negative rho (up, down):  1.669E+02 2.872E-02

     total cpu time spent up to now is     8400.5 secs

     total energy              =   -4555.97198165 Ry
     estimated scf accuracy    <       0.00007720 Ry

     total magnetization       =     0.00    -0.00    -0.12 Bohr mag/cell
     absolute magnetization    =    59.12 Bohr mag/cell

     iteration #199     ecut=    80.00 Ry     beta= 0.70
     Davidson diagonalization with overlap
     c_bands:  1 eigenvalues not converged
     c_bands:  2 eigenvalues not converged
     c_bands:  3 eigenvalues not converged
     c_bands:  3 eigenvalues not converged
     c_bands:  2 eigenvalues not converged
     c_bands:  1 eigenvalues not converged
     c_bands:  1 eigenvalues not converged
     c_bands:  3 eigenvalues not converged
     c_bands:  3 eigenvalues not converged
     c_bands:  3 eigenvalues not converged
     c_bands:  4 eigenvalues not converged
     c_bands:  2 eigenvalues not converged
     c_bands:  1 eigenvalues not converged
     c_bands:  4 eigenvalues not converged
     ethr =  1.16E-07,  avg # of iterations = 19.4

     negative rho (up, down):  1.669E+02 2.882E-02

     total cpu time spent up to now is     8450.9 secs

     total energy              =   -4555.96945901 Ry
     estimated scf accuracy    <       0.00041741 Ry

     total magnetization       =    -0.00     0.00    -0.02 Bohr mag/cell
     absolute magnetization    =    59.24 Bohr mag/cell

     iteration #200     ecut=    80.00 Ry     beta= 0.70
     Davidson diagonalization with overlap
     c_bands:  2 eigenvalues not converged
     c_bands:  2 eigenvalues not converged
     c_bands:  1 eigenvalues not converged
     c_bands:  2 eigenvalues not converged
     c_bands:  2 eigenvalues not converged
     c_bands:  2 eigenvalues not converged
     c_bands:  2 eigenvalues not converged
     c_bands:  4 eigenvalues not converged
     c_bands:  4 eigenvalues not converged
     c_bands:  4 eigenvalues not converged
     c_bands:  1 eigenvalues not converged
     c_bands:  4 eigenvalues not converged
     c_bands:  5 eigenvalues not converged
     ethr =  1.16E-07,  avg # of iterations = 19.9

     negative rho (up, down):  1.669E+02 2.881E-02

     total cpu time spent up to now is     8499.7 secs

     total energy              =   -4555.96625608 Ry
     estimated scf accuracy    <       0.00036728 Ry

     total magnetization       =     0.00    -0.00    -0.08 Bohr mag/cell
     absolute magnetization    =    59.17 Bohr mag/cell

     iteration #201     ecut=    80.00 Ry     beta= 0.70
     Davidson diagonalization with overlap
     c_bands:  1 eigenvalues not converged
     ethr =  1.16E-07,  avg # of iterations = 17.2

     negative rho (up, down):  1.669E+02 2.871E-02

     total cpu time spent up to now is     8543.7 secs

     total energy              =   -4555.96922062 Ry
     estimated scf accuracy    <       0.00017147 Ry

     total magnetization       =    -0.00     0.00    -0.06 Bohr mag/cell
     absolute magnetization    =    59.08 Bohr mag/cell

     iteration #202     ecut=    80.00 Ry     beta= 0.70
     Davidson diagonalization with overlap
     c_bands:  5 eigenvalues not converged
     c_bands:  2 eigenvalues not converged
     c_bands:  1 eigenvalues not converged
     c_bands:  2 eigenvalues not converged
     c_bands:  3 eigenvalues not converged
     c_bands:  2 eigenvalues not converged
     c_bands:  1 eigenvalues not converged
     c_bands:  3 eigenvalues not converged
     c_bands:  2 eigenvalues not converged
     c_bands:  3 eigenvalues not converged
     c_bands:  2 eigenvalues not converged
     c_bands:  2 eigenvalues not converged
     c_bands:  3 eigenvalues not converged
     c_bands:  4 eigenvalues not converged
     c_bands:  2 eigenvalues not converged
     ethr =  1.16E-07,  avg # of iterations = 19.7

     negative rho (up, down):  1.669E+02 2.872E-02

     total cpu time spent up to now is     8593.1 secs

     total energy              =   -4555.96725921 Ry
     estimated scf accuracy    <       0.00019593 Ry

     total magnetization       =     0.00     0.00    -0.16 Bohr mag/cell
     absolute magnetization    =    59.19 Bohr mag/cell

     iteration #203     ecut=    80.00 Ry     beta= 0.70
     Davidson diagonalization with overlap
     c_bands:  1 eigenvalues not converged
     c_bands:  2 eigenvalues not converged
     c_bands:  1 eigenvalues not converged
     c_bands:  3 eigenvalues not converged
     c_bands:  3 eigenvalues not converged
     c_bands:  4 eigenvalues not converged
     c_bands:  1 eigenvalues not converged
     c_bands:  2 eigenvalues not converged
     c_bands:  3 eigenvalues not converged
     c_bands:  1 eigenvalues not converged
     c_bands:  1 eigenvalues not converged
     ethr =  1.16E-07,  avg # of iterations = 19.6

     negative rho (up, down):  1.669E+02 2.872E-02

     total cpu time spent up to now is     8642.4 secs

     total energy              =   -4555.96480259 Ry
     estimated scf accuracy    <       0.00014160 Ry

     total magnetization       =    -0.00    -0.00    -0.18 Bohr mag/cell
     absolute magnetization    =    59.20 Bohr mag/cell

     iteration #204     ecut=    80.00 Ry     beta= 0.70
     Davidson diagonalization with overlap
     c_bands:  3 eigenvalues not converged
     c_bands:  2 eigenvalues not converged
     c_bands:  5 eigenvalues not converged
     c_bands:  4 eigenvalues not converged
     c_bands:  1 eigenvalues not converged
     c_bands:  5 eigenvalues not converged
     c_bands:  1 eigenvalues not converged
     c_bands:  4 eigenvalues not converged
     c_bands:  4 eigenvalues not converged
     c_bands:  2 eigenvalues not converged
     c_bands:  4 eigenvalues not converged
     c_bands:  2 eigenvalues not converged
     ethr =  1.16E-07,  avg # of iterations = 19.9

     negative rho (up, down):  1.669E+02 2.873E-02

     total cpu time spent up to now is     8693.1 secs

     total energy              =   -4555.96927898 Ry
     estimated scf accuracy    <       0.00017920 Ry

     total magnetization       =     0.00    -0.00    -0.05 Bohr mag/cell
     absolute magnetization    =    59.18 Bohr mag/cell

     iteration #205     ecut=    80.00 Ry     beta= 0.70
     Davidson diagonalization with overlap
     c_bands:  2 eigenvalues not converged
     c_bands:  3 eigenvalues not converged
     c_bands:  4 eigenvalues not converged
     c_bands:  2 eigenvalues not converged
     c_bands:  2 eigenvalues not converged
     c_bands:  4 eigenvalues not converged
     c_bands:  4 eigenvalues not converged
     c_bands:  2 eigenvalues not converged
     c_bands:  2 eigenvalues not converged
     c_bands:  2 eigenvalues not converged
     c_bands:  4 eigenvalues not converged
     c_bands:  3 eigenvalues not converged
     c_bands:  3 eigenvalues not converged
     c_bands:  2 eigenvalues not converged
     c_bands:  4 eigenvalues not converged
     c_bands:  4 eigenvalues not converged
     c_bands:  3 eigenvalues not converged
     ethr =  1.16E-07,  avg # of iterations = 20.0

     negative rho (up, down):  1.669E+02 2.881E-02

     total cpu time spent up to now is     8743.4 secs

     total energy              =   -4555.96887250 Ry
     estimated scf accuracy    <       0.00034303 Ry

     total magnetization       =     0.00     0.00    -0.05 Bohr mag/cell
     absolute magnetization    =    59.17 Bohr mag/cell

     iteration #206     ecut=    80.00 Ry     beta= 0.70
     Davidson diagonalization with overlap
     c_bands:  4 eigenvalues not converged
     c_bands:  5 eigenvalues not converged
     c_bands:  4 eigenvalues not converged
     c_bands:  3 eigenvalues not converged
     c_bands:  2 eigenvalues not converged
     c_bands:  2 eigenvalues not converged
     c_bands:  5 eigenvalues not converged
     c_bands:  1 eigenvalues not converged
     c_bands:  3 eigenvalues not converged
     c_bands:  2 eigenvalues not converged
     c_bands:  4 eigenvalues not converged
     c_bands:  2 eigenvalues not converged
     c_bands:  1 eigenvalues not converged
     c_bands:  4 eigenvalues not converged
     c_bands:  4 eigenvalues not converged
     c_bands:  5 eigenvalues not converged
     ethr =  1.16E-07,  avg # of iterations = 19.8

     negative rho (up, down):  1.669E+02 2.875E-02

     total cpu time spent up to now is     8794.0 secs

     total energy              =   -4555.96810652 Ry
     estimated scf accuracy    <       0.00016405 Ry

     total magnetization       =     0.00     0.00    -0.14 Bohr mag/cell
     absolute magnetization    =    59.18 Bohr mag/cell

     iteration #207     ecut=    80.00 Ry     beta= 0.70
     Davidson diagonalization with overlap
     c_bands:  2 eigenvalues not converged
     c_bands:  2 eigenvalues not converged
     c_bands:  5 eigenvalues not converged
     c_bands:  1 eigenvalues not converged
     c_bands:  5 eigenvalues not converged
     c_bands:  3 eigenvalues not converged
     c_bands:  3 eigenvalues not converged
     c_bands:  4 eigenvalues not converged
     c_bands:  1 eigenvalues not converged
     c_bands:  3 eigenvalues not converged
     c_bands:  3 eigenvalues not converged
     c_bands:  2 eigenvalues not converged
     c_bands:  3 eigenvalues not converged
     ethr =  1.16E-07,  avg # of iterations = 19.8

     negative rho (up, down):  1.669E+02 2.873E-02

     total cpu time spent up to now is     8842.8 secs

     total energy              =   -4555.96997218 Ry
     estimated scf accuracy    <       0.00024107 Ry

     total magnetization       =     0.00     0.00    -0.02 Bohr mag/cell
     absolute magnetization    =    59.18 Bohr mag/cell

     iteration #208     ecut=    80.00 Ry     beta= 0.70
     Davidson diagonalization with overlap
     c_bands:  2 eigenvalues not converged
     c_bands:  2 eigenvalues not converged
     c_bands:  1 eigenvalues not converged
     c_bands:  1 eigenvalues not converged
     c_bands:  3 eigenvalues not converged
     c_bands:  1 eigenvalues not converged
     c_bands:  2 eigenvalues not converged
     c_bands:  2 eigenvalues not converged
     c_bands:  1 eigenvalues not converged
     c_bands:  2 eigenvalues not converged
     c_bands:  1 eigenvalues not converged
     c_bands:  1 eigenvalues not converged
     c_bands:  1 eigenvalues not converged
     ethr =  1.16E-07,  avg # of iterations = 19.2

     negative rho (up, down):  1.669E+02 2.872E-02

     total cpu time spent up to now is     8888.9 secs

     total energy              =   -4555.97566745 Ry
     estimated scf accuracy    <       0.00017501 Ry

     total magnetization       =    -0.00     0.00    -0.06 Bohr mag/cell
     absolute magnetization    =    59.12 Bohr mag/cell

     iteration #209     ecut=    80.00 Ry     beta= 0.70
     Davidson diagonalization with overlap
     c_bands:  1 eigenvalues not converged
     ethr =  1.16E-07,  avg # of iterations = 13.3

     negative rho (up, down):  1.669E+02 2.871E-02

     total cpu time spent up to now is     8923.8 secs

     total energy              =   -4555.97281364 Ry
     estimated scf accuracy    <       0.00019933 Ry

     total magnetization       =    -0.00     0.00    -0.04 Bohr mag/cell
     absolute magnetization    =    59.14 Bohr mag/cell

     iteration #210     ecut=    80.00 Ry     beta= 0.70
     Davidson diagonalization with overlap
     c_bands:  2 eigenvalues not converged
     c_bands:  1 eigenvalues not converged
     c_bands:  1 eigenvalues not converged
     c_bands:  1 eigenvalues not converged
     c_bands:  1 eigenvalues not converged
     ethr =  1.16E-07,  avg # of iterations = 15.9

     negative rho (up, down):  1.669E+02 2.870E-02

     total cpu time spent up to now is     8966.2 secs

     total energy              =   -4555.97150787 Ry
     estimated scf accuracy    <       0.00011631 Ry

     total magnetization       =     0.00    -0.00    -0.05 Bohr mag/cell
     absolute magnetization    =    59.14 Bohr mag/cell

     iteration #211     ecut=    80.00 Ry     beta= 0.70
     Davidson diagonalization with overlap
     c_bands:  1 eigenvalues not converged
     c_bands:  2 eigenvalues not converged
     c_bands:  3 eigenvalues not converged
     c_bands:  1 eigenvalues not converged
     c_bands:  1 eigenvalues not converged
     c_bands:  2 eigenvalues not converged
     c_bands:  1 eigenvalues not converged
     c_bands:  3 eigenvalues not converged
     c_bands:  2 eigenvalues not converged
     c_bands:  3 eigenvalues not converged
     c_bands:  3 eigenvalues not converged
     ethr =  1.16E-07,  avg # of iterations = 19.6

     negative rho (up, down):  1.669E+02 2.873E-02

     total cpu time spent up to now is     9014.5 secs

     total energy              =   -4555.96555927 Ry
     estimated scf accuracy    <       0.00021569 Ry

     total magnetization       =     0.00    -0.00    -0.04 Bohr mag/cell
     absolute magnetization    =    59.15 Bohr mag/cell

     iteration #212     ecut=    80.00 Ry     beta= 0.70
     Davidson diagonalization with overlap
     c_bands:  1 eigenvalues not converged
     ethr =  1.16E-07,  avg # of iterations = 15.3

     negative rho (up, down):  1.669E+02 2.871E-02

     total cpu time spent up to now is     9058.5 secs

     total energy              =   -4555.96852121 Ry
     estimated scf accuracy    <       0.00015053 Ry

     total magnetization       =    -0.00    -0.00    -0.10 Bohr mag/cell
     absolute magnetization    =    59.10 Bohr mag/cell

     iteration #213     ecut=    80.00 Ry     beta= 0.70
     Davidson diagonalization with overlap
     c_bands:  2 eigenvalues not converged
     c_bands:  2 eigenvalues not converged
     c_bands:  2 eigenvalues not converged
     c_bands:  1 eigenvalues not converged
     c_bands:  1 eigenvalues not converged
     c_bands:  1 eigenvalues not converged
     ethr =  1.16E-07,  avg # of iterations = 17.1

     negative rho (up, down):  1.669E+02 2.873E-02

     total cpu time spent up to now is     9105.4 secs

     total energy              =   -4555.97060543 Ry
     estimated scf accuracy    <       0.00005402 Ry

     total magnetization       =     0.00     0.00    -0.10 Bohr mag/cell
     absolute magnetization    =    59.06 Bohr mag/cell

     iteration #214     ecut=    80.00 Ry     beta= 0.70
     Davidson diagonalization with overlap
     c_bands:  1 eigenvalues not converged
     c_bands:  1 eigenvalues not converged
     c_bands:  1 eigenvalues not converged
     c_bands:  1 eigenvalues not converged
     c_bands:  1 eigenvalues not converged
     c_bands:  1 eigenvalues not converged
     c_bands:  1 eigenvalues not converged
     c_bands:  1 eigenvalues not converged
     ethr =  1.16E-07,  avg # of iterations = 17.7

     negative rho (up, down):  1.669E+02 2.873E-02

     total cpu time spent up to now is     9152.0 secs

     total energy              =   -4555.96465659 Ry
     estimated scf accuracy    <       0.00009976 Ry

     total magnetization       =     0.00     0.00    -0.12 Bohr mag/cell
     absolute magnetization    =    59.12 Bohr mag/cell

     iteration #215     ecut=    80.00 Ry     beta= 0.70
     Davidson diagonalization with overlap
     c_bands:  1 eigenvalues not converged
     c_bands:  5 eigenvalues not converged
     c_bands:  2 eigenvalues not converged
     c_bands:  5 eigenvalues not converged
     c_bands:  2 eigenvalues not converged
     c_bands:  2 eigenvalues not converged
     c_bands:  3 eigenvalues not converged
     c_bands:  1 eigenvalues not converged
     c_bands:  1 eigenvalues not converged
     c_bands:  2 eigenvalues not converged
     ethr =  1.16E-07,  avg # of iterations = 17.9

     negative rho (up, down):  1.669E+02 2.870E-02

     total cpu time spent up to now is     9198.2 secs

     total energy              =   -4555.97227288 Ry
     estimated scf accuracy    <       0.00012419 Ry

     total magnetization       =    -0.00     0.00    -0.04 Bohr mag/cell
     absolute magnetization    =    59.10 Bohr mag/cell

     iteration #216     ecut=    80.00 Ry     beta= 0.70
     Davidson diagonalization with overlap
     ethr =  1.16E-07,  avg # of iterations = 15.8

     negative rho (up, down):  1.669E+02 2.881E-02

     total cpu time spent up to now is     9241.9 secs

     total energy              =   -4555.97299794 Ry
     estimated scf accuracy    <       0.00043109 Ry

     total magnetization       =     0.00     0.00    -0.11 Bohr mag/cell
     absolute magnetization    =    59.10 Bohr mag/cell

     iteration #217     ecut=    80.00 Ry     beta= 0.70
     Davidson diagonalization with overlap
     c_bands:  1 eigenvalues not converged
     c_bands:  5 eigenvalues not converged
     c_bands:  2 eigenvalues not converged
     c_bands:  4 eigenvalues not converged
     c_bands:  1 eigenvalues not converged
     c_bands:  2 eigenvalues not converged
     c_bands:  2 eigenvalues not converged
     c_bands:  3 eigenvalues not converged
     c_bands:  4 eigenvalues not converged
     c_bands:  1 eigenvalues not converged
     c_bands:  3 eigenvalues not converged
     c_bands:  4 eigenvalues not converged
     c_bands:  1 eigenvalues not converged
     c_bands:  4 eigenvalues not converged
     c_bands:  4 eigenvalues not converged
     c_bands:  2 eigenvalues not converged
     c_bands:  2 eigenvalues not converged
     ethr =  1.16E-07,  avg # of iterations = 20.0

     negative rho (up, down):  1.669E+02 2.880E-02

     total cpu time spent up to now is     9288.9 secs

     total energy              =   -4555.96897400 Ry
     estimated scf accuracy    <       0.00051384 Ry

     total magnetization       =    -0.00     0.00    -0.11 Bohr mag/cell
     absolute magnetization    =    59.22 Bohr mag/cell

     iteration #218     ecut=    80.00 Ry     beta= 0.70
     Davidson diagonalization with overlap
     c_bands:  1 eigenvalues not converged
     c_bands:  1 eigenvalues not converged
     c_bands:  4 eigenvalues not converged
     c_bands:  1 eigenvalues not converged
     c_bands:  3 eigenvalues not converged
     c_bands:  2 eigenvalues not converged
     c_bands:  2 eigenvalues not converged
     c_bands:  1 eigenvalues not converged
     c_bands:  1 eigenvalues not converged
     c_bands:  3 eigenvalues not converged
     c_bands:  1 eigenvalues not converged
     c_bands:  2 eigenvalues not converged
     c_bands:  1 eigenvalues not converged
     ethr =  1.16E-07,  avg # of iterations = 19.7

     negative rho (up, down):  1.669E+02 2.877E-02

     total cpu time spent up to now is     9337.1 secs

     total energy              =   -4555.97050999 Ry
     estimated scf accuracy    <       0.00009338 Ry

     total magnetization       =    -0.00     0.00    -0.11 Bohr mag/cell
     absolute magnetization    =    59.16 Bohr mag/cell

     iteration #219     ecut=    80.00 Ry     beta= 0.70
     Davidson diagonalization with overlap
     c_bands:  2 eigenvalues not converged
     c_bands:  1 eigenvalues not converged
     c_bands:  4 eigenvalues not converged
     c_bands:  1 eigenvalues not converged
     c_bands:  4 eigenvalues not converged
     c_bands:  3 eigenvalues not converged
     c_bands:  2 eigenvalues not converged
     c_bands:  2 eigenvalues not converged
     c_bands:  1 eigenvalues not converged
     c_bands:  4 eigenvalues not converged
     c_bands:  3 eigenvalues not converged
     c_bands:  2 eigenvalues not converged
     c_bands:  4 eigenvalues not converged
     c_bands:  1 eigenvalues not converged
     c_bands:  1 eigenvalues not converged
     c_bands:  1 eigenvalues not converged
     ethr =  1.16E-07,  avg # of iterations = 19.9

     negative rho (up, down):  1.669E+02 2.881E-02

     total cpu time spent up to now is     9386.8 secs

     total energy              =   -4555.96896872 Ry
     estimated scf accuracy    <       0.00036120 Ry

     total magnetization       =    -0.00     0.00    -0.09 Bohr mag/cell
     absolute magnetization    =    59.19 Bohr mag/cell

     iteration #220     ecut=    80.00 Ry     beta= 0.70
     Davidson diagonalization with overlap
     c_bands:  2 eigenvalues not converged
     c_bands:  4 eigenvalues not converged
     c_bands:  2 eigenvalues not converged
     c_bands:  3 eigenvalues not converged
     c_bands:  1 eigenvalues not converged
     c_bands:  2 eigenvalues not converged
     c_bands:  1 eigenvalues not converged
     ethr =  1.16E-07,  avg # of iterations = 19.1

     negative rho (up, down):  1.669E+02 2.875E-02

     total cpu time spent up to now is     9434.4 secs

     total energy              =   -4555.97188528 Ry
     estimated scf accuracy    <       0.00006963 Ry

     total magnetization       =    -0.00    -0.00    -0.03 Bohr mag/cell
     absolute magnetization    =    59.13 Bohr mag/cell

     iteration #221     ecut=    80.00 Ry     beta= 0.70
     Davidson diagonalization with overlap
     c_bands:  4 eigenvalues not converged
     c_bands:  2 eigenvalues not converged
     c_bands:  1 eigenvalues not converged
     c_bands:  1 eigenvalues not converged
     c_bands:  3 eigenvalues not converged
     c_bands:  2 eigenvalues not converged
     c_bands:  1 eigenvalues not converged
     c_bands:  3 eigenvalues not converged
     c_bands:  1 eigenvalues not converged
     ethr =  1.16E-07,  avg # of iterations = 19.0

     negative rho (up, down):  1.669E+02 2.881E-02

     total cpu time spent up to now is     9479.8 secs

     total energy              =   -4555.96997153 Ry
     estimated scf accuracy    <       0.00039695 Ry

     total magnetization       =    -0.00     0.00    -0.10 Bohr mag/cell
     absolute magnetization    =    59.19 Bohr mag/cell

     iteration #222     ecut=    80.00 Ry     beta= 0.70
     Davidson diagonalization with overlap
     c_bands:  1 eigenvalues not converged
     ethr =  1.16E-07,  avg # of iterations = 15.7

     negative rho (up, down):  1.669E+02 2.875E-02

     total cpu time spent up to now is     9521.1 secs

     total energy              =   -4555.96647582 Ry
     estimated scf accuracy    <       0.00007782 Ry

     total magnetization       =    -0.00     0.00    -0.16 Bohr mag/cell
     absolute magnetization    =    59.12 Bohr mag/cell

     iteration #223     ecut=    80.00 Ry     beta= 0.70
     Davidson diagonalization with overlap
     c_bands:  1 eigenvalues not converged
     ethr =  1.16E-07,  avg # of iterations = 15.2

     negative rho (up, down):  1.669E+02 2.871E-02

     total cpu time spent up to now is     9560.7 secs

     total energy              =   -4555.96902554 Ry
     estimated scf accuracy    <       0.00010118 Ry

     total magnetization       =     0.00     0.00    -0.06 Bohr mag/cell
     absolute magnetization    =    59.10 Bohr mag/cell

     iteration #224     ecut=    80.00 Ry     beta= 0.70
     Davidson diagonalization with overlap
     c_bands:  3 eigenvalues not converged
     c_bands:  2 eigenvalues not converged
     c_bands:  2 eigenvalues not converged
     c_bands:  2 eigenvalues not converged
     c_bands:  3 eigenvalues not converged
     c_bands:  2 eigenvalues not converged
     c_bands:  3 eigenvalues not converged
     c_bands:  1 eigenvalues not converged
     c_bands:  3 eigenvalues not converged
     c_bands:  4 eigenvalues not converged
     c_bands:  4 eigenvalues not converged
     c_bands:  2 eigenvalues not converged
     c_bands:  3 eigenvalues not converged
     c_bands:  1 eigenvalues not converged
     c_bands:  2 eigenvalues not converged
     c_bands:  4 eigenvalues not converged
     c_bands:  1 eigenvalues not converged
     ethr =  1.16E-07,  avg # of iterations = 19.7

     negative rho (up, down):  1.669E+02 2.872E-02

     total cpu time spent up to now is     9606.1 secs

     total energy              =   -4555.96561259 Ry
     estimated scf accuracy    <       0.00011172 Ry

     total magnetization       =    -0.00     0.00    -0.10 Bohr mag/cell
     absolute magnetization    =    59.14 Bohr mag/cell

     iteration #225     ecut=    80.00 Ry     beta= 0.70
     Davidson diagonalization with overlap
     c_bands:  2 eigenvalues not converged
     c_bands:  2 eigenvalues not converged
     c_bands:  2 eigenvalues not converged
     c_bands:  2 eigenvalues not converged
     c_bands:  1 eigenvalues not converged
     c_bands:  2 eigenvalues not converged
     c_bands:  3 eigenvalues not converged
     c_bands:  1 eigenvalues not converged
     c_bands:  1 eigenvalues not converged
     ethr =  1.16E-07,  avg # of iterations = 18.7

     negative rho (up, down):  1.669E+02 2.871E-02

     total cpu time spent up to now is     9653.1 secs

     total energy              =   -4555.96808611 Ry
     estimated scf accuracy    <       0.00017877 Ry

     total magnetization       =     0.00     0.00     0.02 Bohr mag/cell
     absolute magnetization    =    59.17 Bohr mag/cell

     iteration #226     ecut=    80.00 Ry     beta= 0.70
     Davidson diagonalization with overlap
     c_bands:  1 eigenvalues not converged
     c_bands:  3 eigenvalues not converged
     c_bands:  1 eigenvalues not converged
     ethr =  1.16E-07,  avg # of iterations = 17.0

     negative rho (up, down):  1.669E+02 2.872E-02

     total cpu time spent up to now is     9699.9 secs

     total energy              =   -4555.96972632 Ry
     estimated scf accuracy    <       0.00012666 Ry

     total magnetization       =     0.00    -0.00    -0.14 Bohr mag/cell
     absolute magnetization    =    59.11 Bohr mag/cell

     iteration #227     ecut=    80.00 Ry     beta= 0.70
     Davidson diagonalization with overlap
     c_bands:  1 eigenvalues not converged
     c_bands:  1 eigenvalues not converged
     c_bands:  1 eigenvalues not converged
     c_bands:  1 eigenvalues not converged
     c_bands:  1 eigenvalues not converged
     ethr =  1.16E-07,  avg # of iterations = 18.3

     negative rho (up, down):  1.669E+02 2.872E-02

     total cpu time spent up to now is     9743.2 secs

     total energy              =   -4555.96969346 Ry
     estimated scf accuracy    <       0.00006459 Ry

     total magnetization       =     0.00    -0.00    -0.12 Bohr mag/cell
     absolute magnetization    =    59.12 Bohr mag/cell

     iteration #228     ecut=    80.00 Ry     beta= 0.70
     Davidson diagonalization with overlap
     c_bands:  2 eigenvalues not converged
     c_bands:  3 eigenvalues not converged
     c_bands:  2 eigenvalues not converged
     c_bands:  2 eigenvalues not converged
     c_bands:  3 eigenvalues not converged
     c_bands:  2 eigenvalues not converged
     c_bands:  1 eigenvalues not converged
     c_bands:  3 eigenvalues not converged
     c_bands:  2 eigenvalues not converged
     c_bands:  2 eigenvalues not converged
     c_bands:  3 eigenvalues not converged
     ethr =  1.16E-07,  avg # of iterations = 19.9

     negative rho (up, down):  1.669E+02 2.872E-02

     total cpu time spent up to now is     9789.4 secs

     total energy              =   -4555.96715901 Ry
     estimated scf accuracy    <       0.00012759 Ry

     total magnetization       =     0.00     0.00    -0.10 Bohr mag/cell
     absolute magnetization    =    59.19 Bohr mag/cell

     iteration #229     ecut=    80.00 Ry     beta= 0.70
     Davidson diagonalization with overlap
     c_bands:  3 eigenvalues not converged
     c_bands:  3 eigenvalues not converged
     c_bands:  1 eigenvalues not converged
     c_bands:  2 eigenvalues not converged
     c_bands:  1 eigenvalues not converged
     c_bands:  5 eigenvalues not converged
     c_bands:  4 eigenvalues not converged
     c_bands:  4 eigenvalues not converged
     c_bands:  1 eigenvalues not converged
     c_bands:  2 eigenvalues not converged
     c_bands:  3 eigenvalues not converged
     c_bands:  3 eigenvalues not converged
     c_bands:  2 eigenvalues not converged
     c_bands:  1 eigenvalues not converged
     c_bands:  1 eigenvalues not converged
     ethr =  1.16E-07,  avg # of iterations = 20.4

     negative rho (up, down):  1.669E+02 2.872E-02

     total cpu time spent up to now is     9837.2 secs

     total energy              =   -4555.96895010 Ry
     estimated scf accuracy    <       0.00009412 Ry

     total magnetization       =    -0.00    -0.00    -0.09 Bohr mag/cell
     absolute magnetization    =    59.15 Bohr mag/cell

     iteration #230     ecut=    80.00 Ry     beta= 0.70
     Davidson diagonalization with overlap
     c_bands:  2 eigenvalues not converged
     c_bands:  1 eigenvalues not converged
     c_bands:  2 eigenvalues not converged
     c_bands:  1 eigenvalues not converged
     c_bands:  1 eigenvalues not converged
     c_bands:  3 eigenvalues not converged
     c_bands:  1 eigenvalues not converged
     c_bands:  3 eigenvalues not converged
     c_bands:  2 eigenvalues not converged
     c_bands:  2 eigenvalues not converged
     c_bands:  1 eigenvalues not converged
     c_bands:  1 eigenvalues not converged
     ethr =  1.16E-07,  avg # of iterations = 19.5

     negative rho (up, down):  1.669E+02 2.871E-02

     total cpu time spent up to now is     9886.3 secs

     total energy              =   -4555.96831492 Ry
     estimated scf accuracy    <       0.00007784 Ry

     total magnetization       =     0.00    -0.00    -0.06 Bohr mag/cell
     absolute magnetization    =    59.15 Bohr mag/cell

     iteration #231     ecut=    80.00 Ry     beta= 0.70
     Davidson diagonalization with overlap
     c_bands:  2 eigenvalues not converged
     c_bands:  2 eigenvalues not converged
     c_bands:  4 eigenvalues not converged
     c_bands:  1 eigenvalues not converged
     ethr =  1.16E-07,  avg # of iterations = 17.1

     negative rho (up, down):  1.669E+02 2.873E-02

     total cpu time spent up to now is     9932.9 secs

     total energy              =   -4555.97431941 Ry
     estimated scf accuracy    <       0.00003546 Ry

     total magnetization       =     0.00    -0.00    -0.08 Bohr mag/cell
     absolute magnetization    =    59.08 Bohr mag/cell

     iteration #232     ecut=    80.00 Ry     beta= 0.70
     Davidson diagonalization with overlap
     c_bands:  1 eigenvalues not converged
     c_bands:  2 eigenvalues not converged
     c_bands:  2 eigenvalues not converged
     c_bands:  1 eigenvalues not converged
     c_bands:  2 eigenvalues not converged
     c_bands:  1 eigenvalues not converged
     c_bands:  2 eigenvalues not converged
     c_bands:  2 eigenvalues not converged
     c_bands:  2 eigenvalues not converged
     c_bands:  1 eigenvalues not converged
     c_bands:  2 eigenvalues not converged
     ethr =  1.01E-07,  avg # of iterations = 18.0

     negative rho (up, down):  1.669E+02 2.877E-02

     total cpu time spent up to now is     9978.8 secs

     total energy              =   -4555.97116754 Ry
     estimated scf accuracy    <       0.00015848 Ry

     total magnetization       =     0.00     0.00    -0.13 Bohr mag/cell
     absolute magnetization    =    59.14 Bohr mag/cell

     iteration #233     ecut=    80.00 Ry     beta= 0.70
     Davidson diagonalization with overlap
     c_bands:  2 eigenvalues not converged
     c_bands:  4 eigenvalues not converged
     c_bands:  2 eigenvalues not converged
     c_bands:  1 eigenvalues not converged
     c_bands:  1 eigenvalues not converged
     c_bands:  1 eigenvalues not converged
     ethr =  1.01E-07,  avg # of iterations = 19.9

     negative rho (up, down):  1.669E+02 2.874E-02

     total cpu time spent up to now is    10029.0 secs

     total energy              =   -4555.96818081 Ry
     estimated scf accuracy    <       0.00016462 Ry

     total magnetization       =    -0.00     0.00    -0.08 Bohr mag/cell
     absolute magnetization    =    59.18 Bohr mag/cell

     iteration #234     ecut=    80.00 Ry     beta= 0.70
     Davidson diagonalization with overlap
     c_bands:  2 eigenvalues not converged
     c_bands:  1 eigenvalues not converged
     c_bands:  2 eigenvalues not converged
     c_bands:  4 eigenvalues not converged
     c_bands:  4 eigenvalues not converged
     c_bands:  3 eigenvalues not converged
     c_bands:  3 eigenvalues not converged
     c_bands:  3 eigenvalues not converged
     c_bands:  2 eigenvalues not converged
     c_bands:  5 eigenvalues not converged
     c_bands:  2 eigenvalues not converged
     c_bands:  3 eigenvalues not converged
     c_bands:  4 eigenvalues not converged
     c_bands:  3 eigenvalues not converged
     c_bands:  3 eigenvalues not converged
     c_bands:  5 eigenvalues not converged
     ethr =  1.01E-07,  avg # of iterations = 21.7

     negative rho (up, down):  1.669E+02 2.873E-02

     total cpu time spent up to now is    10083.7 secs

     total energy              =   -4555.96596058 Ry
     estimated scf accuracy    <       0.00016555 Ry

     total magnetization       =     0.00    -0.00    -0.10 Bohr mag/cell
     absolute magnetization    =    59.21 Bohr mag/cell

     iteration #235     ecut=    80.00 Ry     beta= 0.70
     Davidson diagonalization with overlap
     c_bands:  2 eigenvalues not converged
     c_bands:  1 eigenvalues not converged
     c_bands:  2 eigenvalues not converged
     c_bands:  2 eigenvalues not converged
     c_bands:  3 eigenvalues not converged
     c_bands:  2 eigenvalues not converged
     c_bands:  1 eigenvalues not converged
     c_bands:  3 eigenvalues not converged
     c_bands:  1 eigenvalues not converged
     c_bands:  1 eigenvalues not converged
     c_bands:  4 eigenvalues not converged
     c_bands:  3 eigenvalues not converged
     ethr =  1.01E-07,  avg # of iterations = 19.8

     negative rho (up, down):  1.669E+02 2.872E-02

     total cpu time spent up to now is    10134.6 secs

     total energy              =   -4555.96893242 Ry
     estimated scf accuracy    <       0.00006786 Ry

     total magnetization       =     0.00     0.00    -0.04 Bohr mag/cell
     absolute magnetization    =    59.13 Bohr mag/cell

     iteration #236     ecut=    80.00 Ry     beta= 0.70
     Davidson diagonalization with overlap
     c_bands:  2 eigenvalues not converged
     c_bands:  2 eigenvalues not converged
     c_bands:  2 eigenvalues not converged
     c_bands:  4 eigenvalues not converged
     c_bands:  3 eigenvalues not converged
     c_bands:  2 eigenvalues not converged
     c_bands:  4 eigenvalues not converged
     c_bands:  3 eigenvalues not converged
     c_bands:  4 eigenvalues not converged
     c_bands:  4 eigenvalues not converged
     c_bands:  4 eigenvalues not converged
     c_bands:  2 eigenvalues not converged
     c_bands:  2 eigenvalues not converged
     c_bands:  4 eigenvalues not converged
     c_bands:  2 eigenvalues not converged
     c_bands:  2 eigenvalues not converged
     c_bands:  4 eigenvalues not converged
     c_bands:  1 eigenvalues not converged
     c_bands:  4 eigenvalues not converged
     ethr =  1.01E-07,  avg # of iterations = 20.0

     negative rho (up, down):  1.669E+02 2.873E-02

     total cpu time spent up to now is    10181.9 secs

     total energy              =   -4555.96844332 Ry
     estimated scf accuracy    <       0.00009529 Ry

     total magnetization       =    -0.00     0.00    -0.16 Bohr mag/cell
     absolute magnetization    =    59.15 Bohr mag/cell

     iteration #237     ecut=    80.00 Ry     beta= 0.70
     Davidson diagonalization with overlap
     c_bands:  1 eigenvalues not converged
     c_bands:  2 eigenvalues not converged
     c_bands:  1 eigenvalues not converged
     c_bands:  4 eigenvalues not converged
     c_bands:  3 eigenvalues not converged
     c_bands:  3 eigenvalues not converged
     c_bands:  4 eigenvalues not converged
     c_bands:  5 eigenvalues not converged
     c_bands:  4 eigenvalues not converged
     c_bands:  4 eigenvalues not converged
     c_bands:  3 eigenvalues not converged
     c_bands:  4 eigenvalues not converged
     c_bands:  3 eigenvalues not converged
     c_bands:  4 eigenvalues not converged
     c_bands:  4 eigenvalues not converged
     c_bands:  4 eigenvalues not converged
     c_bands:  2 eigenvalues not converged
     c_bands:  5 eigenvalues not converged
     ethr =  1.01E-07,  avg # of iterations = 20.0

     negative rho (up, down):  1.669E+02 2.872E-02

     total cpu time spent up to now is    10228.2 secs

     total energy              =   -4555.96720043 Ry
     estimated scf accuracy    <       0.00010136 Ry

     total magnetization       =    -0.00    -0.00    -0.13 Bohr mag/cell
     absolute magnetization    =    59.16 Bohr mag/cell

     iteration #238     ecut=    80.00 Ry     beta= 0.70
     Davidson diagonalization with overlap
     c_bands:  2 eigenvalues not converged
     c_bands:  5 eigenvalues not converged
     c_bands:  3 eigenvalues not converged
     c_bands:  3 eigenvalues not converged
     c_bands:  4 eigenvalues not converged
     c_bands:  2 eigenvalues not converged
     c_bands:  2 eigenvalues not converged
     c_bands:  1 eigenvalues not converged
     c_bands:  1 eigenvalues not converged
     c_bands:  2 eigenvalues not converged
     c_bands:  4 eigenvalues not converged
     c_bands:  1 eigenvalues not converged
     c_bands:  1 eigenvalues not converged
     c_bands:  2 eigenvalues not converged
     c_bands:  1 eigenvalues not converged
     ethr =  1.01E-07,  avg # of iterations = 19.6

     negative rho (up, down):  1.669E+02 2.871E-02

     total cpu time spent up to now is    10278.0 secs

     total energy              =   -4555.96387305 Ry
     estimated scf accuracy    <       0.00014723 Ry

     total magnetization       =    -0.00     0.00    -0.09 Bohr mag/cell
     absolute magnetization    =    59.18 Bohr mag/cell

     iteration #239     ecut=    80.00 Ry     beta= 0.70
     Davidson diagonalization with overlap
     c_bands:  4 eigenvalues not converged
     c_bands:  2 eigenvalues not converged
     c_bands:  1 eigenvalues not converged
     c_bands:  1 eigenvalues not converged
     c_bands:  1 eigenvalues not converged
     c_bands:  2 eigenvalues not converged
     c_bands:  2 eigenvalues not converged
     c_bands:  1 eigenvalues not converged
     c_bands:  1 eigenvalues not converged
     c_bands:  1 eigenvalues not converged
     c_bands:  1 eigenvalues not converged
     c_bands:  1 eigenvalues not converged
     ethr =  1.01E-07,  avg # of iterations = 18.6

     negative rho (up, down):  1.669E+02 2.873E-02

     total cpu time spent up to now is    10326.9 secs

     total energy              =   -4555.96922777 Ry
     estimated scf accuracy    <       0.00048759 Ry

     total magnetization       =     0.00     0.00    -0.05 Bohr mag/cell
     absolute magnetization    =    59.09 Bohr mag/cell

     iteration #240     ecut=    80.00 Ry     beta= 0.70
     Davidson diagonalization with overlap
     c_bands:  1 eigenvalues not converged
     c_bands:  2 eigenvalues not converged
     c_bands:  1 eigenvalues not converged
     c_bands:  2 eigenvalues not converged
     ethr =  1.01E-07,  avg # of iterations = 17.2

     negative rho (up, down):  1.669E+02 2.871E-02

     total cpu time spent up to now is    10372.3 secs

     total energy              =   -4555.96912080 Ry
     estimated scf accuracy    <       0.00009977 Ry

     total magnetization       =     0.00     0.00    -0.07 Bohr mag/cell
     absolute magnetization    =    59.10 Bohr mag/cell

     iteration #241     ecut=    80.00 Ry     beta= 0.70
     Davidson diagonalization with overlap
     c_bands:  5 eigenvalues not converged
     c_bands:  2 eigenvalues not converged
     c_bands:  3 eigenvalues not converged
     c_bands:  3 eigenvalues not converged
     c_bands:  1 eigenvalues not converged
     c_bands:  2 eigenvalues not converged
     c_bands:  2 eigenvalues not converged
     c_bands:  1 eigenvalues not converged
     c_bands:  1 eigenvalues not converged
     c_bands:  3 eigenvalues not converged
     ethr =  1.01E-07,  avg # of iterations = 19.2

     negative rho (up, down):  1.669E+02 2.872E-02

     total cpu time spent up to now is    10420.0 secs

     total energy              =   -4555.96550909 Ry
     estimated scf accuracy    <       0.00016672 Ry

     total magnetization       =    -0.00     0.00    -0.03 Bohr mag/cell
     absolute magnetization    =    59.17 Bohr mag/cell

     iteration #242     ecut=    80.00 Ry     beta= 0.70
     Davidson diagonalization with overlap
     c_bands:  1 eigenvalues not converged
     c_bands:  1 eigenvalues not converged
     c_bands:  1 eigenvalues not converged
     c_bands:  1 eigenvalues not converged
     c_bands:  2 eigenvalues not converged
     c_bands:  1 eigenvalues not converged
     c_bands:  1 eigenvalues not converged
     c_bands:  1 eigenvalues not converged
     c_bands:  3 eigenvalues not converged
     c_bands:  1 eigenvalues not converged
     c_bands:  1 eigenvalues not converged
     c_bands:  1 eigenvalues not converged
     c_bands:  1 eigenvalues not converged
     c_bands:  3 eigenvalues not converged
     c_bands:  2 eigenvalues not converged
     c_bands:  1 eigenvalues not converged
     c_bands:  1 eigenvalues not converged
     ethr =  1.01E-07,  avg # of iterations = 20.3

     negative rho (up, down):  1.669E+02 2.873E-02

     total cpu time spent up to now is    10472.2 secs

     total energy              =   -4555.97103689 Ry
     estimated scf accuracy    <       0.00097670 Ry

     total magnetization       =    -0.00     0.00    -0.10 Bohr mag/cell
     absolute magnetization    =    59.07 Bohr mag/cell

     iteration #243     ecut=    80.00 Ry     beta= 0.70
     Davidson diagonalization with overlap
     c_bands:  2 eigenvalues not converged
     c_bands:  3 eigenvalues not converged
     c_bands:  1 eigenvalues not converged
     c_bands:  4 eigenvalues not converged
     ethr =  1.01E-07,  avg # of iterations = 17.8

     negative rho (up, down):  1.669E+02 2.871E-02

     total cpu time spent up to now is    10520.0 secs

     total energy              =   -4555.96918049 Ry
     estimated scf accuracy    <       0.00013013 Ry

     total magnetization       =     0.00    -0.00    -0.04 Bohr mag/cell
     absolute magnetization    =    59.15 Bohr mag/cell

     iteration #244     ecut=    80.00 Ry     beta= 0.70
     Davidson diagonalization with overlap
     c_bands:  3 eigenvalues not converged
     c_bands:  2 eigenvalues not converged
     c_bands:  2 eigenvalues not converged
     c_bands:  5 eigenvalues not converged
     c_bands:  1 eigenvalues not converged
     c_bands:  1 eigenvalues not converged
     c_bands:  4 eigenvalues not converged
     c_bands:  1 eigenvalues not converged
     c_bands:  3 eigenvalues not converged
     c_bands:  2 eigenvalues not converged
     c_bands:  1 eigenvalues not converged
     c_bands:  2 eigenvalues not converged
     c_bands:  4 eigenvalues not converged
     c_bands:  3 eigenvalues not converged
     c_bands:  1 eigenvalues not converged
     c_bands:  2 eigenvalues not converged
     c_bands:  1 eigenvalues not converged
     c_bands:  2 eigenvalues not converged
     ethr =  1.01E-07,  avg # of iterations = 20.4

     negative rho (up, down):  1.669E+02 2.872E-02

     total cpu time spent up to now is    10569.8 secs

     total energy              =   -4555.96590529 Ry
     estimated scf accuracy    <       0.00007090 Ry

     total magnetization       =    -0.00     0.00    -0.11 Bohr mag/cell
     absolute magnetization    =    59.11 Bohr mag/cell

     iteration #245     ecut=    80.00 Ry     beta= 0.70
     Davidson diagonalization with overlap
     c_bands:  2 eigenvalues not converged
     c_bands:  1 eigenvalues not converged
     c_bands:  1 eigenvalues not converged
     c_bands:  1 eigenvalues not converged
     ethr =  1.01E-07,  avg # of iterations = 17.3

     negative rho (up, down):  1.669E+02 2.873E-02

     total cpu time spent up to now is    10617.3 secs

     total energy              =   -4555.96870548 Ry
     estimated scf accuracy    <       0.00089586 Ry

     total magnetization       =    -0.00    -0.00    -0.06 Bohr mag/cell
     absolute magnetization    =    59.05 Bohr mag/cell

     iteration #246     ecut=    80.00 Ry     beta= 0.70
     Davidson diagonalization with overlap
     c_bands:  1 eigenvalues not converged
     c_bands:  3 eigenvalues not converged
     c_bands:  2 eigenvalues not converged
     c_bands:  2 eigenvalues not converged
     c_bands:  2 eigenvalues not converged
     c_bands:  1 eigenvalues not converged
     c_bands:  1 eigenvalues not converged
     c_bands:  2 eigenvalues not converged
     c_bands:  3 eigenvalues not converged
     c_bands:  2 eigenvalues not converged
     c_bands:  3 eigenvalues not converged
     c_bands:  1 eigenvalues not converged
     c_bands:  4 eigenvalues not converged
     c_bands:  3 eigenvalues not converged
     c_bands:  4 eigenvalues not converged
     c_bands:  3 eigenvalues not converged
     c_bands:  2 eigenvalues not converged
     c_bands:  3 eigenvalues not converged
     ethr =  1.01E-07,  avg # of iterations = 20.0

     negative rho (up, down):  1.669E+02 2.871E-02

     total cpu time spent up to now is    10666.7 secs

     total energy              =   -4555.96808765 Ry
     estimated scf accuracy    <       0.00013726 Ry

     total magnetization       =    -0.00     0.00    -0.10 Bohr mag/cell
     absolute magnetization    =    59.14 Bohr mag/cell

     iteration #247     ecut=    80.00 Ry     beta= 0.70
     Davidson diagonalization with overlap
     c_bands:  1 eigenvalues not converged
     c_bands:  2 eigenvalues not converged
     c_bands:  2 eigenvalues not converged
     c_bands:  3 eigenvalues not converged
     c_bands:  4 eigenvalues not converged
     c_bands:  2 eigenvalues not converged
     c_bands:  4 eigenvalues not converged
     c_bands:  4 eigenvalues not converged
     c_bands:  3 eigenvalues not converged
     c_bands:  2 eigenvalues not converged
     c_bands:  3 eigenvalues not converged
     c_bands:  3 eigenvalues not converged
     ethr =  1.01E-07,  avg # of iterations = 19.6

     negative rho (up, down):  1.669E+02 2.872E-02

     total cpu time spent up to now is    10713.0 secs

     total energy              =   -4555.96735707 Ry
     estimated scf accuracy    <       0.00004287 Ry

     total magnetization       =     0.00    -0.00    -0.15 Bohr mag/cell
     absolute magnetization    =    59.10 Bohr mag/cell

     iteration #248     ecut=    80.00 Ry     beta= 0.70
     Davidson diagonalization with overlap
     c_bands:  2 eigenvalues not converged
     c_bands:  2 eigenvalues not converged
     c_bands:  1 eigenvalues not converged
     c_bands:  1 eigenvalues not converged
     c_bands:  1 eigenvalues not converged
     c_bands:  1 eigenvalues not converged
     c_bands:  1 eigenvalues not converged
     c_bands:  1 eigenvalues not converged
     ethr =  1.01E-07,  avg # of iterations = 17.7

     negative rho (up, down):  1.669E+02 2.873E-02

     total cpu time spent up to now is    10758.1 secs

     total energy              =   -4555.96992105 Ry
     estimated scf accuracy    <       0.00032812 Ry

     total magnetization       =    -0.00    -0.00    -0.12 Bohr mag/cell
     absolute magnetization    =    59.06 Bohr mag/cell

     iteration #249     ecut=    80.00 Ry     beta= 0.70
     Davidson diagonalization with overlap
     c_bands:  3 eigenvalues not converged
     ethr =  1.01E-07,  avg # of iterations = 16.0

     negative rho (up, down):  1.669E+02 2.869E-02

     total cpu time spent up to now is    10802.6 secs

     total energy              =   -4555.95984798 Ry
     estimated scf accuracy    <       0.00013043 Ry

     total magnetization       =    -0.00     0.00    -0.01 Bohr mag/cell
     absolute magnetization    =    59.15 Bohr mag/cell

     iteration #250     ecut=    80.00 Ry     beta= 0.70
     Davidson diagonalization with overlap
     c_bands:  2 eigenvalues not converged
     c_bands:  5 eigenvalues not converged
     c_bands:  1 eigenvalues not converged
     c_bands:  2 eigenvalues not converged
     c_bands:  1 eigenvalues not converged
     c_bands:  3 eigenvalues not converged
     c_bands:  1 eigenvalues not converged
     c_bands:  1 eigenvalues not converged
     c_bands:  1 eigenvalues not converged
     c_bands:  3 eigenvalues not converged
     c_bands:  2 eigenvalues not converged
     ethr =  1.01E-07,  avg # of iterations = 18.7

     negative rho (up, down):  1.669E+02 2.874E-02

     total cpu time spent up to now is    10850.1 secs

     total energy              =   -4555.96448033 Ry
     estimated scf accuracy    <       0.00039912 Ry

     total magnetization       =     0.00    -0.00    -0.07 Bohr mag/cell
     absolute magnetization    =    59.08 Bohr mag/cell

     iteration #251     ecut=    80.00 Ry     beta= 0.70
     Davidson diagonalization with overlap
     c_bands:  1 eigenvalues not converged
     c_bands:  2 eigenvalues not converged
     c_bands:  1 eigenvalues not converged
     c_bands:  2 eigenvalues not converged
     c_bands:  1 eigenvalues not converged
     c_bands:  3 eigenvalues not converged
     c_bands:  3 eigenvalues not converged
     c_bands:  3 eigenvalues not converged
     c_bands:  1 eigenvalues not converged
     c_bands:  1 eigenvalues not converged
     c_bands:  1 eigenvalues not converged
     c_bands:  2 eigenvalues not converged
     c_bands:  3 eigenvalues not converged
     c_bands:  4 eigenvalues not converged
     c_bands:  1 eigenvalues not converged
     ethr =  1.01E-07,  avg # of iterations = 19.9

     negative rho (up, down):  1.669E+02 2.873E-02

     total cpu time spent up to now is    10901.1 secs

     total energy              =   -4555.96380118 Ry
     estimated scf accuracy    <       0.00031101 Ry

     total magnetization       =     0.00     0.00    -0.08 Bohr mag/cell
     absolute magnetization    =    59.15 Bohr mag/cell

     iteration #252     ecut=    80.00 Ry     beta= 0.70
     Davidson diagonalization with overlap
     c_bands:  2 eigenvalues not converged
     c_bands:  1 eigenvalues not converged
     c_bands:  1 eigenvalues not converged
     c_bands:  1 eigenvalues not converged
     c_bands:  2 eigenvalues not converged
     c_bands:  1 eigenvalues not converged
     c_bands:  2 eigenvalues not converged
     c_bands:  1 eigenvalues not converged
     c_bands:  2 eigenvalues not converged
     c_bands:  1 eigenvalues not converged
     c_bands:  3 eigenvalues not converged
     c_bands:  3 eigenvalues not converged
     c_bands:  2 eigenvalues not converged
     c_bands:  1 eigenvalues not converged
     ethr =  1.01E-07,  avg # of iterations = 19.5

     negative rho (up, down):  1.669E+02 2.872E-02

     total cpu time spent up to now is    10949.3 secs

     total energy              =   -4555.96728577 Ry
     estimated scf accuracy    <       0.00085863 Ry

     total magnetization       =     0.00    -0.00    -0.10 Bohr mag/cell
     absolute magnetization    =    59.06 Bohr mag/cell

     iteration #253     ecut=    80.00 Ry     beta= 0.70
     Davidson diagonalization with overlap
     c_bands:  1 eigenvalues not converged
     c_bands:  1 eigenvalues not converged
     c_bands:  3 eigenvalues not converged
     c_bands:  1 eigenvalues not converged
     c_bands:  2 eigenvalues not converged
     c_bands:  1 eigenvalues not converged
     c_bands:  2 eigenvalues not converged
     ethr =  1.01E-07,  avg # of iterations = 18.2

     negative rho (up, down):  1.669E+02 2.870E-02

     total cpu time spent up to now is    10994.4 secs

     total energy              =   -4555.96901165 Ry
     estimated scf accuracy    <       0.00099931 Ry

     total magnetization       =     0.00    -0.00    -0.08 Bohr mag/cell
     absolute magnetization    =    59.11 Bohr mag/cell

     iteration #254     ecut=    80.00 Ry     beta= 0.70
     Davidson diagonalization with overlap
     c_bands:  2 eigenvalues not converged
     c_bands:  2 eigenvalues not converged
     c_bands:  2 eigenvalues not converged
     c_bands:  4 eigenvalues not converged
     c_bands:  2 eigenvalues not converged
     c_bands:  1 eigenvalues not converged
     c_bands:  1 eigenvalues not converged
     c_bands:  1 eigenvalues not converged
     c_bands:  1 eigenvalues not converged
     c_bands:  1 eigenvalues not converged
     c_bands:  1 eigenvalues not converged
     c_bands:  2 eigenvalues not converged
     c_bands:  3 eigenvalues not converged
     ethr =  1.01E-07,  avg # of iterations = 18.6

     negative rho (up, down):  1.669E+02 2.872E-02

     total cpu time spent up to now is    11040.2 secs

     total energy              =   -4555.95981868 Ry
     estimated scf accuracy    <       0.00009124 Ry

     total magnetization       =     0.00    -0.00    -0.12 Bohr mag/cell
     absolute magnetization    =    59.13 Bohr mag/cell

     iteration #255     ecut=    80.00 Ry     beta= 0.70
     Davidson diagonalization with overlap
     c_bands:  1 eigenvalues not converged
     c_bands:  2 eigenvalues not converged
     c_bands:  1 eigenvalues not converged
     c_bands:  1 eigenvalues not converged
     c_bands:  1 eigenvalues not converged
     c_bands:  1 eigenvalues not converged
     ethr =  1.01E-07,  avg # of iterations = 17.7

     negative rho (up, down):  1.669E+02 2.874E-02

     total cpu time spent up to now is    11087.9 secs

     total energy              =   -4555.96647105 Ry
     estimated scf accuracy    <       0.00034259 Ry

     total magnetization       =    -0.00    -0.00    -0.10 Bohr mag/cell
     absolute magnetization    =    59.09 Bohr mag/cell

     iteration #256     ecut=    80.00 Ry     beta= 0.70
     Davidson diagonalization with overlap
     c_bands:  2 eigenvalues not converged
     c_bands:  2 eigenvalues not converged
     c_bands:  1 eigenvalues not converged
     c_bands:  2 eigenvalues not converged
     c_bands:  3 eigenvalues not converged
     c_bands:  1 eigenvalues not converged
     ethr =  1.01E-07,  avg # of iterations = 17.9

     negative rho (up, down):  1.669E+02 2.873E-02

     total cpu time spent up to now is    11131.5 secs

     total energy              =   -4555.96381920 Ry
     estimated scf accuracy    <       0.00084056 Ry

     total magnetization       =    -0.00     0.00    -0.17 Bohr mag/cell
     absolute magnetization    =    59.08 Bohr mag/cell

     iteration #257     ecut=    80.00 Ry     beta= 0.70
     Davidson diagonalization with overlap
     ethr =  1.01E-07,  avg # of iterations = 15.1

     negative rho (up, down):  1.669E+02 2.871E-02

     total cpu time spent up to now is    11172.6 secs

     total energy              =   -4555.96643805 Ry
     estimated scf accuracy    <       0.00053051 Ry

     total magnetization       =     0.00     0.00    -0.12 Bohr mag/cell
     absolute magnetization    =    59.04 Bohr mag/cell

     iteration #258     ecut=    80.00 Ry     beta= 0.70
     Davidson diagonalization with overlap
     c_bands:  1 eigenvalues not converged
     c_bands:  1 eigenvalues not converged
     ethr =  1.01E-07,  avg # of iterations = 12.5

     negative rho (up, down):  1.669E+02 2.871E-02

     total cpu time spent up to now is    11212.0 secs

     total energy              =   -4555.96618049 Ry
     estimated scf accuracy    <       0.00118534 Ry

     total magnetization       =     0.00    -0.00    -0.12 Bohr mag/cell
     absolute magnetization    =    59.01 Bohr mag/cell

     iteration #259     ecut=    80.00 Ry     beta= 0.70
     Davidson diagonalization with overlap
     c_bands:  3 eigenvalues not converged
     c_bands:  1 eigenvalues not converged
     c_bands:  2 eigenvalues not converged
     ethr =  1.01E-07,  avg # of iterations = 17.6

     negative rho (up, down):  1.669E+02 2.873E-02

     total cpu time spent up to now is    11259.0 secs

     total energy              =   -4555.96644029 Ry
     estimated scf accuracy    <       0.00060174 Ry

     total magnetization       =     0.00    -0.00    -0.10 Bohr mag/cell
     absolute magnetization    =    59.02 Bohr mag/cell

     iteration #260     ecut=    80.00 Ry     beta= 0.70
     Davidson diagonalization with overlap
     c_bands:  2 eigenvalues not converged
     c_bands:  1 eigenvalues not converged
     ethr =  1.01E-07,  avg # of iterations = 16.8

     negative rho (up, down):  1.669E+02 2.871E-02

     total cpu time spent up to now is    11303.7 secs

     total energy              =   -4555.96249677 Ry
     estimated scf accuracy    <       0.00123281 Ry

     total magnetization       =    -0.00     0.00    -0.09 Bohr mag/cell
     absolute magnetization    =    58.99 Bohr mag/cell

     iteration #261     ecut=    80.00 Ry     beta= 0.70
     Davidson diagonalization with overlap
     c_bands:  1 eigenvalues not converged
     c_bands:  1 eigenvalues not converged
     ethr =  1.01E-07,  avg # of iterations = 14.1

     negative rho (up, down):  1.669E+02 2.872E-02

     total cpu time spent up to now is    11345.2 secs

     total energy              =   -4555.97064028 Ry
     estimated scf accuracy    <       0.00030770 Ry

     total magnetization       =    -0.00    -0.00    -0.08 Bohr mag/cell
     absolute magnetization    =    59.02 Bohr mag/cell

     iteration #262     ecut=    80.00 Ry     beta= 0.70
     Davidson diagonalization with overlap
     c_bands:  5 eigenvalues not converged
     c_bands:  1 eigenvalues not converged
     c_bands:  1 eigenvalues not converged
     ethr =  1.01E-07,  avg # of iterations = 16.0

     negative rho (up, down):  1.669E+02 2.871E-02

     total cpu time spent up to now is    11387.7 secs

     total energy              =   -4555.96181130 Ry
     estimated scf accuracy    <       0.00003529 Ry

     total magnetization       =    -0.00    -0.00    -0.08 Bohr mag/cell
     absolute magnetization    =    59.06 Bohr mag/cell

     iteration #263     ecut=    80.00 Ry     beta= 0.70
     Davidson diagonalization with overlap
     ethr =  1.01E-07,  avg # of iterations = 15.5

     negative rho (up, down):  1.669E+02 2.872E-02

     total cpu time spent up to now is    11433.5 secs

     total energy              =   -4555.97092207 Ry
     estimated scf accuracy    <       0.00028407 Ry

     total magnetization       =    -0.00     0.00    -0.07 Bohr mag/cell
     absolute magnetization    =    59.06 Bohr mag/cell

     iteration #264     ecut=    80.00 Ry     beta= 0.70
     Davidson diagonalization with overlap
     c_bands:  1 eigenvalues not converged
     c_bands:  1 eigenvalues not converged
     c_bands:  1 eigenvalues not converged
     c_bands:  1 eigenvalues not converged
     c_bands:  1 eigenvalues not converged
     ethr =  1.01E-07,  avg # of iterations = 16.6

     negative rho (up, down):  1.669E+02 2.872E-02

     total cpu time spent up to now is    11480.8 secs

     total energy              =   -4555.96101748 Ry
     estimated scf accuracy    <       0.00005450 Ry

     total magnetization       =     0.00    -0.00    -0.10 Bohr mag/cell
     absolute magnetization    =    59.09 Bohr mag/cell

     iteration #265     ecut=    80.00 Ry     beta= 0.70
     Davidson diagonalization with overlap
     c_bands:  1 eigenvalues not converged
     c_bands:  2 eigenvalues not converged
     c_bands:  5 eigenvalues not converged
     c_bands:  2 eigenvalues not converged
     c_bands:  4 eigenvalues not converged
     c_bands:  1 eigenvalues not converged
     c_bands:  2 eigenvalues not converged
     c_bands:  1 eigenvalues not converged
     c_bands:  4 eigenvalues not converged
     c_bands:  1 eigenvalues not converged
     c_bands:  4 eigenvalues not converged
     c_bands:  2 eigenvalues not converged
     c_bands:  2 eigenvalues not converged
     c_bands:  1 eigenvalues not converged
     ethr =  1.01E-07,  avg # of iterations = 19.7

     negative rho (up, down):  1.669E+02 2.873E-02

     total cpu time spent up to now is    11531.6 secs

     total energy              =   -4555.96831022 Ry
     estimated scf accuracy    <       0.00029725 Ry

     total magnetization       =     0.00    -0.00    -0.08 Bohr mag/cell
     absolute magnetization    =    59.10 Bohr mag/cell

     iteration #266     ecut=    80.00 Ry     beta= 0.70
     Davidson diagonalization with overlap
     c_bands:  2 eigenvalues not converged
     c_bands:  1 eigenvalues not converged
     c_bands:  1 eigenvalues not converged
     c_bands:  4 eigenvalues not converged
     c_bands:  4 eigenvalues not converged
     c_bands:  2 eigenvalues not converged
     c_bands:  5 eigenvalues not converged
     c_bands:  1 eigenvalues not converged
     c_bands:  1 eigenvalues not converged
     c_bands:  1 eigenvalues not converged
     c_bands:  1 eigenvalues not converged
     c_bands:  3 eigenvalues not converged
     c_bands:  2 eigenvalues not converged
     c_bands:  1 eigenvalues not converged
     c_bands:  4 eigenvalues not converged
     c_bands:  4 eigenvalues not converged
     ethr =  1.01E-07,  avg # of iterations = 19.2

     negative rho (up, down):  1.669E+02 2.871E-02

     total cpu time spent up to now is    11580.9 secs

     total energy              =   -4555.96355465 Ry
     estimated scf accuracy    <       0.00011171 Ry

     total magnetization       =    -0.00     0.00    -0.14 Bohr mag/cell
     absolute magnetization    =    59.14 Bohr mag/cell

     iteration #267     ecut=    80.00 Ry     beta= 0.70
     Davidson diagonalization with overlap
     c_bands:  3 eigenvalues not converged
     c_bands:  1 eigenvalues not converged
     c_bands:  3 eigenvalues not converged
     c_bands:  3 eigenvalues not converged
     c_bands:  3 eigenvalues not converged
     c_bands:  3 eigenvalues not converged
     c_bands:  2 eigenvalues not converged
     c_bands:  3 eigenvalues not converged
     c_bands:  1 eigenvalues not converged
     c_bands:  2 eigenvalues not converged
     c_bands:  3 eigenvalues not converged
     c_bands:  4 eigenvalues not converged
     ethr =  1.01E-07,  avg # of iterations = 18.9

     negative rho (up, down):  1.669E+02 2.872E-02

     total cpu time spent up to now is    11633.2 secs

     total energy              =   -4555.96500390 Ry
     estimated scf accuracy    <       0.00134619 Ry

     total magnetization       =    -0.00     0.00    -0.11 Bohr mag/cell
     absolute magnetization    =    59.12 Bohr mag/cell

     iteration #268     ecut=    80.00 Ry     beta= 0.70
     Davidson diagonalization with overlap
     c_bands:  2 eigenvalues not converged
     c_bands:  4 eigenvalues not converged
     c_bands:  4 eigenvalues not converged
     c_bands:  1 eigenvalues not converged
     c_bands:  4 eigenvalues not converged
     c_bands:  3 eigenvalues not converged
     c_bands:  4 eigenvalues not converged
     c_bands:  4 eigenvalues not converged
     c_bands:  4 eigenvalues not converged
     c_bands:  1 eigenvalues not converged
     c_bands:  1 eigenvalues not converged
     ethr =  1.01E-07,  avg # of iterations = 19.9

     negative rho (up, down):  1.669E+02 2.872E-02

     total cpu time spent up to now is    11687.1 secs

     total energy              =   -4555.96998905 Ry
     estimated scf accuracy    <       0.00030796 Ry

     total magnetization       =    -0.00    -0.00    -0.03 Bohr mag/cell
     absolute magnetization    =    59.12 Bohr mag/cell

     iteration #269     ecut=    80.00 Ry     beta= 0.70
     Davidson diagonalization with overlap
     c_bands:  3 eigenvalues not converged
     c_bands:  2 eigenvalues not converged
     c_bands:  3 eigenvalues not converged
     c_bands:  2 eigenvalues not converged
     c_bands:  1 eigenvalues not converged
     c_bands:  3 eigenvalues not converged
     c_bands:  1 eigenvalues not converged
     c_bands:  2 eigenvalues not converged
     c_bands:  2 eigenvalues not converged
     c_bands:  2 eigenvalues not converged
     c_bands:  1 eigenvalues not converged
     ethr =  1.01E-07,  avg # of iterations = 17.9

     negative rho (up, down):  1.669E+02 2.873E-02

     total cpu time spent up to now is    11731.8 secs

     total energy              =   -4555.96835454 Ry
     estimated scf accuracy    <       0.00034797 Ry

     total magnetization       =    -0.00    -0.00    -0.06 Bohr mag/cell
     absolute magnetization    =    59.12 Bohr mag/cell

     iteration #270     ecut=    80.00 Ry     beta= 0.70
     Davidson diagonalization with overlap
     c_bands:  2 eigenvalues not converged
     c_bands:  2 eigenvalues not converged
     c_bands:  1 eigenvalues not converged
     c_bands:  1 eigenvalues not converged
     c_bands:  2 eigenvalues not converged
     c_bands:  1 eigenvalues not converged
     c_bands:  2 eigenvalues not converged
     c_bands:  4 eigenvalues not converged
     c_bands:  2 eigenvalues not converged
     c_bands:  4 eigenvalues not converged
     c_bands:  2 eigenvalues not converged
     ethr =  1.01E-07,  avg # of iterations = 18.9

     negative rho (up, down):  1.669E+02 2.871E-02

     total cpu time spent up to now is    11779.6 secs

     total energy              =   -4555.96559395 Ry
     estimated scf accuracy    <       0.00005425 Ry

     total magnetization       =     0.00     0.00    -0.05 Bohr mag/cell
     absolute magnetization    =    59.09 Bohr mag/cell

     iteration #271     ecut=    80.00 Ry     beta= 0.70
     Davidson diagonalization with overlap
     c_bands:  1 eigenvalues not converged
     c_bands:  2 eigenvalues not converged
     c_bands:  3 eigenvalues not converged
     c_bands:  1 eigenvalues not converged
     c_bands:  5 eigenvalues not converged
     c_bands:  2 eigenvalues not converged
     c_bands:  3 eigenvalues not converged
     c_bands:  1 eigenvalues not converged
     c_bands:  2 eigenvalues not converged
     ethr =  1.01E-07,  avg # of iterations = 18.4

     negative rho (up, down):  1.669E+02 2.873E-02

     total cpu time spent up to now is    11826.4 secs

     total energy              =   -4555.96826921 Ry
     estimated scf accuracy    <       0.00075534 Ry

     total magnetization       =    -0.00     0.00    -0.15 Bohr mag/cell
     absolute magnetization    =    59.07 Bohr mag/cell

     iteration #272     ecut=    80.00 Ry     beta= 0.70
     Davidson diagonalization with overlap
     c_bands:  3 eigenvalues not converged
     c_bands:  1 eigenvalues not converged
     c_bands:  1 eigenvalues not converged
     ethr =  1.01E-07,  avg # of iterations = 17.2

     negative rho (up, down):  1.669E+02 2.869E-02

     total cpu time spent up to now is    11871.3 secs

     total energy              =   -4555.96550599 Ry
     estimated scf accuracy    <       0.00014725 Ry

     total magnetization       =    -0.00    -0.00    -0.06 Bohr mag/cell
     absolute magnetization    =    59.10 Bohr mag/cell

     iteration #273     ecut=    80.00 Ry     beta= 0.70
     Davidson diagonalization with overlap
     c_bands:  1 eigenvalues not converged
     c_bands:  2 eigenvalues not converged
     c_bands:  1 eigenvalues not converged
     c_bands:  2 eigenvalues not converged
     c_bands:  4 eigenvalues not converged
     c_bands:  1 eigenvalues not converged
     c_bands:  2 eigenvalues not converged
     c_bands:  3 eigenvalues not converged
     c_bands:  2 eigenvalues not converged
     c_bands:  4 eigenvalues not converged
     c_bands:  1 eigenvalues not converged
     ethr =  1.01E-07,  avg # of iterations = 19.1

     negative rho (up, down):  1.669E+02 2.873E-02

     total cpu time spent up to now is    11923.9 secs

     total energy              =   -4555.96796200 Ry
     estimated scf accuracy    <       0.00126098 Ry

     total magnetization       =     0.00     0.00    -0.13 Bohr mag/cell
     absolute magnetization    =    59.13 Bohr mag/cell

     iteration #274     ecut=    80.00 Ry     beta= 0.70
     Davidson diagonalization with overlap
     c_bands:  2 eigenvalues not converged
     c_bands:  3 eigenvalues not converged
     c_bands:  2 eigenvalues not converged
     c_bands:  3 eigenvalues not converged
     c_bands:  5 eigenvalues not converged
     c_bands:  2 eigenvalues not converged
     c_bands:  1 eigenvalues not converged
     c_bands:  4 eigenvalues not converged
     c_bands:  1 eigenvalues not converged
     c_bands:  4 eigenvalues not converged
     c_bands:  1 eigenvalues not converged
     ethr =  1.01E-07,  avg # of iterations = 18.7

     negative rho (up, down):  1.669E+02 2.871E-02

     total cpu time spent up to now is    11974.3 secs

     total energy              =   -4555.96823696 Ry
     estimated scf accuracy    <       0.00007721 Ry

     total magnetization       =     0.00     0.00    -0.12 Bohr mag/cell
     absolute magnetization    =    59.13 Bohr mag/cell

     iteration #275     ecut=    80.00 Ry     beta= 0.70
     Davidson diagonalization with overlap
     c_bands:  3 eigenvalues not converged
     c_bands:  1 eigenvalues not converged
     c_bands:  3 eigenvalues not converged
     c_bands:  1 eigenvalues not converged
     c_bands:  1 eigenvalues not converged
     c_bands:  1 eigenvalues not converged
     c_bands:  1 eigenvalues not converged
     c_bands:  1 eigenvalues not converged
     c_bands:  3 eigenvalues not converged
     ethr =  1.01E-07,  avg # of iterations = 19.2

     negative rho (up, down):  1.669E+02 2.873E-02

     total cpu time spent up to now is    12021.5 secs

     total energy              =   -4555.96936275 Ry
     estimated scf accuracy    <       0.00011448 Ry

     total magnetization       =    -0.00    -0.00    -0.04 Bohr mag/cell
     absolute magnetization    =    59.17 Bohr mag/cell

     iteration #276     ecut=    80.00 Ry     beta= 0.70
     Davidson diagonalization with overlap
     c_bands:  3 eigenvalues not converged
     c_bands:  2 eigenvalues not converged
     c_bands:  2 eigenvalues not converged
     c_bands:  2 eigenvalues not converged
     c_bands:  4 eigenvalues not converged
     c_bands:  2 eigenvalues not converged
     c_bands:  1 eigenvalues not converged
     c_bands:  1 eigenvalues not converged
     c_bands:  1 eigenvalues not converged
     c_bands:  1 eigenvalues not converged
     ethr =  1.01E-07,  avg # of iterations = 17.9

     negative rho (up, down):  1.669E+02 2.874E-02

     total cpu time spent up to now is    12065.0 secs

     total energy              =   -4555.96997975 Ry
     estimated scf accuracy    <       0.00008794 Ry

     total magnetization       =     0.00    -0.00    -0.16 Bohr mag/cell
     absolute magnetization    =    59.13 Bohr mag/cell

     iteration #277     ecut=    80.00 Ry     beta= 0.70
     Davidson diagonalization with overlap
     c_bands:  2 eigenvalues not converged
     c_bands:  2 eigenvalues not converged
     c_bands:  1 eigenvalues not converged
     c_bands:  2 eigenvalues not converged
     c_bands:  1 eigenvalues not converged
     c_bands:  3 eigenvalues not converged
     c_bands:  2 eigenvalues not converged
     c_bands:  4 eigenvalues not converged
     c_bands:  1 eigenvalues not converged
     c_bands:  2 eigenvalues not converged
     c_bands:  1 eigenvalues not converged
     c_bands:  3 eigenvalues not converged
     ethr =  1.01E-07,  avg # of iterations = 19.4

     negative rho (up, down):  1.669E+02 2.875E-02

     total cpu time spent up to now is    12109.8 secs

     total energy              =   -4555.96903675 Ry
     estimated scf accuracy    <       0.00010774 Ry

     total magnetization       =     0.00     0.00    -0.17 Bohr mag/cell
     absolute magnetization    =    59.18 Bohr mag/cell

     iteration #278     ecut=    80.00 Ry     beta= 0.70
     Davidson diagonalization with overlap
     c_bands:  1 eigenvalues not converged
     c_bands:  1 eigenvalues not converged
     c_bands:  5 eigenvalues not converged
     c_bands:  3 eigenvalues not converged
     c_bands:  5 eigenvalues not converged
     c_bands:  3 eigenvalues not converged
     c_bands:  4 eigenvalues not converged
     c_bands:  4 eigenvalues not converged
     c_bands:  3 eigenvalues not converged
     c_bands:  4 eigenvalues not converged
     c_bands:  3 eigenvalues not converged
     c_bands:  1 eigenvalues not converged
     c_bands:  5 eigenvalues not converged
     ethr =  1.01E-07,  avg # of iterations = 20.5

     negative rho (up, down):  1.669E+02 2.874E-02

     total cpu time spent up to now is    12161.8 secs

     total energy              =   -4555.96448792 Ry
     estimated scf accuracy    <       0.00016865 Ry

     total magnetization       =    -0.00     0.00    -0.09 Bohr mag/cell
     absolute magnetization    =    59.21 Bohr mag/cell

     iteration #279     ecut=    80.00 Ry     beta= 0.70
     Davidson diagonalization with overlap
     c_bands:  2 eigenvalues not converged
     c_bands:  5 eigenvalues not converged
     c_bands:  4 eigenvalues not converged
     c_bands:  5 eigenvalues not converged
     c_bands:  4 eigenvalues not converged
     c_bands:  3 eigenvalues not converged
     c_bands:  5 eigenvalues not converged
     c_bands:  4 eigenvalues not converged
     ethr =  1.01E-07,  avg # of iterations = 22.5

     negative rho (up, down):  1.669E+02 2.876E-02

     total cpu time spent up to now is    12220.5 secs

     total energy              =   -4555.96951017 Ry
     estimated scf accuracy    <       0.00014693 Ry

     total magnetization       =     0.00     0.00    -0.15 Bohr mag/cell
     absolute magnetization    =    59.21 Bohr mag/cell

     iteration #280     ecut=    80.00 Ry     beta= 0.70
     Davidson diagonalization with overlap
     c_bands:  2 eigenvalues not converged
     c_bands:  2 eigenvalues not converged
     c_bands:  2 eigenvalues not converged
     c_bands:  1 eigenvalues not converged
     ethr =  1.01E-07,  avg # of iterations = 19.5

     negative rho (up, down):  1.669E+02 2.875E-02

     total cpu time spent up to now is    12268.4 secs

     total energy              =   -4555.97115691 Ry
     estimated scf accuracy    <       0.00026467 Ry

     total magnetization       =     0.00    -0.00    -0.07 Bohr mag/cell
     absolute magnetization    =    59.06 Bohr mag/cell

     iteration #281     ecut=    80.00 Ry     beta= 0.70
     Davidson diagonalization with overlap
     c_bands:  1 eigenvalues not converged
     c_bands:  3 eigenvalues not converged
     c_bands:  1 eigenvalues not converged
     c_bands:  1 eigenvalues not converged
     ethr =  1.01E-07,  avg # of iterations = 16.1

     negative rho (up, down):  1.669E+02 2.877E-02

     total cpu time spent up to now is    12310.6 secs

     total energy              =   -4555.96504595 Ry
     estimated scf accuracy    <       0.00013790 Ry

     total magnetization       =     0.00     0.00    -0.06 Bohr mag/cell
     absolute magnetization    =    59.15 Bohr mag/cell

     iteration #282     ecut=    80.00 Ry     beta= 0.70
     Davidson diagonalization with overlap
     c_bands:  1 eigenvalues not converged
     c_bands:  1 eigenvalues not converged
     c_bands:  2 eigenvalues not converged
     ethr =  1.01E-07,  avg # of iterations = 17.0

     negative rho (up, down):  1.669E+02 2.873E-02

     total cpu time spent up to now is    12356.9 secs

     total energy              =   -4555.97029229 Ry
     estimated scf accuracy    <       0.00071797 Ry

     total magnetization       =    -0.00     0.00    -0.06 Bohr mag/cell
     absolute magnetization    =    59.04 Bohr mag/cell

     iteration #283     ecut=    80.00 Ry     beta= 0.70
     Davidson diagonalization with overlap
     ethr =  1.01E-07,  avg # of iterations = 16.5

     negative rho (up, down):  1.669E+02 2.870E-02

     total cpu time spent up to now is    12401.3 secs

     total energy              =   -4555.97078615 Ry
     estimated scf accuracy    <       0.00004413 Ry

     total magnetization       =    -0.00     0.00    -0.06 Bohr mag/cell
     absolute magnetization    =    59.08 Bohr mag/cell

     iteration #284     ecut=    80.00 Ry     beta= 0.70
     Davidson diagonalization with overlap
     c_bands:  1 eigenvalues not converged
     c_bands:  1 eigenvalues not converged
     c_bands:  1 eigenvalues not converged
     c_bands:  1 eigenvalues not converged
     c_bands:  1 eigenvalues not converged
     c_bands:  2 eigenvalues not converged
     ethr =  1.01E-07,  avg # of iterations = 17.1

     negative rho (up, down):  1.669E+02 2.872E-02

     total cpu time spent up to now is    12442.6 secs

     total energy              =   -4555.96971701 Ry
     estimated scf accuracy    <       0.00007259 Ry

     total magnetization       =     0.00     0.00    -0.04 Bohr mag/cell
     absolute magnetization    =    59.11 Bohr mag/cell

     iteration #285     ecut=    80.00 Ry     beta= 0.70
     Davidson diagonalization with overlap
     c_bands:  2 eigenvalues not converged
     c_bands:  2 eigenvalues not converged
     c_bands:  3 eigenvalues not converged
     c_bands:  2 eigenvalues not converged
     c_bands:  1 eigenvalues not converged
     c_bands:  1 eigenvalues not converged
     c_bands:  2 eigenvalues not converged
     c_bands:  1 eigenvalues not converged
     c_bands:  1 eigenvalues not converged
     c_bands:  1 eigenvalues not converged
     ethr =  1.01E-07,  avg # of iterations = 18.6

     negative rho (up, down):  1.669E+02 2.873E-02

     total cpu time spent up to now is    12487.1 secs

     total energy              =   -4555.97039186 Ry
     estimated scf accuracy    <       0.00006348 Ry

     total magnetization       =     0.00     0.00    -0.09 Bohr mag/cell
     absolute magnetization    =    59.12 Bohr mag/cell

     iteration #286     ecut=    80.00 Ry     beta= 0.70
     Davidson diagonalization with overlap
     c_bands:  2 eigenvalues not converged
     c_bands:  4 eigenvalues not converged
     c_bands:  2 eigenvalues not converged
     c_bands:  2 eigenvalues not converged
     c_bands:  2 eigenvalues not converged
     c_bands:  4 eigenvalues not converged
     c_bands:  1 eigenvalues not converged
     c_bands:  1 eigenvalues not converged
     c_bands:  1 eigenvalues not converged
     c_bands:  1 eigenvalues not converged
     c_bands:  1 eigenvalues not converged
     ethr =  1.01E-07,  avg # of iterations = 19.1

     negative rho (up, down):  1.669E+02 2.874E-02

     total cpu time spent up to now is    12531.9 secs

     total energy              =   -4555.96887357 Ry
     estimated scf accuracy    <       0.00012809 Ry

     total magnetization       =    -0.00     0.00    -0.08 Bohr mag/cell
     absolute magnetization    =    59.18 Bohr mag/cell

     iteration #287     ecut=    80.00 Ry     beta= 0.70
     Davidson diagonalization with overlap
     c_bands:  3 eigenvalues not converged
     c_bands:  2 eigenvalues not converged
     c_bands:  1 eigenvalues not converged
     c_bands:  3 eigenvalues not converged
     c_bands:  4 eigenvalues not converged
     c_bands:  2 eigenvalues not converged
     c_bands:  2 eigenvalues not converged
     c_bands:  2 eigenvalues not converged
     c_bands:  3 eigenvalues not converged
     c_bands:  1 eigenvalues not converged
     ethr =  1.01E-07,  avg # of iterations = 18.6

     negative rho (up, down):  1.669E+02 2.875E-02

     total cpu time spent up to now is    12576.6 secs

     total energy              =   -4555.96944411 Ry
     estimated scf accuracy    <       0.00010243 Ry

     total magnetization       =    -0.00     0.00    -0.17 Bohr mag/cell
     absolute magnetization    =    59.16 Bohr mag/cell

     iteration #288     ecut=    80.00 Ry     beta= 0.70
     Davidson diagonalization with overlap
     c_bands:  1 eigenvalues not converged
     c_bands:  4 eigenvalues not converged
     c_bands:  2 eigenvalues not converged
     c_bands:  1 eigenvalues not converged
     c_bands:  4 eigenvalues not converged
     c_bands:  4 eigenvalues not converged
     c_bands:  1 eigenvalues not converged
     ethr =  1.01E-07,  avg # of iterations = 18.2

     negative rho (up, down):  1.669E+02 2.874E-02

     total cpu time spent up to now is    12619.3 secs

     total energy              =   -4555.97051113 Ry
     estimated scf accuracy    <       0.00003762 Ry

     total magnetization       =    -0.00     0.00    -0.10 Bohr mag/cell
     absolute magnetization    =    59.08 Bohr mag/cell

     iteration #289     ecut=    80.00 Ry     beta= 0.70
     Davidson diagonalization with overlap
     c_bands:  3 eigenvalues not converged
     c_bands:  1 eigenvalues not converged
     c_bands:  1 eigenvalues not converged
     c_bands:  1 eigenvalues not converged
     ethr =  1.01E-07,  avg # of iterations = 17.0

     negative rho (up, down):  1.669E+02 2.875E-02

     total cpu time spent up to now is    12660.8 secs

     total energy              =   -4555.97073457 Ry
     estimated scf accuracy    <       0.00006204 Ry

     total magnetization       =     0.00    -0.00    -0.15 Bohr mag/cell
     absolute magnetization    =    59.12 Bohr mag/cell

     iteration #290     ecut=    80.00 Ry     beta= 0.70
     Davidson diagonalization with overlap
     c_bands:  3 eigenvalues not converged
     c_bands:  1 eigenvalues not converged
     ethr =  1.01E-07,  avg # of iterations = 17.5

     negative rho (up, down):  1.669E+02 2.876E-02

     total cpu time spent up to now is    12703.9 secs

     total energy              =   -4555.97017648 Ry
     estimated scf accuracy    <       0.00014281 Ry

     total magnetization       =     0.00    -0.00    -0.07 Bohr mag/cell
     absolute magnetization    =    59.09 Bohr mag/cell

     iteration #291     ecut=    80.00 Ry     beta= 0.70
     Davidson diagonalization with overlap
     c_bands:  1 eigenvalues not converged
     c_bands:  3 eigenvalues not converged
     c_bands:  2 eigenvalues not converged
     ethr =  1.01E-07,  avg # of iterations = 18.5

     negative rho (up, down):  1.669E+02 2.874E-02

     total cpu time spent up to now is    12746.9 secs

     total energy              =   -4555.96182198 Ry
     estimated scf accuracy    <       0.00006255 Ry

     total magnetization       =     0.00     0.00    -0.10 Bohr mag/cell
     absolute magnetization    =    59.12 Bohr mag/cell

     iteration #292     ecut=    80.00 Ry     beta= 0.70
     Davidson diagonalization with overlap
     c_bands:  2 eigenvalues not converged
     c_bands:  4 eigenvalues not converged
     c_bands:  3 eigenvalues not converged
     c_bands:  1 eigenvalues not converged
     c_bands:  3 eigenvalues not converged
     ethr =  1.01E-07,  avg # of iterations = 18.6

     negative rho (up, down):  1.669E+02 2.873E-02

     total cpu time spent up to now is    12793.2 secs

     total energy              =   -4555.96896855 Ry
     estimated scf accuracy    <       0.00030727 Ry

     total magnetization       =     0.00     0.00    -0.06 Bohr mag/cell
     absolute magnetization    =    59.09 Bohr mag/cell

     iteration #293     ecut=    80.00 Ry     beta= 0.70
     Davidson diagonalization with overlap
     c_bands:  4 eigenvalues not converged
     c_bands:  1 eigenvalues not converged
     c_bands:  1 eigenvalues not converged
     c_bands:  4 eigenvalues not converged
     c_bands:  3 eigenvalues not converged
     c_bands:  4 eigenvalues not converged
     c_bands:  2 eigenvalues not converged
     c_bands:  2 eigenvalues not converged
     c_bands:  3 eigenvalues not converged
     c_bands:  3 eigenvalues not converged
     c_bands:  1 eigenvalues not converged
     c_bands:  4 eigenvalues not converged
     c_bands:  2 eigenvalues not converged
     c_bands:  3 eigenvalues not converged
     c_bands:  3 eigenvalues not converged
     c_bands:  3 eigenvalues not converged
     ethr =  1.01E-07,  avg # of iterations = 19.5

     negative rho (up, down):  1.669E+02 2.873E-02

     total cpu time spent up to now is    12839.4 secs

     total energy              =   -4555.97048118 Ry
     estimated scf accuracy    <       0.00005275 Ry

     total magnetization       =    -0.00    -0.00    -0.09 Bohr mag/cell
     absolute magnetization    =    59.10 Bohr mag/cell

     iteration #294     ecut=    80.00 Ry     beta= 0.70
     Davidson diagonalization with overlap
     c_bands:  1 eigenvalues not converged
     c_bands:  2 eigenvalues not converged
     c_bands:  1 eigenvalues not converged
     c_bands:  1 eigenvalues not converged
     c_bands:  2 eigenvalues not converged
     c_bands:  1 eigenvalues not converged
     c_bands:  3 eigenvalues not converged
     c_bands:  3 eigenvalues not converged
     c_bands:  4 eigenvalues not converged
     c_bands:  4 eigenvalues not converged
     c_bands:  2 eigenvalues not converged
     c_bands:  1 eigenvalues not converged
     c_bands:  3 eigenvalues not converged
     c_bands:  4 eigenvalues not converged
     c_bands:  4 eigenvalues not converged
     ethr =  1.01E-07,  avg # of iterations = 19.5

     negative rho (up, down):  1.669E+02 2.873E-02

     total cpu time spent up to now is    12883.2 secs

     total energy              =   -4555.96963448 Ry
     estimated scf accuracy    <       0.00006904 Ry

     total magnetization       =    -0.00     0.00    -0.03 Bohr mag/cell
     absolute magnetization    =    59.13 Bohr mag/cell

     iteration #295     ecut=    80.00 Ry     beta= 0.70
     Davidson diagonalization with overlap
     c_bands:  2 eigenvalues not converged
     c_bands:  4 eigenvalues not converged
     c_bands:  3 eigenvalues not converged
     c_bands:  3 eigenvalues not converged
     c_bands:  2 eigenvalues not converged
     c_bands:  1 eigenvalues not converged
     c_bands:  2 eigenvalues not converged
     c_bands:  3 eigenvalues not converged
     c_bands:  1 eigenvalues not converged
     c_bands:  4 eigenvalues not converged
     c_bands:  1 eigenvalues not converged
     c_bands:  3 eigenvalues not converged
     c_bands:  3 eigenvalues not converged
     c_bands:  2 eigenvalues not converged
     c_bands:  4 eigenvalues not converged
     c_bands:  3 eigenvalues not converged
     c_bands:  5 eigenvalues not converged
     c_bands:  4 eigenvalues not converged
     c_bands:  4 eigenvalues not converged
     ethr =  1.01E-07,  avg # of iterations = 19.7

     negative rho (up, down):  1.669E+02 2.873E-02

     total cpu time spent up to now is    12928.7 secs

     total energy              =   -4555.96916551 Ry
     estimated scf accuracy    <       0.00009122 Ry

     total magnetization       =     0.00     0.00    -0.17 Bohr mag/cell
     absolute magnetization    =    59.16 Bohr mag/cell

     iteration #296     ecut=    80.00 Ry     beta= 0.70
     Davidson diagonalization with overlap
     c_bands:  1 eigenvalues not converged
     c_bands:  2 eigenvalues not converged
     c_bands:  2 eigenvalues not converged
     c_bands:  3 eigenvalues not converged
     c_bands:  1 eigenvalues not converged
     c_bands:  1 eigenvalues not converged
     ethr =  1.01E-07,  avg # of iterations = 18.7

     negative rho (up, down):  1.669E+02 2.874E-02

     total cpu time spent up to now is    12974.1 secs

     total energy              =   -4555.97110597 Ry
     estimated scf accuracy    <       0.00033139 Ry

     total magnetization       =    -0.00    -0.00    -0.19 Bohr mag/cell
     absolute magnetization    =    59.14 Bohr mag/cell

     iteration #297     ecut=    80.00 Ry     beta= 0.70
     Davidson diagonalization with overlap
     c_bands:  1 eigenvalues not converged
     c_bands:  2 eigenvalues not converged
     c_bands:  2 eigenvalues not converged
     c_bands:  3 eigenvalues not converged
     c_bands:  5 eigenvalues not converged
     c_bands:  3 eigenvalues not converged
     c_bands:  2 eigenvalues not converged
     c_bands:  3 eigenvalues not converged
     c_bands:  3 eigenvalues not converged
     c_bands:  5 eigenvalues not converged
     c_bands:  5 eigenvalues not converged
     c_bands:  2 eigenvalues not converged
     c_bands:  1 eigenvalues not converged
     c_bands:  1 eigenvalues not converged
     c_bands:  3 eigenvalues not converged
     c_bands:  4 eigenvalues not converged
     ethr =  1.01E-07,  avg # of iterations = 20.3

     negative rho (up, down):  1.669E+02 2.871E-02

     total cpu time spent up to now is    13023.1 secs

     total energy              =   -4555.96244850 Ry
     estimated scf accuracy    <       0.00026511 Ry

     total magnetization       =    -0.00     0.00    -0.14 Bohr mag/cell
     absolute magnetization    =    59.25 Bohr mag/cell

     iteration #298     ecut=    80.00 Ry     beta= 0.70
     Davidson diagonalization with overlap
     c_bands:  1 eigenvalues not converged
     c_bands:  3 eigenvalues not converged
     c_bands:  2 eigenvalues not converged
     c_bands:  1 eigenvalues not converged
     c_bands:  2 eigenvalues not converged
     c_bands:  1 eigenvalues not converged
     c_bands:  2 eigenvalues not converged
     c_bands:  1 eigenvalues not converged
     c_bands:  2 eigenvalues not converged
     c_bands:  4 eigenvalues not converged
     c_bands:  2 eigenvalues not converged
     ethr =  1.01E-07,  avg # of iterations = 19.9

     negative rho (up, down):  1.669E+02 2.872E-02

     total cpu time spent up to now is    13071.4 secs

     total energy              =   -4555.96937637 Ry
     estimated scf accuracy    <       0.00007337 Ry

     total magnetization       =     0.00    -0.00    -0.10 Bohr mag/cell
     absolute magnetization    =    59.10 Bohr mag/cell

     iteration #299     ecut=    80.00 Ry     beta= 0.70
     Davidson diagonalization with overlap
     c_bands:  1 eigenvalues not converged
     c_bands:  2 eigenvalues not converged
     c_bands:  1 eigenvalues not converged
     c_bands:  1 eigenvalues not converged
     ethr =  1.01E-07,  avg # of iterations = 18.0

     negative rho (up, down):  1.669E+02 2.873E-02

     total cpu time spent up to now is    13117.0 secs

     total energy              =   -4555.97094582 Ry
     estimated scf accuracy    <       0.00006708 Ry

     total magnetization       =     0.00    -0.00    -0.11 Bohr mag/cell
     absolute magnetization    =    59.13 Bohr mag/cell

     iteration #300     ecut=    80.00 Ry     beta= 0.70
     Davidson diagonalization with overlap
     c_bands:  2 eigenvalues not converged
     ethr =  1.01E-07,  avg # of iterations = 15.7

     negative rho (up, down):  1.669E+02 2.875E-02

     total cpu time spent up to now is    13160.0 secs

     total energy              =   -4555.96962748 Ry
     estimated scf accuracy    <       0.00010311 Ry

     total magnetization       =    -0.00    -0.00    -0.11 Bohr mag/cell
     absolute magnetization    =    59.12 Bohr mag/cell

     iteration #301     ecut=    80.00 Ry     beta= 0.70
     Davidson diagonalization with overlap
     c_bands:  2 eigenvalues not converged
     c_bands:  1 eigenvalues not converged
     c_bands:  1 eigenvalues not converged
     c_bands:  1 eigenvalues not converged
     ethr =  1.01E-07,  avg # of iterations = 17.9

     negative rho (up, down):  1.669E+02 2.874E-02

     total cpu time spent up to now is    13203.3 secs

     total energy              =   -4555.97102499 Ry
     estimated scf accuracy    <       0.00005856 Ry

     total magnetization       =     0.00    -0.00    -0.13 Bohr mag/cell
     absolute magnetization    =    59.12 Bohr mag/cell

     iteration #302     ecut=    80.00 Ry     beta= 0.70
     Davidson diagonalization with overlap
     c_bands:  3 eigenvalues not converged
     c_bands:  3 eigenvalues not converged
     c_bands:  1 eigenvalues not converged
     c_bands:  5 eigenvalues not converged
     c_bands:  5 eigenvalues not converged
     c_bands:  4 eigenvalues not converged
     c_bands:  5 eigenvalues not converged
     c_bands:  2 eigenvalues not converged
     c_bands:  1 eigenvalues not converged
     c_bands:  1 eigenvalues not converged
     ethr =  1.01E-07,  avg # of iterations = 19.8

     negative rho (up, down):  1.669E+02 2.874E-02

     total cpu time spent up to now is    13253.4 secs

     total energy              =   -4555.96530990 Ry
     estimated scf accuracy    <       0.00017479 Ry

     total magnetization       =    -0.00    -0.00    -0.12 Bohr mag/cell
     absolute magnetization    =    59.20 Bohr mag/cell

     iteration #303     ecut=    80.00 Ry     beta= 0.70
     Davidson diagonalization with overlap
     c_bands:  1 eigenvalues not converged
     c_bands:  5 eigenvalues not converged
     c_bands:  1 eigenvalues not converged
     c_bands:  3 eigenvalues not converged
     c_bands:  4 eigenvalues not converged
     c_bands:  4 eigenvalues not converged
     c_bands:  5 eigenvalues not converged
     ethr =  1.01E-07,  avg # of iterations = 22.3

     negative rho (up, down):  1.669E+02 2.874E-02

     total cpu time spent up to now is    13311.0 secs

     total energy              =   -4555.96715252 Ry
     estimated scf accuracy    <       0.00015174 Ry

     total magnetization       =     0.00     0.00    -0.02 Bohr mag/cell
     absolute magnetization    =    59.21 Bohr mag/cell

     iteration #304     ecut=    80.00 Ry     beta= 0.70
     Davidson diagonalization with overlap
     c_bands:  1 eigenvalues not converged
     c_bands:  3 eigenvalues not converged
     c_bands:  1 eigenvalues not converged
     c_bands:  5 eigenvalues not converged
     c_bands:  3 eigenvalues not converged
     c_bands:  4 eigenvalues not converged
     c_bands:  4 eigenvalues not converged
     c_bands:  5 eigenvalues not converged
     c_bands:  3 eigenvalues not converged
     c_bands:  2 eigenvalues not converged
     c_bands:  4 eigenvalues not converged
     c_bands:  1 eigenvalues not converged
     c_bands:  3 eigenvalues not converged
     c_bands:  4 eigenvalues not converged
     c_bands:  5 eigenvalues not converged
     c_bands:  5 eigenvalues not converged
     ethr =  1.01E-07,  avg # of iterations = 20.4

     negative rho (up, down):  1.669E+02 2.874E-02

     total cpu time spent up to now is    13360.4 secs

     total energy              =   -4555.97000987 Ry
     estimated scf accuracy    <       0.00005797 Ry

     total magnetization       =     0.00     0.00    -0.08 Bohr mag/cell
     absolute magnetization    =    59.10 Bohr mag/cell

     iteration #305     ecut=    80.00 Ry     beta= 0.70
     Davidson diagonalization with overlap
     c_bands:  4 eigenvalues not converged
     c_bands:  1 eigenvalues not converged
     c_bands:  2 eigenvalues not converged
     c_bands:  1 eigenvalues not converged
     c_bands:  3 eigenvalues not converged
     c_bands:  3 eigenvalues not converged
     c_bands:  3 eigenvalues not converged
     c_bands:  3 eigenvalues not converged
     c_bands:  5 eigenvalues not converged
     c_bands:  1 eigenvalues not converged
     c_bands:  3 eigenvalues not converged
     c_bands:  1 eigenvalues not converged
     c_bands:  4 eigenvalues not converged
     c_bands:  2 eigenvalues not converged
     c_bands:  4 eigenvalues not converged
     ethr =  1.01E-07,  avg # of iterations = 19.8

     negative rho (up, down):  1.669E+02 2.874E-02

     total cpu time spent up to now is    13406.4 secs

     total energy              =   -4555.97034321 Ry
     estimated scf accuracy    <       0.00007691 Ry

     total magnetization       =    -0.00     0.00    -0.01 Bohr mag/cell
     absolute magnetization    =    59.14 Bohr mag/cell

     iteration #306     ecut=    80.00 Ry     beta= 0.70
     Davidson diagonalization with overlap
     c_bands:  1 eigenvalues not converged
     c_bands:  1 eigenvalues not converged
     c_bands:  1 eigenvalues not converged
     c_bands:  2 eigenvalues not converged
     c_bands:  3 eigenvalues not converged
     c_bands:  2 eigenvalues not converged
     c_bands:  1 eigenvalues not converged
     c_bands:  1 eigenvalues not converged
     ethr =  1.01E-07,  avg # of iterations = 17.0

     negative rho (up, down):  1.669E+02 2.872E-02

     total cpu time spent up to now is    13449.0 secs

     total energy              =   -4555.96933739 Ry
     estimated scf accuracy    <       0.00006455 Ry

     total magnetization       =     0.00    -0.00    -0.14 Bohr mag/cell
     absolute magnetization    =    59.13 Bohr mag/cell

     iteration #307     ecut=    80.00 Ry     beta= 0.70
     Davidson diagonalization with overlap
     c_bands:  2 eigenvalues not converged
     c_bands:  2 eigenvalues not converged
     c_bands:  2 eigenvalues not converged
     c_bands:  2 eigenvalues not converged
     c_bands:  1 eigenvalues not converged
     c_bands:  3 eigenvalues not converged
     c_bands:  2 eigenvalues not converged
     c_bands:  1 eigenvalues not converged
     c_bands:  3 eigenvalues not converged
     c_bands:  2 eigenvalues not converged
     c_bands:  3 eigenvalues not converged
     c_bands:  4 eigenvalues not converged
     c_bands:  3 eigenvalues not converged
     c_bands:  5 eigenvalues not converged
     c_bands:  3 eigenvalues not converged
     ethr =  1.01E-07,  avg # of iterations = 20.0

     negative rho (up, down):  1.669E+02 2.874E-02

     total cpu time spent up to now is    13496.5 secs

     total energy              =   -4555.96531679 Ry
     estimated scf accuracy    <       0.00010871 Ry

     total magnetization       =    -0.00    -0.00    -0.05 Bohr mag/cell
     absolute magnetization    =    59.15 Bohr mag/cell

     iteration #308     ecut=    80.00 Ry     beta= 0.70
     Davidson diagonalization with overlap
     c_bands:  2 eigenvalues not converged
     c_bands:  2 eigenvalues not converged
     c_bands:  2 eigenvalues not converged
     c_bands:  1 eigenvalues not converged
     c_bands:  1 eigenvalues not converged
     c_bands:  3 eigenvalues not converged
     c_bands:  1 eigenvalues not converged
     c_bands:  1 eigenvalues not converged
     c_bands:  2 eigenvalues not converged
     c_bands:  1 eigenvalues not converged
     c_bands:  1 eigenvalues not converged
     c_bands:  2 eigenvalues not converged
     c_bands:  2 eigenvalues not converged
     c_bands:  1 eigenvalues not converged
     ethr =  1.01E-07,  avg # of iterations = 19.3

     negative rho (up, down):  1.669E+02 2.872E-02

     total cpu time spent up to now is    13542.7 secs

     total energy              =   -4555.96021210 Ry
     estimated scf accuracy    <       0.00099637 Ry

     total magnetization       =    -0.00    -0.00    -0.13 Bohr mag/cell
     absolute magnetization    =    59.07 Bohr mag/cell

     iteration #309     ecut=    80.00 Ry     beta= 0.70
     Davidson diagonalization with overlap
     c_bands:  1 eigenvalues not converged
     c_bands:  1 eigenvalues not converged
     c_bands:  1 eigenvalues not converged
     c_bands:  1 eigenvalues not converged
     c_bands:  1 eigenvalues not converged
     c_bands:  1 eigenvalues not converged
     c_bands:  1 eigenvalues not converged
     ethr =  1.01E-07,  avg # of iterations = 18.0

     negative rho (up, down):  1.669E+02 2.872E-02

     total cpu time spent up to now is    13589.3 secs

     total energy              =   -4555.97156282 Ry
     estimated scf accuracy    <       0.00191209 Ry

     total magnetization       =    -0.00    -0.00    -0.10 Bohr mag/cell
     absolute magnetization    =    59.01 Bohr mag/cell

     iteration #310     ecut=    80.00 Ry     beta= 0.70
     Davidson diagonalization with overlap
     c_bands:  2 eigenvalues not converged
     c_bands:  4 eigenvalues not converged
     c_bands:  2 eigenvalues not converged
     c_bands:  1 eigenvalues not converged
     c_bands:  1 eigenvalues not converged
     c_bands:  1 eigenvalues not converged
     c_bands:  2 eigenvalues not converged
     c_bands:  1 eigenvalues not converged
     c_bands:  4 eigenvalues not converged
     c_bands:  5 eigenvalues not converged
     c_bands:  2 eigenvalues not converged
     c_bands:  3 eigenvalues not converged
     c_bands:  4 eigenvalues not converged
     c_bands:  2 eigenvalues not converged
     c_bands:  2 eigenvalues not converged
     ethr =  1.01E-07,  avg # of iterations = 19.2

     negative rho (up, down):  1.669E+02 2.874E-02

     total cpu time spent up to now is    13637.3 secs

     total energy              =   -4555.96699813 Ry
     estimated scf accuracy    <       0.00015227 Ry

     total magnetization       =     0.00    -0.00    -0.13 Bohr mag/cell
     absolute magnetization    =    59.13 Bohr mag/cell

     iteration #311     ecut=    80.00 Ry     beta= 0.70
     Davidson diagonalization with overlap
     c_bands:  1 eigenvalues not converged
     c_bands:  4 eigenvalues not converged
     c_bands:  2 eigenvalues not converged
     c_bands:  2 eigenvalues not converged
     c_bands:  2 eigenvalues not converged
     c_bands:  3 eigenvalues not converged
     c_bands:  3 eigenvalues not converged
     c_bands:  3 eigenvalues not converged
     c_bands:  3 eigenvalues not converged
     c_bands:  5 eigenvalues not converged
     c_bands:  5 eigenvalues not converged
     c_bands:  1 eigenvalues not converged
     c_bands:  5 eigenvalues not converged
     c_bands:  2 eigenvalues not converged
     c_bands:  3 eigenvalues not converged
     c_bands:  4 eigenvalues not converged
     c_bands:  3 eigenvalues not converged
     c_bands:  4 eigenvalues not converged
     ethr =  1.01E-07,  avg # of iterations = 20.8

     negative rho (up, down):  1.669E+02 2.873E-02

     total cpu time spent up to now is    13688.1 secs

     total energy              =   -4555.97011000 Ry
     estimated scf accuracy    <       0.00036238 Ry

     total magnetization       =    -0.00     0.00    -0.11 Bohr mag/cell
     absolute magnetization    =    59.13 Bohr mag/cell

     iteration #312     ecut=    80.00 Ry     beta= 0.70
     Davidson diagonalization with overlap
     c_bands:  1 eigenvalues not converged
     c_bands:  1 eigenvalues not converged
     c_bands:  3 eigenvalues not converged
     c_bands:  1 eigenvalues not converged
     c_bands:  3 eigenvalues not converged
     c_bands:  4 eigenvalues not converged
     c_bands:  4 eigenvalues not converged
     c_bands:  2 eigenvalues not converged
     c_bands:  1 eigenvalues not converged
     c_bands:  2 eigenvalues not converged
     c_bands:  3 eigenvalues not converged
     c_bands:  5 eigenvalues not converged
     c_bands:  2 eigenvalues not converged
     c_bands:  4 eigenvalues not converged
     ethr =  1.01E-07,  avg # of iterations = 19.2

     negative rho (up, down):  1.669E+02 2.870E-02

     total cpu time spent up to now is    13736.0 secs

     total energy              =   -4555.96980194 Ry
     estimated scf accuracy    <       0.00006452 Ry

     total magnetization       =    -0.00     0.00    -0.06 Bohr mag/cell
     absolute magnetization    =    59.13 Bohr mag/cell

     iteration #313     ecut=    80.00 Ry     beta= 0.70
     Davidson diagonalization with overlap
     c_bands:  2 eigenvalues not converged
     c_bands:  2 eigenvalues not converged
     c_bands:  2 eigenvalues not converged
     c_bands:  2 eigenvalues not converged
     c_bands:  2 eigenvalues not converged
     c_bands:  1 eigenvalues not converged
     c_bands:  3 eigenvalues not converged
     c_bands:  4 eigenvalues not converged
     c_bands:  2 eigenvalues not converged
     c_bands:  3 eigenvalues not converged
     c_bands:  4 eigenvalues not converged
     c_bands:  4 eigenvalues not converged
     c_bands:  5 eigenvalues not converged
     c_bands:  1 eigenvalues not converged
     c_bands:  2 eigenvalues not converged
     c_bands:  4 eigenvalues not converged
     c_bands:  2 eigenvalues not converged
     c_bands:  4 eigenvalues not converged
     c_bands:  1 eigenvalues not converged
     c_bands:  5 eigenvalues not converged
     ethr =  1.01E-07,  avg # of iterations = 20.0

     negative rho (up, down):  1.669E+02 2.873E-02

     total cpu time spent up to now is    13782.1 secs

     total energy              =   -4555.96861422 Ry
     estimated scf accuracy    <       0.00006867 Ry

     total magnetization       =    -0.00     0.00    -0.08 Bohr mag/cell
     absolute magnetization    =    59.14 Bohr mag/cell

     iteration #314     ecut=    80.00 Ry     beta= 0.70
     Davidson diagonalization with overlap
     c_bands:  3 eigenvalues not converged
     c_bands:  3 eigenvalues not converged
     c_bands:  1 eigenvalues not converged
     c_bands:  1 eigenvalues not converged
     c_bands:  1 eigenvalues not converged
     c_bands:  2 eigenvalues not converged
     c_bands:  1 eigenvalues not converged
     c_bands:  2 eigenvalues not converged
     c_bands:  4 eigenvalues not converged
     c_bands:  4 eigenvalues not converged
     c_bands:  5 eigenvalues not converged
     c_bands:  2 eigenvalues not converged
     c_bands:  1 eigenvalues not converged
     c_bands:  1 eigenvalues not converged
     c_bands:  5 eigenvalues not converged
     c_bands:  5 eigenvalues not converged
     c_bands:  2 eigenvalues not converged
     ethr =  1.01E-07,  avg # of iterations = 20.0

     negative rho (up, down):  1.669E+02 2.873E-02

     total cpu time spent up to now is    13829.3 secs

     total energy              =   -4555.96969177 Ry
     estimated scf accuracy    <       0.00011642 Ry

     total magnetization       =    -0.00    -0.00    -0.07 Bohr mag/cell
     absolute magnetization    =    59.15 Bohr mag/cell

     iteration #315     ecut=    80.00 Ry     beta= 0.70
     Davidson diagonalization with overlap
     c_bands:  2 eigenvalues not converged
     c_bands:  2 eigenvalues not converged
     c_bands:  5 eigenvalues not converged
     c_bands:  2 eigenvalues not converged
     c_bands:  2 eigenvalues not converged
     c_bands:  1 eigenvalues not converged
     c_bands:  1 eigenvalues not converged
     c_bands:  4 eigenvalues not converged
     c_bands:  2 eigenvalues not converged
     c_bands:  1 eigenvalues not converged
     c_bands:  2 eigenvalues not converged
     c_bands:  2 eigenvalues not converged
     ethr =  1.01E-07,  avg # of iterations = 19.6

     negative rho (up, down):  1.669E+02 2.874E-02

     total cpu time spent up to now is    13876.0 secs

     total energy              =   -4555.96014093 Ry
     estimated scf accuracy    <       0.00008788 Ry

     total magnetization       =    -0.00    -0.00    -0.02 Bohr mag/cell
     absolute magnetization    =    59.15 Bohr mag/cell

     iteration #316     ecut=    80.00 Ry     beta= 0.70
     Davidson diagonalization with overlap
     c_bands:  5 eigenvalues not converged
     c_bands:  1 eigenvalues not converged
     c_bands:  5 eigenvalues not converged
     c_bands:  1 eigenvalues not converged
     c_bands:  1 eigenvalues not converged
     c_bands:  1 eigenvalues not converged
     ethr =  1.01E-07,  avg # of iterations = 17.7

     negative rho (up, down):  1.669E+02 2.873E-02

     total cpu time spent up to now is    13923.3 secs

     total energy              =   -4555.97063462 Ry
     estimated scf accuracy    <       0.00028738 Ry

     total magnetization       =     0.00     0.00    -0.16 Bohr mag/cell
     absolute magnetization    =    59.06 Bohr mag/cell

     iteration #317     ecut=    80.00 Ry     beta= 0.70
     Davidson diagonalization with overlap
     ethr =  1.01E-07,  avg # of iterations = 14.2

     negative rho (up, down):  1.669E+02 2.873E-02

     total cpu time spent up to now is    13963.1 secs

     total energy              =   -4555.97083029 Ry
     estimated scf accuracy    <       0.00002411 Ry

     total magnetization       =    -0.00     0.00    -0.10 Bohr mag/cell
     absolute magnetization    =    59.06 Bohr mag/cell

     iteration #318     ecut=    80.00 Ry     beta= 0.70
     Davidson diagonalization with overlap
     c_bands:  1 eigenvalues not converged
     c_bands:  3 eigenvalues not converged
     c_bands:  1 eigenvalues not converged
     ethr =  6.89E-08,  avg # of iterations = 18.4

     negative rho (up, down):  1.669E+02 2.871E-02

     total cpu time spent up to now is    14006.8 secs

     total energy              =   -4555.97012308 Ry
     estimated scf accuracy    <       0.00005677 Ry

     total magnetization       =    -0.00    -0.00    -0.10 Bohr mag/cell
     absolute magnetization    =    59.11 Bohr mag/cell

     iteration #319     ecut=    80.00 Ry     beta= 0.70
     Davidson diagonalization with overlap
     c_bands:  4 eigenvalues not converged
     c_bands:  3 eigenvalues not converged
     c_bands:  1 eigenvalues not converged
     c_bands:  5 eigenvalues not converged
     c_bands:  2 eigenvalues not converged
     c_bands:  1 eigenvalues not converged
     c_bands:  5 eigenvalues not converged
     c_bands:  4 eigenvalues not converged
     c_bands:  1 eigenvalues not converged
     ethr =  6.89E-08,  avg # of iterations = 19.7

     negative rho (up, down):  1.669E+02 2.873E-02

     total cpu time spent up to now is    14055.0 secs

     total energy              =   -4555.96968505 Ry
     estimated scf accuracy    <       0.00010300 Ry

     total magnetization       =    -0.00    -0.00    -0.09 Bohr mag/cell
     absolute magnetization    =    59.17 Bohr mag/cell

     iteration #320     ecut=    80.00 Ry     beta= 0.70
     Davidson diagonalization with overlap
     c_bands:  1 eigenvalues not converged
     c_bands:  2 eigenvalues not converged
     c_bands:  4 eigenvalues not converged
     c_bands:  2 eigenvalues not converged
     c_bands:  4 eigenvalues not converged
     c_bands:  5 eigenvalues not converged
     c_bands:  1 eigenvalues not converged
     c_bands:  2 eigenvalues not converged
     c_bands:  3 eigenvalues not converged
     c_bands:  3 eigenvalues not converged
     c_bands:  4 eigenvalues not converged
     c_bands:  2 eigenvalues not converged
     c_bands:  3 eigenvalues not converged
     ethr =  6.89E-08,  avg # of iterations = 20.0

     negative rho (up, down):  1.669E+02 2.873E-02

     total cpu time spent up to now is    14103.9 secs

     total energy              =   -4555.96944192 Ry
     estimated scf accuracy    <       0.00016456 Ry

     total magnetization       =    -0.00    -0.00    -0.10 Bohr mag/cell
     absolute magnetization    =    59.12 Bohr mag/cell

     iteration #321     ecut=    80.00 Ry     beta= 0.70
     Davidson diagonalization with overlap
     c_bands:  1 eigenvalues not converged
     c_bands:  5 eigenvalues not converged
     c_bands:  1 eigenvalues not converged
     c_bands:  3 eigenvalues not converged
     c_bands:  2 eigenvalues not converged
     c_bands:  1 eigenvalues not converged
     c_bands:  1 eigenvalues not converged
     ethr =  6.89E-08,  avg # of iterations = 18.9

     negative rho (up, down):  1.669E+02 2.874E-02

     total cpu time spent up to now is    14151.4 secs

     total energy              =   -4555.96917234 Ry
     estimated scf accuracy    <       0.00005887 Ry

     total magnetization       =     0.00     0.00    -0.09 Bohr mag/cell
     absolute magnetization    =    59.12 Bohr mag/cell

     iteration #322     ecut=    80.00 Ry     beta= 0.70
     Davidson diagonalization with overlap
     c_bands:  2 eigenvalues not converged
     c_bands:  2 eigenvalues not converged
     c_bands:  4 eigenvalues not converged
     c_bands:  3 eigenvalues not converged
     c_bands:  2 eigenvalues not converged
     c_bands:  1 eigenvalues not converged
     c_bands:  2 eigenvalues not converged
     c_bands:  1 eigenvalues not converged
     c_bands:  4 eigenvalues not converged
     c_bands:  2 eigenvalues not converged
     c_bands:  1 eigenvalues not converged
     c_bands:  4 eigenvalues not converged
     c_bands:  3 eigenvalues not converged
     c_bands:  2 eigenvalues not converged
     c_bands:  2 eigenvalues not converged
     c_bands:  3 eigenvalues not converged
     c_bands:  5 eigenvalues not converged
     ethr =  6.89E-08,  avg # of iterations = 20.3

     negative rho (up, down):  1.669E+02 2.872E-02

     total cpu time spent up to now is    14199.7 secs

     total energy              =   -4555.97082646 Ry
     estimated scf accuracy    <       0.00007010 Ry

     total magnetization       =    -0.00     0.00    -0.11 Bohr mag/cell
     absolute magnetization    =    59.14 Bohr mag/cell

     iteration #323     ecut=    80.00 Ry     beta= 0.70
     Davidson diagonalization with overlap
     c_bands:  2 eigenvalues not converged
     c_bands:  1 eigenvalues not converged
     c_bands:  1 eigenvalues not converged
     c_bands:  2 eigenvalues not converged
     c_bands:  2 eigenvalues not converged
     c_bands:  4 eigenvalues not converged
     c_bands:  2 eigenvalues not converged
     c_bands:  2 eigenvalues not converged
     c_bands:  2 eigenvalues not converged
     c_bands:  4 eigenvalues not converged
     c_bands:  3 eigenvalues not converged
     c_bands:  2 eigenvalues not converged
     c_bands:  1 eigenvalues not converged
     c_bands:  1 eigenvalues not converged
     c_bands:  4 eigenvalues not converged
     c_bands:  1 eigenvalues not converged
     c_bands:  2 eigenvalues not converged
     c_bands:  4 eigenvalues not converged
     c_bands:  2 eigenvalues not converged
     ethr =  6.89E-08,  avg # of iterations = 19.9

     negative rho (up, down):  1.669E+02 2.875E-02

     total cpu time spent up to now is    14246.0 secs

     total energy              =   -4555.96867257 Ry
     estimated scf accuracy    <       0.00008331 Ry

     total magnetization       =     0.00     0.00    -0.07 Bohr mag/cell
     absolute magnetization    =    59.13 Bohr mag/cell

     iteration #324     ecut=    80.00 Ry     beta= 0.70
     Davidson diagonalization with overlap
     c_bands:  3 eigenvalues not converged
     c_bands:  5 eigenvalues not converged
     c_bands:  1 eigenvalues not converged
     c_bands:  4 eigenvalues not converged
     c_bands:  2 eigenvalues not converged
     c_bands:  2 eigenvalues not converged
     c_bands:  3 eigenvalues not converged
     c_bands:  4 eigenvalues not converged
     c_bands:  4 eigenvalues not converged
     c_bands:  3 eigenvalues not converged
     c_bands:  5 eigenvalues not converged
     c_bands:  5 eigenvalues not converged
     ethr =  6.89E-08,  avg # of iterations = 20.7

     negative rho (up, down):  1.669E+02 2.875E-02

     total cpu time spent up to now is    14298.3 secs

     total energy              =   -4555.96900232 Ry
     estimated scf accuracy    <       0.00008773 Ry

     total magnetization       =     0.00    -0.00    -0.13 Bohr mag/cell
     absolute magnetization    =    59.14 Bohr mag/cell

     iteration #325     ecut=    80.00 Ry     beta= 0.70
     Davidson diagonalization with overlap
     c_bands:  3 eigenvalues not converged
     c_bands:  1 eigenvalues not converged
     c_bands:  2 eigenvalues not converged
     c_bands:  2 eigenvalues not converged
     c_bands:  1 eigenvalues not converged
     c_bands:  4 eigenvalues not converged
     c_bands:  2 eigenvalues not converged
     c_bands:  1 eigenvalues not converged
     c_bands:  2 eigenvalues not converged
     c_bands:  3 eigenvalues not converged
     c_bands:  2 eigenvalues not converged
     c_bands:  1 eigenvalues not converged
     c_bands:  2 eigenvalues not converged
     c_bands:  1 eigenvalues not converged
     ethr =  6.89E-08,  avg # of iterations = 19.5

     negative rho (up, down):  1.669E+02 2.873E-02

     total cpu time spent up to now is    14345.0 secs

     total energy              =   -4555.97055269 Ry
     estimated scf accuracy    <       0.00003134 Ry

     total magnetization       =    -0.00    -0.00    -0.07 Bohr mag/cell
     absolute magnetization    =    59.07 Bohr mag/cell

     iteration #326     ecut=    80.00 Ry     beta= 0.70
     Davidson diagonalization with overlap
     c_bands:  2 eigenvalues not converged
     c_bands:  1 eigenvalues not converged
     c_bands:  2 eigenvalues not converged
     c_bands:  3 eigenvalues not converged
     ethr =  6.89E-08,  avg # of iterations = 17.8

     negative rho (up, down):  1.669E+02 2.874E-02

     total cpu time spent up to now is    14388.5 secs

     total energy              =   -4555.96557232 Ry
     estimated scf accuracy    <       0.00006699 Ry

     total magnetization       =     0.00    -0.00    -0.08 Bohr mag/cell
     absolute magnetization    =    59.12 Bohr mag/cell

     iteration #327     ecut=    80.00 Ry     beta= 0.70
     Davidson diagonalization with overlap
     c_bands:  4 eigenvalues not converged
     c_bands:  1 eigenvalues not converged
     c_bands:  2 eigenvalues not converged
     c_bands:  1 eigenvalues not converged
     c_bands:  1 eigenvalues not converged
     ethr =  6.89E-08,  avg # of iterations = 19.6

     negative rho (up, down):  1.669E+02 2.873E-02

     total cpu time spent up to now is    14438.5 secs

     total energy              =   -4555.96857205 Ry
     estimated scf accuracy    <       0.00096219 Ry

     total magnetization       =    -0.00    -0.00    -0.10 Bohr mag/cell
     absolute magnetization    =    59.02 Bohr mag/cell

     iteration #328     ecut=    80.00 Ry     beta= 0.70
     Davidson diagonalization with overlap
     c_bands:  1 eigenvalues not converged
     c_bands:  2 eigenvalues not converged
     c_bands:  4 eigenvalues not converged
     c_bands:  4 eigenvalues not converged
     c_bands:  5 eigenvalues not converged
     c_bands:  3 eigenvalues not converged
     c_bands:  2 eigenvalues not converged
     c_bands:  5 eigenvalues not converged
     c_bands:  3 eigenvalues not converged
     c_bands:  2 eigenvalues not converged
     c_bands:  3 eigenvalues not converged
     c_bands:  3 eigenvalues not converged
     c_bands:  3 eigenvalues not converged
     c_bands:  3 eigenvalues not converged
     c_bands:  4 eigenvalues not converged
     c_bands:  2 eigenvalues not converged
     c_bands:  3 eigenvalues not converged
     c_bands:  4 eigenvalues not converged
     c_bands:  4 eigenvalues not converged
     ethr =  6.89E-08,  avg # of iterations = 20.0

     negative rho (up, down):  1.669E+02 2.873E-02

     total cpu time spent up to now is    14488.1 secs

     total energy              =   -4555.96843908 Ry
     estimated scf accuracy    <       0.00048493 Ry

     total magnetization       =    -0.00     0.00    -0.09 Bohr mag/cell
     absolute magnetization    =    59.19 Bohr mag/cell

     iteration #329     ecut=    80.00 Ry     beta= 0.70
     Davidson diagonalization with overlap
     c_bands:  2 eigenvalues not converged
     c_bands:  1 eigenvalues not converged
     c_bands:  1 eigenvalues not converged
     c_bands:  2 eigenvalues not converged
     c_bands:  5 eigenvalues not converged
     c_bands:  2 eigenvalues not converged
     c_bands:  1 eigenvalues not converged
     c_bands:  1 eigenvalues not converged
     c_bands:  3 eigenvalues not converged
     c_bands:  3 eigenvalues not converged
     c_bands:  5 eigenvalues not converged
     c_bands:  4 eigenvalues not converged
     c_bands:  5 eigenvalues not converged
     ethr =  6.89E-08,  avg # of iterations = 20.3

     negative rho (up, down):  1.669E+02 2.870E-02

     total cpu time spent up to now is    14537.4 secs

     total energy              =   -4555.96852340 Ry
     estimated scf accuracy    <       0.00012412 Ry

     total magnetization       =    -0.00    -0.00    -0.04 Bohr mag/cell
     absolute magnetization    =    59.19 Bohr mag/cell

     iteration #330     ecut=    80.00 Ry     beta= 0.70
     Davidson diagonalization with overlap
     c_bands:  3 eigenvalues not converged
     c_bands:  1 eigenvalues not converged
     c_bands:  1 eigenvalues not converged
     c_bands:  1 eigenvalues not converged
     c_bands:  3 eigenvalues not converged
     c_bands:  4 eigenvalues not converged
     c_bands:  3 eigenvalues not converged
     c_bands:  4 eigenvalues not converged
     c_bands:  1 eigenvalues not converged
     c_bands:  3 eigenvalues not converged
     c_bands:  4 eigenvalues not converged
     c_bands:  2 eigenvalues not converged
     c_bands:  4 eigenvalues not converged
     ethr =  6.89E-08,  avg # of iterations = 20.1

     negative rho (up, down):  1.669E+02 2.873E-02

     total cpu time spent up to now is    14588.1 secs

     total energy              =   -4555.96748249 Ry
     estimated scf accuracy    <       0.00017929 Ry

     total magnetization       =    -0.00     0.00    -0.16 Bohr mag/cell
     absolute magnetization    =    59.22 Bohr mag/cell

     iteration #331     ecut=    80.00 Ry     beta= 0.70
     Davidson diagonalization with overlap
     c_bands:  4 eigenvalues not converged
     c_bands:  5 eigenvalues not converged
     c_bands:  2 eigenvalues not converged
     c_bands:  3 eigenvalues not converged
     c_bands:  2 eigenvalues not converged
     c_bands:  2 eigenvalues not converged
     c_bands:  4 eigenvalues not converged
     c_bands:  5 eigenvalues not converged
     c_bands:  2 eigenvalues not converged
     c_bands:  5 eigenvalues not converged
     c_bands:  5 eigenvalues not converged
     c_bands:  2 eigenvalues not converged
     c_bands:  2 eigenvalues not converged
     c_bands:  3 eigenvalues not converged
     c_bands:  3 eigenvalues not converged
     c_bands:  4 eigenvalues not converged
     c_bands:  5 eigenvalues not converged
     c_bands:  4 eigenvalues not converged
     ethr =  6.89E-08,  avg # of iterations = 20.0

     negative rho (up, down):  1.669E+02 2.873E-02

     total cpu time spent up to now is    14638.1 secs

     total energy              =   -4555.96982210 Ry
     estimated scf accuracy    <       0.00010781 Ry

     total magnetization       =    -0.00     0.00    -0.13 Bohr mag/cell
     absolute magnetization    =    59.14 Bohr mag/cell

     iteration #332     ecut=    80.00 Ry     beta= 0.70
     Davidson diagonalization with overlap
     c_bands:  3 eigenvalues not converged
     c_bands:  3 eigenvalues not converged
     c_bands:  1 eigenvalues not converged
     c_bands:  1 eigenvalues not converged
     c_bands:  4 eigenvalues not converged
     c_bands:  5 eigenvalues not converged
     c_bands:  4 eigenvalues not converged
     c_bands:  2 eigenvalues not converged
     c_bands:  2 eigenvalues not converged
     c_bands:  3 eigenvalues not converged
     c_bands:  4 eigenvalues not converged
     c_bands:  5 eigenvalues not converged
     c_bands:  4 eigenvalues not converged
     ethr =  6.89E-08,  avg # of iterations = 20.4

     negative rho (up, down):  1.669E+02 2.873E-02

     total cpu time spent up to now is    14684.6 secs

     total energy              =   -4555.96993982 Ry
     estimated scf accuracy    <       0.00003927 Ry

     total magnetization       =    -0.00    -0.00    -0.11 Bohr mag/cell
     absolute magnetization    =    59.09 Bohr mag/cell

     iteration #333     ecut=    80.00 Ry     beta= 0.70
     Davidson diagonalization with overlap
     c_bands:  2 eigenvalues not converged
     c_bands:  2 eigenvalues not converged
     c_bands:  1 eigenvalues not converged
     c_bands:  2 eigenvalues not converged
     c_bands:  2 eigenvalues not converged
     c_bands:  1 eigenvalues not converged
     c_bands:  3 eigenvalues not converged
     c_bands:  3 eigenvalues not converged
     c_bands:  2 eigenvalues not converged
     c_bands:  4 eigenvalues not converged
     c_bands:  4 eigenvalues not converged
     c_bands:  4 eigenvalues not converged
     c_bands:  2 eigenvalues not converged
     c_bands:  2 eigenvalues not converged
     c_bands:  3 eigenvalues not converged
     c_bands:  1 eigenvalues not converged
     c_bands:  1 eigenvalues not converged
     c_bands:  4 eigenvalues not converged
     c_bands:  4 eigenvalues not converged
     ethr =  6.89E-08,  avg # of iterations = 20.0

     negative rho (up, down):  1.669E+02 2.874E-02

     total cpu time spent up to now is    14730.4 secs

     total energy              =   -4555.96628786 Ry
     estimated scf accuracy    <       0.00006574 Ry

     total magnetization       =    -0.00     0.00    -0.05 Bohr mag/cell
     absolute magnetization    =    59.09 Bohr mag/cell

     iteration #334     ecut=    80.00 Ry     beta= 0.70
     Davidson diagonalization with overlap
     c_bands:  2 eigenvalues not converged
     c_bands:  2 eigenvalues not converged
     ethr =  6.89E-08,  avg # of iterations = 16.4

     negative rho (up, down):  1.669E+02 2.873E-02

     total cpu time spent up to now is    14776.7 secs

     total energy              =   -4555.96278333 Ry
     estimated scf accuracy    <       0.00081784 Ry

     total magnetization       =     0.00     0.00    -0.13 Bohr mag/cell
     absolute magnetization    =    59.05 Bohr mag/cell

     iteration #335     ecut=    80.00 Ry     beta= 0.70
     Davidson diagonalization with overlap
     c_bands:  2 eigenvalues not converged
     c_bands:  2 eigenvalues not converged
     c_bands:  2 eigenvalues not converged
     c_bands:  3 eigenvalues not converged
     c_bands:  4 eigenvalues not converged
     c_bands:  1 eigenvalues not converged
     c_bands:  1 eigenvalues not converged
     c_bands:  1 eigenvalues not converged
     c_bands:  5 eigenvalues not converged
     c_bands:  1 eigenvalues not converged
     c_bands:  5 eigenvalues not converged
     c_bands:  1 eigenvalues not converged
     c_bands:  5 eigenvalues not converged
     c_bands:  3 eigenvalues not converged
     ethr =  6.89E-08,  avg # of iterations = 19.6

     negative rho (up, down):  1.669E+02 2.873E-02

     total cpu time spent up to now is    14825.2 secs

     total energy              =   -4555.96839337 Ry
     estimated scf accuracy    <       0.00032845 Ry

     total magnetization       =     0.00     0.00    -0.10 Bohr mag/cell
     absolute magnetization    =    59.12 Bohr mag/cell

     iteration #336     ecut=    80.00 Ry     beta= 0.70
     Davidson diagonalization with overlap
     c_bands:  2 eigenvalues not converged
     c_bands:  4 eigenvalues not converged
     c_bands:  1 eigenvalues not converged
     c_bands:  2 eigenvalues not converged
     c_bands:  3 eigenvalues not converged
     c_bands:  5 eigenvalues not converged
     c_bands:  1 eigenvalues not converged
     c_bands:  2 eigenvalues not converged
     c_bands:  5 eigenvalues not converged
     c_bands:  3 eigenvalues not converged
     c_bands:  5 eigenvalues not converged
     ethr =  6.89E-08,  avg # of iterations = 20.5

     negative rho (up, down):  1.669E+02 2.870E-02

     total cpu time spent up to now is    14875.6 secs

     total energy              =   -4555.96946050 Ry
     estimated scf accuracy    <       0.00007367 Ry

     total magnetization       =    -0.00    -0.00    -0.04 Bohr mag/cell
     absolute magnetization    =    59.13 Bohr mag/cell

     iteration #337     ecut=    80.00 Ry     beta= 0.70
     Davidson diagonalization with overlap
     c_bands:  1 eigenvalues not converged
     c_bands:  1 eigenvalues not converged
     c_bands:  5 eigenvalues not converged
     c_bands:  1 eigenvalues not converged
     c_bands:  2 eigenvalues not converged
     c_bands:  1 eigenvalues not converged
     c_bands:  4 eigenvalues not converged
     c_bands:  1 eigenvalues not converged
     c_bands:  2 eigenvalues not converged
     c_bands:  3 eigenvalues not converged
     c_bands:  1 eigenvalues not converged
     c_bands:  1 eigenvalues not converged
     ethr =  6.89E-08,  avg # of iterations = 19.6

     negative rho (up, down):  1.669E+02 2.872E-02

     total cpu time spent up to now is    14924.0 secs

     total energy              =   -4555.96863022 Ry
     estimated scf accuracy    <       0.00007882 Ry

     total magnetization       =     0.00     0.00    -0.08 Bohr mag/cell
     absolute magnetization    =    59.14 Bohr mag/cell

     iteration #338     ecut=    80.00 Ry     beta= 0.70
     Davidson diagonalization with overlap
     c_bands:  4 eigenvalues not converged
     c_bands:  2 eigenvalues not converged
     c_bands:  1 eigenvalues not converged
     c_bands:  2 eigenvalues not converged
     c_bands:  4 eigenvalues not converged
     c_bands:  1 eigenvalues not converged
     c_bands:  2 eigenvalues not converged
     c_bands:  1 eigenvalues not converged
     c_bands:  5 eigenvalues not converged
     c_bands:  4 eigenvalues not converged
     c_bands:  2 eigenvalues not converged
     c_bands:  4 eigenvalues not converged
     c_bands:  1 eigenvalues not converged
     c_bands:  2 eigenvalues not converged
     c_bands:  4 eigenvalues not converged
     c_bands:  3 eigenvalues not converged
     ethr =  6.89E-08,  avg # of iterations = 20.0

     negative rho (up, down):  1.669E+02 2.871E-02

     total cpu time spent up to now is    14969.9 secs

     total energy              =   -4555.96380722 Ry
     estimated scf accuracy    <       0.00006688 Ry

     total magnetization       =    -0.00     0.00    -0.14 Bohr mag/cell
     absolute magnetization    =    59.14 Bohr mag/cell

     iteration #339     ecut=    80.00 Ry     beta= 0.70
     Davidson diagonalization with overlap
     c_bands:  2 eigenvalues not converged
     c_bands:  5 eigenvalues not converged
     c_bands:  1 eigenvalues not converged
     c_bands:  4 eigenvalues not converged
     c_bands:  2 eigenvalues not converged
     c_bands:  4 eigenvalues not converged
     c_bands:  1 eigenvalues not converged
     c_bands:  2 eigenvalues not converged
     c_bands:  2 eigenvalues not converged
     c_bands:  2 eigenvalues not converged
     c_bands:  3 eigenvalues not converged
     c_bands:  4 eigenvalues not converged
     c_bands:  5 eigenvalues not converged
     c_bands:  3 eigenvalues not converged
     c_bands:  3 eigenvalues not converged
     c_bands:  2 eigenvalues not converged
     c_bands:  3 eigenvalues not converged
     c_bands:  2 eigenvalues not converged
     c_bands:  3 eigenvalues not converged
     c_bands:  2 eigenvalues not converged
     c_bands:  4 eigenvalues not converged
     ethr =  6.89E-08,  avg # of iterations = 20.0

     negative rho (up, down):  1.669E+02 2.871E-02

     total cpu time spent up to now is    15018.6 secs

     total energy              =   -4555.96044463 Ry
     estimated scf accuracy    <       0.00128604 Ry

     total magnetization       =     0.00    -0.00    -0.04 Bohr mag/cell
     absolute magnetization    =    59.08 Bohr mag/cell

     iteration #340     ecut=    80.00 Ry     beta= 0.70
     Davidson diagonalization with overlap
     c_bands:  3 eigenvalues not converged
     c_bands:  5 eigenvalues not converged
     c_bands:  1 eigenvalues not converged
     c_bands:  2 eigenvalues not converged
     c_bands:  2 eigenvalues not converged
     c_bands:  1 eigenvalues not converged
     c_bands:  4 eigenvalues not converged
     c_bands:  5 eigenvalues not converged
     c_bands:  2 eigenvalues not converged
     c_bands:  1 eigenvalues not converged
     c_bands:  1 eigenvalues not converged
     c_bands:  1 eigenvalues not converged
     c_bands:  4 eigenvalues not converged
     ethr =  6.89E-08,  avg # of iterations = 19.0

     negative rho (up, down):  1.669E+02 2.871E-02

     total cpu time spent up to now is    15063.1 secs

     total energy              =   -4555.96911463 Ry
     estimated scf accuracy    <       0.00185205 Ry

     total magnetization       =    -0.00     0.00    -0.13 Bohr mag/cell
     absolute magnetization    =    59.01 Bohr mag/cell

     iteration #341     ecut=    80.00 Ry     beta= 0.70
     Davidson diagonalization with overlap
     c_bands:  1 eigenvalues not converged
     ethr =  6.89E-08,  avg # of iterations = 16.3

     negative rho (up, down):  1.669E+02 2.872E-02

     total cpu time spent up to now is    15107.4 secs

     total energy              =   -4555.96878014 Ry
     estimated scf accuracy    <       0.00032648 Ry

     total magnetization       =     0.00     0.00    -0.10 Bohr mag/cell
     absolute magnetization    =    59.10 Bohr mag/cell

     iteration #342     ecut=    80.00 Ry     beta= 0.70
     Davidson diagonalization with overlap
     c_bands:  4 eigenvalues not converged
     c_bands:  4 eigenvalues not converged
     c_bands:  5 eigenvalues not converged
     c_bands:  4 eigenvalues not converged
     c_bands:  2 eigenvalues not converged
     c_bands:  3 eigenvalues not converged
     c_bands:  5 eigenvalues not converged
     c_bands:  4 eigenvalues not converged
     c_bands:  4 eigenvalues not converged
     c_bands:  5 eigenvalues not converged
     c_bands:  4 eigenvalues not converged
     c_bands:  3 eigenvalues not converged
     c_bands:  1 eigenvalues not converged
     c_bands:  1 eigenvalues not converged
     c_bands:  5 eigenvalues not converged
     c_bands:  3 eigenvalues not converged
     c_bands:  3 eigenvalues not converged
     c_bands:  5 eigenvalues not converged
     c_bands:  3 eigenvalues not converged
     ethr =  6.89E-08,  avg # of iterations = 20.2

     negative rho (up, down):  1.669E+02 2.872E-02

     total cpu time spent up to now is    15157.3 secs

     total energy              =   -4555.96869379 Ry
     estimated scf accuracy    <       0.00010460 Ry

     total magnetization       =    -0.00     0.00    -0.07 Bohr mag/cell
     absolute magnetization    =    59.16 Bohr mag/cell

     iteration #343     ecut=    80.00 Ry     beta= 0.70
     Davidson diagonalization with overlap
     c_bands:  2 eigenvalues not converged
     c_bands:  2 eigenvalues not converged
     c_bands:  4 eigenvalues not converged
     c_bands:  2 eigenvalues not converged
     c_bands:  5 eigenvalues not converged
     c_bands:  4 eigenvalues not converged
     c_bands:  4 eigenvalues not converged
     c_bands:  5 eigenvalues not converged
     c_bands:  1 eigenvalues not converged
     c_bands:  2 eigenvalues not converged
     c_bands:  4 eigenvalues not converged
     c_bands:  5 eigenvalues not converged
     c_bands:  2 eigenvalues not converged
     ethr =  6.89E-08,  avg # of iterations = 20.0

     negative rho (up, down):  1.669E+02 2.873E-02

     total cpu time spent up to now is    15204.3 secs

     total energy              =   -4555.97097453 Ry
     estimated scf accuracy    <       0.00006550 Ry

     total magnetization       =    -0.00    -0.00    -0.09 Bohr mag/cell
     absolute magnetization    =    59.10 Bohr mag/cell

     iteration #344     ecut=    80.00 Ry     beta= 0.70
     Davidson diagonalization with overlap
     c_bands:  1 eigenvalues not converged
     c_bands:  2 eigenvalues not converged
     c_bands:  1 eigenvalues not converged
     c_bands:  1 eigenvalues not converged
     c_bands:  2 eigenvalues not converged
     c_bands:  2 eigenvalues not converged
     c_bands:  1 eigenvalues not converged
     c_bands:  1 eigenvalues not converged
     c_bands:  2 eigenvalues not converged
     c_bands:  2 eigenvalues not converged
     c_bands:  3 eigenvalues not converged
     ethr =  6.89E-08,  avg # of iterations = 18.7

     negative rho (up, down):  1.669E+02 2.875E-02

     total cpu time spent up to now is    15249.5 secs

     total energy              =   -4555.97014284 Ry
     estimated scf accuracy    <       0.00008253 Ry

     total magnetization       =     0.00    -0.00    -0.09 Bohr mag/cell
     absolute magnetization    =    59.15 Bohr mag/cell

     iteration #345     ecut=    80.00 Ry     beta= 0.70
     Davidson diagonalization with overlap
     c_bands:  1 eigenvalues not converged
     c_bands:  2 eigenvalues not converged
     c_bands:  2 eigenvalues not converged
     c_bands:  4 eigenvalues not converged
     c_bands:  2 eigenvalues not converged
     c_bands:  1 eigenvalues not converged
     c_bands:  1 eigenvalues not converged
     c_bands:  1 eigenvalues not converged
     c_bands:  5 eigenvalues not converged
     c_bands:  2 eigenvalues not converged
     c_bands:  2 eigenvalues not converged
     c_bands:  3 eigenvalues not converged
     c_bands:  2 eigenvalues not converged
     c_bands:  2 eigenvalues not converged
     ethr =  6.89E-08,  avg # of iterations = 20.5

     negative rho (up, down):  1.669E+02 2.873E-02

     total cpu time spent up to now is    15297.1 secs

     total energy              =   -4555.96880610 Ry
     estimated scf accuracy    <       0.00014010 Ry

     total magnetization       =     0.00    -0.00    -0.03 Bohr mag/cell
     absolute magnetization    =    59.18 Bohr mag/cell

     iteration #346     ecut=    80.00 Ry     beta= 0.70
     Davidson diagonalization with overlap
     c_bands:  2 eigenvalues not converged
     c_bands:  3 eigenvalues not converged
     c_bands:  4 eigenvalues not converged
     c_bands:  5 eigenvalues not converged
     c_bands:  2 eigenvalues not converged
     c_bands:  2 eigenvalues not converged
     c_bands:  1 eigenvalues not converged
     c_bands:  3 eigenvalues not converged
     c_bands:  4 eigenvalues not converged
     c_bands:  4 eigenvalues not converged
     c_bands:  4 eigenvalues not converged
     c_bands:  4 eigenvalues not converged
     c_bands:  5 eigenvalues not converged
     c_bands:  5 eigenvalues not converged
     c_bands:  2 eigenvalues not converged
     ethr =  6.89E-08,  avg # of iterations = 20.8

     negative rho (up, down):  1.669E+02 2.874E-02

     total cpu time spent up to now is    15347.6 secs

     total energy              =   -4555.96618730 Ry
     estimated scf accuracy    <       0.00016956 Ry

     total magnetization       =     0.00     0.00    -0.06 Bohr mag/cell
     absolute magnetization    =    59.20 Bohr mag/cell

     iteration #347     ecut=    80.00 Ry     beta= 0.70
     Davidson diagonalization with overlap
     c_bands:  1 eigenvalues not converged
     c_bands:  1 eigenvalues not converged
     c_bands:  5 eigenvalues not converged
     c_bands:  4 eigenvalues not converged
     c_bands:  1 eigenvalues not converged
     c_bands:  2 eigenvalues not converged
     c_bands:  2 eigenvalues not converged
     c_bands:  3 eigenvalues not converged
     c_bands:  5 eigenvalues not converged
     c_bands:  5 eigenvalues not converged
     c_bands:  5 eigenvalues not converged
     c_bands:  3 eigenvalues not converged
     c_bands:  5 eigenvalues not converged
     c_bands:  4 eigenvalues not converged
     c_bands:  5 eigenvalues not converged
     c_bands:  5 eigenvalues not converged
     c_bands:  4 eigenvalues not converged
     ethr =  6.89E-08,  avg # of iterations = 20.8

     negative rho (up, down):  1.669E+02 2.874E-02

     total cpu time spent up to now is    15399.1 secs

     total energy              =   -4555.96779975 Ry
     estimated scf accuracy    <       0.00005136 Ry

     total magnetization       =     0.00     0.00    -0.11 Bohr mag/cell
     absolute magnetization    =    59.10 Bohr mag/cell

     iteration #348     ecut=    80.00 Ry     beta= 0.70
     Davidson diagonalization with overlap
     c_bands:  2 eigenvalues not converged
     c_bands:  1 eigenvalues not converged
     c_bands:  2 eigenvalues not converged
     c_bands:  1 eigenvalues not converged
     c_bands:  3 eigenvalues not converged
     c_bands:  3 eigenvalues not converged
     c_bands:  1 eigenvalues not converged
     c_bands:  3 eigenvalues not converged
     c_bands:  3 eigenvalues not converged
     c_bands:  4 eigenvalues not converged
     ethr =  6.89E-08,  avg # of iterations = 18.6

     negative rho (up, down):  1.669E+02 2.874E-02

     total cpu time spent up to now is    15439.4 secs

     total energy              =   -4555.96683244 Ry
     estimated scf accuracy    <       0.00026985 Ry

     total magnetization       =     0.00    -0.00    -0.12 Bohr mag/cell
     absolute magnetization    =    59.05 Bohr mag/cell

     iteration #349     ecut=    80.00 Ry     beta= 0.70
     Davidson diagonalization with overlap
     c_bands:  1 eigenvalues not converged
     c_bands:  2 eigenvalues not converged
     c_bands:  4 eigenvalues not converged
     c_bands:  1 eigenvalues not converged
     c_bands:  3 eigenvalues not converged
     ethr =  6.89E-08,  avg # of iterations = 17.2

     negative rho (up, down):  1.669E+02 2.872E-02

     total cpu time spent up to now is    15468.1 secs

     total energy              =   -4555.96637713 Ry
     estimated scf accuracy    <       0.00068619 Ry

     total magnetization       =    -0.00     0.00    -0.14 Bohr mag/cell
     absolute magnetization    =    59.05 Bohr mag/cell

     iteration #350     ecut=    80.00 Ry     beta= 0.70
     Davidson diagonalization with overlap
     c_bands:  1 eigenvalues not converged
     c_bands:  1 eigenvalues not converged
     c_bands:  3 eigenvalues not converged
     c_bands:  2 eigenvalues not converged
     ethr =  6.89E-08,  avg # of iterations = 16.7

     negative rho (up, down):  1.669E+02 2.870E-02

     total cpu time spent up to now is    15492.6 secs

     total energy              =   -4555.96946709 Ry
     estimated scf accuracy    <       0.00122671 Ry

     total magnetization       =     0.00     0.00    -0.14 Bohr mag/cell
     absolute magnetization    =    59.08 Bohr mag/cell

     iteration #351     ecut=    80.00 Ry     beta= 0.70
     Davidson diagonalization with overlap
     ethr =  6.89E-08,  avg # of iterations = 12.2

     negative rho (up, down):  1.669E+02 2.872E-02

     total cpu time spent up to now is    15510.2 secs

     total energy              =   -4555.97051427 Ry
     estimated scf accuracy    <       0.00032510 Ry

     total magnetization       =    -0.00     0.00    -0.14 Bohr mag/cell
     absolute magnetization    =    59.10 Bohr mag/cell

     iteration #352     ecut=    80.00 Ry     beta= 0.70
     Davidson diagonalization with overlap
     c_bands:  3 eigenvalues not converged
     c_bands:  1 eigenvalues not converged
     ethr =  6.89E-08,  avg # of iterations = 17.3

     negative rho (up, down):  1.669E+02 2.870E-02

     total cpu time spent up to now is    15530.0 secs

     total energy              =   -4555.97148353 Ry
     estimated scf accuracy    <       0.00005697 Ry

     total magnetization       =    -0.00     0.00    -0.08 Bohr mag/cell
     absolute magnetization    =    59.07 Bohr mag/cell

     iteration #353     ecut=    80.00 Ry     beta= 0.70
     Davidson diagonalization with overlap
     c_bands:  1 eigenvalues not converged
     c_bands:  2 eigenvalues not converged
     c_bands:  1 eigenvalues not converged
     c_bands:  2 eigenvalues not converged
     c_bands:  1 eigenvalues not converged
     c_bands:  1 eigenvalues not converged
     c_bands:  1 eigenvalues not converged
     c_bands:  1 eigenvalues not converged
     ethr =  6.89E-08,  avg # of iterations = 17.7

     negative rho (up, down):  1.669E+02 2.874E-02

     total cpu time spent up to now is    15549.0 secs

     total energy              =   -4555.96944309 Ry
     estimated scf accuracy    <       0.00008856 Ry

     total magnetization       =     0.00    -0.00    -0.10 Bohr mag/cell
     absolute magnetization    =    59.11 Bohr mag/cell

     iteration #354     ecut=    80.00 Ry     beta= 0.70
     Davidson diagonalization with overlap
     c_bands:  4 eigenvalues not converged
     c_bands:  5 eigenvalues not converged
     c_bands:  2 eigenvalues not converged
     c_bands:  2 eigenvalues not converged
     c_bands:  3 eigenvalues not converged
     c_bands:  1 eigenvalues not converged
     c_bands:  1 eigenvalues not converged
     c_bands:  2 eigenvalues not converged
     c_bands:  1 eigenvalues not converged
     c_bands:  2 eigenvalues not converged
     c_bands:  1 eigenvalues not converged
     c_bands:  4 eigenvalues not converged
     ethr =  6.89E-08,  avg # of iterations = 19.6

     negative rho (up, down):  1.669E+02 2.874E-02

     total cpu time spent up to now is    15569.2 secs

     total energy              =   -4555.96856837 Ry
     estimated scf accuracy    <       0.00008956 Ry

     total magnetization       =     0.00    -0.00    -0.08 Bohr mag/cell
     absolute magnetization    =    59.14 Bohr mag/cell

     iteration #355     ecut=    80.00 Ry     beta= 0.70
     Davidson diagonalization with overlap
     c_bands:  4 eigenvalues not converged
     c_bands:  5 eigenvalues not converged
     c_bands:  1 eigenvalues not converged
     c_bands:  3 eigenvalues not converged
     c_bands:  5 eigenvalues not converged
     c_bands:  1 eigenvalues not converged
     c_bands:  2 eigenvalues not converged
     c_bands:  5 eigenvalues not converged
     c_bands:  1 eigenvalues not converged
     c_bands:  2 eigenvalues not converged
     c_bands:  1 eigenvalues not converged
     c_bands:  4 eigenvalues not converged
     c_bands:  1 eigenvalues not converged
     c_bands:  1 eigenvalues not converged
     ethr =  6.89E-08,  avg # of iterations = 20.3

     negative rho (up, down):  1.669E+02 2.874E-02

     total cpu time spent up to now is    15590.1 secs

     total energy              =   -4555.96988690 Ry
     estimated scf accuracy    <       0.00006041 Ry

     total magnetization       =    -0.00    -0.00    -0.05 Bohr mag/cell
     absolute magnetization    =    59.12 Bohr mag/cell

     iteration #356     ecut=    80.00 Ry     beta= 0.70
     Davidson diagonalization with overlap
     c_bands:  3 eigenvalues not converged
     c_bands:  2 eigenvalues not converged
     c_bands:  4 eigenvalues not converged
     c_bands:  2 eigenvalues not converged
     c_bands:  4 eigenvalues not converged
     c_bands:  3 eigenvalues not converged
     c_bands:  3 eigenvalues not converged
     c_bands:  3 eigenvalues not converged
     c_bands:  2 eigenvalues not converged
     c_bands:  2 eigenvalues not converged
     c_bands:  4 eigenvalues not converged
     c_bands:  2 eigenvalues not converged
     c_bands:  1 eigenvalues not converged
     c_bands:  2 eigenvalues not converged
     c_bands:  3 eigenvalues not converged
     c_bands:  3 eigenvalues not converged
     c_bands:  5 eigenvalues not converged
     ethr =  6.89E-08,  avg # of iterations = 20.3

     negative rho (up, down):  1.669E+02 2.875E-02

     total cpu time spent up to now is    15611.6 secs

     total energy              =   -4555.96885454 Ry
     estimated scf accuracy    <       0.00013355 Ry

     total magnetization       =    -0.00    -0.00    -0.11 Bohr mag/cell
     absolute magnetization    =    59.17 Bohr mag/cell

     iteration #357     ecut=    80.00 Ry     beta= 0.70
     Davidson diagonalization with overlap
     c_bands:  2 eigenvalues not converged
     c_bands:  5 eigenvalues not converged
     c_bands:  2 eigenvalues not converged
     c_bands:  1 eigenvalues not converged
     c_bands:  3 eigenvalues not converged
     c_bands:  4 eigenvalues not converged
     c_bands:  3 eigenvalues not converged
     c_bands:  3 eigenvalues not converged
     c_bands:  4 eigenvalues not converged
     c_bands:  1 eigenvalues not converged
     c_bands:  5 eigenvalues not converged
     c_bands:  5 eigenvalues not converged
     c_bands:  5 eigenvalues not converged
     c_bands:  1 eigenvalues not converged
     c_bands:  3 eigenvalues not converged
     c_bands:  2 eigenvalues not converged
     c_bands:  4 eigenvalues not converged
     c_bands:  3 eigenvalues not converged
     c_bands:  4 eigenvalues not converged
     c_bands:  1 eigenvalues not converged
     c_bands:  4 eigenvalues not converged
     ethr =  6.89E-08,  avg # of iterations = 20.0

     negative rho (up, down):  1.669E+02 2.873E-02

     total cpu time spent up to now is    15631.8 secs

     total energy              =   -4555.97098256 Ry
     estimated scf accuracy    <       0.00003450 Ry

     total magnetization       =     0.00     0.00    -0.09 Bohr mag/cell
     absolute magnetization    =    59.08 Bohr mag/cell

     iteration #358     ecut=    80.00 Ry     beta= 0.70
     Davidson diagonalization with overlap
     c_bands:  4 eigenvalues not converged
     c_bands:  5 eigenvalues not converged
     c_bands:  1 eigenvalues not converged
     c_bands:  4 eigenvalues not converged
     c_bands:  1 eigenvalues not converged
     c_bands:  1 eigenvalues not converged
     c_bands:  2 eigenvalues not converged
     c_bands:  5 eigenvalues not converged
     c_bands:  2 eigenvalues not converged
     c_bands:  2 eigenvalues not converged
     c_bands:  1 eigenvalues not converged
     c_bands:  2 eigenvalues not converged
     ethr =  6.89E-08,  avg # of iterations = 18.8

     negative rho (up, down):  1.669E+02 2.873E-02

     total cpu time spent up to now is    15651.2 secs

     total energy              =   -4555.96944722 Ry
     estimated scf accuracy    <       0.00008946 Ry

     total magnetization       =    -0.00     0.00    -0.16 Bohr mag/cell
     absolute magnetization    =    59.16 Bohr mag/cell

     iteration #359     ecut=    80.00 Ry     beta= 0.70
     Davidson diagonalization with overlap
     c_bands:  3 eigenvalues not converged
     c_bands:  2 eigenvalues not converged
     c_bands:  1 eigenvalues not converged
     c_bands:  2 eigenvalues not converged
     c_bands:  4 eigenvalues not converged
     c_bands:  4 eigenvalues not converged
     c_bands:  1 eigenvalues not converged
     c_bands:  4 eigenvalues not converged
     c_bands:  3 eigenvalues not converged
     c_bands:  2 eigenvalues not converged
     c_bands:  4 eigenvalues not converged
     c_bands:  2 eigenvalues not converged
     c_bands:  1 eigenvalues not converged
     c_bands:  1 eigenvalues not converged
     c_bands:  4 eigenvalues not converged
     c_bands:  4 eigenvalues not converged
     ethr =  6.89E-08,  avg # of iterations = 19.8

     negative rho (up, down):  1.669E+02 2.874E-02

     total cpu time spent up to now is    15671.2 secs

     total energy              =   -4555.97003332 Ry
     estimated scf accuracy    <       0.00008317 Ry

     total magnetization       =     0.00     0.00    -0.03 Bohr mag/cell
     absolute magnetization    =    59.13 Bohr mag/cell

     iteration #360     ecut=    80.00 Ry     beta= 0.70
     Davidson diagonalization with overlap
     c_bands:  2 eigenvalues not converged
     c_bands:  3 eigenvalues not converged
     c_bands:  5 eigenvalues not converged
     c_bands:  2 eigenvalues not converged
     c_bands:  2 eigenvalues not converged
     c_bands:  2 eigenvalues not converged
     c_bands:  3 eigenvalues not converged
     c_bands:  2 eigenvalues not converged
     c_bands:  3 eigenvalues not converged
     ethr =  6.89E-08,  avg # of iterations = 18.9

     negative rho (up, down):  1.669E+02 2.874E-02

     total cpu time spent up to now is    15692.3 secs

     total energy              =   -4555.96822948 Ry
     estimated scf accuracy    <       0.00008327 Ry

     total magnetization       =    -0.00    -0.00    -0.07 Bohr mag/cell
     absolute magnetization    =    59.15 Bohr mag/cell

     iteration #361     ecut=    80.00 Ry     beta= 0.70
     Davidson diagonalization with overlap
     c_bands:  3 eigenvalues not converged
     c_bands:  2 eigenvalues not converged
     c_bands:  2 eigenvalues not converged
     c_bands:  1 eigenvalues not converged
     c_bands:  3 eigenvalues not converged
     c_bands:  2 eigenvalues not converged
     c_bands:  2 eigenvalues not converged
     c_bands:  2 eigenvalues not converged
     c_bands:  2 eigenvalues not converged
     ethr =  6.89E-08,  avg # of iterations = 19.5

     negative rho (up, down):  1.669E+02 2.874E-02

     total cpu time spent up to now is    15712.9 secs

     total energy              =   -4555.96375902 Ry
     estimated scf accuracy    <       0.00011788 Ry

     total magnetization       =     0.00     0.00    -0.17 Bohr mag/cell
     absolute magnetization    =    59.17 Bohr mag/cell

     iteration #362     ecut=    80.00 Ry     beta= 0.70
     Davidson diagonalization with overlap
     c_bands:  2 eigenvalues not converged
     c_bands:  2 eigenvalues not converged
     c_bands:  1 eigenvalues not converged
     c_bands:  1 eigenvalues not converged
     c_bands:  1 eigenvalues not converged
     c_bands:  3 eigenvalues not converged
     c_bands:  2 eigenvalues not converged
     c_bands:  1 eigenvalues not converged
     c_bands:  1 eigenvalues not converged
     c_bands:  2 eigenvalues not converged
     c_bands:  3 eigenvalues not converged
     c_bands:  4 eigenvalues not converged
     c_bands:  1 eigenvalues not converged
     c_bands:  1 eigenvalues not converged
     c_bands:  2 eigenvalues not converged
     ethr =  6.89E-08,  avg # of iterations = 19.7

     negative rho (up, down):  1.669E+02 2.873E-02

     total cpu time spent up to now is    15746.8 secs

     total energy              =   -4555.96350048 Ry
     estimated scf accuracy    <       0.00100444 Ry

     total magnetization       =    -0.00     0.00    -0.07 Bohr mag/cell
     absolute magnetization    =    59.10 Bohr mag/cell

     iteration #363     ecut=    80.00 Ry     beta= 0.70
     Davidson diagonalization with overlap
     c_bands:  1 eigenvalues not converged
     c_bands:  2 eigenvalues not converged
     c_bands:  3 eigenvalues not converged
     c_bands:  3 eigenvalues not converged
     c_bands:  2 eigenvalues not converged
     c_bands:  2 eigenvalues not converged
     c_bands:  1 eigenvalues not converged
     c_bands:  4 eigenvalues not converged
     c_bands:  1 eigenvalues not converged
     c_bands:  3 eigenvalues not converged
     c_bands:  2 eigenvalues not converged
     c_bands:  2 eigenvalues not converged
     c_bands:  2 eigenvalues not converged
     ethr =  6.89E-08,  avg # of iterations = 20.0

     negative rho (up, down):  1.669E+02 2.870E-02

     total cpu time spent up to now is    15799.5 secs

     total energy              =   -4555.96905037 Ry
     estimated scf accuracy    <       0.00134768 Ry

     total magnetization       =     0.00     0.00    -0.09 Bohr mag/cell
     absolute magnetization    =    59.09 Bohr mag/cell

     iteration #364     ecut=    80.00 Ry     beta= 0.70
     Davidson diagonalization with overlap
     c_bands:  1 eigenvalues not converged
     c_bands:  1 eigenvalues not converged
     c_bands:  3 eigenvalues not converged
     c_bands:  1 eigenvalues not converged
     c_bands:  2 eigenvalues not converged
     c_bands:  1 eigenvalues not converged
     c_bands:  2 eigenvalues not converged
     c_bands:  2 eigenvalues not converged
     c_bands:  3 eigenvalues not converged
     c_bands:  1 eigenvalues not converged
     c_bands:  1 eigenvalues not converged
     c_bands:  2 eigenvalues not converged
     c_bands:  1 eigenvalues not converged
     ethr =  6.89E-08,  avg # of iterations = 19.1

     negative rho (up, down):  1.669E+02 2.872E-02

     total cpu time spent up to now is    15849.2 secs

     total energy              =   -4555.97046234 Ry
     estimated scf accuracy    <       0.00006113 Ry

     total magnetization       =     0.00    -0.00    -0.08 Bohr mag/cell
     absolute magnetization    =    59.12 Bohr mag/cell

     iteration #365     ecut=    80.00 Ry     beta= 0.70
     Davidson diagonalization with overlap
     c_bands:  1 eigenvalues not converged
     c_bands:  2 eigenvalues not converged
     c_bands:  2 eigenvalues not converged
     c_bands:  1 eigenvalues not converged
     c_bands:  1 eigenvalues not converged
     c_bands:  4 eigenvalues not converged
     c_bands:  2 eigenvalues not converged
     c_bands:  1 eigenvalues not converged
     c_bands:  1 eigenvalues not converged
     c_bands:  2 eigenvalues not converged
     c_bands:  1 eigenvalues not converged
     ethr =  6.89E-08,  avg # of iterations = 20.0

     negative rho (up, down):  1.669E+02 2.872E-02

     total cpu time spent up to now is    15896.0 secs

     total energy              =   -4555.95985523 Ry
     estimated scf accuracy    <       0.00009586 Ry

     total magnetization       =    -0.00     0.00    -0.08 Bohr mag/cell
     absolute magnetization    =    59.14 Bohr mag/cell

     iteration #366     ecut=    80.00 Ry     beta= 0.70
     Davidson diagonalization with overlap
     c_bands:  4 eigenvalues not converged
     c_bands:  2 eigenvalues not converged
     c_bands:  4 eigenvalues not converged
     c_bands:  2 eigenvalues not converged
     c_bands:  3 eigenvalues not converged
     c_bands:  3 eigenvalues not converged
     ethr =  6.89E-08,  avg # of iterations = 19.5

     negative rho (up, down):  1.669E+02 2.871E-02

     total cpu time spent up to now is    15944.4 secs

     total energy              =   -4555.96632848 Ry
     estimated scf accuracy    <       0.00193220 Ry

     total magnetization       =     0.00     0.00    -0.10 Bohr mag/cell
     absolute magnetization    =    59.01 Bohr mag/cell

     iteration #367     ecut=    80.00 Ry     beta= 0.70
     Davidson diagonalization with overlap
     c_bands:  1 eigenvalues not converged
     c_bands:  1 eigenvalues not converged
     c_bands:  4 eigenvalues not converged
     c_bands:  1 eigenvalues not converged
     ethr =  6.89E-08,  avg # of iterations = 17.9

     negative rho (up, down):  1.669E+02 2.874E-02

     total cpu time spent up to now is    15992.8 secs

     total energy              =   -4555.96062823 Ry
     estimated scf accuracy    <       0.00013385 Ry

     total magnetization       =     0.00     0.00    -0.10 Bohr mag/cell
     absolute magnetization    =    59.10 Bohr mag/cell

     iteration #368     ecut=    80.00 Ry     beta= 0.70
     Davidson diagonalization with overlap
     c_bands:  1 eigenvalues not converged
     c_bands:  1 eigenvalues not converged
     c_bands:  1 eigenvalues not converged
     c_bands:  1 eigenvalues not converged
     c_bands:  1 eigenvalues not converged
     ethr =  6.89E-08,  avg # of iterations = 17.6

     negative rho (up, down):  1.669E+02 2.874E-02

     total cpu time spent up to now is    16035.4 secs

     total energy              =   -4555.96210917 Ry
     estimated scf accuracy    <       0.00028269 Ry

     total magnetization       =     0.00     0.00    -0.12 Bohr mag/cell
     absolute magnetization    =    59.04 Bohr mag/cell

     iteration #369     ecut=    80.00 Ry     beta= 0.70
     Davidson diagonalization with overlap
     c_bands:  1 eigenvalues not converged
     c_bands:  1 eigenvalues not converged
     c_bands:  1 eigenvalues not converged
     c_bands:  2 eigenvalues not converged
     ethr =  6.89E-08,  avg # of iterations = 17.0

     negative rho (up, down):  1.669E+02 2.874E-02

     total cpu time spent up to now is    16078.1 secs

     total energy              =   -4555.96146897 Ry
     estimated scf accuracy    <       0.00031820 Ry

     total magnetization       =     0.00    -0.00    -0.07 Bohr mag/cell
     absolute magnetization    =    59.05 Bohr mag/cell

     iteration #370     ecut=    80.00 Ry     beta= 0.70
     Davidson diagonalization with overlap
     c_bands:  2 eigenvalues not converged
     ethr =  6.89E-08,  avg # of iterations = 18.5

     negative rho (up, down):  1.669E+02 2.873E-02

     total cpu time spent up to now is    16121.9 secs

     total energy              =   -4555.96161671 Ry
     estimated scf accuracy    <       0.00031879 Ry

     total magnetization       =    -0.00    -0.00    -0.10 Bohr mag/cell
     absolute magnetization    =    59.06 Bohr mag/cell

     iteration #371     ecut=    80.00 Ry     beta= 0.70
     Davidson diagonalization with overlap
     c_bands:  2 eigenvalues not converged
     c_bands:  2 eigenvalues not converged
     c_bands:  1 eigenvalues not converged
     c_bands:  1 eigenvalues not converged
     c_bands:  2 eigenvalues not converged
     ethr =  6.89E-08,  avg # of iterations = 18.8

     negative rho (up, down):  1.669E+02 2.871E-02

     total cpu time spent up to now is    16168.9 secs

     total energy              =   -4555.96186982 Ry
     estimated scf accuracy    <       0.00193597 Ry

     total magnetization       =     0.00    -0.00    -0.09 Bohr mag/cell
     absolute magnetization    =    59.00 Bohr mag/cell

     iteration #372     ecut=    80.00 Ry     beta= 0.70
     Davidson diagonalization with overlap
     c_bands:  2 eigenvalues not converged
     c_bands:  3 eigenvalues not converged
     c_bands:  1 eigenvalues not converged
     c_bands:  2 eigenvalues not converged
     c_bands:  2 eigenvalues not converged
     ethr =  6.89E-08,  avg # of iterations = 18.1

     negative rho (up, down):  1.669E+02 2.868E-02

     total cpu time spent up to now is    16207.6 secs

     total energy              =   -4555.96764100 Ry
     estimated scf accuracy    <       0.00200328 Ry

     total magnetization       =     0.00     0.00    -0.12 Bohr mag/cell
     absolute magnetization    =    59.00 Bohr mag/cell

     iteration #373     ecut=    80.00 Ry     beta= 0.70
     Davidson diagonalization with overlap
     ethr =  6.89E-08,  avg # of iterations = 12.1

     negative rho (up, down):  1.669E+02 2.872E-02

     total cpu time spent up to now is    16246.6 secs

     total energy              =   -4555.96137197 Ry
     estimated scf accuracy    <       0.00008937 Ry

     total magnetization       =     0.00    -0.00    -0.12 Bohr mag/cell
     absolute magnetization    =    59.06 Bohr mag/cell

     iteration #374     ecut=    80.00 Ry     beta= 0.70
     Davidson diagonalization with overlap
     c_bands:  4 eigenvalues not converged
     c_bands:  1 eigenvalues not converged
     c_bands:  2 eigenvalues not converged
     c_bands:  2 eigenvalues not converged
     c_bands:  4 eigenvalues not converged
     c_bands:  5 eigenvalues not converged
     c_bands:  5 eigenvalues not converged
     c_bands:  1 eigenvalues not converged
     c_bands:  5 eigenvalues not converged
     c_bands:  2 eigenvalues not converged
     c_bands:  1 eigenvalues not converged
     c_bands:  4 eigenvalues not converged
     c_bands:  3 eigenvalues not converged
     ethr =  6.89E-08,  avg # of iterations = 18.9

     negative rho (up, down):  1.669E+02 2.873E-02

     total cpu time spent up to now is    16290.2 secs

     total energy              =   -4555.97038394 Ry
     estimated scf accuracy    <       0.00031683 Ry

     total magnetization       =     0.00    -0.00    -0.13 Bohr mag/cell
     absolute magnetization    =    59.07 Bohr mag/cell

     iteration #375     ecut=    80.00 Ry     beta= 0.70
     Davidson diagonalization with overlap
     c_bands:  3 eigenvalues not converged
     c_bands:  1 eigenvalues not converged
     ethr =  6.89E-08,  avg # of iterations = 16.6

     negative rho (up, down):  1.669E+02 2.870E-02

     total cpu time spent up to now is    16333.5 secs

     total energy              =   -4555.97098535 Ry
     estimated scf accuracy    <       0.00007180 Ry

     total magnetization       =     0.00    -0.00    -0.07 Bohr mag/cell
     absolute magnetization    =    59.08 Bohr mag/cell

     iteration #376     ecut=    80.00 Ry     beta= 0.70
     Davidson diagonalization with overlap
     c_bands:  1 eigenvalues not converged
     c_bands:  5 eigenvalues not converged
     c_bands:  3 eigenvalues not converged
     c_bands:  2 eigenvalues not converged
     c_bands:  2 eigenvalues not converged
     c_bands:  1 eigenvalues not converged
     c_bands:  1 eigenvalues not converged
     c_bands:  2 eigenvalues not converged
     c_bands:  1 eigenvalues not converged
     c_bands:  3 eigenvalues not converged
     c_bands:  3 eigenvalues not converged
     c_bands:  3 eigenvalues not converged
     c_bands:  1 eigenvalues not converged
     c_bands:  2 eigenvalues not converged
     c_bands:  2 eigenvalues not converged
     c_bands:  2 eigenvalues not converged
     c_bands:  2 eigenvalues not converged
     ethr =  6.89E-08,  avg # of iterations = 19.6

     negative rho (up, down):  1.669E+02 2.873E-02

     total cpu time spent up to now is    16378.4 secs

     total energy              =   -4555.96738503 Ry
     estimated scf accuracy    <       0.00010480 Ry

     total magnetization       =    -0.00    -0.00    -0.05 Bohr mag/cell
     absolute magnetization    =    59.15 Bohr mag/cell

     iteration #377     ecut=    80.00 Ry     beta= 0.70
     Davidson diagonalization with overlap
     c_bands:  5 eigenvalues not converged
     c_bands:  2 eigenvalues not converged
     c_bands:  3 eigenvalues not converged
     c_bands:  3 eigenvalues not converged
     c_bands:  2 eigenvalues not converged
     c_bands:  2 eigenvalues not converged
     c_bands:  2 eigenvalues not converged
     c_bands:  4 eigenvalues not converged
     c_bands:  1 eigenvalues not converged
     c_bands:  4 eigenvalues not converged
     c_bands:  3 eigenvalues not converged
     c_bands:  1 eigenvalues not converged
     c_bands:  5 eigenvalues not converged
     c_bands:  5 eigenvalues not converged
     ethr =  6.89E-08,  avg # of iterations = 20.5

     negative rho (up, down):  1.669E+02 2.873E-02

     total cpu time spent up to now is    16427.6 secs

     total energy              =   -4555.96901081 Ry
     estimated scf accuracy    <       0.00012498 Ry

     total magnetization       =    -0.00     0.00    -0.04 Bohr mag/cell
     absolute magnetization    =    59.17 Bohr mag/cell

     iteration #378     ecut=    80.00 Ry     beta= 0.70
     Davidson diagonalization with overlap
     c_bands:  3 eigenvalues not converged
     c_bands:  2 eigenvalues not converged
     c_bands:  1 eigenvalues not converged
     c_bands:  5 eigenvalues not converged
     c_bands:  1 eigenvalues not converged
     c_bands:  4 eigenvalues not converged
     c_bands:  2 eigenvalues not converged
     c_bands:  3 eigenvalues not converged
     c_bands:  5 eigenvalues not converged
     c_bands:  3 eigenvalues not converged
     c_bands:  5 eigenvalues not converged
     ethr =  6.89E-08,  avg # of iterations = 20.4

     negative rho (up, down):  1.669E+02 2.873E-02

     total cpu time spent up to now is    16473.4 secs

     total energy              =   -4555.97120805 Ry
     estimated scf accuracy    <       0.00008980 Ry

     total magnetization       =    -0.00     0.00    -0.14 Bohr mag/cell
     absolute magnetization    =    59.14 Bohr mag/cell

     iteration #379     ecut=    80.00 Ry     beta= 0.70
     Davidson diagonalization with overlap
     c_bands:  3 eigenvalues not converged
     c_bands:  2 eigenvalues not converged
     c_bands:  2 eigenvalues not converged
     c_bands:  1 eigenvalues not converged
     c_bands:  1 eigenvalues not converged
     c_bands:  1 eigenvalues not converged
     ethr =  6.89E-08,  avg # of iterations = 17.6

     negative rho (up, down):  1.669E+02 2.874E-02

     total cpu time spent up to now is    16516.0 secs

     total energy              =   -4555.97322370 Ry
     estimated scf accuracy    <       0.00011108 Ry

     total magnetization       =     0.00     0.00    -0.06 Bohr mag/cell
     absolute magnetization    =    59.14 Bohr mag/cell

     iteration #380     ecut=    80.00 Ry     beta= 0.70
     Davidson diagonalization with overlap
     c_bands:  2 eigenvalues not converged
     c_bands:  1 eigenvalues not converged
     c_bands:  1 eigenvalues not converged
     ethr =  6.89E-08,  avg # of iterations = 17.5

     negative rho (up, down):  1.669E+02 2.875E-02

     total cpu time spent up to now is    16556.0 secs

     total energy              =   -4555.97035998 Ry
     estimated scf accuracy    <       0.00011597 Ry

     total magnetization       =     0.00    -0.00    -0.12 Bohr mag/cell
     absolute magnetization    =    59.15 Bohr mag/cell

     iteration #381     ecut=    80.00 Ry     beta= 0.70
     Davidson diagonalization with overlap
     c_bands:  2 eigenvalues not converged
     c_bands:  1 eigenvalues not converged
     c_bands:  2 eigenvalues not converged
     c_bands:  2 eigenvalues not converged
     c_bands:  1 eigenvalues not converged
     c_bands:  1 eigenvalues not converged
     c_bands:  2 eigenvalues not converged
     ethr =  6.89E-08,  avg # of iterations = 19.5

     negative rho (up, down):  1.669E+02 2.874E-02

     total cpu time spent up to now is    16598.8 secs

     total energy              =   -4555.96820015 Ry
     estimated scf accuracy    <       0.00009336 Ry

     total magnetization       =     0.00     0.00    -0.09 Bohr mag/cell
     absolute magnetization    =    59.15 Bohr mag/cell

     iteration #382     ecut=    80.00 Ry     beta= 0.70
     Davidson diagonalization with overlap
     c_bands:  2 eigenvalues not converged
     c_bands:  3 eigenvalues not converged
     c_bands:  4 eigenvalues not converged
     c_bands:  1 eigenvalues not converged
     c_bands:  2 eigenvalues not converged
     c_bands:  5 eigenvalues not converged
     c_bands:  3 eigenvalues not converged
     c_bands:  2 eigenvalues not converged
     c_bands:  1 eigenvalues not converged
     c_bands:  1 eigenvalues not converged
     ethr =  6.89E-08,  avg # of iterations = 19.1

     negative rho (up, down):  1.669E+02 2.875E-02

     total cpu time spent up to now is    16643.9 secs

     total energy              =   -4555.96518978 Ry
     estimated scf accuracy    <       0.00012208 Ry

     total magnetization       =    -0.00    -0.00    -0.16 Bohr mag/cell
     absolute magnetization    =    59.13 Bohr mag/cell

     iteration #383     ecut=    80.00 Ry     beta= 0.70
     Davidson diagonalization with overlap
     c_bands:  2 eigenvalues not converged
     c_bands:  1 eigenvalues not converged
     c_bands:  3 eigenvalues not converged
     c_bands:  4 eigenvalues not converged
     c_bands:  1 eigenvalues not converged
     c_bands:  1 eigenvalues not converged
     c_bands:  2 eigenvalues not converged
     c_bands:  4 eigenvalues not converged
     c_bands:  3 eigenvalues not converged
     c_bands:  2 eigenvalues not converged
     c_bands:  3 eigenvalues not converged
     c_bands:  1 eigenvalues not converged
     c_bands:  5 eigenvalues not converged
     c_bands:  2 eigenvalues not converged
     c_bands:  4 eigenvalues not converged
     ethr =  6.89E-08,  avg # of iterations = 19.9

     negative rho (up, down):  1.669E+02 2.873E-02

     total cpu time spent up to now is    16690.9 secs

     total energy              =   -4555.96616469 Ry
     estimated scf accuracy    <       0.00037259 Ry

     total magnetization       =     0.00     0.00    -0.02 Bohr mag/cell
     absolute magnetization    =    59.12 Bohr mag/cell

     iteration #384     ecut=    80.00 Ry     beta= 0.70
     Davidson diagonalization with overlap
     c_bands:  1 eigenvalues not converged
     c_bands:  2 eigenvalues not converged
     c_bands:  1 eigenvalues not converged
     c_bands:  1 eigenvalues not converged
     c_bands:  3 eigenvalues not converged
     c_bands:  2 eigenvalues not converged
     c_bands:  2 eigenvalues not converged
     c_bands:  3 eigenvalues not converged
     c_bands:  2 eigenvalues not converged
     c_bands:  4 eigenvalues not converged
     c_bands:  5 eigenvalues not converged
     c_bands:  3 eigenvalues not converged
     c_bands:  2 eigenvalues not converged
     c_bands:  3 eigenvalues not converged
     c_bands:  3 eigenvalues not converged
     c_bands:  3 eigenvalues not converged
     c_bands:  2 eigenvalues not converged
     ethr =  6.89E-08,  avg # of iterations = 20.1

     negative rho (up, down):  1.669E+02 2.873E-02

     total cpu time spent up to now is    16738.0 secs

     total energy              =   -4555.96973204 Ry
     estimated scf accuracy    <       0.00032406 Ry

     total magnetization       =    -0.00     0.00    -0.06 Bohr mag/cell
     absolute magnetization    =    59.11 Bohr mag/cell

     iteration #385     ecut=    80.00 Ry     beta= 0.70
     Davidson diagonalization with overlap
     c_bands:  2 eigenvalues not converged
     c_bands:  5 eigenvalues not converged
     c_bands:  1 eigenvalues not converged
     c_bands:  1 eigenvalues not converged
     c_bands:  4 eigenvalues not converged
     c_bands:  2 eigenvalues not converged
     c_bands:  4 eigenvalues not converged
     c_bands:  2 eigenvalues not converged
     c_bands:  5 eigenvalues not converged
     c_bands:  5 eigenvalues not converged
     c_bands:  1 eigenvalues not converged
     c_bands:  4 eigenvalues not converged
     c_bands:  2 eigenvalues not converged
     c_bands:  5 eigenvalues not converged
     c_bands:  4 eigenvalues not converged
     c_bands:  2 eigenvalues not converged
     ethr =  6.89E-08,  avg # of iterations = 19.6

     negative rho (up, down):  1.669E+02 2.873E-02

     total cpu time spent up to now is    16786.8 secs

     total energy              =   -4555.96869528 Ry
     estimated scf accuracy    <       0.00007144 Ry

     total magnetization       =    -0.00    -0.00    -0.12 Bohr mag/cell
     absolute magnetization    =    59.11 Bohr mag/cell

     iteration #386     ecut=    80.00 Ry     beta= 0.70
     Davidson diagonalization with overlap
     c_bands:  1 eigenvalues not converged
     c_bands:  1 eigenvalues not converged
     c_bands:  1 eigenvalues not converged
     c_bands:  2 eigenvalues not converged
     c_bands:  2 eigenvalues not converged
     c_bands:  2 eigenvalues not converged
     c_bands:  5 eigenvalues not converged
     c_bands:  5 eigenvalues not converged
     c_bands:  1 eigenvalues not converged
     c_bands:  5 eigenvalues not converged
     c_bands:  5 eigenvalues not converged
     c_bands:  4 eigenvalues not converged
     c_bands:  4 eigenvalues not converged
     c_bands:  1 eigenvalues not converged
     c_bands:  4 eigenvalues not converged
     c_bands:  5 eigenvalues not converged
     c_bands:  5 eigenvalues not converged
     ethr =  6.89E-08,  avg # of iterations = 20.1

     negative rho (up, down):  1.669E+02 2.873E-02

     total cpu time spent up to now is    16833.4 secs

     total energy              =   -4555.96814705 Ry
     estimated scf accuracy    <       0.00011911 Ry

     total magnetization       =     0.00     0.00    -0.07 Bohr mag/cell
     absolute magnetization    =    59.16 Bohr mag/cell

     iteration #387     ecut=    80.00 Ry     beta= 0.70
     Davidson diagonalization with overlap
     c_bands:  3 eigenvalues not converged
     c_bands:  5 eigenvalues not converged
     c_bands:  2 eigenvalues not converged
     c_bands:  5 eigenvalues not converged
     c_bands:  1 eigenvalues not converged
     c_bands:  2 eigenvalues not converged
     c_bands:  4 eigenvalues not converged
     c_bands:  4 eigenvalues not converged
     c_bands:  5 eigenvalues not converged
     c_bands:  2 eigenvalues not converged
     c_bands:  3 eigenvalues not converged
     c_bands:  2 eigenvalues not converged
     c_bands:  5 eigenvalues not converged
     ethr =  6.89E-08,  avg # of iterations = 21.3

     negative rho (up, down):  1.669E+02 2.874E-02

     total cpu time spent up to now is    16883.8 secs

     total energy              =   -4555.96627950 Ry
     estimated scf accuracy    <       0.00019204 Ry

     total magnetization       =     0.00    -0.00    -0.11 Bohr mag/cell
     absolute magnetization    =    59.20 Bohr mag/cell

     iteration #388     ecut=    80.00 Ry     beta= 0.70
     Davidson diagonalization with overlap
     c_bands:  4 eigenvalues not converged
     c_bands:  5 eigenvalues not converged
     c_bands:  4 eigenvalues not converged
     c_bands:  4 eigenvalues not converged
     c_bands:  5 eigenvalues not converged
     c_bands:  4 eigenvalues not converged
     c_bands:  1 eigenvalues not converged
     c_bands:  4 eigenvalues not converged
     c_bands:  3 eigenvalues not converged
     c_bands:  5 eigenvalues not converged
     c_bands:  4 eigenvalues not converged
     c_bands:  5 eigenvalues not converged
     c_bands:  4 eigenvalues not converged
     c_bands:  3 eigenvalues not converged
     c_bands:  4 eigenvalues not converged
     c_bands:  4 eigenvalues not converged
     c_bands:  5 eigenvalues not converged
     c_bands:  2 eigenvalues not converged
     ethr =  6.89E-08,  avg # of iterations = 21.7

     negative rho (up, down):  1.669E+02 2.874E-02

     total cpu time spent up to now is    16930.5 secs

     total energy              =   -4555.96867595 Ry
     estimated scf accuracy    <       0.00007790 Ry

     total magnetization       =    -0.00    -0.00    -0.11 Bohr mag/cell
     absolute magnetization    =    59.15 Bohr mag/cell

     iteration #389     ecut=    80.00 Ry     beta= 0.70
     Davidson diagonalization with overlap
     c_bands:  3 eigenvalues not converged
     c_bands:  5 eigenvalues not converged
     c_bands:  4 eigenvalues not converged
     c_bands:  3 eigenvalues not converged
     ethr =  6.89E-08,  avg # of iterations = 23.6

     negative rho (up, down):  1.669E+02 2.875E-02

     total cpu time spent up to now is    16983.9 secs

     total energy              =   -4555.97231287 Ry
     estimated scf accuracy    <       0.00026148 Ry

     total magnetization       =    -0.00     0.00     0.02 Bohr mag/cell
     absolute magnetization    =    59.28 Bohr mag/cell

     iteration #390     ecut=    80.00 Ry     beta= 0.70
     Davidson diagonalization with overlap
     c_bands:  3 eigenvalues not converged
     c_bands:  1 eigenvalues not converged
     c_bands:  1 eigenvalues not converged
     c_bands:  4 eigenvalues not converged
     c_bands:  3 eigenvalues not converged
     c_bands:  5 eigenvalues not converged
     c_bands:  3 eigenvalues not converged
     c_bands:  2 eigenvalues not converged
     c_bands:  4 eigenvalues not converged
     c_bands:  3 eigenvalues not converged
     c_bands:  1 eigenvalues not converged
     ethr =  6.89E-08,  avg # of iterations = 19.8

     negative rho (up, down):  1.669E+02 2.875E-02

     total cpu time spent up to now is    17026.4 secs

     total energy              =   -4555.96674223 Ry
     estimated scf accuracy    <       0.00015781 Ry

     total magnetization       =     0.00     0.00    -0.02 Bohr mag/cell
     absolute magnetization    =    59.23 Bohr mag/cell

     iteration #391     ecut=    80.00 Ry     beta= 0.70
     Davidson diagonalization with overlap
     c_bands:  5 eigenvalues not converged
     c_bands:  3 eigenvalues not converged
     c_bands:  2 eigenvalues not converged
     c_bands:  4 eigenvalues not converged
     c_bands:  2 eigenvalues not converged
     c_bands:  4 eigenvalues not converged
     c_bands:  4 eigenvalues not converged
     c_bands:  4 eigenvalues not converged
     c_bands:  4 eigenvalues not converged
     c_bands:  3 eigenvalues not converged
     c_bands:  3 eigenvalues not converged
     c_bands:  2 eigenvalues not converged
     c_bands:  1 eigenvalues not converged
     c_bands:  2 eigenvalues not converged
     ethr =  6.89E-08,  avg # of iterations = 20.7

     negative rho (up, down):  1.669E+02 2.874E-02

     total cpu time spent up to now is    17071.8 secs

     total energy              =   -4555.97046309 Ry
     estimated scf accuracy    <       0.00005693 Ry

     total magnetization       =    -0.00     0.00    -0.09 Bohr mag/cell
     absolute magnetization    =    59.10 Bohr mag/cell

     iteration #392     ecut=    80.00 Ry     beta= 0.70
     Davidson diagonalization with overlap
     c_bands:  1 eigenvalues not converged
     c_bands:  1 eigenvalues not converged
     c_bands:  1 eigenvalues not converged
     c_bands:  2 eigenvalues not converged
     c_bands:  2 eigenvalues not converged
     c_bands:  1 eigenvalues not converged
     c_bands:  4 eigenvalues not converged
     c_bands:  4 eigenvalues not converged
     ethr =  6.89E-08,  avg # of iterations = 18.4

     negative rho (up, down):  1.669E+02 2.875E-02

     total cpu time spent up to now is    17112.9 secs

     total energy              =   -4555.97060832 Ry
     estimated scf accuracy    <       0.00007467 Ry

     total magnetization       =    -0.00    -0.00    -0.02 Bohr mag/cell
     absolute magnetization    =    59.12 Bohr mag/cell

     iteration #393     ecut=    80.00 Ry     beta= 0.70
     Davidson diagonalization with overlap
     c_bands:  2 eigenvalues not converged
     c_bands:  2 eigenvalues not converged
     c_bands:  2 eigenvalues not converged
     c_bands:  2 eigenvalues not converged
     c_bands:  1 eigenvalues not converged
     c_bands:  5 eigenvalues not converged
     c_bands:  4 eigenvalues not converged
     c_bands:  1 eigenvalues not converged
     c_bands:  2 eigenvalues not converged
     c_bands:  1 eigenvalues not converged
     c_bands:  1 eigenvalues not converged
     c_bands:  1 eigenvalues not converged
     c_bands:  3 eigenvalues not converged
     ethr =  6.89E-08,  avg # of iterations = 19.7

     negative rho (up, down):  1.669E+02 2.872E-02

     total cpu time spent up to now is    17157.6 secs

     total energy              =   -4555.96338495 Ry
     estimated scf accuracy    <       0.00007286 Ry

     total magnetization       =     0.00    -0.00    -0.06 Bohr mag/cell
     absolute magnetization    =    59.13 Bohr mag/cell

     iteration #394     ecut=    80.00 Ry     beta= 0.70
     Davidson diagonalization with overlap
     c_bands:  1 eigenvalues not converged
     c_bands:  2 eigenvalues not converged
     c_bands:  2 eigenvalues not converged
     c_bands:  1 eigenvalues not converged
     c_bands:  5 eigenvalues not converged
     c_bands:  2 eigenvalues not converged
     c_bands:  1 eigenvalues not converged
     c_bands:  3 eigenvalues not converged
     c_bands:  1 eigenvalues not converged
     c_bands:  2 eigenvalues not converged
     c_bands:  1 eigenvalues not converged
     c_bands:  1 eigenvalues not converged
     c_bands:  2 eigenvalues not converged
     c_bands:  3 eigenvalues not converged
     ethr =  6.89E-08,  avg # of iterations = 18.6

     negative rho (up, down):  1.669E+02 2.870E-02

     total cpu time spent up to now is    17200.2 secs

     total energy              =   -4555.96914240 Ry
     estimated scf accuracy    <       0.00021493 Ry

     total magnetization       =    -0.00    -0.00    -0.11 Bohr mag/cell
     absolute magnetization    =    59.07 Bohr mag/cell

     iteration #395     ecut=    80.00 Ry     beta= 0.70
     Davidson diagonalization with overlap
     c_bands:  1 eigenvalues not converged
     c_bands:  1 eigenvalues not converged
     c_bands:  1 eigenvalues not converged
     c_bands:  1 eigenvalues not converged
     c_bands:  1 eigenvalues not converged
     c_bands:  1 eigenvalues not converged
     ethr =  6.89E-08,  avg # of iterations = 18.1

     negative rho (up, down):  1.669E+02 2.873E-02

     total cpu time spent up to now is    17242.6 secs

     total energy              =   -4555.97179182 Ry
     estimated scf accuracy    <       0.00025127 Ry

     total magnetization       =    -0.00     0.00    -0.12 Bohr mag/cell
     absolute magnetization    =    59.04 Bohr mag/cell

     iteration #396     ecut=    80.00 Ry     beta= 0.70
     Davidson diagonalization with overlap
     c_bands:  1 eigenvalues not converged
     c_bands:  1 eigenvalues not converged
     c_bands:  1 eigenvalues not converged
     ethr =  6.89E-08,  avg # of iterations = 17.3

     negative rho (up, down):  1.669E+02 2.873E-02

     total cpu time spent up to now is    17286.1 secs

     total energy              =   -4555.96138623 Ry
     estimated scf accuracy    <       0.00005004 Ry

     total magnetization       =     0.00    -0.00    -0.12 Bohr mag/cell
     absolute magnetization    =    59.11 Bohr mag/cell

     iteration #397     ecut=    80.00 Ry     beta= 0.70
     Davidson diagonalization with overlap
     c_bands:  2 eigenvalues not converged
     c_bands:  1 eigenvalues not converged
     c_bands:  5 eigenvalues not converged
     c_bands:  2 eigenvalues not converged
     ethr =  6.89E-08,  avg # of iterations = 17.9

     negative rho (up, down):  1.669E+02 2.871E-02

     total cpu time spent up to now is    17333.0 secs

     total energy              =   -4555.96972875 Ry
     estimated scf accuracy    <       0.00183701 Ry

     total magnetization       =    -0.00     0.00    -0.05 Bohr mag/cell
     absolute magnetization    =    59.04 Bohr mag/cell

     iteration #398     ecut=    80.00 Ry     beta= 0.70
     Davidson diagonalization with overlap
     c_bands:  1 eigenvalues not converged
     c_bands:  1 eigenvalues not converged
     c_bands:  1 eigenvalues not converged
     c_bands:  5 eigenvalues not converged
     c_bands:  2 eigenvalues not converged
     c_bands:  1 eigenvalues not converged
     ethr =  6.89E-08,  avg # of iterations = 18.7

     negative rho (up, down):  1.669E+02 2.873E-02

     total cpu time spent up to now is    17382.1 secs

     total energy              =   -4555.97041419 Ry
     estimated scf accuracy    <       0.00005707 Ry

     total magnetization       =     0.00    -0.00    -0.10 Bohr mag/cell
     absolute magnetization    =    59.11 Bohr mag/cell

     iteration #399     ecut=    80.00 Ry     beta= 0.70
     Davidson diagonalization with overlap
     c_bands:  2 eigenvalues not converged
     c_bands:  4 eigenvalues not converged
     c_bands:  1 eigenvalues not converged
     c_bands:  1 eigenvalues not converged
     c_bands:  5 eigenvalues not converged
     c_bands:  2 eigenvalues not converged
     c_bands:  3 eigenvalues not converged
     c_bands:  1 eigenvalues not converged
     c_bands:  4 eigenvalues not converged
     c_bands:  3 eigenvalues not converged
     ethr =  6.89E-08,  avg # of iterations = 18.4

     negative rho (up, down):  1.669E+02 2.873E-02

     total cpu time spent up to now is    17423.8 secs

     total energy              =   -4555.96984259 Ry
     estimated scf accuracy    <       0.00008174 Ry

     total magnetization       =    -0.00    -0.00    -0.16 Bohr mag/cell
     absolute magnetization    =    59.14 Bohr mag/cell

     iteration #400     ecut=    80.00 Ry     beta= 0.70
     Davidson diagonalization with overlap
     c_bands:  3 eigenvalues not converged
     c_bands:  3 eigenvalues not converged
     c_bands:  2 eigenvalues not converged
     c_bands:  4 eigenvalues not converged
     c_bands:  2 eigenvalues not converged
     c_bands:  2 eigenvalues not converged
     c_bands:  5 eigenvalues not converged
     c_bands:  5 eigenvalues not converged
     c_bands:  2 eigenvalues not converged
     c_bands:  4 eigenvalues not converged
     c_bands:  2 eigenvalues not converged
     c_bands:  2 eigenvalues not converged
     c_bands:  5 eigenvalues not converged
     c_bands:  5 eigenvalues not converged
     c_bands:  4 eigenvalues not converged
     c_bands:  2 eigenvalues not converged
     c_bands:  5 eigenvalues not converged
     c_bands:  1 eigenvalues not converged
     c_bands:  4 eigenvalues not converged
     c_bands:  3 eigenvalues not converged
     ethr =  6.89E-08,  avg # of iterations = 20.0

     negative rho (up, down):  1.669E+02 2.873E-02

     total cpu time spent up to now is    17469.1 secs

     total energy              =   -4555.96855697 Ry
     estimated scf accuracy    <       0.00008494 Ry

     total magnetization       =     0.00     0.00    -0.05 Bohr mag/cell
     absolute magnetization    =    59.14 Bohr mag/cell

     iteration #401     ecut=    80.00 Ry     beta= 0.70
     Davidson diagonalization with overlap
     c_bands:  2 eigenvalues not converged
     c_bands:  4 eigenvalues not converged
     c_bands:  1 eigenvalues not converged
     c_bands:  2 eigenvalues not converged
     c_bands:  4 eigenvalues not converged
     c_bands:  2 eigenvalues not converged
     c_bands:  5 eigenvalues not converged
     c_bands:  2 eigenvalues not converged
     c_bands:  5 eigenvalues not converged
     c_bands:  3 eigenvalues not converged
     c_bands:  3 eigenvalues not converged
     c_bands:  4 eigenvalues not converged
     c_bands:  3 eigenvalues not converged
     c_bands:  2 eigenvalues not converged
     c_bands:  4 eigenvalues not converged
     ethr =  6.89E-08,  avg # of iterations = 20.6

     negative rho (up, down):  1.669E+02 2.873E-02

     total cpu time spent up to now is    17517.6 secs

     total energy              =   -4555.96695666 Ry
     estimated scf accuracy    <       0.00018235 Ry

     total magnetization       =     0.00     0.00    -0.15 Bohr mag/cell
     absolute magnetization    =    59.21 Bohr mag/cell

     iteration #402     ecut=    80.00 Ry     beta= 0.70
     Davidson diagonalization with overlap
     c_bands:  5 eigenvalues not converged
     c_bands:  3 eigenvalues not converged
     c_bands:  3 eigenvalues not converged
     c_bands:  4 eigenvalues not converged
     c_bands:  2 eigenvalues not converged
     c_bands:  3 eigenvalues not converged
     c_bands:  2 eigenvalues not converged
     c_bands:  1 eigenvalues not converged
     c_bands:  4 eigenvalues not converged
     c_bands:  4 eigenvalues not converged
     c_bands:  5 eigenvalues not converged
     c_bands:  2 eigenvalues not converged
     c_bands:  3 eigenvalues not converged
     c_bands:  2 eigenvalues not converged
     c_bands:  4 eigenvalues not converged
     c_bands:  3 eigenvalues not converged
     c_bands:  3 eigenvalues not converged
     c_bands:  2 eigenvalues not converged
     ethr =  6.89E-08,  avg # of iterations = 20.1

     negative rho (up, down):  1.669E+02 2.874E-02

     total cpu time spent up to now is    17567.3 secs

     total energy              =   -4555.96773493 Ry
     estimated scf accuracy    <       0.00012486 Ry

     total magnetization       =     0.00     0.00    -0.04 Bohr mag/cell
     absolute magnetization    =    59.17 Bohr mag/cell

     iteration #403     ecut=    80.00 Ry     beta= 0.70
     Davidson diagonalization with overlap
     c_bands:  1 eigenvalues not converged
     c_bands:  2 eigenvalues not converged
     c_bands:  5 eigenvalues not converged
     c_bands:  1 eigenvalues not converged
     c_bands:  5 eigenvalues not converged
     c_bands:  3 eigenvalues not converged
     c_bands:  5 eigenvalues not converged
     c_bands:  3 eigenvalues not converged
     c_bands:  2 eigenvalues not converged
     c_bands:  2 eigenvalues not converged
     c_bands:  4 eigenvalues not converged
     c_bands:  1 eigenvalues not converged
     c_bands:  2 eigenvalues not converged
     c_bands:  3 eigenvalues not converged
     c_bands:  4 eigenvalues not converged
     ethr =  6.89E-08,  avg # of iterations = 19.9

     negative rho (up, down):  1.669E+02 2.874E-02

     total cpu time spent up to now is    17615.9 secs

     total energy              =   -4555.97007615 Ry
     estimated scf accuracy    <       0.00010512 Ry

     total magnetization       =     0.00    -0.00    -0.07 Bohr mag/cell
     absolute magnetization    =    59.13 Bohr mag/cell

     iteration #404     ecut=    80.00 Ry     beta= 0.70
     Davidson diagonalization with overlap
     c_bands:  1 eigenvalues not converged
     c_bands:  2 eigenvalues not converged
     c_bands:  1 eigenvalues not converged
     c_bands:  1 eigenvalues not converged
     c_bands:  1 eigenvalues not converged
     c_bands:  2 eigenvalues not converged
     c_bands:  3 eigenvalues not converged
     c_bands:  1 eigenvalues not converged
     ethr =  6.89E-08,  avg # of iterations = 18.5

     negative rho (up, down):  1.669E+02 2.874E-02

     total cpu time spent up to now is    17660.5 secs

     total energy              =   -4555.96950564 Ry
     estimated scf accuracy    <       0.00011316 Ry

     total magnetization       =    -0.00    -0.00    -0.06 Bohr mag/cell
     absolute magnetization    =    59.14 Bohr mag/cell

     iteration #405     ecut=    80.00 Ry     beta= 0.70
     Davidson diagonalization with overlap
     c_bands:  2 eigenvalues not converged
     c_bands:  1 eigenvalues not converged
     c_bands:  3 eigenvalues not converged
     c_bands:  1 eigenvalues not converged
     c_bands:  1 eigenvalues not converged
     c_bands:  1 eigenvalues not converged
     c_bands:  4 eigenvalues not converged
     c_bands:  1 eigenvalues not converged
     ethr =  6.89E-08,  avg # of iterations = 19.0

     negative rho (up, down):  1.669E+02 2.874E-02

     total cpu time spent up to now is    17707.4 secs

     total energy              =   -4555.96899660 Ry
     estimated scf accuracy    <       0.00012261 Ry

     total magnetization       =     0.00     0.00    -0.09 Bohr mag/cell
     absolute magnetization    =    59.16 Bohr mag/cell

     iteration #406     ecut=    80.00 Ry     beta= 0.70
     Davidson diagonalization with overlap
     c_bands:  2 eigenvalues not converged
     c_bands:  2 eigenvalues not converged
     c_bands:  1 eigenvalues not converged
     c_bands:  2 eigenvalues not converged
     c_bands:  1 eigenvalues not converged
     c_bands:  2 eigenvalues not converged
     c_bands:  3 eigenvalues not converged
     c_bands:  3 eigenvalues not converged
     c_bands:  3 eigenvalues not converged
     c_bands:  2 eigenvalues not converged
     c_bands:  1 eigenvalues not converged
     c_bands:  2 eigenvalues not converged
     c_bands:  2 eigenvalues not converged
     c_bands:  2 eigenvalues not converged
     c_bands:  2 eigenvalues not converged
     c_bands:  3 eigenvalues not converged
     c_bands:  2 eigenvalues not converged
     c_bands:  3 eigenvalues not converged
     ethr =  6.89E-08,  avg # of iterations = 19.8

     negative rho (up, down):  1.669E+02 2.874E-02

     total cpu time spent up to now is    17750.5 secs

     total energy              =   -4555.96209070 Ry
     estimated scf accuracy    <       0.00007276 Ry

     total magnetization       =     0.00     0.00    -0.11 Bohr mag/cell
     absolute magnetization    =    59.12 Bohr mag/cell

     iteration #407     ecut=    80.00 Ry     beta= 0.70
     Davidson diagonalization with overlap
     c_bands:  2 eigenvalues not converged
     c_bands:  1 eigenvalues not converged
     c_bands:  1 eigenvalues not converged
     c_bands:  2 eigenvalues not converged
     c_bands:  1 eigenvalues not converged
     c_bands:  4 eigenvalues not converged
     c_bands:  2 eigenvalues not converged
     c_bands:  1 eigenvalues not converged
     c_bands:  3 eigenvalues not converged
     c_bands:  1 eigenvalues not converged
     c_bands:  2 eigenvalues not converged
     c_bands:  5 eigenvalues not converged
     ethr =  6.89E-08,  avg # of iterations = 19.3

     negative rho (up, down):  1.669E+02 2.872E-02

     total cpu time spent up to now is    17793.9 secs

     total energy              =   -4555.96907525 Ry
     estimated scf accuracy    <       0.00035558 Ry

     total magnetization       =     0.00     0.00    -0.01 Bohr mag/cell
     absolute magnetization    =    59.14 Bohr mag/cell

     iteration #408     ecut=    80.00 Ry     beta= 0.70
     Davidson diagonalization with overlap
     c_bands:  5 eigenvalues not converged
     c_bands:  4 eigenvalues not converged
     c_bands:  5 eigenvalues not converged
     c_bands:  4 eigenvalues not converged
     c_bands:  4 eigenvalues not converged
     c_bands:  3 eigenvalues not converged
     c_bands:  4 eigenvalues not converged
     c_bands:  1 eigenvalues not converged
     c_bands:  2 eigenvalues not converged
     c_bands:  4 eigenvalues not converged
     c_bands:  5 eigenvalues not converged
     c_bands:  5 eigenvalues not converged
     c_bands:  5 eigenvalues not converged
     c_bands:  1 eigenvalues not converged
     c_bands:  4 eigenvalues not converged
     ethr =  6.89E-08,  avg # of iterations = 19.9

     negative rho (up, down):  1.669E+02 2.873E-02

     total cpu time spent up to now is    17838.9 secs

     total energy              =   -4555.96104982 Ry
     estimated scf accuracy    <       0.00012286 Ry

     total magnetization       =    -0.00     0.00    -0.12 Bohr mag/cell
     absolute magnetization    =    59.15 Bohr mag/cell

     iteration #409     ecut=    80.00 Ry     beta= 0.70
     Davidson diagonalization with overlap
     c_bands:  1 eigenvalues not converged
     c_bands:  1 eigenvalues not converged
     c_bands:  1 eigenvalues not converged
     c_bands:  1 eigenvalues not converged
     c_bands:  1 eigenvalues not converged
     c_bands:  3 eigenvalues not converged
     c_bands:  1 eigenvalues not converged
     c_bands:  2 eigenvalues not converged
     c_bands:  1 eigenvalues not converged
     ethr =  6.89E-08,  avg # of iterations = 18.5

     negative rho (up, down):  1.669E+02 2.874E-02

     total cpu time spent up to now is    17882.6 secs

     total energy              =   -4555.96713447 Ry
     estimated scf accuracy    <       0.00039178 Ry

     total magnetization       =    -0.00     0.00    -0.15 Bohr mag/cell
     absolute magnetization    =    59.10 Bohr mag/cell

     iteration #410     ecut=    80.00 Ry     beta= 0.70
     Davidson diagonalization with overlap
     c_bands:  2 eigenvalues not converged
     c_bands:  4 eigenvalues not converged
     c_bands:  2 eigenvalues not converged
     c_bands:  1 eigenvalues not converged
     c_bands:  1 eigenvalues not converged
     c_bands:  1 eigenvalues not converged
     c_bands:  1 eigenvalues not converged
     c_bands:  1 eigenvalues not converged
     c_bands:  4 eigenvalues not converged
     c_bands:  5 eigenvalues not converged
     ethr =  6.89E-08,  avg # of iterations = 19.0

     negative rho (up, down):  1.669E+02 2.873E-02

     total cpu time spent up to now is    17928.5 secs

     total energy              =   -4555.96974537 Ry
     estimated scf accuracy    <       0.00116348 Ry

     total magnetization       =    -0.00     0.00    -0.12 Bohr mag/cell
     absolute magnetization    =    59.05 Bohr mag/cell

     iteration #411     ecut=    80.00 Ry     beta= 0.70
     Davidson diagonalization with overlap
     c_bands:  1 eigenvalues not converged
     ethr =  6.89E-08,  avg # of iterations = 16.5

     negative rho (up, down):  1.669E+02 2.872E-02

     total cpu time spent up to now is    17974.0 secs

     total energy              =   -4555.96691156 Ry
     estimated scf accuracy    <       0.00038651 Ry

     total magnetization       =     0.00     0.00    -0.16 Bohr mag/cell
     absolute magnetization    =    59.11 Bohr mag/cell

     iteration #412     ecut=    80.00 Ry     beta= 0.70
     Davidson diagonalization with overlap
     c_bands:  2 eigenvalues not converged
     c_bands:  2 eigenvalues not converged
     c_bands:  1 eigenvalues not converged
     c_bands:  1 eigenvalues not converged
     c_bands:  5 eigenvalues not converged
     c_bands:  3 eigenvalues not converged
     c_bands:  3 eigenvalues not converged
     c_bands:  1 eigenvalues not converged
     ethr =  6.89E-08,  avg # of iterations = 18.8

     negative rho (up, down):  1.669E+02 2.873E-02

     total cpu time spent up to now is    18016.8 secs

     total energy              =   -4555.96892384 Ry
     estimated scf accuracy    <       0.00032993 Ry

     total magnetization       =    -0.00     0.00    -0.13 Bohr mag/cell
     absolute magnetization    =    59.11 Bohr mag/cell

     iteration #413     ecut=    80.00 Ry     beta= 0.70
     Davidson diagonalization with overlap
     c_bands:  2 eigenvalues not converged
     c_bands:  2 eigenvalues not converged
     c_bands:  5 eigenvalues not converged
     c_bands:  2 eigenvalues not converged
     c_bands:  1 eigenvalues not converged
     c_bands:  3 eigenvalues not converged
     c_bands:  2 eigenvalues not converged
     c_bands:  3 eigenvalues not converged
     c_bands:  5 eigenvalues not converged
     c_bands:  2 eigenvalues not converged
     c_bands:  2 eigenvalues not converged
     c_bands:  1 eigenvalues not converged
     c_bands:  4 eigenvalues not converged
     c_bands:  1 eigenvalues not converged
     c_bands:  4 eigenvalues not converged
     c_bands:  5 eigenvalues not converged
     ethr =  6.89E-08,  avg # of iterations = 20.4

     negative rho (up, down):  1.669E+02 2.871E-02

     total cpu time spent up to now is    18068.2 secs

     total energy              =   -4555.96850395 Ry
     estimated scf accuracy    <       0.00011783 Ry

     total magnetization       =    -0.00     0.00    -0.06 Bohr mag/cell
     absolute magnetization    =    59.16 Bohr mag/cell

     iteration #414     ecut=    80.00 Ry     beta= 0.70
     Davidson diagonalization with overlap
     c_bands:  2 eigenvalues not converged
     c_bands:  1 eigenvalues not converged
     c_bands:  5 eigenvalues not converged
     c_bands:  1 eigenvalues not converged
     c_bands:  1 eigenvalues not converged
     c_bands:  1 eigenvalues not converged
     c_bands:  2 eigenvalues not converged
     c_bands:  5 eigenvalues not converged
     c_bands:  4 eigenvalues not converged
     c_bands:  1 eigenvalues not converged
     c_bands:  1 eigenvalues not converged
     c_bands:  4 eigenvalues not converged
     c_bands:  4 eigenvalues not converged
     c_bands:  3 eigenvalues not converged
     c_bands:  1 eigenvalues not converged
     c_bands:  2 eigenvalues not converged
     ethr =  6.89E-08,  avg # of iterations = 20.2

     negative rho (up, down):  1.669E+02 2.874E-02

     total cpu time spent up to now is    18117.8 secs

     total energy              =   -4555.97062696 Ry
     estimated scf accuracy    <       0.00004036 Ry

     total magnetization       =     0.00    -0.00    -0.11 Bohr mag/cell
     absolute magnetization    =    59.08 Bohr mag/cell

     iteration #415     ecut=    80.00 Ry     beta= 0.70
     Davidson diagonalization with overlap
     c_bands:  2 eigenvalues not converged
     c_bands:  1 eigenvalues not converged
     c_bands:  2 eigenvalues not converged
     c_bands:  2 eigenvalues not converged
     c_bands:  3 eigenvalues not converged
     c_bands:  2 eigenvalues not converged
     c_bands:  3 eigenvalues not converged
     c_bands:  1 eigenvalues not converged
     c_bands:  4 eigenvalues not converged
     c_bands:  1 eigenvalues not converged
     c_bands:  2 eigenvalues not converged
     ethr =  6.89E-08,  avg # of iterations = 18.7

     negative rho (up, down):  1.669E+02 2.873E-02

     total cpu time spent up to now is    18162.1 secs

     total energy              =   -4555.96980665 Ry
     estimated scf accuracy    <       0.00004500 Ry

     total magnetization       =     0.00     0.00    -0.04 Bohr mag/cell
     absolute magnetization    =    59.10 Bohr mag/cell

     iteration #416     ecut=    80.00 Ry     beta= 0.70
     Davidson diagonalization with overlap
     c_bands:  1 eigenvalues not converged
     c_bands:  1 eigenvalues not converged
     c_bands:  3 eigenvalues not converged
     c_bands:  2 eigenvalues not converged
     c_bands:  1 eigenvalues not converged
     c_bands:  1 eigenvalues not converged
     c_bands:  4 eigenvalues not converged
     c_bands:  4 eigenvalues not converged
     c_bands:  1 eigenvalues not converged
     c_bands:  1 eigenvalues not converged
     c_bands:  1 eigenvalues not converged
     c_bands:  2 eigenvalues not converged
     c_bands:  5 eigenvalues not converged
     ethr =  6.89E-08,  avg # of iterations = 19.5

     negative rho (up, down):  1.669E+02 2.873E-02

     total cpu time spent up to now is    18208.8 secs

     total energy              =   -4555.97012346 Ry
     estimated scf accuracy    <       0.00003717 Ry

     total magnetization       =    -0.00     0.00    -0.14 Bohr mag/cell
     absolute magnetization    =    59.09 Bohr mag/cell

     iteration #417     ecut=    80.00 Ry     beta= 0.70
     Davidson diagonalization with overlap
     c_bands:  2 eigenvalues not converged
     ethr =  6.89E-08,  avg # of iterations = 16.0

     negative rho (up, down):  1.669E+02 2.872E-02

     total cpu time spent up to now is    18250.6 secs

     total energy              =   -4555.97132771 Ry
     estimated scf accuracy    <       0.00007717 Ry

     total magnetization       =    -0.00     0.00    -0.03 Bohr mag/cell
     absolute magnetization    =    59.12 Bohr mag/cell

     iteration #418     ecut=    80.00 Ry     beta= 0.70
     Davidson diagonalization with overlap
     c_bands:  4 eigenvalues not converged
     c_bands:  3 eigenvalues not converged
     c_bands:  2 eigenvalues not converged
     c_bands:  2 eigenvalues not converged
     c_bands:  2 eigenvalues not converged
     c_bands:  1 eigenvalues not converged
     c_bands:  3 eigenvalues not converged
     c_bands:  1 eigenvalues not converged
     c_bands:  1 eigenvalues not converged
     c_bands:  4 eigenvalues not converged
     c_bands:  5 eigenvalues not converged
     c_bands:  3 eigenvalues not converged
     c_bands:  3 eigenvalues not converged
     c_bands:  3 eigenvalues not converged
     c_bands:  2 eigenvalues not converged
     c_bands:  1 eigenvalues not converged
     c_bands:  1 eigenvalues not converged
     c_bands:  3 eigenvalues not converged
     ethr =  6.89E-08,  avg # of iterations = 20.0

     negative rho (up, down):  1.669E+02 2.872E-02

     total cpu time spent up to now is    18299.9 secs

     total energy              =   -4555.96941511 Ry
     estimated scf accuracy    <       0.00008959 Ry

     total magnetization       =     0.00     0.00    -0.13 Bohr mag/cell
     absolute magnetization    =    59.12 Bohr mag/cell

     iteration #419     ecut=    80.00 Ry     beta= 0.70
     Davidson diagonalization with overlap
     c_bands:  3 eigenvalues not converged
     c_bands:  5 eigenvalues not converged
     c_bands:  1 eigenvalues not converged
     c_bands:  4 eigenvalues not converged
     c_bands:  5 eigenvalues not converged
     c_bands:  3 eigenvalues not converged
     c_bands:  4 eigenvalues not converged
     c_bands:  5 eigenvalues not converged
     c_bands:  5 eigenvalues not converged
     c_bands:  5 eigenvalues not converged
     c_bands:  3 eigenvalues not converged
     c_bands:  1 eigenvalues not converged
     c_bands:  4 eigenvalues not converged
     c_bands:  4 eigenvalues not converged
     c_bands:  4 eigenvalues not converged
     ethr =  6.89E-08,  avg # of iterations = 20.6

     negative rho (up, down):  1.669E+02 2.873E-02

     total cpu time spent up to now is    18349.4 secs

     total energy              =   -4555.96730333 Ry
     estimated scf accuracy    <       0.00015400 Ry

     total magnetization       =    -0.00    -0.00    -0.02 Bohr mag/cell
     absolute magnetization    =    59.20 Bohr mag/cell

     iteration #420     ecut=    80.00 Ry     beta= 0.70
     Davidson diagonalization with overlap
     c_bands:  4 eigenvalues not converged
     c_bands:  1 eigenvalues not converged
     c_bands:  3 eigenvalues not converged
     c_bands:  3 eigenvalues not converged
     c_bands:  2 eigenvalues not converged
     c_bands:  3 eigenvalues not converged
     c_bands:  2 eigenvalues not converged
     c_bands:  3 eigenvalues not converged
     c_bands:  1 eigenvalues not converged
     c_bands:  2 eigenvalues not converged
     c_bands:  1 eigenvalues not converged
     c_bands:  3 eigenvalues not converged
     c_bands:  3 eigenvalues not converged
     c_bands:  2 eigenvalues not converged
     c_bands:  4 eigenvalues not converged
     ethr =  6.89E-08,  avg # of iterations = 20.4

     negative rho (up, down):  1.669E+02 2.873E-02

     total cpu time spent up to now is    18395.3 secs

     total energy              =   -4555.97177055 Ry
     estimated scf accuracy    <       0.00017002 Ry

     total magnetization       =     0.00     0.00    -0.20 Bohr mag/cell
     absolute magnetization    =    59.23 Bohr mag/cell

     iteration #421     ecut=    80.00 Ry     beta= 0.70
     Davidson diagonalization with overlap
     c_bands:  2 eigenvalues not converged
     c_bands:  5 eigenvalues not converged
     c_bands:  4 eigenvalues not converged
     c_bands:  1 eigenvalues not converged
     c_bands:  2 eigenvalues not converged
     c_bands:  3 eigenvalues not converged
     c_bands:  1 eigenvalues not converged
     c_bands:  1 eigenvalues not converged
     ethr =  6.89E-08,  avg # of iterations = 19.6

     negative rho (up, down):  1.669E+02 2.872E-02

     total cpu time spent up to now is    18440.4 secs

     total energy              =   -4555.96040763 Ry
     estimated scf accuracy    <       0.00017254 Ry

     total magnetization       =    -0.00     0.00    -0.18 Bohr mag/cell
     absolute magnetization    =    59.24 Bohr mag/cell

     iteration #422     ecut=    80.00 Ry     beta= 0.70
     Davidson diagonalization with overlap
     c_bands:  5 eigenvalues not converged
     c_bands:  1 eigenvalues not converged
     c_bands:  1 eigenvalues not converged
     c_bands:  1 eigenvalues not converged
     c_bands:  1 eigenvalues not converged
     c_bands:  5 eigenvalues not converged
     c_bands:  3 eigenvalues not converged
     c_bands:  2 eigenvalues not converged
     c_bands:  2 eigenvalues not converged
     ethr =  6.89E-08,  avg # of iterations = 20.0

     negative rho (up, down):  1.669E+02 2.874E-02

     total cpu time spent up to now is    18487.3 secs

     total energy              =   -4555.95736493 Ry
     estimated scf accuracy    <       0.00036509 Ry

     total magnetization       =     0.00     0.00    -0.14 Bohr mag/cell
     absolute magnetization    =    59.16 Bohr mag/cell

     iteration #423     ecut=    80.00 Ry     beta= 0.70
     Davidson diagonalization with overlap
     c_bands:  3 eigenvalues not converged
     c_bands:  3 eigenvalues not converged
     c_bands:  4 eigenvalues not converged
     c_bands:  3 eigenvalues not converged
     c_bands:  5 eigenvalues not converged
     c_bands:  3 eigenvalues not converged
     c_bands:  5 eigenvalues not converged
     c_bands:  5 eigenvalues not converged
     c_bands:  4 eigenvalues not converged
     ethr =  6.89E-08,  avg # of iterations = 24.4

     negative rho (up, down):  1.669E+02 2.872E-02

     total cpu time spent up to now is    18546.1 secs

     total energy              =   -4555.96167294 Ry
     estimated scf accuracy    <       0.00206009 Ry

     total magnetization       =    -0.00    -0.00    -0.11 Bohr mag/cell
     absolute magnetization    =    59.13 Bohr mag/cell

     iteration #424     ecut=    80.00 Ry     beta= 0.70
     Davidson diagonalization with overlap
     c_bands:  2 eigenvalues not converged
     c_bands:  2 eigenvalues not converged
     c_bands:  2 eigenvalues not converged
     c_bands:  2 eigenvalues not converged
     c_bands:  2 eigenvalues not converged
     c_bands:  5 eigenvalues not converged
     c_bands:  5 eigenvalues not converged
     c_bands:  2 eigenvalues not converged
     c_bands:  3 eigenvalues not converged
     c_bands:  1 eigenvalues not converged
     ethr =  6.89E-08,  avg # of iterations = 19.3

     negative rho (up, down):  1.669E+02 2.873E-02

     total cpu time spent up to now is    18593.1 secs

     total energy              =   -4555.96749525 Ry
     estimated scf accuracy    <       0.00037345 Ry

     total magnetization       =     0.00     0.00    -0.12 Bohr mag/cell
     absolute magnetization    =    59.11 Bohr mag/cell

     iteration #425     ecut=    80.00 Ry     beta= 0.70
     Davidson diagonalization with overlap
     c_bands:  2 eigenvalues not converged
     c_bands:  1 eigenvalues not converged
     c_bands:  3 eigenvalues not converged
     c_bands:  2 eigenvalues not converged
     c_bands:  3 eigenvalues not converged
     c_bands:  4 eigenvalues not converged
     c_bands:  1 eigenvalues not converged
     c_bands:  4 eigenvalues not converged
     c_bands:  4 eigenvalues not converged
     c_bands:  4 eigenvalues not converged
     ethr =  6.89E-08,  avg # of iterations = 18.5

     negative rho (up, down):  1.669E+02 2.872E-02

     total cpu time spent up to now is    18634.8 secs

     total energy              =   -4555.96887908 Ry
     estimated scf accuracy    <       0.00030926 Ry

     total magnetization       =    -0.00     0.00    -0.08 Bohr mag/cell
     absolute magnetization    =    59.05 Bohr mag/cell

     iteration #426     ecut=    80.00 Ry     beta= 0.70
     Davidson diagonalization with overlap
     c_bands:  2 eigenvalues not converged
     ethr =  6.89E-08,  avg # of iterations = 15.9

     negative rho (up, down):  1.669E+02 2.872E-02

     total cpu time spent up to now is    18675.5 secs

     total energy              =   -4555.96152986 Ry
     estimated scf accuracy    <       0.00033107 Ry

     total magnetization       =    -0.00    -0.00    -0.14 Bohr mag/cell
     absolute magnetization    =    59.08 Bohr mag/cell

     iteration #427     ecut=    80.00 Ry     beta= 0.70
     Davidson diagonalization with overlap
     c_bands:  1 eigenvalues not converged
     c_bands:  2 eigenvalues not converged
     c_bands:  1 eigenvalues not converged
     ethr =  6.89E-08,  avg # of iterations = 17.5

     negative rho (up, down):  1.669E+02 2.870E-02

     total cpu time spent up to now is    18718.1 secs

     total energy              =   -4555.97110215 Ry
     estimated scf accuracy    <       0.00125842 Ry

     total magnetization       =     0.00    -0.00    -0.09 Bohr mag/cell
     absolute magnetization    =    59.01 Bohr mag/cell

     iteration #428     ecut=    80.00 Ry     beta= 0.70
     Davidson diagonalization with overlap
     c_bands:  1 eigenvalues not converged
     ethr =  6.89E-08,  avg # of iterations = 15.9

     negative rho (up, down):  1.669E+02 2.873E-02

     total cpu time spent up to now is    18758.5 secs

     total energy              =   -4555.97072291 Ry
     estimated scf accuracy    <       0.00004461 Ry

     total magnetization       =     0.00    -0.00    -0.09 Bohr mag/cell
     absolute magnetization    =    59.06 Bohr mag/cell

     iteration #429     ecut=    80.00 Ry     beta= 0.70
     Davidson diagonalization with overlap
     c_bands:  1 eigenvalues not converged
     c_bands:  1 eigenvalues not converged
     ethr =  6.89E-08,  avg # of iterations = 15.9

     negative rho (up, down):  1.669E+02 2.874E-02

     total cpu time spent up to now is    18796.5 secs

     total energy              =   -4555.97067437 Ry
     estimated scf accuracy    <       0.00005530 Ry

     total magnetization       =    -0.00    -0.00    -0.04 Bohr mag/cell
     absolute magnetization    =    59.09 Bohr mag/cell

     iteration #430     ecut=    80.00 Ry     beta= 0.70
     Davidson diagonalization with overlap
     c_bands:  2 eigenvalues not converged
     c_bands:  1 eigenvalues not converged
     c_bands:  4 eigenvalues not converged
     c_bands:  4 eigenvalues not converged
     c_bands:  2 eigenvalues not converged
     c_bands:  3 eigenvalues not converged
     c_bands:  4 eigenvalues not converged
     c_bands:  2 eigenvalues not converged
     c_bands:  5 eigenvalues not converged
     c_bands:  1 eigenvalues not converged
     c_bands:  2 eigenvalues not converged
     c_bands:  4 eigenvalues not converged
     c_bands:  4 eigenvalues not converged
     ethr =  6.89E-08,  avg # of iterations = 19.8

     negative rho (up, down):  1.669E+02 2.873E-02

     total cpu time spent up to now is    18836.7 secs

     total energy              =   -4555.96981650 Ry
     estimated scf accuracy    <       0.00009026 Ry

     total magnetization       =     0.00     0.00    -0.07 Bohr mag/cell
     absolute magnetization    =    59.13 Bohr mag/cell

     iteration #431     ecut=    80.00 Ry     beta= 0.70
     Davidson diagonalization with overlap
     c_bands:  2 eigenvalues not converged
     c_bands:  2 eigenvalues not converged
     c_bands:  1 eigenvalues not converged
     c_bands:  1 eigenvalues not converged
     c_bands:  1 eigenvalues not converged
     c_bands:  2 eigenvalues not converged
     c_bands:  2 eigenvalues not converged
     c_bands:  3 eigenvalues not converged
     c_bands:  1 eigenvalues not converged
     c_bands:  3 eigenvalues not converged
     c_bands:  2 eigenvalues not converged
     c_bands:  4 eigenvalues not converged
     c_bands:  1 eigenvalues not converged
     c_bands:  2 eigenvalues not converged
     c_bands:  4 eigenvalues not converged
     c_bands:  3 eigenvalues not converged
     ethr =  6.89E-08,  avg # of iterations = 20.0

     negative rho (up, down):  1.669E+02 2.874E-02

     total cpu time spent up to now is    18878.1 secs

     total energy              =   -4555.97065305 Ry
     estimated scf accuracy    <       0.00005128 Ry

     total magnetization       =    -0.00     0.00    -0.13 Bohr mag/cell
     absolute magnetization    =    59.10 Bohr mag/cell

     iteration #432     ecut=    80.00 Ry     beta= 0.70
     Davidson diagonalization with overlap
     c_bands:  2 eigenvalues not converged
     c_bands:  1 eigenvalues not converged
     c_bands:  1 eigenvalues not converged
     ethr =  6.89E-08,  avg # of iterations = 18.6

     negative rho (up, down):  1.669E+02 2.874E-02

     total cpu time spent up to now is    18919.1 secs

     total energy              =   -4555.97034578 Ry
     estimated scf accuracy    <       0.00005873 Ry

     total magnetization       =    -0.00     0.00    -0.08 Bohr mag/cell
     absolute magnetization    =    59.12 Bohr mag/cell

     iteration #433     ecut=    80.00 Ry     beta= 0.70
     Davidson diagonalization with overlap
     c_bands:  2 eigenvalues not converged
     c_bands:  2 eigenvalues not converged
     c_bands:  2 eigenvalues not converged
     c_bands:  1 eigenvalues not converged
     c_bands:  2 eigenvalues not converged
     c_bands:  1 eigenvalues not converged
     c_bands:  1 eigenvalues not converged
     c_bands:  2 eigenvalues not converged
     c_bands:  1 eigenvalues not converged
     ethr =  6.89E-08,  avg # of iterations = 17.9

     negative rho (up, down):  1.669E+02 2.874E-02

     total cpu time spent up to now is    18958.5 secs

     total energy              =   -4555.96924626 Ry
     estimated scf accuracy    <       0.00005415 Ry

     total magnetization       =    -0.00    -0.00    -0.10 Bohr mag/cell
     absolute magnetization    =    59.11 Bohr mag/cell

     iteration #434     ecut=    80.00 Ry     beta= 0.70
     Davidson diagonalization with overlap
     c_bands:  2 eigenvalues not converged
     c_bands:  1 eigenvalues not converged
     c_bands:  2 eigenvalues not converged
     c_bands:  1 eigenvalues not converged
     c_bands:  2 eigenvalues not converged
     c_bands:  2 eigenvalues not converged
     c_bands:  2 eigenvalues not converged
     c_bands:  5 eigenvalues not converged
     c_bands:  4 eigenvalues not converged
     c_bands:  4 eigenvalues not converged
     c_bands:  5 eigenvalues not converged
     c_bands:  2 eigenvalues not converged
     c_bands:  1 eigenvalues not converged
     c_bands:  2 eigenvalues not converged
     c_bands:  5 eigenvalues not converged
     c_bands:  2 eigenvalues not converged
     c_bands:  5 eigenvalues not converged
     c_bands:  4 eigenvalues not converged
     ethr =  6.89E-08,  avg # of iterations = 20.1

     negative rho (up, down):  1.669E+02 2.874E-02

     total cpu time spent up to now is    19001.3 secs

     total energy              =   -4555.97048181 Ry
     estimated scf accuracy    <       0.00009669 Ry

     total magnetization       =    -0.00    -0.00    -0.14 Bohr mag/cell
     absolute magnetization    =    59.14 Bohr mag/cell

     iteration #435     ecut=    80.00 Ry     beta= 0.70
     Davidson diagonalization with overlap
     c_bands:  2 eigenvalues not converged
     c_bands:  2 eigenvalues not converged
     c_bands:  5 eigenvalues not converged
     c_bands:  4 eigenvalues not converged
     c_bands:  5 eigenvalues not converged
     c_bands:  1 eigenvalues not converged
     c_bands:  1 eigenvalues not converged
     c_bands:  1 eigenvalues not converged
     c_bands:  2 eigenvalues not converged
     c_bands:  4 eigenvalues not converged
     c_bands:  5 eigenvalues not converged
     c_bands:  5 eigenvalues not converged
     c_bands:  1 eigenvalues not converged
     c_bands:  5 eigenvalues not converged
     c_bands:  4 eigenvalues not converged
     c_bands:  4 eigenvalues not converged
     c_bands:  3 eigenvalues not converged
     ethr =  6.89E-08,  avg # of iterations = 19.8

     negative rho (up, down):  1.669E+02 2.876E-02

     total cpu time spent up to now is    19049.1 secs

     total energy              =   -4555.96785898 Ry
     estimated scf accuracy    <       0.00012122 Ry

     total magnetization       =     0.00     0.00    -0.05 Bohr mag/cell
     absolute magnetization    =    59.09 Bohr mag/cell

     iteration #436     ecut=    80.00 Ry     beta= 0.70
     Davidson diagonalization with overlap
     c_bands:  3 eigenvalues not converged
     c_bands:  1 eigenvalues not converged
     c_bands:  2 eigenvalues not converged
     c_bands:  3 eigenvalues not converged
     c_bands:  1 eigenvalues not converged
     c_bands:  2 eigenvalues not converged
     c_bands:  5 eigenvalues not converged
     c_bands:  5 eigenvalues not converged
     c_bands:  3 eigenvalues not converged
     c_bands:  2 eigenvalues not converged
     ethr =  6.89E-08,  avg # of iterations = 19.3

     negative rho (up, down):  1.669E+02 2.874E-02

     total cpu time spent up to now is    19099.1 secs

     total energy              =   -4555.96939542 Ry
     estimated scf accuracy    <       0.00030835 Ry

     total magnetization       =     0.00     0.00    -0.05 Bohr mag/cell
     absolute magnetization    =    59.11 Bohr mag/cell

     iteration #437     ecut=    80.00 Ry     beta= 0.70
     Davidson diagonalization with overlap
     c_bands:  2 eigenvalues not converged
     c_bands:  4 eigenvalues not converged
     c_bands:  2 eigenvalues not converged
     c_bands:  4 eigenvalues not converged
     c_bands:  4 eigenvalues not converged
     c_bands:  2 eigenvalues not converged
     c_bands:  5 eigenvalues not converged
     c_bands:  3 eigenvalues not converged
     c_bands:  4 eigenvalues not converged
     c_bands:  1 eigenvalues not converged
     c_bands:  3 eigenvalues not converged
     c_bands:  4 eigenvalues not converged
     c_bands:  5 eigenvalues not converged
     c_bands:  4 eigenvalues not converged
     c_bands:  4 eigenvalues not converged
     c_bands:  1 eigenvalues not converged
     c_bands:  2 eigenvalues not converged
     ethr =  6.89E-08,  avg # of iterations = 20.0

     negative rho (up, down):  1.669E+02 2.872E-02

     total cpu time spent up to now is    19148.1 secs

     total energy              =   -4555.96861393 Ry
     estimated scf accuracy    <       0.00005965 Ry

     total magnetization       =     0.00     0.00    -0.08 Bohr mag/cell
     absolute magnetization    =    59.13 Bohr mag/cell

     iteration #438     ecut=    80.00 Ry     beta= 0.70
     Davidson diagonalization with overlap
     c_bands:  3 eigenvalues not converged
     c_bands:  2 eigenvalues not converged
     c_bands:  4 eigenvalues not converged
     c_bands:  2 eigenvalues not converged
     c_bands:  1 eigenvalues not converged
     c_bands:  1 eigenvalues not converged
     c_bands:  2 eigenvalues not converged
     c_bands:  3 eigenvalues not converged
     c_bands:  5 eigenvalues not converged
     c_bands:  4 eigenvalues not converged
     c_bands:  1 eigenvalues not converged
     c_bands:  4 eigenvalues not converged
     c_bands:  1 eigenvalues not converged
     c_bands:  5 eigenvalues not converged
     c_bands:  2 eigenvalues not converged
     ethr =  6.89E-08,  avg # of iterations = 20.4

     negative rho (up, down):  1.669E+02 2.872E-02

     total cpu time spent up to now is    19195.8 secs

     total energy              =   -4555.96915003 Ry
     estimated scf accuracy    <       0.00009379 Ry

     total magnetization       =    -0.00    -0.00    -0.06 Bohr mag/cell
     absolute magnetization    =    59.16 Bohr mag/cell

     iteration #439     ecut=    80.00 Ry     beta= 0.70
     Davidson diagonalization with overlap
     c_bands:  3 eigenvalues not converged
     c_bands:  1 eigenvalues not converged
     c_bands:  1 eigenvalues not converged
     c_bands:  2 eigenvalues not converged
     c_bands:  1 eigenvalues not converged
     c_bands:  1 eigenvalues not converged
     c_bands:  1 eigenvalues not converged
     c_bands:  1 eigenvalues not converged
     c_bands:  1 eigenvalues not converged
     c_bands:  1 eigenvalues not converged
     c_bands:  1 eigenvalues not converged
     c_bands:  1 eigenvalues not converged
     ethr =  6.89E-08,  avg # of iterations = 19.6

     negative rho (up, down):  1.669E+02 2.874E-02

     total cpu time spent up to now is    19236.9 secs

     total energy              =   -4555.96935135 Ry
     estimated scf accuracy    <       0.00008316 Ry

     total magnetization       =    -0.00     0.00    -0.00 Bohr mag/cell
     absolute magnetization    =    59.15 Bohr mag/cell

     iteration #440     ecut=    80.00 Ry     beta= 0.70
     Davidson diagonalization with overlap
     c_bands:  2 eigenvalues not converged
     c_bands:  2 eigenvalues not converged
     c_bands:  2 eigenvalues not converged
     c_bands:  1 eigenvalues not converged
     c_bands:  2 eigenvalues not converged
     c_bands:  1 eigenvalues not converged
     c_bands:  1 eigenvalues not converged
     ethr =  6.89E-08,  avg # of iterations = 20.0

     negative rho (up, down):  1.669E+02 2.873E-02

     total cpu time spent up to now is    19281.7 secs

     total energy              =   -4555.97000056 Ry
     estimated scf accuracy    <       0.00007680 Ry

     total magnetization       =    -0.00    -0.00    -0.13 Bohr mag/cell
     absolute magnetization    =    59.15 Bohr mag/cell

     iteration #441     ecut=    80.00 Ry     beta= 0.70
     Davidson diagonalization with overlap
     c_bands:  2 eigenvalues not converged
     c_bands:  3 eigenvalues not converged
     c_bands:  3 eigenvalues not converged
     c_bands:  2 eigenvalues not converged
     c_bands:  5 eigenvalues not converged
     c_bands:  1 eigenvalues not converged
     ethr =  6.89E-08,  avg # of iterations = 19.5

     negative rho (up, down):  1.669E+02 2.874E-02

     total cpu time spent up to now is    19324.5 secs

     total energy              =   -4555.97102192 Ry
     estimated scf accuracy    <       0.00005700 Ry

     total magnetization       =    -0.00    -0.00    -0.13 Bohr mag/cell
     absolute magnetization    =    59.11 Bohr mag/cell

     iteration #442     ecut=    80.00 Ry     beta= 0.70
     Davidson diagonalization with overlap
     c_bands:  1 eigenvalues not converged
     c_bands:  2 eigenvalues not converged
     c_bands:  5 eigenvalues not converged
     c_bands:  2 eigenvalues not converged
     c_bands:  1 eigenvalues not converged
     c_bands:  3 eigenvalues not converged
     c_bands:  5 eigenvalues not converged
     c_bands:  1 eigenvalues not converged
     c_bands:  1 eigenvalues not converged
     c_bands:  4 eigenvalues not converged
     c_bands:  1 eigenvalues not converged
     c_bands:  1 eigenvalues not converged
     c_bands:  4 eigenvalues not converged
     ethr =  6.89E-08,  avg # of iterations = 19.8

     negative rho (up, down):  1.669E+02 2.874E-02

     total cpu time spent up to now is    19368.5 secs

     total energy              =   -4555.96946703 Ry
     estimated scf accuracy    <       0.00006203 Ry

     total magnetization       =     0.00    -0.00    -0.09 Bohr mag/cell
     absolute magnetization    =    59.13 Bohr mag/cell

     iteration #443     ecut=    80.00 Ry     beta= 0.70
     Davidson diagonalization with overlap
     c_bands:  2 eigenvalues not converged
     c_bands:  2 eigenvalues not converged
     c_bands:  1 eigenvalues not converged
     c_bands:  2 eigenvalues not converged
     c_bands:  4 eigenvalues not converged
     c_bands:  3 eigenvalues not converged
     c_bands:  2 eigenvalues not converged
     c_bands:  5 eigenvalues not converged
     c_bands:  2 eigenvalues not converged
     c_bands:  1 eigenvalues not converged
     c_bands:  1 eigenvalues not converged
     c_bands:  3 eigenvalues not converged
     c_bands:  1 eigenvalues not converged
     c_bands:  3 eigenvalues not converged
     c_bands:  3 eigenvalues not converged
     ethr =  6.89E-08,  avg # of iterations = 20.4

     negative rho (up, down):  1.669E+02 2.874E-02

     total cpu time spent up to now is    19419.5 secs

     total energy              =   -4555.96624066 Ry
     estimated scf accuracy    <       0.00019163 Ry

     total magnetization       =    -0.00    -0.00    -0.14 Bohr mag/cell
     absolute magnetization    =    59.22 Bohr mag/cell

     iteration #444     ecut=    80.00 Ry     beta= 0.70
     Davidson diagonalization with overlap
     c_bands:  2 eigenvalues not converged
     c_bands:  4 eigenvalues not converged
     c_bands:  2 eigenvalues not converged
     c_bands:  1 eigenvalues not converged
     c_bands:  1 eigenvalues not converged
     c_bands:  3 eigenvalues not converged
     c_bands:  1 eigenvalues not converged
     c_bands:  4 eigenvalues not converged
     c_bands:  5 eigenvalues not converged
     c_bands:  4 eigenvalues not converged
     c_bands:  4 eigenvalues not converged
     c_bands:  2 eigenvalues not converged
     c_bands:  3 eigenvalues not converged
     c_bands:  4 eigenvalues not converged
     c_bands:  2 eigenvalues not converged
     c_bands:  4 eigenvalues not converged
     c_bands:  5 eigenvalues not converged
     ethr =  6.89E-08,  avg # of iterations = 19.5

     negative rho (up, down):  1.669E+02 2.872E-02

     total cpu time spent up to now is    19465.9 secs

     total energy              =   -4555.97165108 Ry
     estimated scf accuracy    <       0.00021895 Ry

     total magnetization       =     0.00    -0.00    -0.08 Bohr mag/cell
     absolute magnetization    =    59.03 Bohr mag/cell

     iteration #445     ecut=    80.00 Ry     beta= 0.70
     Davidson diagonalization with overlap
     ethr =  6.89E-08,  avg # of iterations = 14.6

     negative rho (up, down):  1.669E+02 2.873E-02

     total cpu time spent up to now is    19506.7 secs

     total energy              =   -4555.96629071 Ry
     estimated scf accuracy    <       0.00008545 Ry

     total magnetization       =     0.00     0.00    -0.08 Bohr mag/cell
     absolute magnetization    =    59.08 Bohr mag/cell

     iteration #446     ecut=    80.00 Ry     beta= 0.70
     Davidson diagonalization with overlap
     c_bands:  2 eigenvalues not converged
     c_bands:  2 eigenvalues not converged
     c_bands:  1 eigenvalues not converged
     c_bands:  1 eigenvalues not converged
     c_bands:  5 eigenvalues not converged
     c_bands:  5 eigenvalues not converged
     c_bands:  4 eigenvalues not converged
     c_bands:  1 eigenvalues not converged
     c_bands:  4 eigenvalues not converged
     c_bands:  2 eigenvalues not converged
     c_bands:  1 eigenvalues not converged
     ethr =  6.89E-08,  avg # of iterations = 19.6

     negative rho (up, down):  1.669E+02 2.873E-02

     total cpu time spent up to now is    19554.0 secs

     total energy              =   -4555.95886631 Ry
     estimated scf accuracy    <       0.00127416 Ry

     total magnetization       =     0.00    -0.00    -0.11 Bohr mag/cell
     absolute magnetization    =    59.08 Bohr mag/cell

     iteration #447     ecut=    80.00 Ry     beta= 0.70
     Davidson diagonalization with overlap
     c_bands:  2 eigenvalues not converged
     c_bands:  2 eigenvalues not converged
     c_bands:  2 eigenvalues not converged
     c_bands:  2 eigenvalues not converged
     c_bands:  1 eigenvalues not converged
     c_bands:  3 eigenvalues not converged
     c_bands:  3 eigenvalues not converged
     c_bands:  2 eigenvalues not converged
     c_bands:  2 eigenvalues not converged
     c_bands:  1 eigenvalues not converged
     c_bands:  2 eigenvalues not converged
     c_bands:  3 eigenvalues not converged
     c_bands:  2 eigenvalues not converged
     c_bands:  1 eigenvalues not converged
     c_bands:  1 eigenvalues not converged
     ethr =  6.89E-08,  avg # of iterations = 19.7

     negative rho (up, down):  1.669E+02 2.871E-02

     total cpu time spent up to now is    19597.8 secs

     total energy              =   -4555.96219678 Ry
     estimated scf accuracy    <       0.00196846 Ry

     total magnetization       =    -0.00    -0.00    -0.07 Bohr mag/cell
     absolute magnetization    =    59.07 Bohr mag/cell

     iteration #448     ecut=    80.00 Ry     beta= 0.70
     Davidson diagonalization with overlap
     c_bands:  3 eigenvalues not converged
     c_bands:  1 eigenvalues not converged
     c_bands:  3 eigenvalues not converged
     c_bands:  1 eigenvalues not converged
     c_bands:  3 eigenvalues not converged
     c_bands:  2 eigenvalues not converged
     c_bands:  5 eigenvalues not converged
     c_bands:  2 eigenvalues not converged
     c_bands:  2 eigenvalues not converged
     c_bands:  2 eigenvalues not converged
     c_bands:  4 eigenvalues not converged
     c_bands:  3 eigenvalues not converged
     ethr =  6.89E-08,  avg # of iterations = 19.4

     negative rho (up, down):  1.669E+02 2.872E-02

     total cpu time spent up to now is    19644.9 secs

     total energy              =   -4555.95642500 Ry
     estimated scf accuracy    <       0.00028204 Ry

     total magnetization       =     0.00     0.00    -0.11 Bohr mag/cell
     absolute magnetization    =    59.12 Bohr mag/cell

     iteration #449     ecut=    80.00 Ry     beta= 0.70
     Davidson diagonalization with overlap
     c_bands:  2 eigenvalues not converged
     c_bands:  4 eigenvalues not converged
     c_bands:  2 eigenvalues not converged
     c_bands:  5 eigenvalues not converged
     c_bands:  4 eigenvalues not converged
     c_bands:  5 eigenvalues not converged
     c_bands:  4 eigenvalues not converged
     c_bands:  2 eigenvalues not converged
     c_bands:  5 eigenvalues not converged
     c_bands:  5 eigenvalues not converged
     c_bands:  3 eigenvalues not converged
     c_bands:  4 eigenvalues not converged
     c_bands:  4 eigenvalues not converged
     c_bands:  4 eigenvalues not converged
     c_bands:  3 eigenvalues not converged
     c_bands:  4 eigenvalues not converged
     c_bands:  5 eigenvalues not converged
     c_bands:  5 eigenvalues not converged
     c_bands:  4 eigenvalues not converged
     c_bands:  3 eigenvalues not converged
     c_bands:  4 eigenvalues not converged
     c_bands:  3 eigenvalues not converged
     ethr =  6.89E-08,  avg # of iterations = 20.0

     negative rho (up, down):  1.669E+02 2.870E-02

     total cpu time spent up to now is    19692.8 secs

     total energy              =   -4555.96238839 Ry
     estimated scf accuracy    <       0.00203542 Ry

     total magnetization       =     0.00    -0.00    -0.05 Bohr mag/cell
     absolute magnetization    =    59.00 Bohr mag/cell

     iteration #450     ecut=    80.00 Ry     beta= 0.70
     Davidson diagonalization with overlap
     ethr =  6.89E-08,  avg # of iterations = 11.8

     negative rho (up, down):  1.669E+02 2.872E-02

     total cpu time spent up to now is    19729.1 secs

     total energy              =   -4555.96870976 Ry
     estimated scf accuracy    <       0.00027494 Ry

     total magnetization       =     0.00     0.00    -0.06 Bohr mag/cell
     absolute magnetization    =    59.04 Bohr mag/cell

     iteration #451     ecut=    80.00 Ry     beta= 0.70
     Davidson diagonalization with overlap
     c_bands:  2 eigenvalues not converged
     c_bands:  1 eigenvalues not converged
     c_bands:  1 eigenvalues not converged
     c_bands:  1 eigenvalues not converged
     c_bands:  4 eigenvalues not converged
     ethr =  6.89E-08,  avg # of iterations = 17.5

     negative rho (up, down):  1.669E+02 2.873E-02

     total cpu time spent up to now is    19771.8 secs

     total energy              =   -4555.97063986 Ry
     estimated scf accuracy    <       0.00028774 Ry

     total magnetization       =     0.00    -0.00    -0.08 Bohr mag/cell
     absolute magnetization    =    59.06 Bohr mag/cell

     iteration #452     ecut=    80.00 Ry     beta= 0.70
     Davidson diagonalization with overlap
     c_bands:  1 eigenvalues not converged
     c_bands:  4 eigenvalues not converged
     c_bands:  1 eigenvalues not converged
     c_bands:  1 eigenvalues not converged
     ethr =  6.89E-08,  avg # of iterations = 17.9

     negative rho (up, down):  1.669E+02 2.872E-02

     total cpu time spent up to now is    19815.7 secs

     total energy              =   -4555.96611433 Ry
     estimated scf accuracy    <       0.00004886 Ry

     total magnetization       =    -0.00     0.00    -0.10 Bohr mag/cell
     absolute magnetization    =    59.07 Bohr mag/cell

     iteration #453     ecut=    80.00 Ry     beta= 0.70
     Davidson diagonalization with overlap
     c_bands:  2 eigenvalues not converged
     c_bands:  5 eigenvalues not converged
     c_bands:  2 eigenvalues not converged
     ethr =  6.89E-08,  avg # of iterations = 17.1

     negative rho (up, down):  1.669E+02 2.873E-02

     total cpu time spent up to now is    19859.4 secs

     total energy              =   -4555.96325018 Ry
     estimated scf accuracy    <       0.00122743 Ry

     total magnetization       =    -0.00     0.00    -0.09 Bohr mag/cell
     absolute magnetization    =    59.03 Bohr mag/cell

     iteration #454     ecut=    80.00 Ry     beta= 0.70
     Davidson diagonalization with overlap
     c_bands:  1 eigenvalues not converged
     c_bands:  1 eigenvalues not converged
     c_bands:  3 eigenvalues not converged
     c_bands:  1 eigenvalues not converged
     c_bands:  5 eigenvalues not converged
     c_bands:  4 eigenvalues not converged
     c_bands:  2 eigenvalues not converged
     c_bands:  3 eigenvalues not converged
     c_bands:  2 eigenvalues not converged
     c_bands:  2 eigenvalues not converged
     c_bands:  2 eigenvalues not converged
     ethr =  6.89E-08,  avg # of iterations = 20.1

     negative rho (up, down):  1.669E+02 2.873E-02

     total cpu time spent up to now is    19906.8 secs

     total energy              =   -4555.97055578 Ry
     estimated scf accuracy    <       0.00016978 Ry

     total magnetization       =     0.00     0.00    -0.09 Bohr mag/cell
     absolute magnetization    =    59.11 Bohr mag/cell

     iteration #455     ecut=    80.00 Ry     beta= 0.70
     Davidson diagonalization with overlap
     c_bands:  1 eigenvalues not converged
     c_bands:  2 eigenvalues not converged
     c_bands:  4 eigenvalues not converged
     c_bands:  1 eigenvalues not converged
     c_bands:  4 eigenvalues not converged
     c_bands:  2 eigenvalues not converged
     c_bands:  1 eigenvalues not converged
     c_bands:  2 eigenvalues not converged
     c_bands:  1 eigenvalues not converged
     c_bands:  2 eigenvalues not converged
     c_bands:  1 eigenvalues not converged
     c_bands:  1 eigenvalues not converged
     c_bands:  1 eigenvalues not converged
     c_bands:  1 eigenvalues not converged
     ethr =  6.89E-08,  avg # of iterations = 19.8

     negative rho (up, down):  1.669E+02 2.872E-02

     total cpu time spent up to now is    19949.8 secs

     total energy              =   -4555.96966270 Ry
     estimated scf accuracy    <       0.00009687 Ry

     total magnetization       =     0.00     0.00    -0.08 Bohr mag/cell
     absolute magnetization    =    59.10 Bohr mag/cell

     iteration #456     ecut=    80.00 Ry     beta= 0.70
     Davidson diagonalization with overlap
     c_bands:  2 eigenvalues not converged
     c_bands:  3 eigenvalues not converged
     c_bands:  2 eigenvalues not converged
     c_bands:  1 eigenvalues not converged
     c_bands:  1 eigenvalues not converged
     c_bands:  4 eigenvalues not converged
     c_bands:  5 eigenvalues not converged
     c_bands:  1 eigenvalues not converged
     c_bands:  3 eigenvalues not converged
     c_bands:  1 eigenvalues not converged
     c_bands:  1 eigenvalues not converged
     c_bands:  2 eigenvalues not converged
     c_bands:  1 eigenvalues not converged
     c_bands:  4 eigenvalues not converged
     c_bands:  1 eigenvalues not converged
     ethr =  6.89E-08,  avg # of iterations = 20.6

     negative rho (up, down):  1.669E+02 2.873E-02

     total cpu time spent up to now is    19993.2 secs

     total energy              =   -4555.96777759 Ry
     estimated scf accuracy    <       0.00011874 Ry

     total magnetization       =    -0.00     0.00    -0.08 Bohr mag/cell
     absolute magnetization    =    59.17 Bohr mag/cell

     iteration #457     ecut=    80.00 Ry     beta= 0.70
     Davidson diagonalization with overlap
     c_bands:  3 eigenvalues not converged
     c_bands:  1 eigenvalues not converged
     c_bands:  4 eigenvalues not converged
     c_bands:  4 eigenvalues not converged
     c_bands:  3 eigenvalues not converged
     c_bands:  2 eigenvalues not converged
     c_bands:  1 eigenvalues not converged
     c_bands:  1 eigenvalues not converged
     c_bands:  2 eigenvalues not converged
     c_bands:  2 eigenvalues not converged
     c_bands:  1 eigenvalues not converged
     ethr =  6.89E-08,  avg # of iterations = 19.9

     negative rho (up, down):  1.669E+02 2.875E-02

     total cpu time spent up to now is    20037.7 secs

     total energy              =   -4555.96032142 Ry
     estimated scf accuracy    <       0.00008282 Ry

     total magnetization       =     0.00     0.00    -0.15 Bohr mag/cell
     absolute magnetization    =    59.12 Bohr mag/cell

     iteration #458     ecut=    80.00 Ry     beta= 0.70
     Davidson diagonalization with overlap
     c_bands:  2 eigenvalues not converged
     c_bands:  5 eigenvalues not converged
     c_bands:  3 eigenvalues not converged
     c_bands:  5 eigenvalues not converged
     c_bands:  1 eigenvalues not converged
     c_bands:  4 eigenvalues not converged
     c_bands:  1 eigenvalues not converged
     c_bands:  2 eigenvalues not converged
     ethr =  6.89E-08,  avg # of iterations = 19.1

     negative rho (up, down):  1.669E+02 2.870E-02

     total cpu time spent up to now is    20083.0 secs

     total energy              =   -4555.96554154 Ry
     estimated scf accuracy    <       0.00190483 Ry

     total magnetization       =    -0.00     0.00    -0.15 Bohr mag/cell
     absolute magnetization    =    59.06 Bohr mag/cell

     iteration #459     ecut=    80.00 Ry     beta= 0.70
     Davidson diagonalization with overlap
     c_bands:  2 eigenvalues not converged
     c_bands:  5 eigenvalues not converged
     c_bands:  2 eigenvalues not converged
     c_bands:  1 eigenvalues not converged
     c_bands:  3 eigenvalues not converged
     c_bands:  1 eigenvalues not converged
     c_bands:  2 eigenvalues not converged
     c_bands:  1 eigenvalues not converged
     c_bands:  1 eigenvalues not converged
     c_bands:  1 eigenvalues not converged
     c_bands:  4 eigenvalues not converged
     c_bands:  1 eigenvalues not converged
     c_bands:  2 eigenvalues not converged
     c_bands:  2 eigenvalues not converged
     c_bands:  1 eigenvalues not converged
     c_bands:  4 eigenvalues not converged
     ethr =  6.89E-08,  avg # of iterations = 19.5

     negative rho (up, down):  1.669E+02 2.870E-02

     total cpu time spent up to now is    20124.8 secs

     total energy              =   -4555.96968654 Ry
     estimated scf accuracy    <       0.00126824 Ry

     total magnetization       =     0.00    -0.00    -0.07 Bohr mag/cell
     absolute magnetization    =    59.03 Bohr mag/cell

     iteration #460     ecut=    80.00 Ry     beta= 0.70
     Davidson diagonalization with overlap
     c_bands:  1 eigenvalues not converged
     c_bands:  2 eigenvalues not converged
     c_bands:  1 eigenvalues not converged
     c_bands:  2 eigenvalues not converged
     c_bands:  1 eigenvalues not converged
     ethr =  6.89E-08,  avg # of iterations = 18.2

     negative rho (up, down):  1.669E+02 2.873E-02

     total cpu time spent up to now is    20170.8 secs

     total energy              =   -4555.97044356 Ry
     estimated scf accuracy    <       0.00007115 Ry

     total magnetization       =     0.00     0.00    -0.07 Bohr mag/cell
     absolute magnetization    =    59.12 Bohr mag/cell

     iteration #461     ecut=    80.00 Ry     beta= 0.70
     Davidson diagonalization with overlap
     c_bands:  3 eigenvalues not converged
     c_bands:  4 eigenvalues not converged
     c_bands:  1 eigenvalues not converged
     c_bands:  2 eigenvalues not converged
     c_bands:  3 eigenvalues not converged
     c_bands:  2 eigenvalues not converged
     c_bands:  1 eigenvalues not converged
     c_bands:  2 eigenvalues not converged
     c_bands:  1 eigenvalues not converged
     c_bands:  2 eigenvalues not converged
     c_bands:  2 eigenvalues not converged
     c_bands:  2 eigenvalues not converged
     c_bands:  4 eigenvalues not converged
     c_bands:  3 eigenvalues not converged
     c_bands:  3 eigenvalues not converged
     c_bands:  1 eigenvalues not converged
     c_bands:  1 eigenvalues not converged
     c_bands:  2 eigenvalues not converged
     c_bands:  4 eigenvalues not converged
     c_bands:  3 eigenvalues not converged
     ethr =  6.89E-08,  avg # of iterations = 20.1

     negative rho (up, down):  1.669E+02 2.872E-02

     total cpu time spent up to now is    20216.1 secs

     total energy              =   -4555.96957851 Ry
     estimated scf accuracy    <       0.00008302 Ry

     total magnetization       =     0.00    -0.00    -0.05 Bohr mag/cell
     absolute magnetization    =    59.13 Bohr mag/cell

     iteration #462     ecut=    80.00 Ry     beta= 0.70
     Davidson diagonalization with overlap
     c_bands:  2 eigenvalues not converged
     c_bands:  1 eigenvalues not converged
     c_bands:  2 eigenvalues not converged
     c_bands:  4 eigenvalues not converged
     c_bands:  3 eigenvalues not converged
     c_bands:  2 eigenvalues not converged
     c_bands:  2 eigenvalues not converged
     c_bands:  5 eigenvalues not converged
     c_bands:  1 eigenvalues not converged
     c_bands:  4 eigenvalues not converged
     c_bands:  1 eigenvalues not converged
     c_bands:  3 eigenvalues not converged
     c_bands:  1 eigenvalues not converged
     c_bands:  3 eigenvalues not converged
     c_bands:  1 eigenvalues not converged
     c_bands:  4 eigenvalues not converged
     ethr =  6.89E-08,  avg # of iterations = 20.2

     negative rho (up, down):  1.669E+02 2.872E-02

     total cpu time spent up to now is    20264.1 secs

     total energy              =   -4555.96853799 Ry
     estimated scf accuracy    <       0.00012227 Ry

     total magnetization       =     0.00     0.00    -0.14 Bohr mag/cell
     absolute magnetization    =    59.16 Bohr mag/cell

     iteration #463     ecut=    80.00 Ry     beta= 0.70
     Davidson diagonalization with overlap
     c_bands:  3 eigenvalues not converged
     c_bands:  1 eigenvalues not converged
     c_bands:  2 eigenvalues not converged
     c_bands:  4 eigenvalues not converged
     c_bands:  2 eigenvalues not converged
     c_bands:  1 eigenvalues not converged
     c_bands:  1 eigenvalues not converged
     c_bands:  1 eigenvalues not converged
     c_bands:  1 eigenvalues not converged
     c_bands:  5 eigenvalues not converged
     c_bands:  2 eigenvalues not converged
     c_bands:  2 eigenvalues not converged
     c_bands:  2 eigenvalues not converged
     c_bands:  2 eigenvalues not converged
     c_bands:  1 eigenvalues not converged
     ethr =  6.89E-08,  avg # of iterations = 20.1

     negative rho (up, down):  1.669E+02 2.873E-02

     total cpu time spent up to now is    20311.5 secs

     total energy              =   -4555.96905881 Ry
     estimated scf accuracy    <       0.00009746 Ry

     total magnetization       =    -0.00     0.00    -0.19 Bohr mag/cell
     absolute magnetization    =    59.17 Bohr mag/cell

     iteration #464     ecut=    80.00 Ry     beta= 0.70
     Davidson diagonalization with overlap
     c_bands:  3 eigenvalues not converged
     c_bands:  2 eigenvalues not converged
     c_bands:  2 eigenvalues not converged
     c_bands:  1 eigenvalues not converged
     c_bands:  2 eigenvalues not converged
     c_bands:  1 eigenvalues not converged
     c_bands:  1 eigenvalues not converged
     c_bands:  3 eigenvalues not converged
     c_bands:  1 eigenvalues not converged
     c_bands:  3 eigenvalues not converged
     c_bands:  2 eigenvalues not converged
     c_bands:  2 eigenvalues not converged
     c_bands:  2 eigenvalues not converged
     c_bands:  2 eigenvalues not converged
     c_bands:  4 eigenvalues not converged
     c_bands:  1 eigenvalues not converged
     c_bands:  4 eigenvalues not converged
     c_bands:  1 eigenvalues not converged
     c_bands:  3 eigenvalues not converged
     ethr =  6.89E-08,  avg # of iterations = 19.6

     negative rho (up, down):  1.669E+02 2.873E-02

     total cpu time spent up to now is    20356.5 secs

     total energy              =   -4555.97013023 Ry
     estimated scf accuracy    <       0.00006929 Ry

     total magnetization       =    -0.00    -0.00    -0.02 Bohr mag/cell
     absolute magnetization    =    59.13 Bohr mag/cell

     iteration #465     ecut=    80.00 Ry     beta= 0.70
     Davidson diagonalization with overlap
     c_bands:  1 eigenvalues not converged
     c_bands:  2 eigenvalues not converged
     c_bands:  1 eigenvalues not converged
     c_bands:  2 eigenvalues not converged
     ethr =  6.89E-08,  avg # of iterations = 20.1

     negative rho (up, down):  1.669E+02 2.874E-02

     total cpu time spent up to now is    20402.9 secs

     total energy              =   -4555.96611010 Ry
     estimated scf accuracy    <       0.00011689 Ry

     total magnetization       =     0.00     0.00    -0.09 Bohr mag/cell
     absolute magnetization    =    59.14 Bohr mag/cell

     iteration #466     ecut=    80.00 Ry     beta= 0.70
     Davidson diagonalization with overlap
     c_bands:  4 eigenvalues not converged
     c_bands:  5 eigenvalues not converged
     c_bands:  2 eigenvalues not converged
     c_bands:  4 eigenvalues not converged
     c_bands:  5 eigenvalues not converged
     c_bands:  3 eigenvalues not converged
     c_bands:  5 eigenvalues not converged
     c_bands:  1 eigenvalues not converged
     c_bands:  2 eigenvalues not converged
     c_bands:  3 eigenvalues not converged
     c_bands:  2 eigenvalues not converged
     c_bands:  4 eigenvalues not converged
     c_bands:  5 eigenvalues not converged
     c_bands:  1 eigenvalues not converged
     c_bands:  2 eigenvalues not converged
     ethr =  6.89E-08,  avg # of iterations = 21.5

     negative rho (up, down):  1.669E+02 2.873E-02

     total cpu time spent up to now is    20451.9 secs

     total energy              =   -4555.96891277 Ry
     estimated scf accuracy    <       0.00029240 Ry

     total magnetization       =     0.00     0.00    -0.07 Bohr mag/cell
     absolute magnetization    =    59.12 Bohr mag/cell

     iteration #467     ecut=    80.00 Ry     beta= 0.70
     Davidson diagonalization with overlap
     c_bands:  5 eigenvalues not converged
     c_bands:  2 eigenvalues not converged
     c_bands:  2 eigenvalues not converged
     c_bands:  3 eigenvalues not converged
     c_bands:  4 eigenvalues not converged
     c_bands:  2 eigenvalues not converged
     c_bands:  4 eigenvalues not converged
     c_bands:  5 eigenvalues not converged
     c_bands:  2 eigenvalues not converged
     c_bands:  2 eigenvalues not converged
     c_bands:  3 eigenvalues not converged
     c_bands:  5 eigenvalues not converged
     c_bands:  2 eigenvalues not converged
     c_bands:  3 eigenvalues not converged
     c_bands:  5 eigenvalues not converged
     c_bands:  3 eigenvalues not converged
     c_bands:  1 eigenvalues not converged
     c_bands:  5 eigenvalues not converged
     ethr =  6.89E-08,  avg # of iterations = 20.9

     negative rho (up, down):  1.669E+02 2.872E-02

     total cpu time spent up to now is    20500.3 secs

     total energy              =   -4555.96534914 Ry
     estimated scf accuracy    <       0.00020473 Ry

     total magnetization       =    -0.00    -0.00    -0.04 Bohr mag/cell
     absolute magnetization    =    59.25 Bohr mag/cell

     iteration #468     ecut=    80.00 Ry     beta= 0.70
     Davidson diagonalization with overlap
     c_bands:  2 eigenvalues not converged
     c_bands:  5 eigenvalues not converged
     c_bands:  3 eigenvalues not converged
     c_bands:  1 eigenvalues not converged
     c_bands:  4 eigenvalues not converged
     c_bands:  5 eigenvalues not converged
     c_bands:  5 eigenvalues not converged
     c_bands:  5 eigenvalues not converged
     c_bands:  5 eigenvalues not converged
     c_bands:  3 eigenvalues not converged
     c_bands:  5 eigenvalues not converged
     c_bands:  3 eigenvalues not converged
     c_bands:  4 eigenvalues not converged
     c_bands:  4 eigenvalues not converged
     ethr =  6.89E-08,  avg # of iterations = 22.7

     negative rho (up, down):  1.669E+02 2.872E-02

     total cpu time spent up to now is    20550.3 secs

     total energy              =   -4555.96892519 Ry
     estimated scf accuracy    <       0.00010286 Ry

     total magnetization       =     0.00     0.00    -0.11 Bohr mag/cell
     absolute magnetization    =    59.15 Bohr mag/cell

     iteration #469     ecut=    80.00 Ry     beta= 0.70
     Davidson diagonalization with overlap
     c_bands:  4 eigenvalues not converged
     c_bands:  2 eigenvalues not converged
     c_bands:  1 eigenvalues not converged
     c_bands:  1 eigenvalues not converged
     c_bands:  4 eigenvalues not converged
     c_bands:  3 eigenvalues not converged
     c_bands:  3 eigenvalues not converged
     c_bands:  5 eigenvalues not converged
     c_bands:  3 eigenvalues not converged
     c_bands:  4 eigenvalues not converged
     c_bands:  4 eigenvalues not converged
     c_bands:  2 eigenvalues not converged
     ethr =  6.89E-08,  avg # of iterations = 20.1

     negative rho (up, down):  1.669E+02 2.873E-02

     total cpu time spent up to now is    20597.9 secs

     total energy              =   -4555.96756358 Ry
     estimated scf accuracy    <       0.00011981 Ry

     total magnetization       =     0.00     0.00    -0.13 Bohr mag/cell
     absolute magnetization    =    59.19 Bohr mag/cell

     iteration #470     ecut=    80.00 Ry     beta= 0.70
     Davidson diagonalization with overlap
     c_bands:  2 eigenvalues not converged
     c_bands:  1 eigenvalues not converged
     c_bands:  1 eigenvalues not converged
     c_bands:  4 eigenvalues not converged
     c_bands:  1 eigenvalues not converged
     c_bands:  4 eigenvalues not converged
     c_bands:  2 eigenvalues not converged
     c_bands:  5 eigenvalues not converged
     c_bands:  4 eigenvalues not converged
     c_bands:  5 eigenvalues not converged
     c_bands:  5 eigenvalues not converged
     c_bands:  2 eigenvalues not converged
     c_bands:  2 eigenvalues not converged
     c_bands:  5 eigenvalues not converged
     c_bands:  5 eigenvalues not converged
     ethr =  6.89E-08,  avg # of iterations = 21.5

     negative rho (up, down):  1.669E+02 2.875E-02

     total cpu time spent up to now is    20647.2 secs

     total energy              =   -4555.96755494 Ry
     estimated scf accuracy    <       0.00009679 Ry

     total magnetization       =    -0.00    -0.00    -0.11 Bohr mag/cell
     absolute magnetization    =    59.17 Bohr mag/cell

     iteration #471     ecut=    80.00 Ry     beta= 0.70
     Davidson diagonalization with overlap
     c_bands:  3 eigenvalues not converged
     c_bands:  2 eigenvalues not converged
     c_bands:  1 eigenvalues not converged
     c_bands:  3 eigenvalues not converged
     c_bands:  2 eigenvalues not converged
     c_bands:  1 eigenvalues not converged
     c_bands:  2 eigenvalues not converged
     c_bands:  3 eigenvalues not converged
     c_bands:  1 eigenvalues not converged
     c_bands:  5 eigenvalues not converged
     c_bands:  2 eigenvalues not converged
     c_bands:  5 eigenvalues not converged
     c_bands:  2 eigenvalues not converged
     c_bands:  3 eigenvalues not converged
     c_bands:  2 eigenvalues not converged
     c_bands:  4 eigenvalues not converged
     c_bands:  4 eigenvalues not converged
     c_bands:  3 eigenvalues not converged
     ethr =  6.89E-08,  avg # of iterations = 19.8

     negative rho (up, down):  1.669E+02 2.873E-02

     total cpu time spent up to now is    20691.2 secs

     total energy              =   -4555.96952719 Ry
     estimated scf accuracy    <       0.00008308 Ry

     total magnetization       =    -0.00    -0.00    -0.10 Bohr mag/cell
     absolute magnetization    =    59.12 Bohr mag/cell

     iteration #472     ecut=    80.00 Ry     beta= 0.70
     Davidson diagonalization with overlap
     c_bands:  3 eigenvalues not converged
     c_bands:  2 eigenvalues not converged
     c_bands:  2 eigenvalues not converged
     c_bands:  3 eigenvalues not converged
     c_bands:  3 eigenvalues not converged
     c_bands:  1 eigenvalues not converged
     c_bands:  4 eigenvalues not converged
     c_bands:  4 eigenvalues not converged
     c_bands:  3 eigenvalues not converged
     c_bands:  2 eigenvalues not converged
     c_bands:  1 eigenvalues not converged
     c_bands:  1 eigenvalues not converged
     c_bands:  2 eigenvalues not converged
     c_bands:  5 eigenvalues not converged
     c_bands:  4 eigenvalues not converged
     c_bands:  4 eigenvalues not converged
     ethr =  6.89E-08,  avg # of iterations = 19.7

     negative rho (up, down):  1.669E+02 2.874E-02

     total cpu time spent up to now is    20733.9 secs

     total energy              =   -4555.96969683 Ry
     estimated scf accuracy    <       0.00008043 Ry

     total magnetization       =     0.00    -0.00    -0.10 Bohr mag/cell
     absolute magnetization    =    59.13 Bohr mag/cell

     iteration #473     ecut=    80.00 Ry     beta= 0.70
     Davidson diagonalization with overlap
     c_bands:  2 eigenvalues not converged
     c_bands:  1 eigenvalues not converged
     c_bands:  2 eigenvalues not converged
     c_bands:  1 eigenvalues not converged
     c_bands:  1 eigenvalues not converged
     c_bands:  2 eigenvalues not converged
     c_bands:  3 eigenvalues not converged
     c_bands:  1 eigenvalues not converged
     c_bands:  4 eigenvalues not converged
     c_bands:  2 eigenvalues not converged
     c_bands:  1 eigenvalues not converged
     c_bands:  1 eigenvalues not converged
     c_bands:  1 eigenvalues not converged
     c_bands:  2 eigenvalues not converged
     c_bands:  2 eigenvalues not converged
     c_bands:  1 eigenvalues not converged
     c_bands:  2 eigenvalues not converged
     c_bands:  3 eigenvalues not converged
     ethr =  6.89E-08,  avg # of iterations = 19.7

     negative rho (up, down):  1.669E+02 2.873E-02

     total cpu time spent up to now is    20775.4 secs

     total energy              =   -4555.97048327 Ry
     estimated scf accuracy    <       0.00006454 Ry

     total magnetization       =    -0.00     0.00    -0.16 Bohr mag/cell
     absolute magnetization    =    59.13 Bohr mag/cell

     iteration #474     ecut=    80.00 Ry     beta= 0.70
     Davidson diagonalization with overlap
     c_bands:  4 eigenvalues not converged
     c_bands:  1 eigenvalues not converged
     c_bands:  2 eigenvalues not converged
     c_bands:  3 eigenvalues not converged
     c_bands:  3 eigenvalues not converged
     c_bands:  3 eigenvalues not converged
     c_bands:  1 eigenvalues not converged
     c_bands:  1 eigenvalues not converged
     c_bands:  1 eigenvalues not converged
     c_bands:  2 eigenvalues not converged
     c_bands:  2 eigenvalues not converged
     ethr =  6.89E-08,  avg # of iterations = 19.0

     negative rho (up, down):  1.669E+02 2.873E-02

     total cpu time spent up to now is    20814.4 secs

     total energy              =   -4555.97143498 Ry
     estimated scf accuracy    <       0.00004120 Ry

     total magnetization       =    -0.00     0.00    -0.05 Bohr mag/cell
     absolute magnetization    =    59.07 Bohr mag/cell

     iteration #475     ecut=    80.00 Ry     beta= 0.70
     Davidson diagonalization with overlap
     c_bands:  2 eigenvalues not converged
     c_bands:  1 eigenvalues not converged
     c_bands:  2 eigenvalues not converged
     c_bands:  2 eigenvalues not converged
     c_bands:  2 eigenvalues not converged
     c_bands:  2 eigenvalues not converged
     c_bands:  2 eigenvalues not converged
     c_bands:  2 eigenvalues not converged
     c_bands:  2 eigenvalues not converged
     c_bands:  1 eigenvalues not converged
     c_bands:  3 eigenvalues not converged
     c_bands:  2 eigenvalues not converged
     c_bands:  2 eigenvalues not converged
     c_bands:  1 eigenvalues not converged
     c_bands:  2 eigenvalues not converged
     ethr =  6.89E-08,  avg # of iterations = 19.2

     negative rho (up, down):  1.669E+02 2.873E-02

     total cpu time spent up to now is    20854.0 secs

     total energy              =   -4555.96410480 Ry
     estimated scf accuracy    <       0.00007841 Ry

     total magnetization       =    -0.00    -0.00    -0.08 Bohr mag/cell
     absolute magnetization    =    59.12 Bohr mag/cell

     iteration #476     ecut=    80.00 Ry     beta= 0.70
     Davidson diagonalization with overlap
     c_bands:  1 eigenvalues not converged
     c_bands:  2 eigenvalues not converged
     c_bands:  2 eigenvalues not converged
     c_bands:  1 eigenvalues not converged
     c_bands:  2 eigenvalues not converged
     c_bands:  1 eigenvalues not converged
     c_bands:  1 eigenvalues not converged
     ethr =  6.89E-08,  avg # of iterations = 18.4

     negative rho (up, down):  1.669E+02 2.871E-02

     total cpu time spent up to now is    20895.6 secs

     total energy              =   -4555.97107354 Ry
     estimated scf accuracy    <       0.00022095 Ry

     total magnetization       =    -0.00    -0.00    -0.05 Bohr mag/cell
     absolute magnetization    =    59.08 Bohr mag/cell

     iteration #477     ecut=    80.00 Ry     beta= 0.70
     Davidson diagonalization with overlap
     c_bands:  2 eigenvalues not converged
     c_bands:  3 eigenvalues not converged
     c_bands:  5 eigenvalues not converged
     c_bands:  3 eigenvalues not converged
     c_bands:  1 eigenvalues not converged
     c_bands:  1 eigenvalues not converged
     c_bands:  1 eigenvalues not converged
     c_bands:  4 eigenvalues not converged
     c_bands:  4 eigenvalues not converged
     c_bands:  1 eigenvalues not converged
     c_bands:  1 eigenvalues not converged
     ethr =  6.89E-08,  avg # of iterations = 19.2

     negative rho (up, down):  1.669E+02 2.873E-02

     total cpu time spent up to now is    20937.5 secs

     total energy              =   -4555.96638044 Ry
     estimated scf accuracy    <       0.00006473 Ry

     total magnetization       =    -0.00    -0.00    -0.10 Bohr mag/cell
     absolute magnetization    =    59.12 Bohr mag/cell

     iteration #478     ecut=    80.00 Ry     beta= 0.70
     Davidson diagonalization with overlap
     c_bands:  1 eigenvalues not converged
     c_bands:  2 eigenvalues not converged
     c_bands:  1 eigenvalues not converged
     c_bands:  1 eigenvalues not converged
     c_bands:  1 eigenvalues not converged
     c_bands:  2 eigenvalues not converged
     c_bands:  1 eigenvalues not converged
     c_bands:  2 eigenvalues not converged
     ethr =  6.89E-08,  avg # of iterations = 19.5

     negative rho (up, down):  1.669E+02 2.871E-02

     total cpu time spent up to now is    20981.0 secs

     total energy              =   -4555.96720614 Ry
     estimated scf accuracy    <       0.00008302 Ry

     total magnetization       =    -0.00     0.00    -0.02 Bohr mag/cell
     absolute magnetization    =    59.13 Bohr mag/cell

     iteration #479     ecut=    80.00 Ry     beta= 0.70
     Davidson diagonalization with overlap
     c_bands:  2 eigenvalues not converged
     c_bands:  2 eigenvalues not converged
     c_bands:  1 eigenvalues not converged
     c_bands:  3 eigenvalues not converged
     c_bands:  3 eigenvalues not converged
     c_bands:  4 eigenvalues not converged
     c_bands:  2 eigenvalues not converged
     c_bands:  4 eigenvalues not converged
     c_bands:  5 eigenvalues not converged
     c_bands:  5 eigenvalues not converged
     c_bands:  4 eigenvalues not converged
     c_bands:  4 eigenvalues not converged
     c_bands:  2 eigenvalues not converged
     c_bands:  1 eigenvalues not converged
     c_bands:  5 eigenvalues not converged
     c_bands:  3 eigenvalues not converged
     c_bands:  4 eigenvalues not converged
     c_bands:  3 eigenvalues not converged
     ethr =  6.89E-08,  avg # of iterations = 19.9

     negative rho (up, down):  1.669E+02 2.874E-02

     total cpu time spent up to now is    21027.8 secs

     total energy              =   -4555.96638447 Ry
     estimated scf accuracy    <       0.00043687 Ry

     total magnetization       =    -0.00     0.00    -0.13 Bohr mag/cell
     absolute magnetization    =    59.18 Bohr mag/cell

     iteration #480     ecut=    80.00 Ry     beta= 0.70
     Davidson diagonalization with overlap
     c_bands:  2 eigenvalues not converged
     c_bands:  1 eigenvalues not converged
     c_bands:  5 eigenvalues not converged
     c_bands:  3 eigenvalues not converged
     c_bands:  2 eigenvalues not converged
     c_bands:  2 eigenvalues not converged
     c_bands:  3 eigenvalues not converged
     c_bands:  2 eigenvalues not converged
     c_bands:  5 eigenvalues not converged
     c_bands:  4 eigenvalues not converged
     c_bands:  4 eigenvalues not converged
     c_bands:  4 eigenvalues not converged
     ethr =  6.89E-08,  avg # of iterations = 20.5

     negative rho (up, down):  1.669E+02 2.874E-02

     total cpu time spent up to now is    21075.1 secs

     total energy              =   -4555.96859016 Ry
     estimated scf accuracy    <       0.00028467 Ry

     total magnetization       =    -0.00     0.00    -0.10 Bohr mag/cell
     absolute magnetization    =    59.08 Bohr mag/cell

     iteration #481     ecut=    80.00 Ry     beta= 0.70
     Davidson diagonalization with overlap
     c_bands:  2 eigenvalues not converged
     c_bands:  3 eigenvalues not converged
     c_bands:  4 eigenvalues not converged
     c_bands:  2 eigenvalues not converged
     c_bands:  3 eigenvalues not converged
     c_bands:  1 eigenvalues not converged
     c_bands:  3 eigenvalues not converged
     c_bands:  2 eigenvalues not converged
     c_bands:  2 eigenvalues not converged
     c_bands:  1 eigenvalues not converged
     c_bands:  3 eigenvalues not converged
     c_bands:  1 eigenvalues not converged
     ethr =  6.89E-08,  avg # of iterations = 18.8

     negative rho (up, down):  1.669E+02 2.874E-02

     total cpu time spent up to now is    21116.6 secs

     total energy              =   -4555.97074332 Ry
     estimated scf accuracy    <       0.00027580 Ry

     total magnetization       =    -0.00    -0.00    -0.06 Bohr mag/cell
     absolute magnetization    =    59.09 Bohr mag/cell

     iteration #482     ecut=    80.00 Ry     beta= 0.70
     Davidson diagonalization with overlap
     c_bands:  2 eigenvalues not converged
     c_bands:  2 eigenvalues not converged
     c_bands:  1 eigenvalues not converged
     c_bands:  1 eigenvalues not converged
     c_bands:  1 eigenvalues not converged
     c_bands:  2 eigenvalues not converged
     c_bands:  4 eigenvalues not converged
     c_bands:  1 eigenvalues not converged
     ethr =  6.89E-08,  avg # of iterations = 18.5

     negative rho (up, down):  1.669E+02 2.873E-02

     total cpu time spent up to now is    21159.4 secs

     total energy              =   -4555.95839495 Ry
     estimated scf accuracy    <       0.00004945 Ry

     total magnetization       =     0.00     0.00    -0.04 Bohr mag/cell
     absolute magnetization    =    59.10 Bohr mag/cell

     iteration #483     ecut=    80.00 Ry     beta= 0.70
     Davidson diagonalization with overlap
     c_bands:  2 eigenvalues not converged
     c_bands:  1 eigenvalues not converged
     c_bands:  1 eigenvalues not converged
     ethr =  6.89E-08,  avg # of iterations = 18.6

     negative rho (up, down):  1.669E+02 2.870E-02

     total cpu time spent up to now is    21204.6 secs

     total energy              =   -4555.96965744 Ry
     estimated scf accuracy    <       0.00259275 Ry

     total magnetization       =     0.00    -0.00    -0.13 Bohr mag/cell
     absolute magnetization    =    58.98 Bohr mag/cell

     iteration #484     ecut=    80.00 Ry     beta= 0.70
     Davidson diagonalization with overlap
     c_bands:  1 eigenvalues not converged
     c_bands:  2 eigenvalues not converged
     c_bands:  1 eigenvalues not converged
     c_bands:  1 eigenvalues not converged
     ethr =  6.89E-08,  avg # of iterations = 17.7

     negative rho (up, down):  1.669E+02 2.871E-02

     total cpu time spent up to now is    21247.1 secs

     total energy              =   -4555.97142658 Ry
     estimated scf accuracy    <       0.00010857 Ry

     total magnetization       =     0.00     0.00    -0.10 Bohr mag/cell
     absolute magnetization    =    59.06 Bohr mag/cell

     iteration #485     ecut=    80.00 Ry     beta= 0.70
     Davidson diagonalization with overlap
     ethr =  6.89E-08,  avg # of iterations = 15.7

     negative rho (up, down):  1.669E+02 2.871E-02

     total cpu time spent up to now is    21285.2 secs

     total energy              =   -4555.97069880 Ry
     estimated scf accuracy    <       0.00007538 Ry

     total magnetization       =    -0.00     0.00    -0.14 Bohr mag/cell
     absolute magnetization    =    59.10 Bohr mag/cell

     iteration #486     ecut=    80.00 Ry     beta= 0.70
     Davidson diagonalization with overlap
     c_bands:  2 eigenvalues not converged
     c_bands:  1 eigenvalues not converged
     c_bands:  2 eigenvalues not converged
     c_bands:  1 eigenvalues not converged
     c_bands:  2 eigenvalues not converged
     c_bands:  1 eigenvalues not converged
     ethr =  6.89E-08,  avg # of iterations = 18.0

     negative rho (up, down):  1.669E+02 2.873E-02

     total cpu time spent up to now is    21325.5 secs

     total energy              =   -4555.97070289 Ry
     estimated scf accuracy    <       0.00005341 Ry

     total magnetization       =     0.00    -0.00    -0.08 Bohr mag/cell
     absolute magnetization    =    59.10 Bohr mag/cell

     iteration #487     ecut=    80.00 Ry     beta= 0.70
     Davidson diagonalization with overlap
     c_bands:  3 eigenvalues not converged
     c_bands:  3 eigenvalues not converged
     c_bands:  1 eigenvalues not converged
     ethr =  6.89E-08,  avg # of iterations = 16.9

     negative rho (up, down):  1.669E+02 2.873E-02

     total cpu time spent up to now is    21364.2 secs

     total energy              =   -4555.97085175 Ry
     estimated scf accuracy    <       0.00005219 Ry

     total magnetization       =    -0.00    -0.00    -0.14 Bohr mag/cell
     absolute magnetization    =    59.10 Bohr mag/cell

     iteration #488     ecut=    80.00 Ry     beta= 0.70
     Davidson diagonalization with overlap
     c_bands:  4 eigenvalues not converged
     c_bands:  1 eigenvalues not converged
     ethr =  6.89E-08,  avg # of iterations = 18.6

     negative rho (up, down):  1.669E+02 2.874E-02

     total cpu time spent up to now is    21404.9 secs

     total energy              =   -4555.96984863 Ry
     estimated scf accuracy    <       0.00006195 Ry

     total magnetization       =    -0.00     0.00    -0.09 Bohr mag/cell
     absolute magnetization    =    59.12 Bohr mag/cell

     iteration #489     ecut=    80.00 Ry     beta= 0.70
     Davidson diagonalization with overlap
     c_bands:  2 eigenvalues not converged
     c_bands:  3 eigenvalues not converged
     c_bands:  2 eigenvalues not converged
     c_bands:  5 eigenvalues not converged
     c_bands:  2 eigenvalues not converged
     c_bands:  2 eigenvalues not converged
     c_bands:  3 eigenvalues not converged
     c_bands:  3 eigenvalues not converged
     c_bands:  4 eigenvalues not converged
     c_bands:  5 eigenvalues not converged
     c_bands:  2 eigenvalues not converged
     c_bands:  5 eigenvalues not converged
     c_bands:  1 eigenvalues not converged
     c_bands:  3 eigenvalues not converged
     c_bands:  2 eigenvalues not converged
     c_bands:  1 eigenvalues not converged
     c_bands:  5 eigenvalues not converged
     c_bands:  5 eigenvalues not converged
     c_bands:  1 eigenvalues not converged
     c_bands:  5 eigenvalues not converged
     ethr =  6.89E-08,  avg # of iterations = 20.0

     negative rho (up, down):  1.669E+02 2.874E-02

     total cpu time spent up to now is    21448.0 secs

     total energy              =   -4555.96936013 Ry
     estimated scf accuracy    <       0.00009523 Ry

     total magnetization       =     0.00    -0.00    -0.11 Bohr mag/cell
     absolute magnetization    =    59.14 Bohr mag/cell

     iteration #490     ecut=    80.00 Ry     beta= 0.70
     Davidson diagonalization with overlap
     c_bands:  2 eigenvalues not converged
     c_bands:  1 eigenvalues not converged
     c_bands:  1 eigenvalues not converged
     c_bands:  2 eigenvalues not converged
     c_bands:  1 eigenvalues not converged
     c_bands:  1 eigenvalues not converged
     c_bands:  2 eigenvalues not converged
     c_bands:  2 eigenvalues not converged
     c_bands:  4 eigenvalues not converged
     c_bands:  1 eigenvalues not converged
     c_bands:  5 eigenvalues not converged
     c_bands:  3 eigenvalues not converged
     c_bands:  1 eigenvalues not converged
     c_bands:  2 eigenvalues not converged
     c_bands:  1 eigenvalues not converged
     c_bands:  4 eigenvalues not converged
     c_bands:  1 eigenvalues not converged
     c_bands:  3 eigenvalues not converged
     ethr =  6.89E-08,  avg # of iterations = 20.0

     negative rho (up, down):  1.669E+02 2.875E-02

     total cpu time spent up to now is    21491.9 secs

     total energy              =   -4555.96982221 Ry
     estimated scf accuracy    <       0.00006919 Ry

     total magnetization       =     0.00    -0.00    -0.10 Bohr mag/cell
     absolute magnetization    =    59.12 Bohr mag/cell

     iteration #491     ecut=    80.00 Ry     beta= 0.70
     Davidson diagonalization with overlap
     c_bands:  3 eigenvalues not converged
     c_bands:  3 eigenvalues not converged
     c_bands:  1 eigenvalues not converged
     c_bands:  5 eigenvalues not converged
     c_bands:  4 eigenvalues not converged
     c_bands:  2 eigenvalues not converged
     c_bands:  1 eigenvalues not converged
     c_bands:  1 eigenvalues not converged
     c_bands:  1 eigenvalues not converged
     c_bands:  2 eigenvalues not converged
     c_bands:  4 eigenvalues not converged
     c_bands:  2 eigenvalues not converged
     c_bands:  4 eigenvalues not converged
     c_bands:  1 eigenvalues not converged
     c_bands:  3 eigenvalues not converged
     c_bands:  3 eigenvalues not converged
     c_bands:  3 eigenvalues not converged
     c_bands:  4 eigenvalues not converged
     ethr =  6.89E-08,  avg # of iterations = 20.4

     negative rho (up, down):  1.669E+02 2.874E-02

     total cpu time spent up to now is    21536.1 secs

     total energy              =   -4555.96983104 Ry
     estimated scf accuracy    <       0.00008687 Ry

     total magnetization       =     0.00    -0.00    -0.09 Bohr mag/cell
     absolute magnetization    =    59.15 Bohr mag/cell

     iteration #492     ecut=    80.00 Ry     beta= 0.70
     Davidson diagonalization with overlap
     c_bands:  3 eigenvalues not converged
     c_bands:  4 eigenvalues not converged
     c_bands:  4 eigenvalues not converged
     c_bands:  4 eigenvalues not converged
     c_bands:  4 eigenvalues not converged
     c_bands:  3 eigenvalues not converged
     c_bands:  3 eigenvalues not converged
     c_bands:  1 eigenvalues not converged
     c_bands:  4 eigenvalues not converged
     c_bands:  3 eigenvalues not converged
     c_bands:  1 eigenvalues not converged
     c_bands:  4 eigenvalues not converged
     c_bands:  3 eigenvalues not converged
     ethr =  6.89E-08,  avg # of iterations = 19.8

     negative rho (up, down):  1.669E+02 2.873E-02

     total cpu time spent up to now is    21577.6 secs

     total energy              =   -4555.96976356 Ry
     estimated scf accuracy    <       0.00004912 Ry

     total magnetization       =     0.00    -0.00    -0.05 Bohr mag/cell
     absolute magnetization    =    59.08 Bohr mag/cell

     iteration #493     ecut=    80.00 Ry     beta= 0.70
     Davidson diagonalization with overlap
     c_bands:  2 eigenvalues not converged
     c_bands:  1 eigenvalues not converged
     c_bands:  2 eigenvalues not converged
     c_bands:  1 eigenvalues not converged
     c_bands:  4 eigenvalues not converged
     c_bands:  4 eigenvalues not converged
     c_bands:  2 eigenvalues not converged
     c_bands:  4 eigenvalues not converged
     c_bands:  4 eigenvalues not converged
     c_bands:  4 eigenvalues not converged
     c_bands:  2 eigenvalues not converged
     c_bands:  3 eigenvalues not converged
     ethr =  6.89E-08,  avg # of iterations = 19.6

     negative rho (up, down):  1.669E+02 2.873E-02

     total cpu time spent up to now is    21620.4 secs

     total energy              =   -4555.96084164 Ry
     estimated scf accuracy    <       0.00011306 Ry

     total magnetization       =     0.00     0.00    -0.06 Bohr mag/cell
     absolute magnetization    =    59.12 Bohr mag/cell

     iteration #494     ecut=    80.00 Ry     beta= 0.70
     Davidson diagonalization with overlap
     c_bands:  2 eigenvalues not converged
     c_bands:  2 eigenvalues not converged
     c_bands:  1 eigenvalues not converged
     c_bands:  5 eigenvalues not converged
     c_bands:  1 eigenvalues not converged
     c_bands:  1 eigenvalues not converged
     c_bands:  1 eigenvalues not converged
     c_bands:  4 eigenvalues not converged
     c_bands:  1 eigenvalues not converged
     c_bands:  1 eigenvalues not converged
     c_bands:  1 eigenvalues not converged
     c_bands:  1 eigenvalues not converged
     ethr =  6.89E-08,  avg # of iterations = 19.4

     negative rho (up, down):  1.669E+02 2.875E-02

     total cpu time spent up to now is    21666.1 secs

     total energy              =   -4555.96847180 Ry
     estimated scf accuracy    <       0.00041858 Ry

     total magnetization       =    -0.00     0.00    -0.05 Bohr mag/cell
     absolute magnetization    =    59.07 Bohr mag/cell

     iteration #495     ecut=    80.00 Ry     beta= 0.70
     Davidson diagonalization with overlap
     c_bands:  2 eigenvalues not converged
     c_bands:  2 eigenvalues not converged
     c_bands:  1 eigenvalues not converged
     c_bands:  2 eigenvalues not converged
     c_bands:  4 eigenvalues not converged
     c_bands:  3 eigenvalues not converged
     ethr =  6.89E-08,  avg # of iterations = 19.2

     negative rho (up, down):  1.669E+02 2.873E-02

     total cpu time spent up to now is    21709.0 secs

     total energy              =   -4555.97014748 Ry
     estimated scf accuracy    <       0.00032946 Ry

     total magnetization       =    -0.00     0.00    -0.09 Bohr mag/cell
     absolute magnetization    =    59.09 Bohr mag/cell

     iteration #496     ecut=    80.00 Ry     beta= 0.70
     Davidson diagonalization with overlap
     c_bands:  1 eigenvalues not converged
     c_bands:  2 eigenvalues not converged
     c_bands:  3 eigenvalues not converged
     c_bands:  2 eigenvalues not converged
     c_bands:  3 eigenvalues not converged
     c_bands:  2 eigenvalues not converged
     c_bands:  1 eigenvalues not converged
     c_bands:  1 eigenvalues not converged
     c_bands:  1 eigenvalues not converged
     c_bands:  3 eigenvalues not converged
     c_bands:  2 eigenvalues not converged
     c_bands:  1 eigenvalues not converged
     c_bands:  4 eigenvalues not converged
     c_bands:  5 eigenvalues not converged
     c_bands:  2 eigenvalues not converged
     c_bands:  2 eigenvalues not converged
     c_bands:  2 eigenvalues not converged
     c_bands:  2 eigenvalues not converged
     ethr =  6.89E-08,  avg # of iterations = 20.0

     negative rho (up, down):  1.669E+02 2.871E-02

     total cpu time spent up to now is    21755.5 secs

     total energy              =   -4555.96949072 Ry
     estimated scf accuracy    <       0.00015241 Ry

     total magnetization       =     0.00     0.00    -0.15 Bohr mag/cell
     absolute magnetization    =    59.19 Bohr mag/cell

     iteration #497     ecut=    80.00 Ry     beta= 0.70
     Davidson diagonalization with overlap
     c_bands:  2 eigenvalues not converged
     c_bands:  4 eigenvalues not converged
     c_bands:  5 eigenvalues not converged
     c_bands:  4 eigenvalues not converged
     c_bands:  1 eigenvalues not converged
     c_bands:  4 eigenvalues not converged
     c_bands:  2 eigenvalues not converged
     c_bands:  1 eigenvalues not converged
     c_bands:  3 eigenvalues not converged
     c_bands:  1 eigenvalues not converged
     c_bands:  1 eigenvalues not converged
     c_bands:  5 eigenvalues not converged
     c_bands:  2 eigenvalues not converged
     ethr =  6.89E-08,  avg # of iterations = 19.5

     negative rho (up, down):  1.669E+02 2.872E-02

     total cpu time spent up to now is    21799.7 secs

     total energy              =   -4555.96992486 Ry
     estimated scf accuracy    <       0.00008334 Ry

     total magnetization       =    -0.00    -0.00    -0.13 Bohr mag/cell
     absolute magnetization    =    59.13 Bohr mag/cell

     iteration #498     ecut=    80.00 Ry     beta= 0.70
     Davidson diagonalization with overlap
     c_bands:  2 eigenvalues not converged
     c_bands:  2 eigenvalues not converged
     c_bands:  3 eigenvalues not converged
     c_bands:  1 eigenvalues not converged
     c_bands:  4 eigenvalues not converged
     c_bands:  3 eigenvalues not converged
     c_bands:  4 eigenvalues not converged
     c_bands:  2 eigenvalues not converged
     c_bands:  3 eigenvalues not converged
     c_bands:  4 eigenvalues not converged
     c_bands:  5 eigenvalues not converged
     c_bands:  4 eigenvalues not converged
     c_bands:  2 eigenvalues not converged
     c_bands:  2 eigenvalues not converged
     c_bands:  2 eigenvalues not converged
     c_bands:  4 eigenvalues not converged
     c_bands:  5 eigenvalues not converged
     c_bands:  5 eigenvalues not converged
     c_bands:  4 eigenvalues not converged
     ethr =  6.89E-08,  avg # of iterations = 20.0

     negative rho (up, down):  1.669E+02 2.873E-02

     total cpu time spent up to now is    21842.6 secs

     total energy              =   -4555.96753452 Ry
     estimated scf accuracy    <       0.00009374 Ry

     total magnetization       =    -0.00    -0.00    -0.10 Bohr mag/cell
     absolute magnetization    =    59.16 Bohr mag/cell

     iteration #499     ecut=    80.00 Ry     beta= 0.70
     Davidson diagonalization with overlap
     c_bands:  2 eigenvalues not converged
     c_bands:  4 eigenvalues not converged
     c_bands:  4 eigenvalues not converged
     c_bands:  3 eigenvalues not converged
     c_bands:  4 eigenvalues not converged
     c_bands:  5 eigenvalues not converged
     c_bands:  3 eigenvalues not converged
     c_bands:  2 eigenvalues not converged
     c_bands:  3 eigenvalues not converged
     c_bands:  4 eigenvalues not converged
     c_bands:  5 eigenvalues not converged
     c_bands:  4 eigenvalues not converged
     c_bands:  5 eigenvalues not converged
     c_bands:  5 eigenvalues not converged
     c_bands:  4 eigenvalues not converged
     c_bands:  1 eigenvalues not converged
     ethr =  6.89E-08,  avg # of iterations = 20.6

     negative rho (up, down):  1.669E+02 2.875E-02

     total cpu time spent up to now is    21894.1 secs

     total energy              =   -4555.96705143 Ry
     estimated scf accuracy    <       0.00024086 Ry

     total magnetization       =    -0.00    -0.00    -0.14 Bohr mag/cell
     absolute magnetization    =    59.24 Bohr mag/cell

     iteration #500     ecut=    80.00 Ry     beta= 0.70
     Davidson diagonalization with overlap
     c_bands:  2 eigenvalues not converged
     c_bands:  5 eigenvalues not converged
     c_bands:  2 eigenvalues not converged
     c_bands:  4 eigenvalues not converged
     c_bands:  4 eigenvalues not converged
     c_bands:  3 eigenvalues not converged
     c_bands:  1 eigenvalues not converged
     c_bands:  4 eigenvalues not converged
     c_bands:  3 eigenvalues not converged
     c_bands:  5 eigenvalues not converged
     c_bands:  1 eigenvalues not converged
     c_bands:  2 eigenvalues not converged
     c_bands:  1 eigenvalues not converged
     c_bands:  3 eigenvalues not converged
     c_bands:  3 eigenvalues not converged
     c_bands:  3 eigenvalues not converged
     c_bands:  3 eigenvalues not converged
     c_bands:  2 eigenvalues not converged
     c_bands:  1 eigenvalues not converged
     ethr =  6.89E-08,  avg # of iterations = 20.1

     negative rho (up, down):  1.669E+02 2.874E-02

     total cpu time spent up to now is    21940.2 secs

     total energy              =   -4555.96220462 Ry
     estimated scf accuracy    <       0.00004139 Ry

     total magnetization       =     0.00     0.00    -0.10 Bohr mag/cell
     absolute magnetization    =    59.09 Bohr mag/cell

     End of self-consistent calculation

     convergence NOT achieved after 500 iterations: stopping

     Writing config to output data dir ./tmp/pwscf.save/
 
     init_run     :     10.89s CPU     12.53s WALL (       1 calls)
     electrons    :  19593.30s CPU  21929.50s WALL (       1 calls)

     Called by init_run:
     wfcinit      :      3.49s CPU      3.80s WALL (       1 calls)
     potinit      :      2.84s CPU      2.91s WALL (       1 calls)
     hinit0       :      1.33s CPU      1.38s WALL (       1 calls)

     Called by electrons:
     c_bands      :  13389.87s CPU  14544.78s WALL (     500 calls)
     sum_band     :   3882.00s CPU   4729.24s WALL (     500 calls)
     v_of_rho     :     77.01s CPU     87.69s WALL (     501 calls)
     newd         :   1239.86s CPU   1551.07s WALL (     501 calls)
     PAW_pot      :    920.78s CPU    928.31s WALL (     501 calls)
     mix_rho      :     27.25s CPU     29.25s WALL (     500 calls)

     Called by c_bands:
     init_us_2    :     22.27s CPU     22.53s WALL (   22022 calls)
     init_us_2:cp :     22.16s CPU     22.46s WALL (   22022 calls)
     cegterg      :  12568.89s CPU  13723.09s WALL (   11710 calls)

     Called by *egterg:
     cdiaghg      :    379.34s CPU    381.44s WALL (  200281 calls)
     h_psi        :   9937.35s CPU  11073.50s WALL (  200303 calls)
     s_psi        :    247.11s CPU    251.46s WALL (  200303 calls)
     g_psi        :     16.10s CPU     16.23s WALL (  188571 calls)

     Called by h_psi:
     h_psi:calbec :    350.87s CPU    380.04s WALL (  200303 calls)
     vloc_psi     :   9290.21s CPU  10387.86s WALL (  200303 calls)
     add_vuspsi   :    263.21s CPU    272.54s WALL (  200303 calls)

     General routines
     calbec       :    390.52s CPU    422.05s WALL (  211303 calls)
     fft          :     58.03s CPU     71.59s WALL (   18531 calls)
     ffts         :      3.05s CPU      3.99s WALL (    4004 calls)
     fftw         :   4419.43s CPU   5085.87s WALL (15025640 calls)
     interpolate  :      7.17s CPU      8.34s WALL (    2004 calls)
     davcio       :      0.01s CPU      8.88s WALL (      40 calls)
 
     Parallel routines
 
     PWSCF        :      5h26m CPU      6h 5m WALL

 
   This run was terminated on:  17:56:52   8Jul2025            

=------------------------------------------------------------------------------=
   JOB DONE.
=------------------------------------------------------------------------------=
