
     Program PWSCF v.7.2 starts on  5Jun2025 at 16:29:31 

     This program is part of the open-source Quantum ESPRESSO suite
     for quantum simulation of materials; please cite
         "P. Giannozzi et al., J. Phys.:Condens. Matter 21 395502 (2009);
         "P. Giannozzi et al., J. Phys.:Condens. Matter 29 465901 (2017);
         "P. Giannozzi et al., J. Chem. Phys. 152 154105 (2020);
          URL http://www.quantum-espresso.org", 
     in publications or presentations arising from this work. More details at
     http://www.quantum-espresso.org/quote

     Parallel version (MPI), running on    16 processors

     MPI processes distributed on     1 nodes
     18833 MiB available memory on the printing compute node when the environment starts
 
     Waiting for input...
     Reading input from standard input

     Current dimensions of program PWSCF are:
     Max number of different atomic species (ntypx) = 10
     Max number of k-points (npk) =  40000
     Max angular momentum in pseudopotentials (lmaxx) =  4
     file Co.pbe-n-kjpaw_psl.1.0.0.UPF: wavefunction(s)  4S 3D renormalized
     Message from routine setup:
     using ibrav=0 with symmetry is DISCOURAGED, use correct ibrav instead
 
     R & G space division:  proc/nbgrp/npool/nimage =      16
     Subspace diagonalization in iterative solution of the eigenvalue problem:
     a serial algorithm will be used

 
     Parallelization info
     --------------------
     sticks:   dense  smooth     PW     G-vecs:    dense   smooth      PW
     Min          23      23      7                 2613     2613     449
     Max          24      24      8                 2640     2640     470
     Sum         379     379    121                42075    42075    7351
 
     Using Slab Decomposition
 


     bravais-lattice index     =            0
     lattice parameter (alat)  =       4.6298  a.u.
     unit-cell volume          =     596.1396 (a.u.)^3
     number of atoms/cell      =            2
     number of atomic types    =            1
     number of electrons       =        18.00
     number of Kohn-Sham states=           13
     kinetic-energy cutoff     =      65.0000  Ry
     charge density cutoff     =     260.0000  Ry
     scf convergence threshold =      1.0E-06
     mixing beta               =       0.7000
     number of iterations used =            8  plain     mixing
     Exchange-correlation= SLA  PW   PBX  PBC
                           (   1   4   3   4   0   0   0)

     celldm(1)=   4.629829  celldm(2)=   0.000000  celldm(3)=   0.000000
     celldm(4)=   0.000000  celldm(5)=   0.000000  celldm(6)=   0.000000

     crystal axes: (cart. coord. in units of alat)
               a(1) = (   1.000000   0.000000   0.000000 )  
               a(2) = (   0.500000   0.866025   0.000000 )  
               a(3) = (   0.000000   0.000000   6.936214 )  

     reciprocal axes: (cart. coord. in units 2 pi/alat)
               b(1) = (  1.000000 -0.577350  0.000000 )  
               b(2) = (  0.000000  1.154701  0.000000 )  
               b(3) = (  0.000000  0.000000  0.144171 )  


     PseudoPot. # 1 for Co read from file:
     /shared/ESPRESSO/PSLIBRARY/1.0.0/pbe/PSEUDOPOTENTIALS/Co.pbe-n-kjpaw_psl.1.0.0.UPF
     MD5 check sum: 17e7ab8db721b244d1352252ea6cb8e7
     Pseudo is Projector augmented-wave + core cor, Zval =  9.0
     Generated using "atomic" code by A. Dal Corso  (Quantum ESPRESSO distribution)
     Shape of augmentation charge: PSQ
     Using radial grid of 1193 points,  6 beta functions with: 
                l(1) =   0
                l(2) =   0
                l(3) =   1
                l(4) =   1
                l(5) =   2
                l(6) =   2
     Q(r) pseudized with 0 coefficients 


     atomic species   valence    mass     pseudopotential
        Co             9.00    58.93320     Co( 1.00)

     12 Sym. Ops., with inversion, found ( 6 have fractional translation)



   Cartesian axes

     site n.     atom                  positions (alat units)
         1           Co  tau(   1) = (   1.0000000   0.5773503   3.0612245  )
         2           Co  tau(   2) = (   0.0000000   0.0000000   3.8749895  )

     number of k points=    12  Fermi-Dirac smearing, width (Ry)=  0.0070
                       cart. coord. in units 2pi/alat
        k(    1) = (   0.0000000   0.0000000   0.0000000), wk =   0.0246914
        k(    2) = (   0.0000000   0.1283001   0.0000000), wk =   0.1481481
        k(    3) = (   0.0000000   0.2566001   0.0000000), wk =   0.1481481
        k(    4) = (   0.0000000   0.3849002   0.0000000), wk =   0.1481481
        k(    5) = (   0.0000000   0.5132002   0.0000000), wk =   0.1481481
        k(    6) = (   0.1111111   0.1924501   0.0000000), wk =   0.1481481
        k(    7) = (   0.1111111   0.3207501   0.0000000), wk =   0.2962963
        k(    8) = (   0.1111111   0.4490502   0.0000000), wk =   0.2962963
        k(    9) = (   0.1111111  -0.5773503   0.0000000), wk =   0.1481481
        k(   10) = (   0.2222222   0.3849002   0.0000000), wk =   0.1481481
        k(   11) = (   0.2222222  -0.6415003   0.0000000), wk =   0.2962963
        k(   12) = (   0.3333333  -0.5773503   0.0000000), wk =   0.0493827

     Dense  grid:    42075 G-vectors     FFT dimensions: (  24,  24, 180)

     Estimated max dynamical RAM per process >      11.99 MB

     Estimated total dynamical RAM >     191.78 MB

     Check: negative core charge=   -0.000001

     Initial potential from superposition of free atoms

     starting charge      17.9994, renormalised to      18.0000

     negative rho (up, down):  1.602E-04 0.000E+00
     Starting wfcs are   18 randomized atomic wfcs
     Checking if some PAW data can be deallocated... 

     total cpu time spent up to now is        0.8 secs

     Self-consistent Calculation

     iteration #  1     ecut=    65.00 Ry     beta= 0.70
     Davidson diagonalization with overlap
     ethr =  1.00E-02,  avg # of iterations =  2.4

     negative rho (up, down):  1.264E-04 0.000E+00

     total cpu time spent up to now is        1.2 secs

     total energy              =    -323.78827640 Ry
     estimated scf accuracy    <       0.29559091 Ry

     iteration #  2     ecut=    65.00 Ry     beta= 0.70
     Davidson diagonalization with overlap
     ethr =  1.64E-03,  avg # of iterations =  6.8

     total cpu time spent up to now is        1.7 secs

     total energy              =    -323.40869783 Ry
     estimated scf accuracy    <       3.90586607 Ry

     iteration #  3     ecut=    65.00 Ry     beta= 0.70
     Davidson diagonalization with overlap
     ethr =  1.64E-03,  avg # of iterations =  3.0

     total cpu time spent up to now is        2.1 secs

     total energy              =    -323.97746360 Ry
     estimated scf accuracy    <       0.02446300 Ry

     iteration #  4     ecut=    65.00 Ry     beta= 0.70
     Davidson diagonalization with overlap
     ethr =  1.36E-04,  avg # of iterations =  4.7

     total cpu time spent up to now is        2.5 secs

     total energy              =    -323.97743034 Ry
     estimated scf accuracy    <       0.01301491 Ry

     iteration #  5     ecut=    65.00 Ry     beta= 0.70
     Davidson diagonalization with overlap
     ethr =  7.23E-05,  avg # of iterations =  2.4

     total cpu time spent up to now is        2.9 secs

     total energy              =    -323.97751445 Ry
     estimated scf accuracy    <       0.00271983 Ry

     iteration #  6     ecut=    65.00 Ry     beta= 0.70
     Davidson diagonalization with overlap
     ethr =  1.51E-05,  avg # of iterations =  2.1

     total cpu time spent up to now is        3.3 secs

     total energy              =    -323.97769335 Ry
     estimated scf accuracy    <       0.00068230 Ry

     iteration #  7     ecut=    65.00 Ry     beta= 0.70
     Davidson diagonalization with overlap
     ethr =  3.79E-06,  avg # of iterations =  4.7

     negative rho (up, down):  1.682E-06 0.000E+00

     total cpu time spent up to now is        3.6 secs

     total energy              =    -323.97765364 Ry
     estimated scf accuracy    <       0.00037052 Ry

     iteration #  8     ecut=    65.00 Ry     beta= 0.70
     Davidson diagonalization with overlap
     ethr =  2.06E-06,  avg # of iterations =  2.7

     negative rho (up, down):  2.696E-04 0.000E+00

     total cpu time spent up to now is        4.0 secs

     total energy              =    -323.97767629 Ry
     estimated scf accuracy    <       0.00003547 Ry

     iteration #  9     ecut=    65.00 Ry     beta= 0.70
     Davidson diagonalization with overlap
     ethr =  1.97E-07,  avg # of iterations =  3.0

     negative rho (up, down):  2.527E-04 0.000E+00

     total cpu time spent up to now is        4.4 secs

     total energy              =    -323.97768410 Ry
     estimated scf accuracy    <       0.00000200 Ry

     iteration # 10     ecut=    65.00 Ry     beta= 0.70
     Davidson diagonalization with overlap
     ethr =  1.11E-08,  avg # of iterations =  3.5

     negative rho (up, down):  2.058E-04 0.000E+00

     total cpu time spent up to now is        4.8 secs

     End of self-consistent calculation

          k = 0.0000 0.0000 0.0000 (  5189 PWs)   bands (ev):

    -7.9777  -5.3513  -2.2255  -1.9981  -1.9981  -1.8706  -1.8706  -1.5925
    -0.6978  -0.6978  -0.1334  -0.1334   0.0222

          k = 0.0000 0.1283 0.0000 (  5221 PWs)   bands (ev):

    -7.5470  -4.9600  -2.2662  -2.2064  -2.0701  -1.7913  -1.6842  -1.5975
    -1.0490  -0.7670  -0.4394  -0.1264   1.3478

          k = 0.0000 0.2566 0.0000 (  5254 PWs)   bands (ev):

    -6.3877  -4.0732  -2.7979  -2.4389  -2.1510  -1.8314  -1.3792  -1.2109
    -1.1852  -0.7791  -0.1290   0.2383   3.1043

          k = 0.0000 0.3849 0.0000 (  5272 PWs)   bands (ev):

    -5.1044  -3.8815  -3.3683  -2.2759  -1.7494  -1.5917  -1.3878  -0.7269
    -0.5277  -0.2963  -0.1205   1.3864   5.2881

          k = 0.0000 0.5132 0.0000 (  5280 PWs)   bands (ev):

    -4.5040  -4.1879  -3.7009  -2.4310  -1.4871  -1.1344  -0.7980  -0.2808
     0.0977   0.1690   0.7407   2.8025   7.1238

          k = 0.1111 0.1925 0.0000 (  5246 PWs)   bands (ev):

    -6.7424  -4.2707  -2.5513  -2.5061  -2.2695  -1.7691  -1.4156  -1.3213
    -1.2708  -0.6899  -0.3194   0.1256   2.6027

          k = 0.1111 0.3208 0.0000 (  5269 PWs)   bands (ev):

    -5.4430  -3.5489  -3.0632  -2.5475  -2.3502  -1.9901  -1.3798  -0.9967
    -0.6436  -0.2971  -0.2170   1.0558   4.4911

          k = 0.1111 0.4491 0.0000 (  5283 PWs)   bands (ev):

    -4.5028  -3.8059  -3.4789  -2.3279  -1.7319  -1.6536  -1.3731  -0.6075
    -0.4168  -0.0440   0.8938   2.7644   6.8710

          k = 0.1111-0.5774 0.0000 (  5300 PWs)   bands (ev):

    -4.2080  -4.0583  -3.6334  -2.3793  -1.7146  -1.2512  -1.0837  -0.4154
    -0.1418  -0.0657   2.3829   3.5868   7.3189

          k = 0.2222 0.3849 0.0000 (  5290 PWs)   bands (ev):

    -4.3967  -3.2422  -3.2030  -2.5008  -2.3716  -2.1005  -1.6269  -0.7148
    -0.6172  -0.0625   1.0658   2.8273   6.5832

          k = 0.2222-0.6415 0.0000 (  5305 PWs)   bands (ev):

    -3.8844  -3.4678  -3.3052  -2.2462  -2.0801  -1.9265  -1.7513  -0.6812
    -0.4526  -0.1057   3.1927   5.0815   7.7058

          k = 0.3333-0.5774 0.0000 (  5316 PWs)   bands (ev):

    -3.6218  -3.1654  -3.1654  -2.3100  -2.0908  -2.0908  -2.0615  -0.7920
    -0.3171  -0.3171   5.9925   6.4111   6.4111

     the Fermi energy is    -0.3899 ev

!    total energy              =    -323.97768437 Ry
     total all-electron energy =     -5573.665037 Ry
     estimated scf accuracy    <       0.00000044 Ry
     smearing contrib. (-TS)   =      -0.01372469 Ry
     internal energy E=F+TS    =    -323.96395968 Ry

     The total energy is F=E-TS. E is the sum of the following terms:
     one-electron contribution =    -719.11225576 Ry
     hartree contribution      =     376.41331515 Ry
     xc contribution           =     -65.06355708 Ry
     ewald contribution        =     256.88906237 Ry
     one-center paw contrib.   =    -173.09052436 Ry

     convergence has been achieved in  10 iterations

     negative rho (up, down):  2.058E-04 0.000E+00

     Forces acting on atoms (cartesian axes, Ry/au):

     atom    1 type  1   force =     0.00000000    0.00000000    0.02407384
     atom    2 type  1   force =     0.00000000    0.00000000   -0.02407384
     The non-local contrib.  to forces
     atom    1 type  1   force =     0.00000000   -0.00000000   -0.09291580
     atom    2 type  1   force =     0.00000000   -0.00000000    0.09291580
     The ionic contribution  to forces
     atom    1 type  1   force =    -0.00000000    0.00000000  -41.52793710
     atom    2 type  1   force =     0.00000000    0.00000000   41.52793710
     The local contribution  to forces
     atom    1 type  1   force =    -0.00000000   -0.00000000   41.62778356
     atom    2 type  1   force =     0.00000000    0.00000000  -41.62778356
     The core correction contribution to forces
     atom    1 type  1   force =    -0.00000000   -0.00000000    0.01486882
     atom    2 type  1   force =     0.00000000    0.00000000   -0.01486882
     The Hubbard contrib.    to forces
     atom    1 type  1   force =     0.00000000    0.00000000    0.00000000
     atom    2 type  1   force =     0.00000000    0.00000000    0.00000000
     The SCF correction term to forces
     atom    1 type  1   force =    -0.00000000   -0.00000000    0.00227436
     atom    2 type  1   force =     0.00000000   -0.00000000   -0.00227436

     Total force =     0.034046     Total SCF correction =     0.003216


     Computing stress (Cartesian axis) and pressure


     negative rho (up, down):  2.058E-04 0.000E+00
          total   stress  (Ry/bohr**3)                   (kbar)     P=      -37.57
  -0.00030290   0.00000000   0.00000000          -44.56        0.00        0.00
   0.00000000  -0.00030290  -0.00000000            0.00      -44.56       -0.00
   0.00000000  -0.00000000  -0.00016032            0.00       -0.00      -23.58


     Writing all to output data dir ./tmp/scf.save/
 
     init_run     :      0.35s CPU      0.46s WALL (       1 calls)
     electrons    :      3.79s CPU      3.99s WALL (       1 calls)
     forces       :      0.09s CPU      0.09s WALL (       1 calls)
     stress       :      0.31s CPU      0.33s WALL (       1 calls)

     Called by init_run:
     wfcinit      :      0.06s CPU      0.08s WALL (       1 calls)
     potinit      :      0.12s CPU      0.17s WALL (       1 calls)
     hinit0       :      0.11s CPU      0.15s WALL (       1 calls)

     Called by electrons:
     c_bands      :      1.94s CPU      2.08s WALL (      10 calls)
     sum_band     :      0.50s CPU      0.53s WALL (      10 calls)
     v_of_rho     :      0.06s CPU      0.07s WALL (      11 calls)
     newd         :      0.23s CPU      0.24s WALL (      11 calls)
     PAW_pot      :      1.15s CPU      1.21s WALL (      11 calls)
     mix_rho      :      0.02s CPU      0.02s WALL (      10 calls)

     Called by c_bands:
     init_us_2    :      0.06s CPU      0.06s WALL (     276 calls)
     init_us_2:cp :      0.06s CPU      0.06s WALL (     276 calls)
     cegterg      :      1.55s CPU      1.68s WALL (     120 calls)

     Called by *egterg:
     cdiaghg      :      0.17s CPU      0.18s WALL (     542 calls)
     h_psi        :      1.17s CPU      1.28s WALL (     554 calls)
     s_psi        :      0.02s CPU      0.02s WALL (     554 calls)
     g_psi        :      0.01s CPU      0.01s WALL (     422 calls)

     Called by h_psi:
     h_psi:calbec :      0.10s CPU      0.11s WALL (     554 calls)
     vloc_psi     :      1.01s CPU      1.12s WALL (     554 calls)
     add_vuspsi   :      0.04s CPU      0.04s WALL (     554 calls)

     General routines
     calbec       :      0.14s CPU      0.15s WALL (     734 calls)
     fft          :      0.08s CPU      0.11s WALL (     146 calls)
     ffts         :      0.00s CPU      0.00s WALL (      10 calls)
     fftw         :      1.00s CPU      1.09s WALL (   10088 calls)
 
     Parallel routines
 
     PWSCF        :      4.86s CPU      5.37s WALL

 
   This run was terminated on:  16:29:37   5Jun2025            

=------------------------------------------------------------------------------=
   JOB DONE.
=------------------------------------------------------------------------------=
