
     Program PWSCF v.7.2 starts on  5Jun2025 at 16:29:58 

     This program is part of the open-source Quantum ESPRESSO suite
     for quantum simulation of materials; please cite
         "P. Giannozzi et al., J. Phys.:Condens. Matter 21 395502 (2009);
         "P. Giannozzi et al., J. Phys.:Condens. Matter 29 465901 (2017);
         "P. Giannozzi et al., J. Chem. Phys. 152 154105 (2020);
          URL http://www.quantum-espresso.org", 
     in publications or presentations arising from this work. More details at
     http://www.quantum-espresso.org/quote

     Parallel version (MPI), running on    16 processors

     MPI processes distributed on     1 nodes
     19111 MiB available memory on the printing compute node when the environment starts
 
     Waiting for input...
     Reading input from standard input

     Current dimensions of program PWSCF are:
     Max number of different atomic species (ntypx) = 10
     Max number of k-points (npk) =  40000
     Max angular momentum in pseudopotentials (lmaxx) =  4
     file Co.pbe-n-kjpaw_psl.1.0.0.UPF: wavefunction(s)  4S 3D renormalized
     Message from routine setup:
     using ibrav=0 with symmetry is DISCOURAGED, use correct ibrav instead
 
     R & G space division:  proc/nbgrp/npool/nimage =      16
     Subspace diagonalization in iterative solution of the eigenvalue problem:
     a serial algorithm will be used

 
     Parallelization info
     --------------------
     sticks:   dense  smooth     PW     G-vecs:    dense   smooth      PW
     Min          23      23      7                 2613     2613     463
     Max          24      24      8                 2640     2640     490
     Sum         379     379    121                42075    42075    7629
 
     Using Slab Decomposition
 


     bravais-lattice index     =            0
     lattice parameter (alat)  =       4.6298  a.u.
     unit-cell volume          =     596.1396 (a.u.)^3
     number of atoms/cell      =            2
     number of atomic types    =            1
     number of electrons       =        18.00
     number of Kohn-Sham states=           13
     kinetic-energy cutoff     =      65.0000  Ry
     charge density cutoff     =     260.0000  Ry
     scf convergence threshold =      1.0E-06
     mixing beta               =       0.7000
     number of iterations used =            8  plain     mixing
     Exchange-correlation= SLA  PW   PBX  PBC
                           (   1   4   3   4   0   0   0)

     celldm(1)=   4.629829  celldm(2)=   0.000000  celldm(3)=   0.000000
     celldm(4)=   0.000000  celldm(5)=   0.000000  celldm(6)=   0.000000

     crystal axes: (cart. coord. in units of alat)
               a(1) = (   1.000000   0.000000   0.000000 )  
               a(2) = (   0.500000   0.866025   0.000000 )  
               a(3) = (   0.000000   0.000000   6.936214 )  

     reciprocal axes: (cart. coord. in units 2 pi/alat)
               b(1) = (  1.000000 -0.577350  0.000000 )  
               b(2) = (  0.000000  1.154701  0.000000 )  
               b(3) = (  0.000000  0.000000  0.144171 )  


     PseudoPot. # 1 for Co read from file:
     /shared/ESPRESSO/PSLIBRARY/1.0.0/pbe/PSEUDOPOTENTIALS/Co.pbe-n-kjpaw_psl.1.0.0.UPF
     MD5 check sum: 17e7ab8db721b244d1352252ea6cb8e7
     Pseudo is Projector augmented-wave + core cor, Zval =  9.0
     Generated using "atomic" code by A. Dal Corso  (Quantum ESPRESSO distribution)
     Shape of augmentation charge: PSQ
     Using radial grid of 1193 points,  6 beta functions with: 
                l(1) =   0
                l(2) =   0
                l(3) =   1
                l(4) =   1
                l(5) =   2
                l(6) =   2
     Q(r) pseudized with 0 coefficients 


     atomic species   valence    mass     pseudopotential
        Co             9.00    58.93320     Co( 1.00)

     12 Sym. Ops., with inversion, found ( 6 have fractional translation)



   Cartesian axes

     site n.     atom                  positions (alat units)
         1           Co  tau(   1) = (   1.0000000   0.5773503   3.0612245  )
         2           Co  tau(   2) = (   0.0000000   0.0000000   3.8749895  )

     number of k points=    19  Fermi-Dirac smearing, width (Ry)=  0.0070
                       cart. coord. in units 2pi/alat
        k(    1) = (   0.0000000   0.0000000   0.0000000), wk =   0.0138889
        k(    2) = (   0.0000000   0.0962250   0.0000000), wk =   0.0833333
        k(    3) = (   0.0000000   0.1924501   0.0000000), wk =   0.0833333
        k(    4) = (   0.0000000   0.2886751   0.0000000), wk =   0.0833333
        k(    5) = (   0.0000000   0.3849002   0.0000000), wk =   0.0833333
        k(    6) = (   0.0000000   0.4811252   0.0000000), wk =   0.0833333
        k(    7) = (   0.0000000  -0.5773503   0.0000000), wk =   0.0416667
        k(    8) = (   0.0833333   0.1443376   0.0000000), wk =   0.0833333
        k(    9) = (   0.0833333   0.2405626   0.0000000), wk =   0.1666667
        k(   10) = (   0.0833333   0.3367877   0.0000000), wk =   0.1666667
        k(   11) = (   0.0833333   0.4330127   0.0000000), wk =   0.1666667
        k(   12) = (   0.0833333  -0.6254628   0.0000000), wk =   0.1666667
        k(   13) = (   0.1666667   0.2886751   0.0000000), wk =   0.0833333
        k(   14) = (   0.1666667   0.3849002   0.0000000), wk =   0.1666667
        k(   15) = (   0.1666667  -0.6735753   0.0000000), wk =   0.1666667
        k(   16) = (   0.1666667  -0.5773503   0.0000000), wk =   0.0833333
        k(   17) = (   0.2500000  -0.7216878   0.0000000), wk =   0.0833333
        k(   18) = (   0.2500000  -0.6254628   0.0000000), wk =   0.1666667
        k(   19) = (   0.3333333  -0.5773503   0.0000000), wk =   0.0277778

     Dense  grid:    42075 G-vectors     FFT dimensions: (  24,  24, 180)

     Estimated max dynamical RAM per process >      12.44 MB

     Estimated total dynamical RAM >     199.08 MB

     Check: negative core charge=   -0.000001

     Initial potential from superposition of free atoms

     starting charge      17.9994, renormalised to      18.0000

     negative rho (up, down):  1.602E-04 0.000E+00
     Starting wfcs are   18 randomized atomic wfcs
     Checking if some PAW data can be deallocated... 

     total cpu time spent up to now is        0.9 secs

     Self-consistent Calculation

     iteration #  1     ecut=    65.00 Ry     beta= 0.70
     Davidson diagonalization with overlap
     ethr =  1.00E-02,  avg # of iterations =  2.2

     negative rho (up, down):  1.208E-04 0.000E+00

     total cpu time spent up to now is        1.4 secs

     total energy              =    -323.78568163 Ry
     estimated scf accuracy    <       0.29840667 Ry

     iteration #  2     ecut=    65.00 Ry     beta= 0.70
     Davidson diagonalization with overlap
     ethr =  1.66E-03,  avg # of iterations =  6.2

     total cpu time spent up to now is        2.0 secs

     total energy              =    -323.45029831 Ry
     estimated scf accuracy    <       3.62271421 Ry

     iteration #  3     ecut=    65.00 Ry     beta= 0.70
     Davidson diagonalization with overlap
     ethr =  1.66E-03,  avg # of iterations =  3.6

     total cpu time spent up to now is        2.6 secs

     total energy              =    -323.97654179 Ry
     estimated scf accuracy    <       0.02225585 Ry

     iteration #  4     ecut=    65.00 Ry     beta= 0.70
     Davidson diagonalization with overlap
     ethr =  1.24E-04,  avg # of iterations =  4.5

     total cpu time spent up to now is        3.1 secs

     total energy              =    -323.97718588 Ry
     estimated scf accuracy    <       0.01022287 Ry

     iteration #  5     ecut=    65.00 Ry     beta= 0.70
     Davidson diagonalization with overlap
     ethr =  5.68E-05,  avg # of iterations =  2.7

     total cpu time spent up to now is        3.7 secs

     total energy              =    -323.97743406 Ry
     estimated scf accuracy    <       0.00236155 Ry

     iteration #  6     ecut=    65.00 Ry     beta= 0.70
     Davidson diagonalization with overlap
     ethr =  1.31E-05,  avg # of iterations =  3.1

     negative rho (up, down):  1.354E-07 0.000E+00

     total cpu time spent up to now is        4.2 secs

     total energy              =    -323.97767571 Ry
     estimated scf accuracy    <       0.00049598 Ry

     iteration #  7     ecut=    65.00 Ry     beta= 0.70
     Davidson diagonalization with overlap
     ethr =  2.76E-06,  avg # of iterations =  4.3

     negative rho (up, down):  3.382E-04 0.000E+00

     total cpu time spent up to now is        4.7 secs

     total energy              =    -323.97768156 Ry
     estimated scf accuracy    <       0.00011427 Ry

     iteration #  8     ecut=    65.00 Ry     beta= 0.70
     Davidson diagonalization with overlap
     ethr =  6.35E-07,  avg # of iterations =  2.4

     negative rho (up, down):  2.138E-04 0.000E+00

     total cpu time spent up to now is        5.2 secs

     total energy              =    -323.97770403 Ry
     estimated scf accuracy    <       0.00000328 Ry

     iteration #  9     ecut=    65.00 Ry     beta= 0.70
     Davidson diagonalization with overlap
     ethr =  1.82E-08,  avg # of iterations =  3.7

     negative rho (up, down):  2.052E-04 0.000E+00

     total cpu time spent up to now is        5.7 secs

     End of self-consistent calculation

          k = 0.0000 0.0000 0.0000 (  5189 PWs)   bands (ev):

    -7.9879  -5.3625  -2.2384  -2.0074  -2.0074  -1.8801  -1.8801  -1.6011
    -0.7088  -0.7088  -0.1446  -0.1446   0.0160

          k = 0.0000 0.0962 0.0000 (  5217 PWs)   bands (ev):

    -7.7433  -5.1383  -2.2451  -2.1126  -2.0412  -1.8890  -1.7732  -1.5847
    -0.8775  -0.7509  -0.5503  -0.1397   0.9580

          k = 0.0000 0.1925 0.0000 (  5232 PWs)   bands (ev):

    -7.0470  -4.5377  -2.4979  -2.3886  -2.1213  -1.7103  -1.5760  -1.4818
    -1.2545  -0.8240  -0.1599  -0.1364   2.1703

          k = 0.0000 0.2887 0.0000 (  5276 PWs)   bands (ev):

    -6.0486  -3.9253  -2.9638  -2.3946  -2.1652  -1.8836  -1.3537  -1.1465
    -1.0275  -0.7090  -0.1427   0.4629   3.6008

          k = 0.0000 0.3849 0.0000 (  5272 PWs)   bands (ev):

    -5.1146  -3.8917  -3.3790  -2.2871  -1.7606  -1.6011  -1.3989  -0.7393
    -0.5374  -0.3056  -0.1312   1.3777   5.2818

          k = 0.0000 0.4811 0.0000 (  5274 PWs)   bands (ev):

    -4.6070  -4.1223  -3.6578  -2.4139  -1.4803  -1.2350  -0.9377  -0.3066
     0.0240   0.0763   0.2464   2.5359   7.1098

          k = 0.0000-0.5774 0.0000 (  5272 PWs)   bands (ev):

    -4.4055  -4.3001  -3.7558  -2.4651  -1.5130  -1.0784  -0.7124  -0.2846
     0.1464   0.2297   1.3535   2.8502   7.1271

          k = 0.0833 0.1443 0.0000 (  5216 PWs)   bands (ev):

    -7.2713  -4.7188  -2.3717  -2.3135  -2.1840  -1.6985  -1.5932  -1.5650
    -1.2483  -0.7148  -0.4120  -0.0783   1.8280

          k = 0.0833 0.2406 0.0000 (  5255 PWs)   bands (ev):

    -6.4093  -4.0348  -2.7306  -2.5677  -2.2916  -1.8486  -1.3921  -1.2160
    -1.1483  -0.6908  -0.2690   0.2873   3.0760

          k = 0.0833 0.3368 0.0000 (  5274 PWs)   bands (ev):

    -5.3991  -3.6769  -3.1554  -2.3479  -2.2756  -1.9615  -1.3611  -1.0060
    -0.6391  -0.3103  -0.2062   1.0774   4.6080

          k = 0.0833 0.4330 0.0000 (  5280 PWs)   bands (ev):

    -4.6785  -3.8682  -3.4885  -2.3374  -1.6868  -1.6026  -1.3470  -0.6446
    -0.3861  -0.0894   0.4516   2.2913   6.4020

          k = 0.0833-0.6255 0.0000 (  5277 PWs)   bands (ev):

    -4.3590  -4.1050  -3.6696  -2.4119  -1.6316  -1.2246  -0.9850  -0.3711
    -0.1886   0.0336   1.6274   3.2956   7.0945

          k = 0.1667 0.2887 0.0000 (  5270 PWs)   bands (ev):

    -5.4965  -3.3858  -2.9702  -2.8296  -2.4732  -2.0046  -1.4378  -0.9743
    -0.6755  -0.3292  -0.2265   1.0284   4.3865

          k = 0.1667 0.3849 0.0000 (  5285 PWs)   bands (ev):

    -4.6425  -3.3851  -3.2389  -2.4358  -2.3494  -2.0720  -1.5441  -0.7968
    -0.5541  -0.1289   0.6341   2.2799   6.0357

          k = 0.1667-0.6736 0.0000 (  5306 PWs)   bands (ev):

    -4.1815  -3.6650  -3.4346  -2.3112  -1.9082  -1.8018  -1.5467  -0.5700
    -0.5337  -0.0450   1.9297   3.8604   7.8429

          k = 0.1667-0.5774 0.0000 (  5300 PWs)   bands (ev):

    -4.0245  -3.8136  -3.5082  -2.3072  -1.9313  -1.4939  -1.4785  -0.5585
    -0.2459  -0.1991   3.1994   4.2593   7.5552

          k = 0.2500-0.7217 0.0000 (  5302 PWs)   bands (ev):

    -4.0632  -3.3107  -3.2339  -2.3397  -2.2789  -2.0805  -1.7768  -0.6985
    -0.6087  -0.0420   2.0320   4.0319   7.8162

          k = 0.2500-0.6255 0.0000 (  5313 PWs)   bands (ev):

    -3.7844  -3.3807  -3.2503  -2.2439  -2.1515  -1.9959  -1.8674  -0.7411
    -0.4321  -0.1721   3.8798   5.6289   7.6523

          k = 0.3333-0.5774 0.0000 (  5316 PWs)   bands (ev):

    -3.6320  -3.1763  -3.1763  -2.3199  -2.1008  -2.1008  -2.0711  -0.8026
    -0.3298  -0.3298   5.9834   6.4013   6.4013

     the Fermi energy is    -0.3966 ev

!    total energy              =    -323.97771153 Ry
     total all-electron energy =     -5573.665064 Ry
     estimated scf accuracy    <       0.00000037 Ry
     smearing contrib. (-TS)   =      -0.01338690 Ry
     internal energy E=F+TS    =    -323.96432463 Ry

     The total energy is F=E-TS. E is the sum of the following terms:
     one-electron contribution =    -719.10342779 Ry
     hartree contribution      =     376.40393493 Ry
     xc contribution           =     -65.06345975 Ry
     ewald contribution        =     256.88906237 Ry
     one-center paw contrib.   =    -173.09043438 Ry

     convergence has been achieved in   9 iterations

     negative rho (up, down):  2.052E-04 0.000E+00

     Forces acting on atoms (cartesian axes, Ry/au):

     atom    1 type  1   force =     0.00000000    0.00000000    0.02373498
     atom    2 type  1   force =     0.00000000    0.00000000   -0.02373498
     The non-local contrib.  to forces
     atom    1 type  1   force =     0.00000000    0.00000000   -0.09300131
     atom    2 type  1   force =    -0.00000000    0.00000000    0.09300131
     The ionic contribution  to forces
     atom    1 type  1   force =    -0.00000000    0.00000000  -41.52793710
     atom    2 type  1   force =     0.00000000    0.00000000   41.52793710
     The local contribution  to forces
     atom    1 type  1   force =    -0.00000000   -0.00000000   41.62773950
     atom    2 type  1   force =     0.00000000    0.00000000  -41.62773950
     The core correction contribution to forces
     atom    1 type  1   force =    -0.00000000   -0.00000000    0.01482784
     atom    2 type  1   force =     0.00000000    0.00000000   -0.01482784
     The Hubbard contrib.    to forces
     atom    1 type  1   force =     0.00000000    0.00000000    0.00000000
     atom    2 type  1   force =     0.00000000    0.00000000    0.00000000
     The SCF correction term to forces
     atom    1 type  1   force =     0.00000000   -0.00000000    0.00210606
     atom    2 type  1   force =    -0.00000000    0.00000000   -0.00210606

     Total force =     0.033566     Total SCF correction =     0.002978


     Computing stress (Cartesian axis) and pressure


     negative rho (up, down):  2.052E-04 0.000E+00
          total   stress  (Ry/bohr**3)                   (kbar)     P=      -37.05
  -0.00030150   0.00000000   0.00000000          -44.35        0.00        0.00
   0.00000000  -0.00030150   0.00000000            0.00      -44.35        0.00
   0.00000000   0.00000000  -0.00015260            0.00        0.00      -22.45


     Writing all to output data dir ./tmp/scf.save/
 
     init_run     :      0.38s CPU      0.51s WALL (       1 calls)
     electrons    :      4.13s CPU      4.84s WALL (       1 calls)
     forces       :      0.09s CPU      0.10s WALL (       1 calls)
     stress       :      0.41s CPU      0.42s WALL (       1 calls)

     Called by init_run:
     wfcinit      :      0.09s CPU      0.12s WALL (       1 calls)
     potinit      :      0.15s CPU      0.18s WALL (       1 calls)
     hinit0       :      0.11s CPU      0.16s WALL (       1 calls)

     Called by electrons:
     c_bands      :      2.45s CPU      2.90s WALL (       9 calls)
     sum_band     :      0.47s CPU      0.67s WALL (       9 calls)
     v_of_rho     :      0.05s CPU      0.06s WALL (      10 calls)
     newd         :      0.21s CPU      0.23s WALL (      10 calls)
     PAW_pot      :      1.08s CPU      1.13s WALL (      10 calls)
     mix_rho      :      0.01s CPU      0.01s WALL (       9 calls)

     Called by c_bands:
     init_us_2    :      0.03s CPU      0.04s WALL (     399 calls)
     init_us_2:cp :      0.03s CPU      0.04s WALL (     399 calls)
     cegterg      :      2.06s CPU      2.48s WALL (     171 calls)

     Called by *egterg:
     cdiaghg      :      0.16s CPU      0.18s WALL (     791 calls)
     h_psi        :      1.63s CPU      1.99s WALL (     810 calls)
     s_psi        :      0.01s CPU      0.02s WALL (     810 calls)
     g_psi        :      0.00s CPU      0.00s WALL (     620 calls)

     Called by h_psi:
     h_psi:calbec :      0.13s CPU      0.16s WALL (     810 calls)
     vloc_psi     :      1.46s CPU      1.79s WALL (     810 calls)
     add_vuspsi   :      0.02s CPU      0.03s WALL (     810 calls)

     General routines
     calbec       :      0.31s CPU      0.36s WALL (    1076 calls)
     fft          :      0.07s CPU      0.13s WALL (     135 calls)
     ffts         :      0.00s CPU      0.00s WALL (       9 calls)
     fftw         :      1.61s CPU      2.01s WALL (   14751 calls)
 
     Parallel routines
 
     PWSCF        :      5.39s CPU      6.35s WALL

 
   This run was terminated on:  16:30: 4   5Jun2025            

=------------------------------------------------------------------------------=
   JOB DONE.
=------------------------------------------------------------------------------=
