
     Program PWSCF v.7.2 starts on  5Jun2025 at 16:30: 9 

     This program is part of the open-source Quantum ESPRESSO suite
     for quantum simulation of materials; please cite
         "P. Giannozzi et al., J. Phys.:Condens. Matter 21 395502 (2009);
         "P. Giannozzi et al., J. Phys.:Condens. Matter 29 465901 (2017);
         "P. Giannozzi et al., J. Chem. Phys. 152 154105 (2020);
          URL http://www.quantum-espresso.org", 
     in publications or presentations arising from this work. More details at
     http://www.quantum-espresso.org/quote

     Parallel version (MPI), running on    16 processors

     MPI processes distributed on     1 nodes
     18970 MiB available memory on the printing compute node when the environment starts
 
     Waiting for input...
     Reading input from standard input

     Current dimensions of program PWSCF are:
     Max number of different atomic species (ntypx) = 10
     Max number of k-points (npk) =  40000
     Max angular momentum in pseudopotentials (lmaxx) =  4
     file Co.pbe-n-kjpaw_psl.1.0.0.UPF: wavefunction(s)  4S 3D renormalized
     Message from routine setup:
     using ibrav=0 with symmetry is DISCOURAGED, use correct ibrav instead
 
     R & G space division:  proc/nbgrp/npool/nimage =      16
     Subspace diagonalization in iterative solution of the eigenvalue problem:
     a serial algorithm will be used

 
     Parallelization info
     --------------------
     sticks:   dense  smooth     PW     G-vecs:    dense   smooth      PW
     Min          23      23      7                 2613     2613     453
     Max          24      24      8                 2640     2640     474
     Sum         379     379    121                42075    42075    7437
 
     Using Slab Decomposition
 


     bravais-lattice index     =            0
     lattice parameter (alat)  =       4.6298  a.u.
     unit-cell volume          =     596.1396 (a.u.)^3
     number of atoms/cell      =            2
     number of atomic types    =            1
     number of electrons       =        18.00
     number of Kohn-Sham states=           13
     kinetic-energy cutoff     =      65.0000  Ry
     charge density cutoff     =     260.0000  Ry
     scf convergence threshold =      1.0E-06
     mixing beta               =       0.7000
     number of iterations used =            8  plain     mixing
     Exchange-correlation= SLA  PW   PBX  PBC
                           (   1   4   3   4   0   0   0)

     celldm(1)=   4.629829  celldm(2)=   0.000000  celldm(3)=   0.000000
     celldm(4)=   0.000000  celldm(5)=   0.000000  celldm(6)=   0.000000

     crystal axes: (cart. coord. in units of alat)
               a(1) = (   1.000000   0.000000   0.000000 )  
               a(2) = (   0.500000   0.866025   0.000000 )  
               a(3) = (   0.000000   0.000000   6.936214 )  

     reciprocal axes: (cart. coord. in units 2 pi/alat)
               b(1) = (  1.000000 -0.577350  0.000000 )  
               b(2) = (  0.000000  1.154701  0.000000 )  
               b(3) = (  0.000000  0.000000  0.144171 )  


     PseudoPot. # 1 for Co read from file:
     /shared/ESPRESSO/PSLIBRARY/1.0.0/pbe/PSEUDOPOTENTIALS/Co.pbe-n-kjpaw_psl.1.0.0.UPF
     MD5 check sum: 17e7ab8db721b244d1352252ea6cb8e7
     Pseudo is Projector augmented-wave + core cor, Zval =  9.0
     Generated using "atomic" code by A. Dal Corso  (Quantum ESPRESSO distribution)
     Shape of augmentation charge: PSQ
     Using radial grid of 1193 points,  6 beta functions with: 
                l(1) =   0
                l(2) =   0
                l(3) =   1
                l(4) =   1
                l(5) =   2
                l(6) =   2
     Q(r) pseudized with 0 coefficients 


     atomic species   valence    mass     pseudopotential
        Co             9.00    58.93320     Co( 1.00)

     12 Sym. Ops., with inversion, found ( 6 have fractional translation)



   Cartesian axes

     site n.     atom                  positions (alat units)
         1           Co  tau(   1) = (   1.0000000   0.5773503   3.0612245  )
         2           Co  tau(   2) = (   0.0000000   0.0000000   3.8749895  )

     number of k points=    21  Fermi-Dirac smearing, width (Ry)=  0.0070
                       cart. coord. in units 2pi/alat
        k(    1) = (   0.0000000   0.0000000   0.0000000), wk =   0.0118343
        k(    2) = (   0.0000000   0.0888231   0.0000000), wk =   0.0710059
        k(    3) = (   0.0000000   0.1776462   0.0000000), wk =   0.0710059
        k(    4) = (   0.0000000   0.2664694   0.0000000), wk =   0.0710059
        k(    5) = (   0.0000000   0.3552925   0.0000000), wk =   0.0710059
        k(    6) = (   0.0000000   0.4441156   0.0000000), wk =   0.0710059
        k(    7) = (   0.0000000   0.5329387   0.0000000), wk =   0.0710059
        k(    8) = (   0.0769231   0.1332347   0.0000000), wk =   0.0710059
        k(    9) = (   0.0769231   0.2220578   0.0000000), wk =   0.1420118
        k(   10) = (   0.0769231   0.3108809   0.0000000), wk =   0.1420118
        k(   11) = (   0.0769231   0.3997040   0.0000000), wk =   0.1420118
        k(   12) = (   0.0769231   0.4885272   0.0000000), wk =   0.1420118
        k(   13) = (   0.0769231  -0.5773503   0.0000000), wk =   0.0710059
        k(   14) = (   0.1538462   0.2664694   0.0000000), wk =   0.0710059
        k(   15) = (   0.1538462   0.3552925   0.0000000), wk =   0.1420118
        k(   16) = (   0.1538462   0.4441156   0.0000000), wk =   0.1420118
        k(   17) = (   0.1538462  -0.6217618   0.0000000), wk =   0.1420118
        k(   18) = (   0.2307692   0.3997040   0.0000000), wk =   0.0710059
        k(   19) = (   0.2307692  -0.6661734   0.0000000), wk =   0.1420118
        k(   20) = (   0.2307692  -0.5773503   0.0000000), wk =   0.0710059
        k(   21) = (   0.3076923  -0.6217618   0.0000000), wk =   0.0710059

     Dense  grid:    42075 G-vectors     FFT dimensions: (  24,  24, 180)

     Estimated max dynamical RAM per process >      12.57 MB

     Estimated total dynamical RAM >     201.17 MB

     Check: negative core charge=   -0.000001

     Initial potential from superposition of free atoms

     starting charge      17.9994, renormalised to      18.0000

     negative rho (up, down):  1.602E-04 0.000E+00
     Starting wfcs are   18 randomized atomic wfcs
     Checking if some PAW data can be deallocated... 

     total cpu time spent up to now is        1.4 secs

     Self-consistent Calculation

     iteration #  1     ecut=    65.00 Ry     beta= 0.70
     Davidson diagonalization with overlap
     ethr =  1.00E-02,  avg # of iterations =  2.4

     negative rho (up, down):  1.338E-04 0.000E+00

     total cpu time spent up to now is        2.0 secs

     total energy              =    -323.78541292 Ry
     estimated scf accuracy    <       0.29968462 Ry

     iteration #  2     ecut=    65.00 Ry     beta= 0.70
     Davidson diagonalization with overlap
     ethr =  1.66E-03,  avg # of iterations =  5.1

     total cpu time spent up to now is        2.7 secs

     total energy              =    -323.49930036 Ry
     estimated scf accuracy    <       3.29492993 Ry

     iteration #  3     ecut=    65.00 Ry     beta= 0.70
     Davidson diagonalization with overlap
     ethr =  1.66E-03,  avg # of iterations =  2.9

     total cpu time spent up to now is        3.2 secs

     total energy              =    -323.97518514 Ry
     estimated scf accuracy    <       0.02104482 Ry

     iteration #  4     ecut=    65.00 Ry     beta= 0.70
     Davidson diagonalization with overlap
     ethr =  1.17E-04,  avg # of iterations =  4.3

     total cpu time spent up to now is        3.5 secs

     total energy              =    -323.97689167 Ry
     estimated scf accuracy    <       0.00785404 Ry

     iteration #  5     ecut=    65.00 Ry     beta= 0.70
     Davidson diagonalization with overlap
     ethr =  4.36E-05,  avg # of iterations =  2.2

     total cpu time spent up to now is        3.8 secs

     total energy              =    -323.97707217 Ry
     estimated scf accuracy    <       0.00208751 Ry

     iteration #  6     ecut=    65.00 Ry     beta= 0.70
     Davidson diagonalization with overlap
     ethr =  1.16E-05,  avg # of iterations =  2.9

     negative rho (up, down):  1.508E-06 0.000E+00

     total cpu time spent up to now is        4.1 secs

     total energy              =    -323.97737391 Ry
     estimated scf accuracy    <       0.00029542 Ry

     iteration #  7     ecut=    65.00 Ry     beta= 0.70
     Davidson diagonalization with overlap
     ethr =  1.64E-06,  avg # of iterations =  5.4

     negative rho (up, down):  2.508E-04 0.000E+00

     total cpu time spent up to now is        4.3 secs

     total energy              =    -323.97740119 Ry
     estimated scf accuracy    <       0.00005674 Ry

     iteration #  8     ecut=    65.00 Ry     beta= 0.70
     Davidson diagonalization with overlap
     ethr =  3.15E-07,  avg # of iterations =  2.2

     negative rho (up, down):  2.298E-04 0.000E+00

     total cpu time spent up to now is        4.6 secs

     total energy              =    -323.97741127 Ry
     estimated scf accuracy    <       0.00000248 Ry

     iteration #  9     ecut=    65.00 Ry     beta= 0.70
     Davidson diagonalization with overlap
     ethr =  1.38E-08,  avg # of iterations =  3.3

     negative rho (up, down):  2.050E-04 0.000E+00

     total cpu time spent up to now is        4.9 secs

     End of self-consistent calculation

          k = 0.0000 0.0000 0.0000 (  5189 PWs)   bands (ev):

    -7.9864  -5.3621  -2.2416  -2.0020  -2.0020  -1.8751  -1.8751  -1.6017
    -0.7090  -0.7090  -0.1452  -0.1452   0.0170

          k = 0.0000 0.0888 0.0000 (  5205 PWs)   bands (ev):

    -7.7776  -5.1705  -2.2434  -2.0903  -2.0238  -1.9007  -1.7838  -1.5814
    -0.8310  -0.7452  -0.5679  -0.1409   0.8732

          k = 0.0000 0.1776 0.0000 (  5228 PWs)   bands (ev):

    -7.1780  -4.6457  -2.4275  -2.3570  -2.1120  -1.6785  -1.6256  -1.5319
    -1.2319  -0.8159  -0.2364  -0.1368   1.9708

          k = 0.0000 0.2665 0.0000 (  5264 PWs)   bands (ev):

    -6.2894  -4.0270  -2.8547  -2.4379  -2.1648  -1.8545  -1.3725  -1.2033
    -1.1390  -0.7658  -0.1413   0.2977   3.2496

          k = 0.0000 0.3553 0.0000 (  5258 PWs)   bands (ev):

    -5.3632  -3.8449  -3.2619  -2.2564  -1.9686  -1.7670  -1.3735  -0.8995
    -0.6715  -0.4352  -0.1413   1.0578   4.7381

          k = 0.0000 0.4441 0.0000 (  5276 PWs)   bands (ev):

    -4.7503  -4.0259  -3.5697  -2.3703  -1.4532  -1.3911  -1.1609  -0.3494
    -0.2403  -0.0539  -0.0459   2.1040   6.4216

          k = 0.0000 0.5329 0.0000 (  5284 PWs)   bands (ev):

    -4.4646  -4.2365  -3.7345  -2.4539  -1.5066  -1.1126  -0.7595  -0.2882
     0.1239   0.2018   1.0131   2.8618   7.0052

          k = 0.0769 0.1332 0.0000 (  5224 PWs)   bands (ev):

    -7.3725  -4.8081  -2.3331  -2.2641  -2.1680  -1.7103  -1.6098  -1.6038
    -1.2028  -0.7118  -0.4456  -0.0991   1.6617

          k = 0.0769 0.2221 0.0000 (  5245 PWs)   bands (ev):

    -6.6196  -4.1896  -2.6426  -2.5200  -2.2604  -1.8043  -1.4075  -1.2763
    -1.2475  -0.7246  -0.2727   0.1638   2.7807

          k = 0.0769 0.3109 0.0000 (  5268 PWs)   bands (ev):

    -5.6816  -3.7183  -3.0476  -2.4544  -2.2808  -1.9512  -1.3479  -1.0787
    -0.7790  -0.4605  -0.2239   0.7984   4.1388

          k = 0.0769 0.3997 0.0000 (  5278 PWs)   bands (ev):

    -4.8909  -3.7978  -3.3937  -2.3047  -1.8614  -1.7282  -1.3834  -0.7851
    -0.4264  -0.1597   0.1212   1.7939   5.7297

          k = 0.0769 0.4885 0.0000 (  5275 PWs)   bands (ev):

    -4.4765  -4.0276  -3.6221  -2.3925  -1.6027  -1.3187  -1.0904  -0.3834
    -0.3128   0.0177   1.0168   2.9609   7.3746

          k = 0.0769-0.5774 0.0000 (  5292 PWs)   bands (ev):

    -4.3089  -4.1826  -3.7019  -2.4282  -1.6222  -1.1650  -0.8913  -0.3584
    -0.0778   0.0567   1.9289   3.2310   7.2171

          k = 0.1538 0.2665 0.0000 (  5272 PWs)   bands (ev):

    -5.7931  -3.5675  -2.8770  -2.7809  -2.4469  -1.9550  -1.4242  -1.0295
    -0.8017  -0.4074  -0.3362   0.7520   3.9401

          k = 0.1538 0.3553 0.0000 (  5274 PWs)   bands (ev):

    -4.9317  -3.3627  -3.1674  -2.5642  -2.4030  -2.0625  -1.4853  -0.8754
    -0.5454  -0.2145   0.2527   1.7389   5.3880

          k = 0.1538 0.4441 0.0000 (  5303 PWs)   bands (ev):

    -4.3642  -3.6186  -3.3968  -2.3187  -1.9476  -1.9031  -1.5407  -0.6614
    -0.5254  -0.0481   1.2501   3.1206   7.0760

          k = 0.1538-0.6218 0.0000 (  5307 PWs)   bands (ev):

    -4.1111  -3.8314  -3.5262  -2.3264  -1.8729  -1.5095  -1.4000  -0.5271
    -0.3510  -0.0946   2.5933   4.1546   7.2771

          k = 0.2308 0.3997 0.0000 (  5286 PWs)   bands (ev):

    -4.2860  -3.2725  -3.2216  -2.4460  -2.3456  -2.1051  -1.6810  -0.6913
    -0.6502  -0.0509   1.3347   3.1770   6.9507

          k = 0.2308-0.6662 0.0000 (  5314 PWs)   bands (ev):

    -3.9227  -3.4049  -3.2774  -2.2755  -2.1207  -2.0158  -1.7976  -0.7076
    -0.5209  -0.0835   2.8265   4.8604   8.1814

          k = 0.2308-0.5774 0.0000 (  5314 PWs)   bands (ev):

    -3.8001  -3.4838  -3.3083  -2.1988  -2.1637  -1.8643  -1.7902  -0.7055
    -0.3495  -0.2329   4.2594   5.1274   7.9986

          k = 0.3077-0.6218 0.0000 (  5306 PWs)   bands (ev):

    -3.6753  -3.2394  -3.1748  -2.2920  -2.1610  -2.0386  -2.0192  -0.7900
    -0.4063  -0.2394   4.7749   6.4726   7.2079

     the Fermi energy is    -0.3960 ev

!    total energy              =    -323.97741200 Ry
     total all-electron energy =     -5573.664764 Ry
     estimated scf accuracy    <       0.00000044 Ry
     smearing contrib. (-TS)   =      -0.01387195 Ry
     internal energy E=F+TS    =    -323.96354005 Ry

     The total energy is F=E-TS. E is the sum of the following terms:
     one-electron contribution =    -719.10251779 Ry
     hartree contribution      =     376.40415497 Ry
     xc contribution           =     -65.06365470 Ry
     ewald contribution        =     256.88906237 Ry
     one-center paw contrib.   =    -173.09058489 Ry

     convergence has been achieved in   9 iterations

     negative rho (up, down):  2.050E-04 0.000E+00

     Forces acting on atoms (cartesian axes, Ry/au):

     atom    1 type  1   force =     0.00000000    0.00000000    0.02364389
     atom    2 type  1   force =     0.00000000    0.00000000   -0.02364389
     The non-local contrib.  to forces
     atom    1 type  1   force =     0.00000000    0.00000000   -0.09314049
     atom    2 type  1   force =     0.00000000    0.00000000    0.09314049
     The ionic contribution  to forces
     atom    1 type  1   force =    -0.00000000    0.00000000  -41.52793710
     atom    2 type  1   force =     0.00000000   -0.00000000   41.52793710
     The local contribution  to forces
     atom    1 type  1   force =    -0.00000000   -0.00000000   41.62806556
     atom    2 type  1   force =     0.00000000    0.00000000  -41.62806556
     The core correction contribution to forces
     atom    1 type  1   force =    -0.00000000   -0.00000000    0.01487437
     atom    2 type  1   force =     0.00000000    0.00000000   -0.01487437
     The Hubbard contrib.    to forces
     atom    1 type  1   force =     0.00000000    0.00000000    0.00000000
     atom    2 type  1   force =     0.00000000    0.00000000    0.00000000
     The SCF correction term to forces
     atom    1 type  1   force =    -0.00000000    0.00000000    0.00178156
     atom    2 type  1   force =     0.00000000    0.00000000   -0.00178156

     Total force =     0.033438     Total SCF correction =     0.002520


     Computing stress (Cartesian axis) and pressure


     negative rho (up, down):  2.050E-04 0.000E+00
          total   stress  (Ry/bohr**3)                   (kbar)     P=      -36.84
  -0.00029879  -0.00000000   0.00000000          -43.95       -0.00        0.00
  -0.00000000  -0.00029879   0.00000000           -0.00      -43.95        0.00
   0.00000000  -0.00000000  -0.00015372            0.00       -0.00      -22.61


     Writing all to output data dir ./tmp/scf.save/
 
     init_run     :      0.40s CPU      0.49s WALL (       1 calls)
     electrons    :      3.21s CPU      3.48s WALL (       1 calls)
     forces       :      0.05s CPU      0.05s WALL (       1 calls)
     stress       :      0.22s CPU      0.22s WALL (       1 calls)

     Called by init_run:
     wfcinit      :      0.10s CPU      0.11s WALL (       1 calls)
     potinit      :      0.16s CPU      0.20s WALL (       1 calls)
     hinit0       :      0.08s CPU      0.13s WALL (       1 calls)

     Called by electrons:
     c_bands      :      1.88s CPU      2.05s WALL (       9 calls)
     sum_band     :      0.53s CPU      0.60s WALL (       9 calls)
     v_of_rho     :      0.03s CPU      0.04s WALL (      10 calls)
     newd         :      0.14s CPU      0.14s WALL (      10 calls)
     PAW_pot      :      0.79s CPU      0.83s WALL (      10 calls)
     mix_rho      :      0.01s CPU      0.01s WALL (       9 calls)

     Called by c_bands:
     init_us_2    :      0.06s CPU      0.06s WALL (     441 calls)
     init_us_2:cp :      0.05s CPU      0.06s WALL (     441 calls)
     cegterg      :      1.53s CPU      1.69s WALL (     189 calls)

     Called by *egterg:
     cdiaghg      :      0.18s CPU      0.19s WALL (     834 calls)
     h_psi        :      1.21s CPU      1.35s WALL (     855 calls)
     s_psi        :      0.03s CPU      0.03s WALL (     855 calls)
     g_psi        :      0.01s CPU      0.01s WALL (     645 calls)

     Called by h_psi:
     h_psi:calbec :      0.08s CPU      0.08s WALL (     855 calls)
     vloc_psi     :      1.09s CPU      1.22s WALL (     855 calls)
     add_vuspsi   :      0.03s CPU      0.03s WALL (     855 calls)

     General routines
     calbec       :      0.12s CPU      0.13s WALL (    1149 calls)
     fft          :      0.04s CPU      0.10s WALL (     135 calls)
     ffts         :      0.00s CPU      0.00s WALL (       9 calls)
     fftw         :      1.18s CPU      1.32s WALL (   16293 calls)
 
     Parallel routines
 
     PWSCF        :      4.56s CPU      5.31s WALL

 
   This run was terminated on:  16:30:14   5Jun2025            

=------------------------------------------------------------------------------=
   JOB DONE.
=------------------------------------------------------------------------------=
