
     Program PWSCF v.7.2 starts on  5Jun2025 at 16:30:42 

     This program is part of the open-source Quantum ESPRESSO suite
     for quantum simulation of materials; please cite
         "P. Giannozzi et al., J. Phys.:Condens. Matter 21 395502 (2009);
         "P. Giannozzi et al., J. Phys.:Condens. Matter 29 465901 (2017);
         "P. Giannozzi et al., J. Chem. Phys. 152 154105 (2020);
          URL http://www.quantum-espresso.org", 
     in publications or presentations arising from this work. More details at
     http://www.quantum-espresso.org/quote

     Parallel version (MPI), running on    16 processors

     MPI processes distributed on     1 nodes
     11977 MiB available memory on the printing compute node when the environment starts
 
     Waiting for input...
     Reading input from standard input

     Current dimensions of program PWSCF are:
     Max number of different atomic species (ntypx) = 10
     Max number of k-points (npk) =  40000
     Max angular momentum in pseudopotentials (lmaxx) =  4
     file Co.pbe-n-kjpaw_psl.1.0.0.UPF: wavefunction(s)  4S 3D renormalized
     Message from routine setup:
     using ibrav=0 with symmetry is DISCOURAGED, use correct ibrav instead
 
     R & G space division:  proc/nbgrp/npool/nimage =      16
     Subspace diagonalization in iterative solution of the eigenvalue problem:
     a serial algorithm will be used

 
     Parallelization info
     --------------------
     sticks:   dense  smooth     PW     G-vecs:    dense   smooth      PW
     Min          23      23      7                 2613     2613     463
     Max          24      24      8                 2640     2640     490
     Sum         379     379    121                42075    42075    7629
 
     Using Slab Decomposition
 


     bravais-lattice index     =            0
     lattice parameter (alat)  =       4.6298  a.u.
     unit-cell volume          =     596.1396 (a.u.)^3
     number of atoms/cell      =            2
     number of atomic types    =            1
     number of electrons       =        18.00
     number of Kohn-Sham states=           13
     kinetic-energy cutoff     =      65.0000  Ry
     charge density cutoff     =     260.0000  Ry
     scf convergence threshold =      1.0E-06
     mixing beta               =       0.7000
     number of iterations used =            8  plain     mixing
     Exchange-correlation= SLA  PW   PBX  PBC
                           (   1   4   3   4   0   0   0)

     celldm(1)=   4.629829  celldm(2)=   0.000000  celldm(3)=   0.000000
     celldm(4)=   0.000000  celldm(5)=   0.000000  celldm(6)=   0.000000

     crystal axes: (cart. coord. in units of alat)
               a(1) = (   1.000000   0.000000   0.000000 )  
               a(2) = (   0.500000   0.866025   0.000000 )  
               a(3) = (   0.000000   0.000000   6.936214 )  

     reciprocal axes: (cart. coord. in units 2 pi/alat)
               b(1) = (  1.000000 -0.577350  0.000000 )  
               b(2) = (  0.000000  1.154701  0.000000 )  
               b(3) = (  0.000000  0.000000  0.144171 )  


     PseudoPot. # 1 for Co read from file:
     /shared/ESPRESSO/PSLIBRARY/1.0.0/pbe/PSEUDOPOTENTIALS/Co.pbe-n-kjpaw_psl.1.0.0.UPF
     MD5 check sum: 17e7ab8db721b244d1352252ea6cb8e7
     Pseudo is Projector augmented-wave + core cor, Zval =  9.0
     Generated using "atomic" code by A. Dal Corso  (Quantum ESPRESSO distribution)
     Shape of augmentation charge: PSQ
     Using radial grid of 1193 points,  6 beta functions with: 
                l(1) =   0
                l(2) =   0
                l(3) =   1
                l(4) =   1
                l(5) =   2
                l(6) =   2
     Q(r) pseudized with 0 coefficients 


     atomic species   valence    mass     pseudopotential
        Co             9.00    58.93320     Co( 1.00)

     12 Sym. Ops., with inversion, found ( 6 have fractional translation)



   Cartesian axes

     site n.     atom                  positions (alat units)
         1           Co  tau(   1) = (   1.0000000   0.5773503   3.0612245  )
         2           Co  tau(   2) = (   0.0000000   0.0000000   3.8749895  )

     number of k points=    30  Fermi-Dirac smearing, width (Ry)=  0.0070
                       cart. coord. in units 2pi/alat
        k(    1) = (   0.0000000   0.0000000   0.0000000), wk =   0.0078125
        k(    2) = (   0.0000000   0.0721688   0.0000000), wk =   0.0468750
        k(    3) = (   0.0000000   0.1443376   0.0000000), wk =   0.0468750
        k(    4) = (   0.0000000   0.2165064   0.0000000), wk =   0.0468750
        k(    5) = (   0.0000000   0.2886751   0.0000000), wk =   0.0468750
        k(    6) = (   0.0000000   0.3608439   0.0000000), wk =   0.0468750
        k(    7) = (   0.0000000   0.4330127   0.0000000), wk =   0.0468750
        k(    8) = (   0.0000000   0.5051815   0.0000000), wk =   0.0468750
        k(    9) = (   0.0000000  -0.5773503   0.0000000), wk =   0.0234375
        k(   10) = (   0.0625000   0.1082532   0.0000000), wk =   0.0468750
        k(   11) = (   0.0625000   0.1804220   0.0000000), wk =   0.0937500
        k(   12) = (   0.0625000   0.2525907   0.0000000), wk =   0.0937500
        k(   13) = (   0.0625000   0.3247595   0.0000000), wk =   0.0937500
        k(   14) = (   0.0625000   0.3969283   0.0000000), wk =   0.0937500
        k(   15) = (   0.0625000   0.4690971   0.0000000), wk =   0.0937500
        k(   16) = (   0.0625000  -0.6134347   0.0000000), wk =   0.0937500
        k(   17) = (   0.1250000   0.2165064   0.0000000), wk =   0.0468750
        k(   18) = (   0.1250000   0.2886751   0.0000000), wk =   0.0937500
        k(   19) = (   0.1250000   0.3608439   0.0000000), wk =   0.0937500
        k(   20) = (   0.1250000   0.4330127   0.0000000), wk =   0.0937500
        k(   21) = (   0.1250000  -0.6495191   0.0000000), wk =   0.0937500
        k(   22) = (   0.1250000  -0.5773503   0.0000000), wk =   0.0468750
        k(   23) = (   0.1875000   0.3247595   0.0000000), wk =   0.0468750
        k(   24) = (   0.1875000   0.3969283   0.0000000), wk =   0.0937500
        k(   25) = (   0.1875000  -0.6856034   0.0000000), wk =   0.0937500
        k(   26) = (   0.1875000  -0.6134347   0.0000000), wk =   0.0937500
        k(   27) = (   0.2500000  -0.7216878   0.0000000), wk =   0.0468750
        k(   28) = (   0.2500000  -0.6495191   0.0000000), wk =   0.0937500
        k(   29) = (   0.2500000  -0.5773503   0.0000000), wk =   0.0468750
        k(   30) = (   0.3125000  -0.6134347   0.0000000), wk =   0.0468750

     Dense  grid:    42075 G-vectors     FFT dimensions: (  24,  24, 180)

     Estimated max dynamical RAM per process >      13.16 MB

     Estimated total dynamical RAM >     210.57 MB

     Check: negative core charge=   -0.000001

     Initial potential from superposition of free atoms

     starting charge      17.9994, renormalised to      18.0000

     negative rho (up, down):  1.602E-04 0.000E+00
     Starting wfcs are   18 randomized atomic wfcs
     Checking if some PAW data can be deallocated... 

     total cpu time spent up to now is        0.8 secs

     Self-consistent Calculation

     iteration #  1     ecut=    65.00 Ry     beta= 0.70
     Davidson diagonalization with overlap
     ethr =  1.00E-02,  avg # of iterations =  2.2

     negative rho (up, down):  1.298E-04 0.000E+00

     total cpu time spent up to now is        1.1 secs

     total energy              =    -323.78559936 Ry
     estimated scf accuracy    <       0.29931912 Ry

     iteration #  2     ecut=    65.00 Ry     beta= 0.70
     Davidson diagonalization with overlap
     ethr =  1.66E-03,  avg # of iterations =  5.6

     total cpu time spent up to now is        1.5 secs

     total energy              =    -323.46538671 Ry
     estimated scf accuracy    <       3.50426120 Ry

     iteration #  3     ecut=    65.00 Ry     beta= 0.70
     Davidson diagonalization with overlap
     ethr =  1.66E-03,  avg # of iterations =  3.2

     total cpu time spent up to now is        1.9 secs

     total energy              =    -323.97592607 Ry
     estimated scf accuracy    <       0.02228275 Ry

     iteration #  4     ecut=    65.00 Ry     beta= 0.70
     Davidson diagonalization with overlap
     ethr =  1.24E-04,  avg # of iterations =  4.4

     total cpu time spent up to now is        2.2 secs

     total energy              =    -323.97697288 Ry
     estimated scf accuracy    <       0.00956417 Ry

     iteration #  5     ecut=    65.00 Ry     beta= 0.70
     Davidson diagonalization with overlap
     ethr =  5.31E-05,  avg # of iterations =  2.3

     total cpu time spent up to now is        2.6 secs

     total energy              =    -323.97714963 Ry
     estimated scf accuracy    <       0.00228194 Ry

     iteration #  6     ecut=    65.00 Ry     beta= 0.70
     Davidson diagonalization with overlap
     ethr =  1.27E-05,  avg # of iterations =  2.8

     negative rho (up, down):  4.887E-07 0.000E+00

     total cpu time spent up to now is        3.2 secs

     total energy              =    -323.97740795 Ry
     estimated scf accuracy    <       0.00043438 Ry

     iteration #  7     ecut=    65.00 Ry     beta= 0.70
     Davidson diagonalization with overlap
     ethr =  2.41E-06,  avg # of iterations =  4.8

     negative rho (up, down):  3.470E-04 0.000E+00

     total cpu time spent up to now is        3.8 secs

     total energy              =    -323.97741617 Ry
     estimated scf accuracy    <       0.00009492 Ry

     iteration #  8     ecut=    65.00 Ry     beta= 0.70
     Davidson diagonalization with overlap
     ethr =  5.27E-07,  avg # of iterations =  3.1

     negative rho (up, down):  2.144E-04 0.000E+00

     total cpu time spent up to now is        4.6 secs

     total energy              =    -323.97743961 Ry
     estimated scf accuracy    <       0.00000309 Ry

     iteration #  9     ecut=    65.00 Ry     beta= 0.70
     Davidson diagonalization with overlap
     ethr =  1.72E-08,  avg # of iterations =  2.8

     negative rho (up, down):  2.047E-04 0.000E+00

     total cpu time spent up to now is        5.2 secs

     End of self-consistent calculation

          k = 0.0000 0.0000 0.0000 (  5189 PWs)   bands (ev):

    -7.9898  -5.3657  -2.2456  -2.0086  -2.0086  -1.8817  -1.8817  -1.6053
    -0.7142  -0.7142  -0.1505  -0.1505   0.0140

          k = 0.0000 0.0722 0.0000 (  5219 PWs)   bands (ev):

    -7.8516  -5.2384  -2.2439  -2.0638  -1.9928  -1.9414  -1.8210  -1.5851
    -0.7389  -0.7359  -0.5933  -0.1474   0.6824

          k = 0.0000 0.1443 0.0000 (  5235 PWs)   bands (ev):

    -7.4479  -4.8767  -2.3101  -2.2787  -2.0966  -1.7504  -1.6488  -1.6290
    -1.1350  -0.7967  -0.3922  -0.1427   1.5356

          k = 0.0000 0.2165 0.0000 (  5226 PWs)   bands (ev):

    -6.8180  -4.3628  -2.6153  -2.4317  -2.1432  -1.7640  -1.4946  -1.3854
    -1.2701  -0.8309  -0.1431  -0.0304   2.5028

          k = 0.0000 0.2887 0.0000 (  5276 PWs)   bands (ev):

    -6.0507  -3.9285  -2.9675  -2.3982  -2.1696  -1.8862  -1.3583  -1.1523
    -1.0290  -0.7113  -0.1483   0.4587   3.5978

          k = 0.0000 0.3608 0.0000 (  5254 PWs)   bands (ev):

    -5.3169  -3.8560  -3.2896  -2.2650  -1.9359  -1.7455  -1.3831  -0.8772
    -0.6508  -0.4169  -0.1455   1.1111   4.8352

          k = 0.0000 0.4330 0.0000 (  5284 PWs)   bands (ev):

    -4.8092  -4.0036  -3.5433  -2.3602  -1.4538  -1.4487  -1.2463  -0.3777
    -0.3643  -0.0980  -0.0807   1.9603   6.2026

          k = 0.0000 0.5052 0.0000 (  5284 PWs)   bands (ev):

    -4.5372  -4.1813  -3.7048  -2.4408  -1.5000  -1.1709  -0.8413  -0.3000
     0.0726   0.1404   0.6054   2.7424   7.1897

          k = 0.0000-0.5774 0.0000 (  5272 PWs)   bands (ev):

    -4.4075  -4.3020  -3.7603  -2.4700  -1.5187  -1.0847  -0.7182  -0.2904
     0.1453   0.2285   1.3510   2.8477   7.1251

          k = 0.0625 0.1083 0.0000 (  5214 PWs)   bands (ev):

    -7.5803  -4.9928  -2.2796  -2.1677  -2.1355  -1.8030  -1.6994  -1.6028
    -1.0736  -0.7066  -0.5299  -0.1300   1.2969

          k = 0.0625 0.1804 0.0000 (  5231 PWs)   bands (ev):

    -7.0612  -4.5435  -2.4624  -2.4054  -2.1946  -1.7217  -1.5303  -1.4769
    -1.2953  -0.7547  -0.3226  -0.0410   2.1494

          k = 0.0625 0.2526 0.0000 (  5252 PWs)   bands (ev):

    -6.3536  -4.0232  -2.7886  -2.5290  -2.2532  -1.8617  -1.3747  -1.2285
    -1.1367  -0.7184  -0.2267   0.2974   3.1557

          k = 0.0625 0.3248 0.0000 (  5267 PWs)   bands (ev):

    -5.5832  -3.7530  -3.1200  -2.3485  -2.2377  -1.9367  -1.3474  -1.0555
    -0.7485  -0.4493  -0.2017   0.8712   4.3116

          k = 0.0625 0.3969 0.0000 (  5265 PWs)   bands (ev):

    -4.9520  -3.8372  -3.4019  -2.3067  -1.8232  -1.6875  -1.3814  -0.7804
    -0.4428  -0.1687   0.0023   1.6753   5.6171

          k = 0.0625 0.4691 0.0000 (  5268 PWs)   bands (ev):

    -4.5804  -4.0210  -3.6050  -2.3891  -1.5667  -1.3563  -1.1293  -0.4082
    -0.3214  -0.0110   0.6249   2.6240   7.0059

          k = 0.0625-0.6134 0.0000 (  5284 PWs)   bands (ev):

    -4.3866  -4.1853  -3.7114  -2.4390  -1.5875  -1.1628  -0.8658  -0.3412
    -0.0764   0.0914   1.5305   3.1264   7.0384

          k = 0.1250 0.2165 0.0000 (  5236 PWs)   bands (ev):

    -6.4579  -4.0500  -2.6674  -2.6158  -2.3463  -1.8404  -1.4261  -1.1954
    -1.1654  -0.6616  -0.3299   0.2749   3.0060

          k = 0.1250 0.2887 0.0000 (  5272 PWs)   bands (ev):

    -5.7228  -3.5765  -2.9441  -2.7168  -2.4190  -1.9730  -1.4124  -1.0411
    -0.7753  -0.4006  -0.3114   0.8022   4.0516

          k = 0.1250 0.3608 0.0000 (  5283 PWs)   bands (ev):

    -5.0198  -3.5242  -3.2156  -2.3898  -2.3433  -2.0237  -1.4429  -0.9084
    -0.5209  -0.2344   0.1170   1.5958   5.2701

          k = 0.1250 0.4330 0.0000 (  5291 PWs)   bands (ev):

    -4.5363  -3.7170  -3.4314  -2.3282  -1.8781  -1.8132  -1.4610  -0.6978
    -0.4665  -0.0783   0.8267   2.6428   6.6387

          k = 0.1250-0.6495 0.0000 (  5298 PWs)   bands (ev):

    -4.2826  -3.9070  -3.5710  -2.3626  -1.7643  -1.4603  -1.2874  -0.4633
    -0.4098  -0.0344   1.7990   3.6195   7.3936

          k = 0.1250-0.5774 0.0000 (  5306 PWs)   bands (ev):

    -4.1753  -4.0129  -3.6193  -2.3762  -1.7796  -1.3178  -1.1907  -0.4639
    -0.1753  -0.1280   2.5684   3.7345   7.3593

          k = 0.1875 0.3248 0.0000 (  5286 PWs)   bands (ev):

    -5.0377  -3.2130  -3.0996  -2.8019  -2.4821  -2.0702  -1.4962  -0.8902
    -0.5844  -0.2532   0.1590   1.5829   5.1561

          k = 0.1875 0.3969 0.0000 (  5296 PWs)   bands (ev):

    -4.4735  -3.3402  -3.2453  -2.4420  -2.3456  -2.0924  -1.6085  -0.7532
    -0.5979  -0.0893   0.9355   2.6733   6.4490

          k = 0.1875-0.6856 0.0000 (  5310 PWs)   bands (ev):

    -4.1382  -3.5434  -3.3680  -2.3071  -1.9962  -1.9665  -1.6521  -0.6300
    -0.5732  -0.0498   1.9728   3.9368   7.8517

          k = 0.1875-0.6134 0.0000 (  5309 PWs)   bands (ev):

    -3.9756  -3.6847  -3.4402  -2.2811  -2.0063  -1.6818  -1.5873  -0.6156
    -0.3745  -0.1510   3.1899   4.6380   7.4050

          k = 0.2500-0.7217 0.0000 (  5302 PWs)   bands (ev):

    -4.0667  -3.3127  -3.2373  -2.3431  -2.2821  -2.0835  -1.7816  -0.7039
    -0.6155  -0.0470   2.0301   4.0301   7.8137

          k = 0.2500-0.6495 0.0000 (  5309 PWs)   bands (ev):

    -3.8324  -3.3656  -3.2491  -2.2640  -2.1623  -2.0248  -1.8676  -0.7448
    -0.4863  -0.1311   3.3895   5.4021   7.9468

          k = 0.2500-0.5774 0.0000 (  5306 PWs)   bands (ev):

    -3.7506  -3.4006  -3.2584  -2.2239  -2.1750  -1.9589  -1.8744  -0.7452
    -0.3679  -0.2507   4.5891   5.3843   8.1626

          k = 0.3125-0.6134 0.0000 (  5314 PWs)   bands (ev):

    -3.6651  -3.2308  -3.1752  -2.3055  -2.1542  -2.0499  -2.0433  -0.7991
    -0.3959  -0.2646   5.0301   6.5373   7.0084

     the Fermi energy is    -0.4034 ev

!    total energy              =    -323.97744010 Ry
     total all-electron energy =     -5573.664793 Ry
     estimated scf accuracy    <       0.00000042 Ry
     smearing contrib. (-TS)   =      -0.01388269 Ry
     internal energy E=F+TS    =    -323.96355741 Ry

     The total energy is F=E-TS. E is the sum of the following terms:
     one-electron contribution =    -719.09763098 Ry
     hartree contribution      =     376.39854857 Ry
     xc contribution           =     -65.06285991 Ry
     ewald contribution        =     256.88906237 Ry
     one-center paw contrib.   =    -173.09067746 Ry

     convergence has been achieved in   9 iterations

     negative rho (up, down):  2.047E-04 0.000E+00

     Forces acting on atoms (cartesian axes, Ry/au):

     atom    1 type  1   force =     0.00000000    0.00000000    0.02375043
     atom    2 type  1   force =     0.00000000   -0.00000000   -0.02375043
     The non-local contrib.  to forces
     atom    1 type  1   force =     0.00000000   -0.00000000   -0.09335883
     atom    2 type  1   force =     0.00000000    0.00000000    0.09335883
     The ionic contribution  to forces
     atom    1 type  1   force =    -0.00000000    0.00000000  -41.52793710
     atom    2 type  1   force =     0.00000000    0.00000000   41.52793710
     The local contribution  to forces
     atom    1 type  1   force =    -0.00000000   -0.00000000   41.62803461
     atom    2 type  1   force =     0.00000000    0.00000000  -41.62803461
     The core correction contribution to forces
     atom    1 type  1   force =    -0.00000000   -0.00000000    0.01489174
     atom    2 type  1   force =     0.00000000    0.00000000   -0.01489174
     The Hubbard contrib.    to forces
     atom    1 type  1   force =     0.00000000    0.00000000    0.00000000
     atom    2 type  1   force =     0.00000000    0.00000000    0.00000000
     The SCF correction term to forces
     atom    1 type  1   force =    -0.00000000    0.00000000    0.00212002
     atom    2 type  1   force =    -0.00000000    0.00000000   -0.00212002

     Total force =     0.033588     Total SCF correction =     0.002998


     Computing stress (Cartesian axis) and pressure


     negative rho (up, down):  2.047E-04 0.000E+00
          total   stress  (Ry/bohr**3)                   (kbar)     P=      -36.84
  -0.00029920  -0.00000000   0.00000000          -44.01       -0.00        0.00
  -0.00000000  -0.00029920   0.00000000           -0.00      -44.01        0.00
   0.00000000   0.00000000  -0.00015284            0.00        0.00      -22.48


     Writing all to output data dir ./tmp/scf.save/
 
     init_run     :      0.20s CPU      0.31s WALL (       1 calls)
     electrons    :      3.94s CPU      4.47s WALL (       1 calls)
     forces       :      0.11s CPU      0.11s WALL (       1 calls)
     stress       :      0.41s CPU      0.43s WALL (       1 calls)

     Called by init_run:
     wfcinit      :      0.05s CPU      0.09s WALL (       1 calls)
     potinit      :      0.06s CPU      0.08s WALL (       1 calls)
     hinit0       :      0.06s CPU      0.12s WALL (       1 calls)

     Called by electrons:
     c_bands      :      2.61s CPU      3.01s WALL (       9 calls)
     sum_band     :      0.44s CPU      0.55s WALL (       9 calls)
     v_of_rho     :      0.03s CPU      0.04s WALL (      10 calls)
     newd         :      0.11s CPU      0.12s WALL (      10 calls)
     PAW_pot      :      0.78s CPU      0.81s WALL (      10 calls)
     mix_rho      :      0.01s CPU      0.01s WALL (       9 calls)

     Called by c_bands:
     init_us_2    :      0.04s CPU      0.04s WALL (     630 calls)
     init_us_2:cp :      0.04s CPU      0.04s WALL (     630 calls)
     cegterg      :      2.13s CPU      2.49s WALL (     270 calls)

     Called by *egterg:
     cdiaghg      :      0.19s CPU      0.21s WALL (    1207 calls)
     h_psi        :      1.67s CPU      2.02s WALL (    1237 calls)
     s_psi        :      0.02s CPU      0.02s WALL (    1237 calls)
     g_psi        :      0.00s CPU      0.01s WALL (     937 calls)

     Called by h_psi:
     h_psi:calbec :      0.11s CPU      0.12s WALL (    1237 calls)
     vloc_psi     :      1.53s CPU      1.85s WALL (    1237 calls)
     add_vuspsi   :      0.02s CPU      0.03s WALL (    1237 calls)

     General routines
     calbec       :      0.25s CPU      0.27s WALL (    1657 calls)
     fft          :      0.06s CPU      0.12s WALL (     135 calls)
     ffts         :      0.00s CPU      0.00s WALL (       9 calls)
     fftw         :      1.66s CPU      2.03s WALL (   23034 calls)
 
     Parallel routines
 
     PWSCF        :      5.13s CPU      5.95s WALL

 
   This run was terminated on:  16:30:48   5Jun2025            

=------------------------------------------------------------------------------=
   JOB DONE.
=------------------------------------------------------------------------------=
