
     Program PWSCF v.7.2 starts on  5Jun2025 at 16:29: 7 

     This program is part of the open-source Quantum ESPRESSO suite
     for quantum simulation of materials; please cite
         "P. Giannozzi et al., J. Phys.:Condens. Matter 21 395502 (2009);
         "P. Giannozzi et al., J. Phys.:Condens. Matter 29 465901 (2017);
         "P. Giannozzi et al., J. Chem. Phys. 152 154105 (2020);
          URL http://www.quantum-espresso.org", 
     in publications or presentations arising from this work. More details at
     http://www.quantum-espresso.org/quote

     Parallel version (MPI), running on    16 processors

     MPI processes distributed on     1 nodes
     18124 MiB available memory on the printing compute node when the environment starts
 
     Waiting for input...
     Reading input from standard input

     Current dimensions of program PWSCF are:
     Max number of different atomic species (ntypx) = 10
     Max number of k-points (npk) =  40000
     Max angular momentum in pseudopotentials (lmaxx) =  4
     file Co.pbe-n-kjpaw_psl.1.0.0.UPF: wavefunction(s)  4S 3D renormalized
     Message from routine setup:
     using ibrav=0 with symmetry is DISCOURAGED, use correct ibrav instead
 
     R & G space division:  proc/nbgrp/npool/nimage =      16
     Subspace diagonalization in iterative solution of the eigenvalue problem:
     a serial algorithm will be used

 
     Parallelization info
     --------------------
     sticks:   dense  smooth     PW     G-vecs:    dense   smooth      PW
     Min          23      23      7                 2613     2613     451
     Max          24      24      8                 2640     2640     472
     Sum         379     379    121                42075    42075    7389
 
     Using Slab Decomposition
 


     bravais-lattice index     =            0
     lattice parameter (alat)  =       4.6298  a.u.
     unit-cell volume          =     596.1396 (a.u.)^3
     number of atoms/cell      =            2
     number of atomic types    =            1
     number of electrons       =        18.00
     number of Kohn-Sham states=           13
     kinetic-energy cutoff     =      65.0000  Ry
     charge density cutoff     =     260.0000  Ry
     scf convergence threshold =      1.0E-06
     mixing beta               =       0.7000
     number of iterations used =            8  plain     mixing
     Exchange-correlation= SLA  PW   PBX  PBC
                           (   1   4   3   4   0   0   0)

     celldm(1)=   4.629829  celldm(2)=   0.000000  celldm(3)=   0.000000
     celldm(4)=   0.000000  celldm(5)=   0.000000  celldm(6)=   0.000000

     crystal axes: (cart. coord. in units of alat)
               a(1) = (   1.000000   0.000000   0.000000 )  
               a(2) = (   0.500000   0.866025   0.000000 )  
               a(3) = (   0.000000   0.000000   6.936214 )  

     reciprocal axes: (cart. coord. in units 2 pi/alat)
               b(1) = (  1.000000 -0.577350  0.000000 )  
               b(2) = (  0.000000  1.154701  0.000000 )  
               b(3) = (  0.000000  0.000000  0.144171 )  


     PseudoPot. # 1 for Co read from file:
     /shared/ESPRESSO/PSLIBRARY/1.0.0/pbe/PSEUDOPOTENTIALS/Co.pbe-n-kjpaw_psl.1.0.0.UPF
     MD5 check sum: 17e7ab8db721b244d1352252ea6cb8e7
     Pseudo is Projector augmented-wave + core cor, Zval =  9.0
     Generated using "atomic" code by A. Dal Corso  (Quantum ESPRESSO distribution)
     Shape of augmentation charge: PSQ
     Using radial grid of 1193 points,  6 beta functions with: 
                l(1) =   0
                l(2) =   0
                l(3) =   1
                l(4) =   1
                l(5) =   2
                l(6) =   2
     Q(r) pseudized with 0 coefficients 


     atomic species   valence    mass     pseudopotential
        Co             9.00    58.93320     Co( 1.00)

     12 Sym. Ops., with inversion, found ( 6 have fractional translation)



   Cartesian axes

     site n.     atom                  positions (alat units)
         1           Co  tau(   1) = (   1.0000000   0.5773503   3.0612245  )
         2           Co  tau(   2) = (   0.0000000   0.0000000   3.8749895  )

     number of k points=     7  Fermi-Dirac smearing, width (Ry)=  0.0070
                       cart. coord. in units 2pi/alat
        k(    1) = (   0.0000000   0.0000000   0.0000000), wk =   0.0555556
        k(    2) = (   0.0000000   0.1924501   0.0000000), wk =   0.3333333
        k(    3) = (   0.0000000   0.3849002   0.0000000), wk =   0.3333333
        k(    4) = (   0.0000000  -0.5773503   0.0000000), wk =   0.1666667
        k(    5) = (   0.1666667   0.2886751   0.0000000), wk =   0.3333333
        k(    6) = (   0.1666667  -0.6735753   0.0000000), wk =   0.6666667
        k(    7) = (   0.3333333  -0.5773503   0.0000000), wk =   0.1111111

     Dense  grid:    42075 G-vectors     FFT dimensions: (  24,  24, 180)

     Estimated max dynamical RAM per process >      11.66 MB

     Estimated total dynamical RAM >     186.55 MB

     Check: negative core charge=   -0.000001

     Initial potential from superposition of free atoms

     starting charge      17.9994, renormalised to      18.0000

     negative rho (up, down):  1.602E-04 0.000E+00
     Starting wfcs are   18 randomized atomic wfcs
     Checking if some PAW data can be deallocated... 

     total cpu time spent up to now is        1.0 secs

     Self-consistent Calculation

     iteration #  1     ecut=    65.00 Ry     beta= 0.70
     Davidson diagonalization with overlap
     ethr =  1.00E-02,  avg # of iterations =  2.4

     negative rho (up, down):  1.124E-04 0.000E+00

     total cpu time spent up to now is        1.3 secs

     total energy              =    -323.78705300 Ry
     estimated scf accuracy    <       0.29401507 Ry

     iteration #  2     ecut=    65.00 Ry     beta= 0.70
     Davidson diagonalization with overlap
     ethr =  1.63E-03,  avg # of iterations =  5.4

     total cpu time spent up to now is        1.6 secs

     total energy              =    -323.50753722 Ry
     estimated scf accuracy    <       3.21578039 Ry

     iteration #  3     ecut=    65.00 Ry     beta= 0.70
     Davidson diagonalization with overlap
     ethr =  1.63E-03,  avg # of iterations =  3.3

     total cpu time spent up to now is        2.0 secs

     total energy              =    -323.97417537 Ry
     estimated scf accuracy    <       0.02363996 Ry

     iteration #  4     ecut=    65.00 Ry     beta= 0.70
     Davidson diagonalization with overlap
     ethr =  1.31E-04,  avg # of iterations =  4.7

     total cpu time spent up to now is        2.2 secs

     total energy              =    -323.97491393 Ry
     estimated scf accuracy    <       0.00920617 Ry

     iteration #  5     ecut=    65.00 Ry     beta= 0.70
     Davidson diagonalization with overlap
     ethr =  5.11E-05,  avg # of iterations =  1.9

     negative rho (up, down):  2.562E-08 0.000E+00

     total cpu time spent up to now is        2.5 secs

     total energy              =    -323.97533934 Ry
     estimated scf accuracy    <       0.00186998 Ry

     iteration #  6     ecut=    65.00 Ry     beta= 0.70
     Davidson diagonalization with overlap
     ethr =  1.04E-05,  avg # of iterations =  3.7

     negative rho (up, down):  2.641E-06 0.000E+00

     total cpu time spent up to now is        2.8 secs

     total energy              =    -323.97562357 Ry
     estimated scf accuracy    <       0.00036382 Ry

     iteration #  7     ecut=    65.00 Ry     beta= 0.70
     Davidson diagonalization with overlap
     ethr =  2.02E-06,  avg # of iterations =  5.6

     negative rho (up, down):  1.068E-04 0.000E+00

     total cpu time spent up to now is        3.1 secs

     total energy              =    -323.97567747 Ry
     estimated scf accuracy    <       0.00008033 Ry

     iteration #  8     ecut=    65.00 Ry     beta= 0.70
     Davidson diagonalization with overlap
     ethr =  4.46E-07,  avg # of iterations =  2.0

     negative rho (up, down):  2.367E-04 0.000E+00

     total cpu time spent up to now is        3.4 secs

     total energy              =    -323.97568646 Ry
     estimated scf accuracy    <       0.00000289 Ry

     iteration #  9     ecut=    65.00 Ry     beta= 0.70
     Davidson diagonalization with overlap
     ethr =  1.61E-08,  avg # of iterations =  4.9

     negative rho (up, down):  2.099E-04 0.000E+00

     total cpu time spent up to now is        3.7 secs

     End of self-consistent calculation

          k = 0.0000 0.0000 0.0000 (  5189 PWs)   bands (ev):

    -7.8897  -5.2636  -2.1333  -1.9060  -1.9060  -1.7786  -1.7786  -1.5329
    -0.6075  -0.6075  -0.0431  -0.0431   0.0681

          k = 0.0000 0.1925 0.0000 (  5232 PWs)   bands (ev):

    -6.9485  -4.4375  -2.3998  -2.2871  -2.0208  -1.6183  -1.4744  -1.3803
    -1.1676  -0.7230  -0.0757  -0.0349   2.2335

          k = 0.0000 0.3849 0.0000 (  5272 PWs)   bands (ev):

    -5.0140  -3.7905  -3.2787  -2.1876  -1.6606  -1.5113  -1.2977  -0.6345
    -0.4363  -0.2044  -0.0298   1.4538   5.3328

          k = 0.0000-0.5774 0.0000 (  5272 PWs)   bands (ev):

    -4.3044  -4.1996  -3.6541  -2.3654  -1.4120  -0.9787  -0.6138  -0.1837
     0.2477   0.3310   1.4475   2.9459   7.1983

          k = 0.1667 0.2887 0.0000 (  5270 PWs)   bands (ev):

    -5.3968  -3.2814  -2.8695  -2.7349  -2.3760  -1.9059  -1.3361  -0.8790
    -0.5747  -0.2290  -0.1243   1.1066   4.4401

          k = 0.1667-0.6736 0.0000 (  5306 PWs)   bands (ev):

    -4.0802  -3.5643  -3.3325  -2.2127  -1.8090  -1.7021  -1.4496  -0.4687
    -0.4315   0.0572   2.0276   3.9408   7.9047

          k = 0.3333-0.5774 0.0000 (  5316 PWs)   bands (ev):

    -3.5303  -3.0736  -3.0736  -2.2223  -2.0036  -2.0036  -1.9730  -0.7022
    -0.2248  -0.2248   6.0761   6.4967   6.4967

     the Fermi energy is    -0.3070 ev

!    total energy              =    -323.97568779 Ry
     total all-electron energy =     -5573.663040 Ry
     estimated scf accuracy    <       0.00000042 Ry
     smearing contrib. (-TS)   =      -0.01459395 Ry
     internal energy E=F+TS    =    -323.96109384 Ry

     The total energy is F=E-TS. E is the sum of the following terms:
     one-electron contribution =    -719.22859741 Ry
     hartree contribution      =     376.53752026 Ry
     xc contribution           =     -65.06812851 Ry
     ewald contribution        =     256.88906237 Ry
     one-center paw contrib.   =    -173.09095055 Ry

     convergence has been achieved in   9 iterations

     negative rho (up, down):  2.099E-04 0.000E+00

     Forces acting on atoms (cartesian axes, Ry/au):

     atom    1 type  1   force =     0.00000000    0.00000000    0.02417592
     atom    2 type  1   force =     0.00000000    0.00000000   -0.02417592
     The non-local contrib.  to forces
     atom    1 type  1   force =     0.00000000    0.00000000   -0.10165596
     atom    2 type  1   force =     0.00000000   -0.00000000    0.10165596
     The ionic contribution  to forces
     atom    1 type  1   force =    -0.00000000    0.00000000  -41.52793710
     atom    2 type  1   force =     0.00000000    0.00000000   41.52793710
     The local contribution  to forces
     atom    1 type  1   force =    -0.00000000   -0.00000000   41.63626882
     atom    2 type  1   force =     0.00000000    0.00000000  -41.63626882
     The core correction contribution to forces
     atom    1 type  1   force =    -0.00000000   -0.00000000    0.01548278
     atom    2 type  1   force =     0.00000000    0.00000000   -0.01548278
     The Hubbard contrib.    to forces
     atom    1 type  1   force =     0.00000000    0.00000000    0.00000000
     atom    2 type  1   force =     0.00000000    0.00000000    0.00000000
     The SCF correction term to forces
     atom    1 type  1   force =    -0.00000000    0.00000000    0.00201738
     atom    2 type  1   force =    -0.00000000   -0.00000000   -0.00201738

     Total force =     0.034190     Total SCF correction =     0.002853


     Computing stress (Cartesian axis) and pressure


     negative rho (up, down):  2.099E-04 0.000E+00
          total   stress  (Ry/bohr**3)                   (kbar)     P=      -34.43
  -0.00027451  -0.00000000   0.00000000          -40.38       -0.00        0.00
  -0.00000000  -0.00027451   0.00000000           -0.00      -40.38        0.00
   0.00000000   0.00000000  -0.00015312            0.00        0.00      -22.52


     Writing all to output data dir ./tmp/scf.save/
 
     init_run     :      0.38s CPU      0.52s WALL (       1 calls)
     electrons    :      2.40s CPU      2.77s WALL (       1 calls)
     forces       :      0.05s CPU      0.06s WALL (       1 calls)
     stress       :      0.31s CPU      0.32s WALL (       1 calls)

     Called by init_run:
     wfcinit      :      0.03s CPU      0.04s WALL (       1 calls)
     potinit      :      0.18s CPU      0.23s WALL (       1 calls)
     hinit0       :      0.13s CPU      0.20s WALL (       1 calls)

     Called by electrons:
     c_bands      :      0.94s CPU      1.16s WALL (       9 calls)
     sum_band     :      0.31s CPU      0.40s WALL (       9 calls)
     v_of_rho     :      0.05s CPU      0.07s WALL (      10 calls)
     newd         :      0.22s CPU      0.24s WALL (      10 calls)
     PAW_pot      :      1.04s CPU      1.10s WALL (      10 calls)
     mix_rho      :      0.02s CPU      0.02s WALL (       9 calls)

     Called by c_bands:
     init_us_2    :      0.01s CPU      0.02s WALL (     147 calls)
     init_us_2:cp :      0.01s CPU      0.02s WALL (     147 calls)
     cegterg      :      0.78s CPU      1.00s WALL (      63 calls)

     Called by *egterg:
     cdiaghg      :      0.06s CPU      0.07s WALL (     300 calls)
     h_psi        :      0.62s CPU      0.81s WALL (     307 calls)
     s_psi        :      0.00s CPU      0.01s WALL (     307 calls)
     g_psi        :      0.00s CPU      0.00s WALL (     237 calls)

     Called by h_psi:
     h_psi:calbec :      0.05s CPU      0.06s WALL (     307 calls)
     vloc_psi     :      0.56s CPU      0.74s WALL (     307 calls)
     add_vuspsi   :      0.01s CPU      0.01s WALL (     307 calls)

     General routines
     calbec       :      0.10s CPU      0.12s WALL (     405 calls)
     fft          :      0.12s CPU      0.22s WALL (     135 calls)
     ffts         :      0.00s CPU      0.00s WALL (       9 calls)
     fftw         :      0.64s CPU      0.84s WALL (    5517 calls)
 
     Parallel routines
 
     PWSCF        :      3.56s CPU      4.15s WALL

 
   This run was terminated on:  16:29:12   5Jun2025            

=------------------------------------------------------------------------------=
   JOB DONE.
=------------------------------------------------------------------------------=
