
     Program PWSCF v.7.2 starts on  5Jun2025 at 16:29:23 

     This program is part of the open-source Quantum ESPRESSO suite
     for quantum simulation of materials; please cite
         "P. Giannozzi et al., J. Phys.:Condens. Matter 21 395502 (2009);
         "P. Giannozzi et al., J. Phys.:Condens. Matter 29 465901 (2017);
         "P. Giannozzi et al., J. Chem. Phys. 152 154105 (2020);
          URL http://www.quantum-espresso.org", 
     in publications or presentations arising from this work. More details at
     http://www.quantum-espresso.org/quote

     Parallel version (MPI), running on    16 processors

     MPI processes distributed on     1 nodes
     9579 MiB available memory on the printing compute node when the environment starts
 
     Waiting for input...
     Reading input from standard input

     Current dimensions of program PWSCF are:
     Max number of different atomic species (ntypx) = 10
     Max number of k-points (npk) =  40000
     Max angular momentum in pseudopotentials (lmaxx) =  4
     file Co.pbe-n-kjpaw_psl.1.0.0.UPF: wavefunction(s)  4S 3D renormalized
     Message from routine setup:
     using ibrav=0 with symmetry is DISCOURAGED, use correct ibrav instead
 
     R & G space division:  proc/nbgrp/npool/nimage =      16
     Subspace diagonalization in iterative solution of the eigenvalue problem:
     a serial algorithm will be used

 
     Parallelization info
     --------------------
     sticks:   dense  smooth     PW     G-vecs:    dense   smooth      PW
     Min          23      23      7                 2613     2613     463
     Max          24      24      8                 2640     2640     490
     Sum         379     379    121                42075    42075    7629
 
     Using Slab Decomposition
 


     bravais-lattice index     =            0
     lattice parameter (alat)  =       4.6298  a.u.
     unit-cell volume          =     596.1396 (a.u.)^3
     number of atoms/cell      =            2
     number of atomic types    =            1
     number of electrons       =        18.00
     number of Kohn-Sham states=           13
     kinetic-energy cutoff     =      65.0000  Ry
     charge density cutoff     =     260.0000  Ry
     scf convergence threshold =      1.0E-06
     mixing beta               =       0.7000
     number of iterations used =            8  plain     mixing
     Exchange-correlation= SLA  PW   PBX  PBC
                           (   1   4   3   4   0   0   0)

     celldm(1)=   4.629829  celldm(2)=   0.000000  celldm(3)=   0.000000
     celldm(4)=   0.000000  celldm(5)=   0.000000  celldm(6)=   0.000000

     crystal axes: (cart. coord. in units of alat)
               a(1) = (   1.000000   0.000000   0.000000 )  
               a(2) = (   0.500000   0.866025   0.000000 )  
               a(3) = (   0.000000   0.000000   6.936214 )  

     reciprocal axes: (cart. coord. in units 2 pi/alat)
               b(1) = (  1.000000 -0.577350  0.000000 )  
               b(2) = (  0.000000  1.154701  0.000000 )  
               b(3) = (  0.000000  0.000000  0.144171 )  


     PseudoPot. # 1 for Co read from file:
     /shared/ESPRESSO/PSLIBRARY/1.0.0/pbe/PSEUDOPOTENTIALS/Co.pbe-n-kjpaw_psl.1.0.0.UPF
     MD5 check sum: 17e7ab8db721b244d1352252ea6cb8e7
     Pseudo is Projector augmented-wave + core cor, Zval =  9.0
     Generated using "atomic" code by A. Dal Corso  (Quantum ESPRESSO distribution)
     Shape of augmentation charge: PSQ
     Using radial grid of 1193 points,  6 beta functions with: 
                l(1) =   0
                l(2) =   0
                l(3) =   1
                l(4) =   1
                l(5) =   2
                l(6) =   2
     Q(r) pseudized with 0 coefficients 


     atomic species   valence    mass     pseudopotential
        Co             9.00    58.93320     Co( 1.00)

     12 Sym. Ops., with inversion, found ( 6 have fractional translation)



   Cartesian axes

     site n.     atom                  positions (alat units)
         1           Co  tau(   1) = (   1.0000000   0.5773503   3.0612245  )
         2           Co  tau(   2) = (   0.0000000   0.0000000   3.8749895  )

     number of k points=    10  Fermi-Dirac smearing, width (Ry)=  0.0070
                       cart. coord. in units 2pi/alat
        k(    1) = (   0.0000000   0.0000000   0.0000000), wk =   0.0312500
        k(    2) = (   0.0000000   0.1443376   0.0000000), wk =   0.1875000
        k(    3) = (   0.0000000   0.2886751   0.0000000), wk =   0.1875000
        k(    4) = (   0.0000000   0.4330127   0.0000000), wk =   0.1875000
        k(    5) = (   0.0000000  -0.5773503   0.0000000), wk =   0.0937500
        k(    6) = (   0.1250000   0.2165064   0.0000000), wk =   0.1875000
        k(    7) = (   0.1250000   0.3608439   0.0000000), wk =   0.3750000
        k(    8) = (   0.1250000  -0.6495191   0.0000000), wk =   0.3750000
        k(    9) = (   0.2500000  -0.7216878   0.0000000), wk =   0.1875000
        k(   10) = (   0.2500000  -0.5773503   0.0000000), wk =   0.1875000

     Dense  grid:    42075 G-vectors     FFT dimensions: (  24,  24, 180)

     Estimated max dynamical RAM per process >      11.86 MB

     Estimated total dynamical RAM >     189.69 MB

     Check: negative core charge=   -0.000001

     Initial potential from superposition of free atoms

     starting charge      17.9994, renormalised to      18.0000

     negative rho (up, down):  1.602E-04 0.000E+00
     Starting wfcs are   18 randomized atomic wfcs
     Checking if some PAW data can be deallocated... 

     total cpu time spent up to now is        0.8 secs

     Self-consistent Calculation

     iteration #  1     ecut=    65.00 Ry     beta= 0.70
     Davidson diagonalization with overlap
     ethr =  1.00E-02,  avg # of iterations =  2.2

     negative rho (up, down):  1.209E-04 0.000E+00

     total cpu time spent up to now is        1.2 secs

     total energy              =    -323.78931308 Ry
     estimated scf accuracy    <       0.29323893 Ry

     iteration #  2     ecut=    65.00 Ry     beta= 0.70
     Davidson diagonalization with overlap
     ethr =  1.63E-03,  avg # of iterations =  4.9

     negative rho (up, down):  8.383E-07 0.000E+00

     total cpu time spent up to now is        1.9 secs

     total energy              =    -323.52253329 Ry
     estimated scf accuracy    <       3.08595986 Ry

     iteration #  3     ecut=    65.00 Ry     beta= 0.70
     Davidson diagonalization with overlap
     ethr =  1.63E-03,  avg # of iterations =  3.3

     negative rho (up, down):  2.419E-06 0.000E+00

     total cpu time spent up to now is        2.3 secs

     total energy              =    -323.97458547 Ry
     estimated scf accuracy    <       0.02226581 Ry

     iteration #  4     ecut=    65.00 Ry     beta= 0.70
     Davidson diagonalization with overlap
     ethr =  1.24E-04,  avg # of iterations =  4.5

     negative rho (up, down):  1.559E-05 0.000E+00

     total cpu time spent up to now is        2.6 secs

     total energy              =    -323.97572880 Ry
     estimated scf accuracy    <       0.00700230 Ry

     iteration #  5     ecut=    65.00 Ry     beta= 0.70
     Davidson diagonalization with overlap
     ethr =  3.89E-05,  avg # of iterations =  2.0

     negative rho (up, down):  3.168E-05 0.000E+00

     total cpu time spent up to now is        2.8 secs

     total energy              =    -323.97617556 Ry
     estimated scf accuracy    <       0.00148521 Ry

     iteration #  6     ecut=    65.00 Ry     beta= 0.70
     Davidson diagonalization with overlap
     ethr =  8.25E-06,  avg # of iterations =  2.9

     negative rho (up, down):  7.259E-05 0.000E+00

     total cpu time spent up to now is        3.1 secs

     total energy              =    -323.97644054 Ry
     estimated scf accuracy    <       0.00023655 Ry

     iteration #  7     ecut=    65.00 Ry     beta= 0.70
     Davidson diagonalization with overlap
     ethr =  1.31E-06,  avg # of iterations =  3.9

     negative rho (up, down):  2.597E-04 0.000E+00

     total cpu time spent up to now is        3.4 secs

     total energy              =    -323.97645581 Ry
     estimated scf accuracy    <       0.00003127 Ry

     iteration #  8     ecut=    65.00 Ry     beta= 0.70
     Davidson diagonalization with overlap
     ethr =  1.74E-07,  avg # of iterations =  3.8

     negative rho (up, down):  2.183E-04 0.000E+00

     total cpu time spent up to now is        3.7 secs

     total energy              =    -323.97648003 Ry
     estimated scf accuracy    <       0.00000210 Ry

     iteration #  9     ecut=    65.00 Ry     beta= 0.70
     Davidson diagonalization with overlap
     ethr =  1.17E-08,  avg # of iterations =  2.6

     negative rho (up, down):  2.063E-04 0.000E+00

     total cpu time spent up to now is        3.9 secs

     End of self-consistent calculation

          k = 0.0000 0.0000 0.0000 (  5189 PWs)   bands (ev):

    -7.9798  -5.3546  -2.2319  -2.0037  -2.0037  -1.8766  -1.8766  -1.5927
    -0.7018  -0.7018  -0.1378  -0.1378   0.0251

          k = 0.0000 0.1443 0.0000 (  5235 PWs)   bands (ev):

    -7.4379  -4.8656  -2.3025  -2.2694  -2.0866  -1.7452  -1.6434  -1.6194
    -1.1230  -0.7849  -0.3796  -0.1300   1.5470

          k = 0.0000 0.2887 0.0000 (  5276 PWs)   bands (ev):

    -6.0409  -3.9187  -2.9579  -2.3894  -2.1577  -1.8776  -1.3478  -1.1400
    -1.0238  -0.7046  -0.1361   0.4708   3.6086

          k = 0.0000 0.4330 0.0000 (  5284 PWs)   bands (ev):

    -4.8003  -3.9965  -3.5328  -2.3482  -1.4415  -1.4361  -1.2355  -0.3680
    -0.3532  -0.0937  -0.0732   1.9711   6.2131

          k = 0.0000-0.5774 0.0000 (  5272 PWs)   bands (ev):

    -4.3994  -4.2949  -3.7496  -2.4581  -1.5059  -1.0714  -0.7057  -0.2774
     0.1493   0.2325   1.3613   2.8575   7.1348

          k = 0.1250 0.2165 0.0000 (  5236 PWs)   bands (ev):

    -6.4480  -4.0389  -2.6614  -2.6075  -2.3337  -1.8311  -1.4141  -1.1870
    -1.1597  -0.6520  -0.3175   0.2871   3.0170

          k = 0.1250 0.3608 0.0000 (  5283 PWs)   bands (ev):

    -5.0101  -3.5166  -3.2063  -2.3803  -2.3314  -2.0151  -1.4305  -0.8960
    -0.5099  -0.2256   0.1229   1.6064   5.2806

          k = 0.1250-0.6495 0.0000 (  5298 PWs)   bands (ev):

    -4.2737  -3.8999  -3.5609  -2.3510  -1.7520  -1.4501  -1.2781  -0.4502
    -0.3996  -0.0262   1.8066   3.6288   7.4040

          k = 0.2500-0.7217 0.0000 (  5302 PWs)   bands (ev):

    -4.0563  -3.3059  -3.2287  -2.3325  -2.2727  -2.0755  -1.7697  -0.6914
    -0.6022  -0.0370   2.0372   4.0393   7.8239

          k = 0.2500-0.5774 0.0000 (  5306 PWs)   bands (ev):

    -3.7407  -3.3923  -3.2496  -2.2132  -2.1648  -1.9502  -1.8665  -0.7333
    -0.3558  -0.2384   4.5972   5.3930   8.1740

     the Fermi energy is    -0.3822 ev

!    total energy              =    -323.97648042 Ry
     total all-electron energy =     -5573.663833 Ry
     estimated scf accuracy    <       0.00000026 Ry
     smearing contrib. (-TS)   =      -0.01480979 Ry
     internal energy E=F+TS    =    -323.96167063 Ry

     The total energy is F=E-TS. E is the sum of the following terms:
     one-electron contribution =    -719.10736203 Ry
     hartree contribution      =     376.41000474 Ry
     xc contribution           =     -65.06226903 Ry
     ewald contribution        =     256.88906237 Ry
     one-center paw contrib.   =    -173.09110668 Ry

     convergence has been achieved in   9 iterations

     negative rho (up, down):  2.063E-04 0.000E+00

     Forces acting on atoms (cartesian axes, Ry/au):

     atom    1 type  1   force =     0.00000000    0.00000000    0.02228779
     atom    2 type  1   force =     0.00000000    0.00000000   -0.02228779
     The non-local contrib.  to forces
     atom    1 type  1   force =     0.00000000   -0.00000000   -0.09412265
     atom    2 type  1   force =     0.00000000   -0.00000000    0.09412265
     The ionic contribution  to forces
     atom    1 type  1   force =    -0.00000000    0.00000000  -41.52793710
     atom    2 type  1   force =     0.00000000    0.00000000   41.52793710
     The local contribution  to forces
     atom    1 type  1   force =    -0.00000000   -0.00000000   41.62781275
     atom    2 type  1   force =     0.00000000    0.00000000  -41.62781275
     The core correction contribution to forces
     atom    1 type  1   force =    -0.00000000   -0.00000000    0.01507594
     atom    2 type  1   force =     0.00000000    0.00000000   -0.01507594
     The Hubbard contrib.    to forces
     atom    1 type  1   force =     0.00000000    0.00000000    0.00000000
     atom    2 type  1   force =     0.00000000    0.00000000    0.00000000
     The SCF correction term to forces
     atom    1 type  1   force =     0.00000000   -0.00000000    0.00145886
     atom    2 type  1   force =    -0.00000000   -0.00000000   -0.00145886

     Total force =     0.031520     Total SCF correction =     0.002063


     Computing stress (Cartesian axis) and pressure


     negative rho (up, down):  2.063E-04 0.000E+00
          total   stress  (Ry/bohr**3)                   (kbar)     P=      -36.72
  -0.00029877   0.00000000   0.00000000          -43.95        0.00        0.00
   0.00000000  -0.00029877   0.00000000            0.00      -43.95        0.00
  -0.00000000  -0.00000000  -0.00015131           -0.00       -0.00      -22.26


     Writing all to output data dir ./tmp/scf.save/
 
     init_run     :      0.22s CPU      0.31s WALL (       1 calls)
     electrons    :      2.59s CPU      3.17s WALL (       1 calls)
     forces       :      0.07s CPU      0.07s WALL (       1 calls)
     stress       :      0.26s CPU      0.27s WALL (       1 calls)

     Called by init_run:
     wfcinit      :      0.05s CPU      0.05s WALL (       1 calls)
     potinit      :      0.10s CPU      0.11s WALL (       1 calls)
     hinit0       :      0.06s CPU      0.12s WALL (       1 calls)

     Called by electrons:
     c_bands      :      1.11s CPU      1.40s WALL (       9 calls)
     sum_band     :      0.30s CPU      0.33s WALL (       9 calls)
     v_of_rho     :      0.03s CPU      0.04s WALL (      10 calls)
     newd         :      0.19s CPU      0.21s WALL (      10 calls)
     PAW_pot      :      1.03s CPU      1.28s WALL (      10 calls)
     mix_rho      :      0.01s CPU      0.01s WALL (       9 calls)

     Called by c_bands:
     init_us_2    :      0.02s CPU      0.02s WALL (     210 calls)
     init_us_2:cp :      0.02s CPU      0.02s WALL (     210 calls)
     cegterg      :      0.92s CPU      1.19s WALL (      90 calls)

     Called by *egterg:
     cdiaghg      :      0.07s CPU      0.08s WALL (     391 calls)
     h_psi        :      0.74s CPU      0.98s WALL (     401 calls)
     s_psi        :      0.01s CPU      0.01s WALL (     401 calls)
     g_psi        :      0.00s CPU      0.00s WALL (     301 calls)

     Called by h_psi:
     h_psi:calbec :      0.05s CPU      0.07s WALL (     401 calls)
     vloc_psi     :      0.68s CPU      0.90s WALL (     401 calls)
     add_vuspsi   :      0.01s CPU      0.01s WALL (     401 calls)

     General routines
     calbec       :      0.11s CPU      0.13s WALL (     541 calls)
     fft          :      0.04s CPU      0.12s WALL (     135 calls)
     ffts         :      0.00s CPU      0.00s WALL (       9 calls)
     fftw         :      0.73s CPU      0.96s WALL (    7700 calls)
 
     Parallel routines
 
     PWSCF        :      3.53s CPU      4.34s WALL

 
   This run was terminated on:  16:29:27   5Jun2025            

=------------------------------------------------------------------------------=
   JOB DONE.
=------------------------------------------------------------------------------=
