
     Program PWSCF v.7.2 starts on  5Jun2025 at 16:30:30 

     This program is part of the open-source Quantum ESPRESSO suite
     for quantum simulation of materials; please cite
         "P. Giannozzi et al., J. Phys.:Condens. Matter 21 395502 (2009);
         "P. Giannozzi et al., J. Phys.:Condens. Matter 29 465901 (2017);
         "P. Giannozzi et al., J. Chem. Phys. 152 154105 (2020);
          URL http://www.quantum-espresso.org", 
     in publications or presentations arising from this work. More details at
     http://www.quantum-espresso.org/quote

     Parallel version (MPI), running on    16 processors

     MPI processes distributed on     1 nodes
     19297 MiB available memory on the printing compute node when the environment starts
 
     Waiting for input...
     Reading input from standard input

     Current dimensions of program PWSCF are:
     Max number of different atomic species (ntypx) = 10
     Max number of k-points (npk) =  40000
     Max angular momentum in pseudopotentials (lmaxx) =  4
     file Co.pbe-n-kjpaw_psl.1.0.0.UPF: wavefunction(s)  4S 3D renormalized
     Message from routine setup:
     using ibrav=0 with symmetry is DISCOURAGED, use correct ibrav instead
 
     R & G space division:  proc/nbgrp/npool/nimage =      16
     Subspace diagonalization in iterative solution of the eigenvalue problem:
     a serial algorithm will be used

 
     Parallelization info
     --------------------
     sticks:   dense  smooth     PW     G-vecs:    dense   smooth      PW
     Min          23      23      7                 2613     2613     461
     Max          24      24      8                 2640     2640     486
     Sum         379     379    121                42075    42075    7581
 
     Using Slab Decomposition
 


     bravais-lattice index     =            0
     lattice parameter (alat)  =       4.6298  a.u.
     unit-cell volume          =     596.1396 (a.u.)^3
     number of atoms/cell      =            2
     number of atomic types    =            1
     number of electrons       =        18.00
     number of Kohn-Sham states=           13
     kinetic-energy cutoff     =      65.0000  Ry
     charge density cutoff     =     260.0000  Ry
     scf convergence threshold =      1.0E-06
     mixing beta               =       0.7000
     number of iterations used =            8  plain     mixing
     Exchange-correlation= SLA  PW   PBX  PBC
                           (   1   4   3   4   0   0   0)

     celldm(1)=   4.629829  celldm(2)=   0.000000  celldm(3)=   0.000000
     celldm(4)=   0.000000  celldm(5)=   0.000000  celldm(6)=   0.000000

     crystal axes: (cart. coord. in units of alat)
               a(1) = (   1.000000   0.000000   0.000000 )  
               a(2) = (   0.500000   0.866025   0.000000 )  
               a(3) = (   0.000000   0.000000   6.936214 )  

     reciprocal axes: (cart. coord. in units 2 pi/alat)
               b(1) = (  1.000000 -0.577350  0.000000 )  
               b(2) = (  0.000000  1.154701  0.000000 )  
               b(3) = (  0.000000  0.000000  0.144171 )  


     PseudoPot. # 1 for Co read from file:
     /shared/ESPRESSO/PSLIBRARY/1.0.0/pbe/PSEUDOPOTENTIALS/Co.pbe-n-kjpaw_psl.1.0.0.UPF
     MD5 check sum: 17e7ab8db721b244d1352252ea6cb8e7
     Pseudo is Projector augmented-wave + core cor, Zval =  9.0
     Generated using "atomic" code by A. Dal Corso  (Quantum ESPRESSO distribution)
     Shape of augmentation charge: PSQ
     Using radial grid of 1193 points,  6 beta functions with: 
                l(1) =   0
                l(2) =   0
                l(3) =   1
                l(4) =   1
                l(5) =   2
                l(6) =   2
     Q(r) pseudized with 0 coefficients 


     atomic species   valence    mass     pseudopotential
        Co             9.00    58.93320     Co( 1.00)

     12 Sym. Ops., with inversion, found ( 6 have fractional translation)



   Cartesian axes

     site n.     atom                  positions (alat units)
         1           Co  tau(   1) = (   1.0000000   0.5773503   3.0612245  )
         2           Co  tau(   2) = (   0.0000000   0.0000000   3.8749895  )

     number of k points=    27  Fermi-Dirac smearing, width (Ry)=  0.0070
                       cart. coord. in units 2pi/alat
        k(    1) = (   0.0000000   0.0000000   0.0000000), wk =   0.0088889
        k(    2) = (   0.0000000   0.0769800   0.0000000), wk =   0.0533333
        k(    3) = (   0.0000000   0.1539601   0.0000000), wk =   0.0533333
        k(    4) = (   0.0000000   0.2309401   0.0000000), wk =   0.0533333
        k(    5) = (   0.0000000   0.3079201   0.0000000), wk =   0.0533333
        k(    6) = (   0.0000000   0.3849002   0.0000000), wk =   0.0533333
        k(    7) = (   0.0000000   0.4618802   0.0000000), wk =   0.0533333
        k(    8) = (   0.0000000   0.5388603   0.0000000), wk =   0.0533333
        k(    9) = (   0.0666667   0.1154701   0.0000000), wk =   0.0533333
        k(   10) = (   0.0666667   0.1924501   0.0000000), wk =   0.1066667
        k(   11) = (   0.0666667   0.2694301   0.0000000), wk =   0.1066667
        k(   12) = (   0.0666667   0.3464102   0.0000000), wk =   0.1066667
        k(   13) = (   0.0666667   0.4233902   0.0000000), wk =   0.1066667
        k(   14) = (   0.0666667   0.5003702   0.0000000), wk =   0.1066667
        k(   15) = (   0.0666667  -0.5773503   0.0000000), wk =   0.0533333
        k(   16) = (   0.1333333   0.2309401   0.0000000), wk =   0.0533333
        k(   17) = (   0.1333333   0.3079201   0.0000000), wk =   0.1066667
        k(   18) = (   0.1333333   0.3849002   0.0000000), wk =   0.1066667
        k(   19) = (   0.1333333   0.4618802   0.0000000), wk =   0.1066667
        k(   20) = (   0.1333333  -0.6158403   0.0000000), wk =   0.1066667
        k(   21) = (   0.2000000   0.3464102   0.0000000), wk =   0.0533333
        k(   22) = (   0.2000000   0.4233902   0.0000000), wk =   0.1066667
        k(   23) = (   0.2000000  -0.6543303   0.0000000), wk =   0.1066667
        k(   24) = (   0.2000000  -0.5773503   0.0000000), wk =   0.0533333
        k(   25) = (   0.2666667  -0.6928203   0.0000000), wk =   0.0533333
        k(   26) = (   0.2666667  -0.6158403   0.0000000), wk =   0.1066667
        k(   27) = (   0.3333333  -0.5773503   0.0000000), wk =   0.0177778

     Dense  grid:    42075 G-vectors     FFT dimensions: (  24,  24, 180)

     Estimated max dynamical RAM per process >      12.96 MB

     Estimated total dynamical RAM >     207.44 MB

     Check: negative core charge=   -0.000001

     Initial potential from superposition of free atoms

     starting charge      17.9994, renormalised to      18.0000

     negative rho (up, down):  1.602E-04 0.000E+00
     Starting wfcs are   18 randomized atomic wfcs
     Checking if some PAW data can be deallocated... 

     total cpu time spent up to now is        0.9 secs

     Self-consistent Calculation

     iteration #  1     ecut=    65.00 Ry     beta= 0.70
     Davidson diagonalization with overlap
     ethr =  1.00E-02,  avg # of iterations =  2.3

     negative rho (up, down):  1.283E-04 0.000E+00

     total cpu time spent up to now is        1.5 secs

     total energy              =    -323.78585320 Ry
     estimated scf accuracy    <       0.29900515 Ry

     iteration #  2     ecut=    65.00 Ry     beta= 0.70
     Davidson diagonalization with overlap
     ethr =  1.66E-03,  avg # of iterations =  5.3

     total cpu time spent up to now is        2.3 secs

     total energy              =    -323.49625834 Ry
     estimated scf accuracy    <       3.30510619 Ry

     iteration #  3     ecut=    65.00 Ry     beta= 0.70
     Davidson diagonalization with overlap
     ethr =  1.66E-03,  avg # of iterations =  3.4

     total cpu time spent up to now is        3.0 secs

     total energy              =    -323.97600180 Ry
     estimated scf accuracy    <       0.02111621 Ry

     iteration #  4     ecut=    65.00 Ry     beta= 0.70
     Davidson diagonalization with overlap
     ethr =  1.17E-04,  avg # of iterations =  4.2

     total cpu time spent up to now is        3.7 secs

     total energy              =    -323.97699081 Ry
     estimated scf accuracy    <       0.00754352 Ry

     iteration #  5     ecut=    65.00 Ry     beta= 0.70
     Davidson diagonalization with overlap
     ethr =  4.19E-05,  avg # of iterations =  2.7

     total cpu time spent up to now is        4.3 secs

     total energy              =    -323.97732334 Ry
     estimated scf accuracy    <       0.00166746 Ry

     iteration #  6     ecut=    65.00 Ry     beta= 0.70
     Davidson diagonalization with overlap
     ethr =  9.26E-06,  avg # of iterations =  3.1

     negative rho (up, down):  4.569E-06 0.000E+00

     total cpu time spent up to now is        5.0 secs

     total energy              =    -323.97753736 Ry
     estimated scf accuracy    <       0.00028585 Ry

     iteration #  7     ecut=    65.00 Ry     beta= 0.70
     Davidson diagonalization with overlap
     ethr =  1.59E-06,  avg # of iterations =  4.6

     negative rho (up, down):  2.713E-04 0.000E+00

     total cpu time spent up to now is        5.6 secs

     total energy              =    -323.97757042 Ry
     estimated scf accuracy    <       0.00005269 Ry

     iteration #  8     ecut=    65.00 Ry     beta= 0.70
     Davidson diagonalization with overlap
     ethr =  2.93E-07,  avg # of iterations =  2.9

     negative rho (up, down):  2.187E-04 0.000E+00

     total cpu time spent up to now is        6.3 secs

     total energy              =    -323.97758607 Ry
     estimated scf accuracy    <       0.00000235 Ry

     iteration #  9     ecut=    65.00 Ry     beta= 0.70
     Davidson diagonalization with overlap
     ethr =  1.30E-08,  avg # of iterations =  3.1

     negative rho (up, down):  2.049E-04 0.000E+00

     total cpu time spent up to now is        7.0 secs

     End of self-consistent calculation

          k = 0.0000 0.0000 0.0000 (  5189 PWs)   bands (ev):

    -7.9919  -5.3667  -2.2436  -2.0108  -2.0108  -1.8836  -1.8836  -1.6039
    -0.7131  -0.7131  -0.1490  -0.1490   0.0142

          k = 0.0000 0.0770 0.0000 (  5223 PWs)   bands (ev):

    -7.8347  -5.2221  -2.2431  -2.0737  -2.0053  -1.9344  -1.8146  -1.5844
    -0.7614  -0.7411  -0.5904  -0.1456   0.7365

          k = 0.0000 0.1540 0.0000 (  5237 PWs)   bands (ev):

    -7.3778  -4.8148  -2.3379  -2.3092  -2.1024  -1.7194  -1.6430  -1.6205
    -1.1703  -0.8039  -0.3501  -0.1410   1.6586

          k = 0.0000 0.2309 0.0000 (  5248 PWs)   bands (ev):

    -6.6735  -4.2589  -2.6861  -2.4488  -2.1524  -1.7949  -1.4523  -1.3225
    -1.2613  -0.8244  -0.1426   0.0581   2.7118

          k = 0.0000 0.3079 0.0000 (  5272 PWs)   bands (ev):

    -5.8447  -3.8729  -3.0585  -2.3350  -2.1593  -1.8907  -1.3540  -1.0917
    -0.9279  -0.6452  -0.1482   0.6151   3.9143

          k = 0.0000 0.3849 0.0000 (  5272 PWs)   bands (ev):

    -5.1187  -3.8955  -3.3833  -2.2915  -1.7648  -1.6044  -1.4033  -0.7441
    -0.5409  -0.3089  -0.1354   1.3748   5.2800

          k = 0.0000 0.4619 0.0000 (  5270 PWs)   bands (ev):

    -4.6805  -4.0782  -3.6198  -2.3968  -1.4712  -1.3126  -1.0480  -0.3285
    -0.0265  -0.0229   0.0100   2.3176   6.7600

          k = 0.0000 0.5389 0.0000 (  5280 PWs)   bands (ev):

    -4.4589  -4.2556  -3.7443  -2.4609  -1.5121  -1.1072  -0.7512  -0.2912
     0.1217   0.2009   1.0834   2.8632   6.9919

          k = 0.0667 0.1155 0.0000 (  5218 PWs)   bands (ev):

    -7.5273  -4.9445  -2.2940  -2.1975  -2.1464  -1.7787  -1.6767  -1.6087
    -1.1155  -0.7093  -0.5056  -0.1232   1.4001

          k = 0.0667 0.1925 0.0000 (  5235 PWs)   bands (ev):

    -6.9431  -4.4450  -2.5156  -2.4431  -2.2126  -1.7454  -1.4832  -1.4265
    -1.3053  -0.7528  -0.3006   0.0054   2.3265

          k = 0.0667 0.2694 0.0000 (  5257 PWs)   bands (ev):

    -6.1631  -3.9119  -2.8680  -2.5352  -2.2685  -1.8961  -1.3594  -1.1866
    -1.0381  -0.6668  -0.2262   0.4253   3.4289

          k = 0.0667 0.3464 0.0000 (  5261 PWs)   bands (ev):

    -5.3608  -3.7424  -3.2092  -2.2835  -2.1885  -1.9134  -1.3592  -0.9853
    -0.6331  -0.3240  -0.1905   1.1040   4.7042

          k = 0.0667 0.4234 0.0000 (  5266 PWs)   bands (ev):

    -4.7786  -3.8938  -3.4830  -2.3362  -1.6709  -1.5753  -1.3498  -0.6580
    -0.3851  -0.1159   0.2239   2.0457   6.1426

          k = 0.0667 0.5004 0.0000 (  5277 PWs)   bands (ev):

    -4.4741  -4.0900  -3.6591  -2.4130  -1.5831  -1.2556  -1.0016  -0.3562
    -0.2297   0.0394   1.0521   2.9840   7.3012

          k = 0.0667-0.5774 0.0000 (  5286 PWs)   bands (ev):

    -4.3385  -4.2176  -3.7200  -2.4416  -1.6002  -1.1465  -0.8490  -0.3448
    -0.0516   0.0860   1.8022   3.1374   7.1899

          k = 0.1333 0.2309 0.0000 (  5248 PWs)   bands (ev):

    -6.2734  -3.9083  -2.7329  -2.6713  -2.3800  -1.8764  -1.4237  -1.1417
    -1.0623  -0.6152  -0.3310   0.3936   3.2656

          k = 0.1333 0.3079 0.0000 (  5282 PWs)   bands (ev):

    -5.4851  -3.4689  -3.0197  -2.7145  -2.4303  -2.0093  -1.4233  -0.9950
    -0.6693  -0.3228  -0.2325   1.0315   4.4197

          k = 0.1333 0.3849 0.0000 (  5277 PWs)   bands (ev):

    -4.7950  -3.5443  -3.2845  -2.3365  -2.2537  -2.0041  -1.4774  -0.8390
    -0.5010  -0.1702   0.3854   1.9888   5.7711

          k = 0.1333 0.4619 0.0000 (  5297 PWs)   bands (ev):

    -4.3828  -3.7653  -3.4812  -2.3366  -1.8069  -1.7222  -1.4413  -0.5967
    -0.4806  -0.0436   1.2719   3.1712   7.2594

          k = 0.1333-0.6158 0.0000 (  5310 PWs)   bands (ev):

    -4.1841  -3.9414  -3.5867  -2.3606  -1.8029  -1.3951  -1.2738  -0.4813
    -0.2960  -0.0818   2.3884   3.8798   7.2002

          k = 0.2000 0.3464 0.0000 (  5282 PWs)   bands (ev):

    -4.7887  -3.1952  -3.1664  -2.7082  -2.4600  -2.0965  -1.5413  -0.8323
    -0.5872  -0.1794   0.4414   1.9847   5.6487

          k = 0.2000 0.4234 0.0000 (  5301 PWs)   bands (ev):

    -4.2759  -3.3764  -3.2735  -2.3686  -2.2610  -2.0775  -1.6723  -0.6897
    -0.6241  -0.0521   1.3979   3.2699   7.0848

          k = 0.2000-0.6543 0.0000 (  5308 PWs)   bands (ev):

    -4.0046  -3.5591  -3.3726  -2.2833  -2.0246  -1.8882  -1.6772  -0.6487
    -0.4984  -0.0853   2.6549   4.5856   7.7776

          k = 0.2000-0.5774 0.0000 (  5314 PWs)   bands (ev):

    -3.9075  -3.6454  -3.4109  -2.2550  -2.0624  -1.6990  -1.6565  -0.6432
    -0.3158  -0.2193   3.7335   4.7015   7.7582

          k = 0.2667-0.6928 0.0000 (  5290 PWs)   bands (ev):

    -3.9169  -3.3198  -3.2320  -2.2808  -2.2524  -2.0544  -1.8581  -0.7394
    -0.5492  -0.0771   2.7292   4.8161   8.5368

          k = 0.2667-0.6158 0.0000 (  5317 PWs)   bands (ev):

    -3.7355  -3.3294  -3.2201  -2.2631  -2.1614  -2.0305  -1.9299  -0.7680
    -0.4182  -0.2115   4.3144   5.9011   7.6241

          k = 0.3333-0.5774 0.0000 (  5316 PWs)   bands (ev):

    -3.6362  -3.1806  -3.1806  -2.3235  -2.1045  -2.1045  -2.0745  -0.8067
    -0.3348  -0.3348   5.9801   6.3976   6.3976

     the Fermi energy is    -0.4006 ev

!    total energy              =    -323.97758645 Ry
     total all-electron energy =     -5573.664939 Ry
     estimated scf accuracy    <       0.00000029 Ry
     smearing contrib. (-TS)   =      -0.01351341 Ry
     internal energy E=F+TS    =    -323.96407304 Ry

     The total energy is F=E-TS. E is the sum of the following terms:
     one-electron contribution =    -719.09649775 Ry
     hartree contribution      =     376.39677950 Ry
     xc contribution           =     -65.06294311 Ry
     ewald contribution        =     256.88906237 Ry
     one-center paw contrib.   =    -173.09047405 Ry

     convergence has been achieved in   9 iterations

     negative rho (up, down):  2.049E-04 0.000E+00

     Forces acting on atoms (cartesian axes, Ry/au):

     atom    1 type  1   force =     0.00000000    0.00000000    0.02341673
     atom    2 type  1   force =     0.00000000    0.00000000   -0.02341673
     The non-local contrib.  to forces
     atom    1 type  1   force =     0.00000000   -0.00000000   -0.09290902
     atom    2 type  1   force =     0.00000000    0.00000000    0.09290902
     The ionic contribution  to forces
     atom    1 type  1   force =    -0.00000000    0.00000000  -41.52793710
     atom    2 type  1   force =     0.00000000    0.00000000   41.52793710
     The local contribution  to forces
     atom    1 type  1   force =    -0.00000000   -0.00000000   41.62767208
     atom    2 type  1   force =     0.00000000    0.00000000  -41.62767208
     The core correction contribution to forces
     atom    1 type  1   force =    -0.00000000   -0.00000000    0.01482283
     atom    2 type  1   force =     0.00000000    0.00000000   -0.01482283
     The Hubbard contrib.    to forces
     atom    1 type  1   force =     0.00000000    0.00000000    0.00000000
     atom    2 type  1   force =     0.00000000    0.00000000    0.00000000
     The SCF correction term to forces
     atom    1 type  1   force =    -0.00000000    0.00000000    0.00176793
     atom    2 type  1   force =     0.00000000   -0.00000000   -0.00176793

     Total force =     0.033116     Total SCF correction =     0.002500


     Computing stress (Cartesian axis) and pressure


     negative rho (up, down):  2.049E-04 0.000E+00
          total   stress  (Ry/bohr**3)                   (kbar)     P=      -37.47
  -0.00030460   0.00000000   0.00000000          -44.81        0.00        0.00
   0.00000000  -0.00030460   0.00000000            0.00      -44.81        0.00
   0.00000000   0.00000000  -0.00015501            0.00        0.00      -22.80


     Writing all to output data dir ./tmp/scf.save/
 
     init_run     :      0.41s CPU      0.56s WALL (       1 calls)
     electrons    :      5.17s CPU      6.11s WALL (       1 calls)
     forces       :      0.08s CPU      0.09s WALL (       1 calls)
     stress       :      0.43s CPU      0.43s WALL (       1 calls)

     Called by init_run:
     wfcinit      :      0.17s CPU      0.20s WALL (       1 calls)
     potinit      :      0.14s CPU      0.16s WALL (       1 calls)
     hinit0       :      0.09s CPU      0.15s WALL (       1 calls)

     Called by electrons:
     c_bands      :      3.34s CPU      4.02s WALL (       9 calls)
     sum_band     :      0.69s CPU      0.91s WALL (       9 calls)
     v_of_rho     :      0.06s CPU      0.06s WALL (      10 calls)
     newd         :      0.19s CPU      0.20s WALL (      10 calls)
     PAW_pot      :      1.01s CPU      1.05s WALL (      10 calls)
     mix_rho      :      0.01s CPU      0.01s WALL (       9 calls)

     Called by c_bands:
     init_us_2    :      0.05s CPU      0.06s WALL (     567 calls)
     init_us_2:cp :      0.05s CPU      0.06s WALL (     567 calls)
     cegterg      :      2.79s CPU      3.41s WALL (     243 calls)

     Called by *egterg:
     cdiaghg      :      0.22s CPU      0.26s WALL (    1092 calls)
     h_psi        :      2.23s CPU      2.76s WALL (    1119 calls)
     s_psi        :      0.02s CPU      0.02s WALL (    1119 calls)
     g_psi        :      0.00s CPU      0.01s WALL (     849 calls)

     Called by h_psi:
     h_psi:calbec :      0.18s CPU      0.22s WALL (    1119 calls)
     vloc_psi     :      1.99s CPU      2.47s WALL (    1119 calls)
     add_vuspsi   :      0.03s CPU      0.04s WALL (    1119 calls)

     General routines
     calbec       :      0.47s CPU      0.53s WALL (    1497 calls)
     fft          :      0.06s CPU      0.13s WALL (     135 calls)
     ffts         :      0.00s CPU      0.00s WALL (       9 calls)
     fftw         :      2.28s CPU      2.88s WALL (   20779 calls)
 
     Parallel routines
 
     PWSCF        :      6.42s CPU      7.67s WALL

 
   This run was terminated on:  16:30:37   5Jun2025            

=------------------------------------------------------------------------------=
   JOB DONE.
=------------------------------------------------------------------------------=
