
     Program PWSCF v.7.2 starts on  5Jun2025 at 16:29:16 

     This program is part of the open-source Quantum ESPRESSO suite
     for quantum simulation of materials; please cite
         "P. Giannozzi et al., J. Phys.:Condens. Matter 21 395502 (2009);
         "P. Giannozzi et al., J. Phys.:Condens. Matter 29 465901 (2017);
         "P. Giannozzi et al., J. Chem. Phys. 152 154105 (2020);
          URL http://www.quantum-espresso.org", 
     in publications or presentations arising from this work. More details at
     http://www.quantum-espresso.org/quote

     Parallel version (MPI), running on    16 processors

     MPI processes distributed on     1 nodes
     11021 MiB available memory on the printing compute node when the environment starts
 
     Waiting for input...
     Reading input from standard input

     Current dimensions of program PWSCF are:
     Max number of different atomic species (ntypx) = 10
     Max number of k-points (npk) =  40000
     Max angular momentum in pseudopotentials (lmaxx) =  4
     file Co.pbe-n-kjpaw_psl.1.0.0.UPF: wavefunction(s)  4S 3D renormalized
     Message from routine setup:
     using ibrav=0 with symmetry is DISCOURAGED, use correct ibrav instead
 
     R & G space division:  proc/nbgrp/npool/nimage =      16
     Subspace diagonalization in iterative solution of the eigenvalue problem:
     a serial algorithm will be used

 
     Parallelization info
     --------------------
     sticks:   dense  smooth     PW     G-vecs:    dense   smooth      PW
     Min          23      23      7                 2613     2613     459
     Max          24      24      8                 2640     2640     484
     Sum         379     379    121                42075    42075    7569
 
     Using Slab Decomposition
 


     bravais-lattice index     =            0
     lattice parameter (alat)  =       4.6298  a.u.
     unit-cell volume          =     596.1396 (a.u.)^3
     number of atoms/cell      =            2
     number of atomic types    =            1
     number of electrons       =        18.00
     number of Kohn-Sham states=           13
     kinetic-energy cutoff     =      65.0000  Ry
     charge density cutoff     =     260.0000  Ry
     scf convergence threshold =      1.0E-06
     mixing beta               =       0.7000
     number of iterations used =            8  plain     mixing
     Exchange-correlation= SLA  PW   PBX  PBC
                           (   1   4   3   4   0   0   0)

     celldm(1)=   4.629829  celldm(2)=   0.000000  celldm(3)=   0.000000
     celldm(4)=   0.000000  celldm(5)=   0.000000  celldm(6)=   0.000000

     crystal axes: (cart. coord. in units of alat)
               a(1) = (   1.000000   0.000000   0.000000 )  
               a(2) = (   0.500000   0.866025   0.000000 )  
               a(3) = (   0.000000   0.000000   6.936214 )  

     reciprocal axes: (cart. coord. in units 2 pi/alat)
               b(1) = (  1.000000 -0.577350  0.000000 )  
               b(2) = (  0.000000  1.154701  0.000000 )  
               b(3) = (  0.000000  0.000000  0.144171 )  


     PseudoPot. # 1 for Co read from file:
     /shared/ESPRESSO/PSLIBRARY/1.0.0/pbe/PSEUDOPOTENTIALS/Co.pbe-n-kjpaw_psl.1.0.0.UPF
     MD5 check sum: 17e7ab8db721b244d1352252ea6cb8e7
     Pseudo is Projector augmented-wave + core cor, Zval =  9.0
     Generated using "atomic" code by A. Dal Corso  (Quantum ESPRESSO distribution)
     Shape of augmentation charge: PSQ
     Using radial grid of 1193 points,  6 beta functions with: 
                l(1) =   0
                l(2) =   0
                l(3) =   1
                l(4) =   1
                l(5) =   2
                l(6) =   2
     Q(r) pseudized with 0 coefficients 


     atomic species   valence    mass     pseudopotential
        Co             9.00    58.93320     Co( 1.00)

     12 Sym. Ops., with inversion, found ( 6 have fractional translation)



   Cartesian axes

     site n.     atom                  positions (alat units)
         1           Co  tau(   1) = (   1.0000000   0.5773503   3.0612245  )
         2           Co  tau(   2) = (   0.0000000   0.0000000   3.8749895  )

     number of k points=     8  Fermi-Dirac smearing, width (Ry)=  0.0070
                       cart. coord. in units 2pi/alat
        k(    1) = (   0.0000000   0.0000000   0.0000000), wk =   0.0408163
        k(    2) = (   0.0000000   0.1649572   0.0000000), wk =   0.2448980
        k(    3) = (   0.0000000   0.3299144   0.0000000), wk =   0.2448980
        k(    4) = (   0.0000000   0.4948717   0.0000000), wk =   0.2448980
        k(    5) = (   0.1428571   0.2474358   0.0000000), wk =   0.2448980
        k(    6) = (   0.1428571   0.4123930   0.0000000), wk =   0.4897959
        k(    7) = (   0.1428571  -0.5773503   0.0000000), wk =   0.2448980
        k(    8) = (   0.2857143  -0.6598289   0.0000000), wk =   0.2448980

     Dense  grid:    42075 G-vectors     FFT dimensions: (  24,  24, 180)

     Estimated max dynamical RAM per process >      11.72 MB

     Estimated total dynamical RAM >     187.60 MB

     Check: negative core charge=   -0.000001

     Initial potential from superposition of free atoms

     starting charge      17.9994, renormalised to      18.0000

     negative rho (up, down):  1.602E-04 0.000E+00
     Starting wfcs are   18 randomized atomic wfcs
     Checking if some PAW data can be deallocated... 

     total cpu time spent up to now is        0.7 secs

     Self-consistent Calculation

     iteration #  1     ecut=    65.00 Ry     beta= 0.70
     Davidson diagonalization with overlap
     ethr =  1.00E-02,  avg # of iterations =  2.2

     negative rho (up, down):  1.166E-04 0.000E+00

     total cpu time spent up to now is        0.9 secs

     total energy              =    -323.78592960 Ry
     estimated scf accuracy    <       0.30181091 Ry

     iteration #  2     ecut=    65.00 Ry     beta= 0.70
     Davidson diagonalization with overlap
     ethr =  1.68E-03,  avg # of iterations =  6.1

     negative rho (up, down):  1.660E-08 0.000E+00

     total cpu time spent up to now is        1.0 secs

     total energy              =    -323.49190905 Ry
     estimated scf accuracy    <       3.35221196 Ry

     iteration #  3     ecut=    65.00 Ry     beta= 0.70
     Davidson diagonalization with overlap
     ethr =  1.68E-03,  avg # of iterations =  2.9

     negative rho (up, down):  2.613E-07 0.000E+00

     total cpu time spent up to now is        1.2 secs

     total energy              =    -323.97697903 Ry
     estimated scf accuracy    <       0.02190280 Ry

     iteration #  4     ecut=    65.00 Ry     beta= 0.70
     Davidson diagonalization with overlap
     ethr =  1.22E-04,  avg # of iterations =  5.8

     negative rho (up, down):  1.048E-05 0.000E+00

     total cpu time spent up to now is        1.3 secs

     total energy              =    -323.97829802 Ry
     estimated scf accuracy    <       0.00903889 Ry

     iteration #  5     ecut=    65.00 Ry     beta= 0.70
     Davidson diagonalization with overlap
     ethr =  5.02E-05,  avg # of iterations =  1.9

     negative rho (up, down):  2.159E-05 0.000E+00

     total cpu time spent up to now is        1.5 secs

     total energy              =    -323.97893579 Ry
     estimated scf accuracy    <       0.00120910 Ry

     iteration #  6     ecut=    65.00 Ry     beta= 0.70
     Davidson diagonalization with overlap
     ethr =  6.72E-06,  avg # of iterations =  2.9

     negative rho (up, down):  5.718E-05 0.000E+00

     total cpu time spent up to now is        1.6 secs

     total energy              =    -323.97915448 Ry
     estimated scf accuracy    <       0.00030177 Ry

     iteration #  7     ecut=    65.00 Ry     beta= 0.70
     Davidson diagonalization with overlap
     ethr =  1.68E-06,  avg # of iterations =  5.8

     negative rho (up, down):  2.708E-04 0.000E+00

     total cpu time spent up to now is        1.8 secs

     total energy              =    -323.97917228 Ry
     estimated scf accuracy    <       0.00005999 Ry

     iteration #  8     ecut=    65.00 Ry     beta= 0.70
     Davidson diagonalization with overlap
     ethr =  3.33E-07,  avg # of iterations =  3.8

     negative rho (up, down):  2.164E-04 0.000E+00

     total cpu time spent up to now is        1.9 secs

     total energy              =    -323.97918690 Ry
     estimated scf accuracy    <       0.00000250 Ry

     iteration #  9     ecut=    65.00 Ry     beta= 0.70
     Davidson diagonalization with overlap
     ethr =  1.39E-08,  avg # of iterations =  3.1

     negative rho (up, down):  2.073E-04 0.000E+00

     total cpu time spent up to now is        2.1 secs

     End of self-consistent calculation

          k = 0.0000 0.0000 0.0000 (  5189 PWs)   bands (ev):

    -7.9496  -5.3228  -2.1963  -1.9402  -1.9402  -1.8137  -1.8137  -1.5739
    -0.6575  -0.6575  -0.0940  -0.0940   0.0341

          k = 0.0000 0.1650 0.0000 (  5227 PWs)   bands (ev):

    -7.2479  -4.6954  -2.3179  -2.2778  -2.0547  -1.6105  -1.6077  -1.5150
    -1.1618  -0.7547  -0.2563  -0.0855   1.8309

          k = 0.0000 0.3299 0.0000 (  5270 PWs)   bands (ev):

    -5.5694  -3.7887  -3.1034  -2.2181  -2.0612  -1.8048  -1.3053  -0.9615
    -0.7399  -0.4849  -0.0914   0.8457   4.3115

          k = 0.0000 0.4949 0.0000 (  5274 PWs)   bands (ev):

    -4.5127  -4.0984  -3.6349  -2.3788  -1.4401  -1.1494  -0.8323  -0.2474
     0.1239   0.1870   0.4975   2.7018   7.2955

          k = 0.1429 0.2474 0.0000 (  5266 PWs)   bands (ev):

    -6.0111  -3.7004  -2.7389  -2.6724  -2.3671  -1.8582  -1.3725  -1.0326
    -0.8739  -0.4716  -0.2820   0.5872   3.5966

          k = 0.1429 0.4124 0.0000 (  5299 PWs)   bands (ev):

    -4.5251  -3.5190  -3.2922  -2.2758  -2.0528  -1.8999  -1.4626  -0.7076
    -0.4534  -0.0390   0.8132   2.5294   6.3861

          k = 0.1429-0.5774 0.0000 (  5308 PWs)   bands (ev):

    -4.0581  -3.8752  -3.5220  -2.2953  -1.7918  -1.3366  -1.2580  -0.4510
    -0.1332  -0.1220   2.8825   4.0008   7.4707

          k = 0.2857-0.6598 0.0000 (  5294 PWs)   bands (ev):

    -3.7315  -3.2394  -3.1535  -2.2027  -2.1690  -1.9744  -1.8812  -0.7153
    -0.4305  -0.0894   3.6823   5.7502   8.1731

     the Fermi energy is    -0.3453 ev

!    total energy              =    -323.97918705 Ry
     total all-electron energy =     -5573.666540 Ry
     estimated scf accuracy    <       0.00000054 Ry
     smearing contrib. (-TS)   =      -0.01285010 Ry
     internal energy E=F+TS    =    -323.96633695 Ry

     The total energy is F=E-TS. E is the sum of the following terms:
     one-electron contribution =    -719.16265022 Ry
     hartree contribution      =     376.46577114 Ry
     xc contribution           =     -65.06932891 Ry
     ewald contribution        =     256.88906237 Ry
     one-center paw contrib.   =    -173.08919133 Ry

     convergence has been achieved in   9 iterations

     negative rho (up, down):  2.073E-04 0.000E+00

     Forces acting on atoms (cartesian axes, Ry/au):

     atom    1 type  1   force =     0.00000000    0.00000000    0.02362003
     atom    2 type  1   force =     0.00000000    0.00000000   -0.02362003
     The non-local contrib.  to forces
     atom    1 type  1   force =     0.00000000    0.00000000   -0.09259064
     atom    2 type  1   force =     0.00000000    0.00000000    0.09259064
     The ionic contribution  to forces
     atom    1 type  1   force =    -0.00000000    0.00000000  -41.52793710
     atom    2 type  1   force =     0.00000000    0.00000000   41.52793710
     The local contribution  to forces
     atom    1 type  1   force =    -0.00000000   -0.00000000   41.62702397
     atom    2 type  1   force =     0.00000000    0.00000000  -41.62702397
     The core correction contribution to forces
     atom    1 type  1   force =    -0.00000000   -0.00000000    0.01453963
     atom    2 type  1   force =     0.00000000    0.00000000   -0.01453963
     The Hubbard contrib.    to forces
     atom    1 type  1   force =     0.00000000    0.00000000    0.00000000
     atom    2 type  1   force =     0.00000000    0.00000000    0.00000000
     The SCF correction term to forces
     atom    1 type  1   force =     0.00000000   -0.00000000    0.00258416
     atom    2 type  1   force =    -0.00000000    0.00000000   -0.00258416

     Total force =     0.033404     Total SCF correction =     0.003655
     SCF correction compared to forces is large: reduce conv_thr to get better values


     Computing stress (Cartesian axis) and pressure


     negative rho (up, down):  2.073E-04 0.000E+00
          total   stress  (Ry/bohr**3)                   (kbar)     P=      -38.13
  -0.00031063  -0.00000000   0.00000000          -45.70       -0.00        0.00
  -0.00000000  -0.00031063   0.00000000           -0.00      -45.70        0.00
   0.00000000   0.00000000  -0.00015626            0.00        0.00      -22.99


     Writing all to output data dir ./tmp/scf.save/
 
     init_run     :      0.14s CPU      0.24s WALL (       1 calls)
     electrons    :      1.29s CPU      1.39s WALL (       1 calls)
     forces       :      0.05s CPU      0.05s WALL (       1 calls)
     stress       :      0.15s CPU      0.15s WALL (       1 calls)

     Called by init_run:
     wfcinit      :      0.02s CPU      0.02s WALL (       1 calls)
     potinit      :      0.06s CPU      0.08s WALL (       1 calls)
     hinit0       :      0.05s CPU      0.11s WALL (       1 calls)

     Called by electrons:
     c_bands      :      0.51s CPU      0.57s WALL (       9 calls)
     sum_band     :      0.16s CPU      0.19s WALL (       9 calls)
     v_of_rho     :      0.02s CPU      0.03s WALL (      10 calls)
     newd         :      0.09s CPU      0.10s WALL (      10 calls)
     PAW_pot      :      0.56s CPU      0.57s WALL (      10 calls)
     mix_rho      :      0.00s CPU      0.01s WALL (       9 calls)

     Called by c_bands:
     init_us_2    :      0.01s CPU      0.01s WALL (     168 calls)
     init_us_2:cp :      0.01s CPU      0.01s WALL (     168 calls)
     cegterg      :      0.42s CPU      0.47s WALL (      72 calls)

     Called by *egterg:
     cdiaghg      :      0.05s CPU      0.05s WALL (     347 calls)
     h_psi        :      0.33s CPU      0.38s WALL (     355 calls)
     s_psi        :      0.00s CPU      0.01s WALL (     355 calls)
     g_psi        :      0.00s CPU      0.00s WALL (     275 calls)

     Called by h_psi:
     h_psi:calbec :      0.02s CPU      0.02s WALL (     355 calls)
     vloc_psi     :      0.31s CPU      0.36s WALL (     355 calls)
     add_vuspsi   :      0.01s CPU      0.01s WALL (     355 calls)

     General routines
     calbec       :      0.04s CPU      0.04s WALL (     467 calls)
     fft          :      0.02s CPU      0.08s WALL (     135 calls)
     ffts         :      0.00s CPU      0.00s WALL (       9 calls)
     fftw         :      0.33s CPU      0.38s WALL (    6312 calls)
 
     Parallel routines
 
     PWSCF        :      2.08s CPU      2.34s WALL

 
   This run was terminated on:  16:29:19   5Jun2025            

=------------------------------------------------------------------------------=
   JOB DONE.
=------------------------------------------------------------------------------=
