
     Program PWSCF v.7.2 starts on  5Jun2025 at 16:29:41 

     This program is part of the open-source Quantum ESPRESSO suite
     for quantum simulation of materials; please cite
         "P. Giannozzi et al., J. Phys.:Condens. Matter 21 395502 (2009);
         "P. Giannozzi et al., J. Phys.:Condens. Matter 29 465901 (2017);
         "P. Giannozzi et al., J. Chem. Phys. 152 154105 (2020);
          URL http://www.quantum-espresso.org", 
     in publications or presentations arising from this work. More details at
     http://www.quantum-espresso.org/quote

     Parallel version (MPI), running on    16 processors

     MPI processes distributed on     1 nodes
     15482 MiB available memory on the printing compute node when the environment starts
 
     Waiting for input...
     Reading input from standard input

     Current dimensions of program PWSCF are:
     Max number of different atomic species (ntypx) = 10
     Max number of k-points (npk) =  40000
     Max angular momentum in pseudopotentials (lmaxx) =  4
     file Co.pbe-n-kjpaw_psl.1.0.0.UPF: wavefunction(s)  4S 3D renormalized
     Message from routine setup:
     using ibrav=0 with symmetry is DISCOURAGED, use correct ibrav instead
 
     R & G space division:  proc/nbgrp/npool/nimage =      16
     Subspace diagonalization in iterative solution of the eigenvalue problem:
     a serial algorithm will be used

 
     Parallelization info
     --------------------
     sticks:   dense  smooth     PW     G-vecs:    dense   smooth      PW
     Min          23      23      7                 2613     2613     459
     Max          24      24      8                 2640     2640     484
     Sum         379     379    121                42075    42075    7569
 
     Using Slab Decomposition
 


     bravais-lattice index     =            0
     lattice parameter (alat)  =       4.6298  a.u.
     unit-cell volume          =     596.1396 (a.u.)^3
     number of atoms/cell      =            2
     number of atomic types    =            1
     number of electrons       =        18.00
     number of Kohn-Sham states=           13
     kinetic-energy cutoff     =      65.0000  Ry
     charge density cutoff     =     260.0000  Ry
     scf convergence threshold =      1.0E-06
     mixing beta               =       0.7000
     number of iterations used =            8  plain     mixing
     Exchange-correlation= SLA  PW   PBX  PBC
                           (   1   4   3   4   0   0   0)

     celldm(1)=   4.629829  celldm(2)=   0.000000  celldm(3)=   0.000000
     celldm(4)=   0.000000  celldm(5)=   0.000000  celldm(6)=   0.000000

     crystal axes: (cart. coord. in units of alat)
               a(1) = (   1.000000   0.000000   0.000000 )  
               a(2) = (   0.500000   0.866025   0.000000 )  
               a(3) = (   0.000000   0.000000   6.936214 )  

     reciprocal axes: (cart. coord. in units 2 pi/alat)
               b(1) = (  1.000000 -0.577350  0.000000 )  
               b(2) = (  0.000000  1.154701  0.000000 )  
               b(3) = (  0.000000  0.000000  0.144171 )  


     PseudoPot. # 1 for Co read from file:
     /shared/ESPRESSO/PSLIBRARY/1.0.0/pbe/PSEUDOPOTENTIALS/Co.pbe-n-kjpaw_psl.1.0.0.UPF
     MD5 check sum: 17e7ab8db721b244d1352252ea6cb8e7
     Pseudo is Projector augmented-wave + core cor, Zval =  9.0
     Generated using "atomic" code by A. Dal Corso  (Quantum ESPRESSO distribution)
     Shape of augmentation charge: PSQ
     Using radial grid of 1193 points,  6 beta functions with: 
                l(1) =   0
                l(2) =   0
                l(3) =   1
                l(4) =   1
                l(5) =   2
                l(6) =   2
     Q(r) pseudized with 0 coefficients 


     atomic species   valence    mass     pseudopotential
        Co             9.00    58.93320     Co( 1.00)

     12 Sym. Ops., with inversion, found ( 6 have fractional translation)



   Cartesian axes

     site n.     atom                  positions (alat units)
         1           Co  tau(   1) = (   1.0000000   0.5773503   3.0612245  )
         2           Co  tau(   2) = (   0.0000000   0.0000000   3.8749895  )

     number of k points=    14  Fermi-Dirac smearing, width (Ry)=  0.0070
                       cart. coord. in units 2pi/alat
        k(    1) = (   0.0000000   0.0000000   0.0000000), wk =   0.0200000
        k(    2) = (   0.0000000   0.1154701   0.0000000), wk =   0.1200000
        k(    3) = (   0.0000000   0.2309401   0.0000000), wk =   0.1200000
        k(    4) = (   0.0000000   0.3464102   0.0000000), wk =   0.1200000
        k(    5) = (   0.0000000   0.4618802   0.0000000), wk =   0.1200000
        k(    6) = (   0.0000000  -0.5773503   0.0000000), wk =   0.0600000
        k(    7) = (   0.1000000   0.1732051   0.0000000), wk =   0.1200000
        k(    8) = (   0.1000000   0.2886751   0.0000000), wk =   0.2400000
        k(    9) = (   0.1000000   0.4041452   0.0000000), wk =   0.2400000
        k(   10) = (   0.1000000  -0.6350853   0.0000000), wk =   0.2400000
        k(   11) = (   0.2000000   0.3464102   0.0000000), wk =   0.1200000
        k(   12) = (   0.2000000  -0.6928203   0.0000000), wk =   0.2400000
        k(   13) = (   0.2000000  -0.5773503   0.0000000), wk =   0.1200000
        k(   14) = (   0.3000000  -0.6350853   0.0000000), wk =   0.1200000

     Dense  grid:    42075 G-vectors     FFT dimensions: (  24,  24, 180)

     Estimated max dynamical RAM per process >      12.12 MB

     Estimated total dynamical RAM >     193.86 MB

     Check: negative core charge=   -0.000001

     Initial potential from superposition of free atoms

     starting charge      17.9994, renormalised to      18.0000

     negative rho (up, down):  1.602E-04 0.000E+00
     Starting wfcs are   18 randomized atomic wfcs
     Checking if some PAW data can be deallocated... 

     total cpu time spent up to now is        0.9 secs

     Self-consistent Calculation

     iteration #  1     ecut=    65.00 Ry     beta= 0.70
     Davidson diagonalization with overlap
     ethr =  1.00E-02,  avg # of iterations =  2.3

     negative rho (up, down):  1.283E-04 0.000E+00

     total cpu time spent up to now is        1.3 secs

     total energy              =    -323.78615873 Ry
     estimated scf accuracy    <       0.29969235 Ry

     iteration #  2     ecut=    65.00 Ry     beta= 0.70
     Davidson diagonalization with overlap
     ethr =  1.66E-03,  avg # of iterations =  5.7

     total cpu time spent up to now is        1.8 secs

     total energy              =    -323.45861462 Ry
     estimated scf accuracy    <       3.54942380 Ry

     iteration #  3     ecut=    65.00 Ry     beta= 0.70
     Davidson diagonalization with overlap
     ethr =  1.66E-03,  avg # of iterations =  3.9

     total cpu time spent up to now is        2.0 secs

     total energy              =    -323.97626890 Ry
     estimated scf accuracy    <       0.02229242 Ry

     iteration #  4     ecut=    65.00 Ry     beta= 0.70
     Davidson diagonalization with overlap
     ethr =  1.24E-04,  avg # of iterations =  4.4

     total cpu time spent up to now is        2.2 secs

     total energy              =    -323.97730573 Ry
     estimated scf accuracy    <       0.01017276 Ry

     iteration #  5     ecut=    65.00 Ry     beta= 0.70
     Davidson diagonalization with overlap
     ethr =  5.65E-05,  avg # of iterations =  2.1

     total cpu time spent up to now is        2.4 secs

     total energy              =    -323.97740762 Ry
     estimated scf accuracy    <       0.00255781 Ry

     iteration #  6     ecut=    65.00 Ry     beta= 0.70
     Davidson diagonalization with overlap
     ethr =  1.42E-05,  avg # of iterations =  1.9

     negative rho (up, down):  2.452E-07 0.000E+00

     total cpu time spent up to now is        2.6 secs

     total energy              =    -323.97763288 Ry
     estimated scf accuracy    <       0.00048491 Ry

     iteration #  7     ecut=    65.00 Ry     beta= 0.70
     Davidson diagonalization with overlap
     ethr =  2.69E-06,  avg # of iterations =  6.5

     negative rho (up, down):  3.009E-04 0.000E+00

     total cpu time spent up to now is        2.8 secs

     total energy              =    -323.97766396 Ry
     estimated scf accuracy    <       0.00010770 Ry

     iteration #  8     ecut=    65.00 Ry     beta= 0.70
     Davidson diagonalization with overlap
     ethr =  5.98E-07,  avg # of iterations =  2.6

     negative rho (up, down):  2.128E-04 0.000E+00

     total cpu time spent up to now is        3.0 secs

     total energy              =    -323.97768394 Ry
     estimated scf accuracy    <       0.00000284 Ry

     iteration #  9     ecut=    65.00 Ry     beta= 0.70
     Davidson diagonalization with overlap
     ethr =  1.58E-08,  avg # of iterations =  3.6

     negative rho (up, down):  2.054E-04 0.000E+00

     total cpu time spent up to now is        3.2 secs

     End of self-consistent calculation

          k = 0.0000 0.0000 0.0000 (  5189 PWs)   bands (ev):

    -7.9846  -5.3600  -2.2383  -1.9937  -1.9937  -1.8669  -1.8669  -1.6003
    -0.7034  -0.7034  -0.1398  -0.1398   0.0168

          k = 0.0000 0.1155 0.0000 (  5223 PWs)   bands (ev):

    -7.6342  -5.0405  -2.2560  -2.1620  -2.0594  -1.8249  -1.7149  -1.5894
    -0.9878  -0.7610  -0.4903  -0.1336   1.1866

          k = 0.0000 0.2309 0.0000 (  5248 PWs)   bands (ev):

    -6.6659  -4.2516  -2.6744  -2.4357  -2.1443  -1.7830  -1.4380  -1.3057
    -1.2544  -0.8115  -0.1331   0.0642   2.7158

          k = 0.0000 0.3464 0.0000 (  5262 PWs)   bands (ev):

    -5.4437  -3.8335  -3.2197  -2.2493  -2.0202  -1.7990  -1.3614  -0.9359
    -0.7080  -0.4665  -0.1368   0.9710   4.5801

          k = 0.0000 0.4619 0.0000 (  5270 PWs)   bands (ev):

    -4.6697  -4.0647  -3.6104  -2.3879  -1.4624  -1.3059  -1.0404  -0.3177
    -0.0177  -0.0059   0.0283   2.3240   6.7626

          k = 0.0000-0.5774 0.0000 (  5272 PWs)   bands (ev):

    -4.3967  -4.2910  -3.7511  -2.4603  -1.5088  -1.0769  -0.7101  -0.2800
     0.1619   0.2451   1.3576   2.8546   7.1315

          k = 0.1000 0.1732 0.0000 (  5234 PWs)   bands (ev):

    -6.9700  -4.4621  -2.4684  -2.4269  -2.2353  -1.7283  -1.4507  -1.4386
    -1.3030  -0.7070  -0.3455   0.0193   2.2810

          k = 0.1000 0.2887 0.0000 (  5271 PWs)   bands (ev):

    -5.8300  -3.6863  -2.9361  -2.6067  -2.3483  -1.9413  -1.3734  -1.0800
    -0.8276  -0.4769  -0.2680   0.6979   3.8963

          k = 0.1000 0.4041 0.0000 (  5272 PWs)   bands (ev):

    -4.7843  -3.7241  -3.3773  -2.3046  -1.9369  -1.8024  -1.4083  -0.7823
    -0.4280  -0.1377   0.3326   2.0109   5.9280

          k = 0.1000-0.6351 0.0000 (  5296 PWs)   bands (ev):

    -4.3237  -4.0219  -3.6275  -2.3861  -1.6745  -1.2954  -1.0957  -0.3997
    -0.2723   0.0100   1.7092   3.4370   7.1875

          k = 0.2000 0.3464 0.0000 (  5282 PWs)   bands (ev):

    -4.7802  -3.1840  -3.1517  -2.6987  -2.4509  -2.0843  -1.5329  -0.8254
    -0.5775  -0.1667   0.4572   1.9925   5.6516

          k = 0.2000-0.6928 0.0000 (  5301 PWs)   bands (ev):

    -4.1055  -3.4616  -3.3172  -2.3000  -2.0668  -2.0057  -1.6892  -0.6455
    -0.5798  -0.0375   2.0052   3.9789   7.8442

          k = 0.2000-0.5774 0.0000 (  5314 PWs)   bands (ev):

    -3.8964  -3.6332  -3.4000  -2.2447  -2.0533  -1.6860  -1.6447  -0.6337
    -0.3058  -0.2110   3.7448   4.7117   7.7654

          k = 0.3000-0.6351 0.0000 (  5308 PWs)   bands (ev):

    -3.7005  -3.2549  -3.1792  -2.2722  -2.1754  -2.0254  -1.9831  -0.7775
    -0.4267  -0.2001   4.3697   6.2773   7.5296

     the Fermi energy is    -0.3887 ev

!    total energy              =    -323.97768470 Ry
     total all-electron energy =     -5573.665037 Ry
     estimated scf accuracy    <       0.00000060 Ry
     smearing contrib. (-TS)   =      -0.01355250 Ry
     internal energy E=F+TS    =    -323.96413220 Ry

     The total energy is F=E-TS. E is the sum of the following terms:
     one-electron contribution =    -719.11033010 Ry
     hartree contribution      =     376.41277630 Ry
     xc contribution           =     -65.06538492 Ry
     ewald contribution        =     256.88906237 Ry
     one-center paw contrib.   =    -173.09025586 Ry

     convergence has been achieved in   9 iterations

     negative rho (up, down):  2.054E-04 0.000E+00

     Forces acting on atoms (cartesian axes, Ry/au):

     atom    1 type  1   force =     0.00000000    0.00000000    0.02420805
     atom    2 type  1   force =     0.00000000    0.00000000   -0.02420805
     The non-local contrib.  to forces
     atom    1 type  1   force =     0.00000000    0.00000000   -0.09199264
     atom    2 type  1   force =    -0.00000000   -0.00000000    0.09199264
     The ionic contribution  to forces
     atom    1 type  1   force =    -0.00000000    0.00000000  -41.52793710
     atom    2 type  1   force =     0.00000000    0.00000000   41.52793710
     The local contribution  to forces
     atom    1 type  1   force =    -0.00000000   -0.00000000   41.62694458
     atom    2 type  1   force =     0.00000000    0.00000000  -41.62694458
     The core correction contribution to forces
     atom    1 type  1   force =    -0.00000000   -0.00000000    0.01474868
     atom    2 type  1   force =     0.00000000    0.00000000   -0.01474868
     The Hubbard contrib.    to forces
     atom    1 type  1   force =     0.00000000    0.00000000    0.00000000
     atom    2 type  1   force =     0.00000000    0.00000000    0.00000000
     The SCF correction term to forces
     atom    1 type  1   force =    -0.00000000    0.00000000    0.00244453
     atom    2 type  1   force =    -0.00000000    0.00000000   -0.00244453

     Total force =     0.034235     Total SCF correction =     0.003457
     SCF correction compared to forces is large: reduce conv_thr to get better values


     Computing stress (Cartesian axis) and pressure


     negative rho (up, down):  2.054E-04 0.000E+00
          total   stress  (Ry/bohr**3)                   (kbar)     P=      -36.49
  -0.00029603   0.00000000   0.00000000          -43.55        0.00        0.00
   0.00000000  -0.00029603   0.00000000            0.00      -43.55        0.00
   0.00000000   0.00000000  -0.00015203            0.00        0.00      -22.36


     Writing all to output data dir ./tmp/scf.save/
 
     init_run     :      0.34s CPU      0.43s WALL (       1 calls)
     electrons    :      2.01s CPU      2.23s WALL (       1 calls)
     forces       :      0.05s CPU      0.05s WALL (       1 calls)
     stress       :      0.17s CPU      0.18s WALL (       1 calls)

     Called by init_run:
     wfcinit      :      0.05s CPU      0.06s WALL (       1 calls)
     potinit      :      0.18s CPU      0.18s WALL (       1 calls)
     hinit0       :      0.08s CPU      0.14s WALL (       1 calls)

     Called by electrons:
     c_bands      :      1.02s CPU      1.18s WALL (       9 calls)
     sum_band     :      0.27s CPU      0.31s WALL (       9 calls)
     v_of_rho     :      0.03s CPU      0.04s WALL (      10 calls)
     newd         :      0.11s CPU      0.11s WALL (      10 calls)
     PAW_pot      :      0.74s CPU      0.76s WALL (      10 calls)
     mix_rho      :      0.00s CPU      0.01s WALL (       9 calls)

     Called by c_bands:
     init_us_2    :      0.02s CPU      0.02s WALL (     294 calls)
     init_us_2:cp :      0.02s CPU      0.02s WALL (     294 calls)
     cegterg      :      0.85s CPU      0.99s WALL (     126 calls)

     Called by *egterg:
     cdiaghg      :      0.08s CPU      0.09s WALL (     586 calls)
     h_psi        :      0.69s CPU      0.82s WALL (     600 calls)
     s_psi        :      0.01s CPU      0.01s WALL (     600 calls)
     g_psi        :      0.00s CPU      0.00s WALL (     460 calls)

     Called by h_psi:
     h_psi:calbec :      0.04s CPU      0.05s WALL (     600 calls)
     vloc_psi     :      0.63s CPU      0.75s WALL (     600 calls)
     add_vuspsi   :      0.01s CPU      0.01s WALL (     600 calls)

     General routines
     calbec       :      0.09s CPU      0.09s WALL (     796 calls)
     fft          :      0.03s CPU      0.09s WALL (     135 calls)
     ffts         :      0.00s CPU      0.00s WALL (       9 calls)
     fftw         :      0.71s CPU      0.84s WALL (   10896 calls)
 
     Parallel routines
 
     PWSCF        :      2.91s CPU      3.44s WALL

 
   This run was terminated on:  16:29:45   5Jun2025            

=------------------------------------------------------------------------------=
   JOB DONE.
=------------------------------------------------------------------------------=
