
     Program PWSCF v.7.2 starts on 17Jul2025 at 13: 9:38 

     This program is part of the open-source Quantum ESPRESSO suite
     for quantum simulation of materials; please cite
         "P. Giannozzi et al., J. Phys.:Condens. Matter 21 395502 (2009);
         "P. Giannozzi et al., J. Phys.:Condens. Matter 29 465901 (2017);
         "P. Giannozzi et al., J. Chem. Phys. 152 154105 (2020);
          URL http://www.quantum-espresso.org", 
     in publications or presentations arising from this work. More details at
     http://www.quantum-espresso.org/quote

     Parallel version (MPI), running on    16 processors

     MPI processes distributed on     1 nodes
     25308 MiB available memory on the printing compute node when the environment starts
 
     Waiting for input...
     Reading input from standard input

     Current dimensions of program PWSCF are:
     Max number of different atomic species (ntypx) = 10
     Max number of k-points (npk) =  40000
     Max angular momentum in pseudopotentials (lmaxx) =  4
     file Mo.pbe-spn-kjpaw_psl.1.0.0.UPF: wavefunction(s)  4S 4D renormalized
     file S.pbe-n-kjpaw_psl.1.0.0.UPF: wavefunction(s)  3S 3P renormalized
     file Co.pbe-n-kjpaw_psl.1.0.0.UPF: wavefunction(s)  4S 3D renormalized
     Message from routine setup:
     using ibrav=0 with symmetry is DISCOURAGED, use correct ibrav instead
 
     R & G space division:  proc/nbgrp/npool/nimage =      16
     Subspace diagonalization in iterative solution of the eigenvalue problem:
     a serial algorithm will be used

 
     Parallelization info
     --------------------
     sticks:   dense  smooth     PW     G-vecs:    dense   smooth      PW
     Min         108      42     12                28601     7220    1136
     Max         110      43     13                28616     7259    1171
     Sum        1735     685    199               457675   115763   18407
 
     Using Slab Decomposition
 


     bravais-lattice index     =            0
     lattice parameter (alat)  =       5.9812  a.u.
     unit-cell volume          =    1463.6779 (a.u.)^3
     number of atoms/cell      =            4
     number of atomic types    =            3
     number of electrons       =        35.00
     number of Kohn-Sham states=           22
     kinetic-energy cutoff     =      70.0000  Ry
     charge density cutoff     =     700.0000  Ry
     scf convergence threshold =      1.0E-06
     mixing beta               =       0.7000
     number of iterations used =            8  plain     mixing
     energy convergence thresh.=      1.0E-04
     force convergence thresh. =      1.0E-03
     Exchange-correlation= SLA  PW   PBX  PBC
                           (   1   4   3   4   0   0   0)
     nstep                     =          100


     celldm(1)=   5.981197  celldm(2)=   0.000000  celldm(3)=   0.000000
     celldm(4)=   0.000000  celldm(5)=   0.000000  celldm(6)=   0.000000

     crystal axes: (cart. coord. in units of alat)
               a(1) = (   1.000000   0.000000   0.000000 )  
               a(2) = (  -0.500000   0.866025   0.000000 )  
               a(3) = (   0.000000   0.000000   7.898612 )  

     reciprocal axes: (cart. coord. in units 2 pi/alat)
               b(1) = (  1.000000  0.577351  0.000000 )  
               b(2) = (  0.000000  1.154701  0.000000 )  
               b(3) = (  0.000000  0.000000  0.126605 )  


     PseudoPot. # 1 for Mo read from file:
     /shared/ESPRESSO/PSLIBRARY/1.0.0/pbe/PSEUDOPOTENTIALS/Mo.pbe-spn-kjpaw_psl.1.0.0.UPF
     MD5 check sum: 4396e0c640fcce5c25f020efccf1ab12
     Pseudo is Projector augmented-wave + core cor, Zval = 14.0
     Generated using &quot;atomic&quot; code by A. Dal Corso  v.6.3
     Shape of augmentation charge: PSQ
     Using radial grid of 1229 points,  6 beta functions with: 
                l(1) =   0
                l(2) =   0
                l(3) =   1
                l(4) =   1
                l(5) =   2
                l(6) =   2
     Q(r) pseudized with 0 coefficients 


     PseudoPot. # 2 for S  read from file:
     /shared/ESPRESSO/PSLIBRARY/1.0.0/pbe/PSEUDOPOTENTIALS/S.pbe-n-kjpaw_psl.1.0.0.UPF
     MD5 check sum: c08f931834bcc19553f8bde8f1a3adc5
     Pseudo is Projector augmented-wave + core cor, Zval =  6.0
     Generated using "atomic" code by A. Dal Corso  (Quantum ESPRESSO distribution)
     Shape of augmentation charge: PSQ
     Using radial grid of 1151 points,  6 beta functions with: 
                l(1) =   0
                l(2) =   0
                l(3) =   1
                l(4) =   1
                l(5) =   2
                l(6) =   2
     Q(r) pseudized with 0 coefficients 


     PseudoPot. # 3 for Co read from file:
     /shared/ESPRESSO/PSLIBRARY/1.0.0/pbe/PSEUDOPOTENTIALS/Co.pbe-n-kjpaw_psl.1.0.0.UPF
     MD5 check sum: 17e7ab8db721b244d1352252ea6cb8e7
     Pseudo is Projector augmented-wave + core cor, Zval =  9.0
     Generated using "atomic" code by A. Dal Corso  (Quantum ESPRESSO distribution)
     Shape of augmentation charge: PSQ
     Using radial grid of 1193 points,  6 beta functions with: 
                l(1) =   0
                l(2) =   0
                l(3) =   1
                l(4) =   1
                l(5) =   2
                l(6) =   2
     Q(r) pseudized with 0 coefficients 


     atomic species   valence    mass     pseudopotential
        Mo            14.00    95.94000     Mo( 1.00)
        S              6.00    32.06500     S ( 1.00)
        Co             9.00    58.93320     Co( 1.00)

     Starting magnetic structure 
     atomic species   magnetization
        Mo           0.000
        S            0.000
        Co           0.800

      6 Sym. Ops. (no inversion) found



   Cartesian axes

     site n.     atom                  positions (alat units)
         1           Mo  tau(   1) = (   0.0000000   0.0000000   3.0014725  )
         2           S   tau(   2) = (   0.5000000   0.2886750   3.4964188  )
         3           S   tau(   3) = (   0.5000000   0.2886750   2.5065262  )
         4           Co  tau(   4) = (   0.5000000   0.2886750   4.1283077  )

     --------------------------------------------
     DFT-D3 Dispersion Correction (3-body terms):
     --------------------------------------------
       Reference C6 values for interpolation: 

         atom   Coordination number   C6
         S          0.000           268.01
         S          0.995           261.99
         S          1.990           251.62
         Co         0.000          1065.56
         Co         1.715           373.09
         Co         2.926           296.13
         Co         7.779           236.57
         Mo         0.000          1691.79
         Mo         1.942          1004.01
         Mo        11.056           674.22

       Values used:

         atom   Coordination number  R0_AB[au]  C6      C8
         Mo        10.140            3.547    674.22  77634.20
         S          4.781            3.128    251.62  12327.25
         S          3.718            3.128    251.62  12327.25
         Co         1.574            3.243    373.06  32801.62

         Molecular C6 ( Ry / a.u.^6 ) =      5908.08


     number of k points=    19  Gaussian smearing, width (Ry)=  0.0073
                       cart. coord. in units 2pi/alat
        k(    1) = (   0.0000000   0.0000000   0.0000000), wk =   0.0069444
        k(    2) = (   0.0000000   0.0962251   0.0000000), wk =   0.0416667
        k(    3) = (   0.0000000   0.1924502   0.0000000), wk =   0.0416667
        k(    4) = (   0.0000000   0.2886753   0.0000000), wk =   0.0416667
        k(    5) = (   0.0000000   0.3849004   0.0000000), wk =   0.0416667
        k(    6) = (   0.0000000   0.4811254   0.0000000), wk =   0.0416667
        k(    7) = (   0.0000000  -0.5773505   0.0000000), wk =   0.0208333
        k(    8) = (   0.0833333   0.1443376   0.0000000), wk =   0.0416667
        k(    9) = (   0.0833333   0.2405627   0.0000000), wk =   0.0833333
        k(   10) = (   0.0833333   0.3367878   0.0000000), wk =   0.0833333
        k(   11) = (   0.0833333   0.4330129   0.0000000), wk =   0.0833333
        k(   12) = (   0.0833333   0.5292380   0.0000000), wk =   0.0833333
        k(   13) = (   0.1666667   0.2886753   0.0000000), wk =   0.0416667
        k(   14) = (   0.1666667   0.3849004   0.0000000), wk =   0.0833333
        k(   15) = (   0.1666667   0.4811254   0.0000000), wk =   0.0833333
        k(   16) = (   0.1666667   0.5773505   0.0000000), wk =   0.0416667
        k(   17) = (   0.2500000   0.4330129   0.0000000), wk =   0.0416667
        k(   18) = (   0.2500000   0.5292380   0.0000000), wk =   0.0833333
        k(   19) = (   0.3333333   0.5773505   0.0000000), wk =   0.0138889

     Dense  grid:   457675 G-vectors     FFT dimensions: (  54,  54, 400)

     Smooth grid:   115763 G-vectors     FFT dimensions: (  32,  32, 256)

     Estimated max dynamical RAM per process >     137.57 MB

     Estimated total dynamical RAM >       2.15 GB
     Generating pointlists ...
     new r_m :   0.3137 (alat units)  1.8762 (a.u.) for type    1
     new r_m :   0.2607 (alat units)  1.5590 (a.u.) for type    2
     new r_m :   0.2607 (alat units)  1.5590 (a.u.) for type    3

     Initial potential from superposition of free atoms

     starting charge      34.9988, renormalised to      35.0000

     negative rho (up, down):  4.089E-05 3.772E-05
     Starting wfcs are   27 randomized atomic wfcs
     Checking if some PAW data can be deallocated... 

     total cpu time spent up to now is        2.1 secs

     Self-consistent Calculation

     iteration #  1     ecut=    70.00 Ry     beta= 0.70
     Davidson diagonalization with overlap
     ethr =  1.00E-02,  avg # of iterations =  2.2

     negative rho (up, down):  7.241E-07 1.631E-06

     total cpu time spent up to now is        4.4 secs

     total energy              =    -658.00504814 Ry
     estimated scf accuracy    <       0.89991996 Ry

     total magnetization       =     2.78 Bohr mag/cell
     absolute magnetization    =     3.41 Bohr mag/cell

     iteration #  2     ecut=    70.00 Ry     beta= 0.70
     Davidson diagonalization with overlap
     ethr =  2.57E-03,  avg # of iterations =  9.8

     negative rho (up, down):  5.472E-07 1.247E-06

     total cpu time spent up to now is        7.8 secs

     total energy              =    -652.60629568 Ry
     estimated scf accuracy    <     215.94643442 Ry

     total magnetization       =     0.58 Bohr mag/cell
     absolute magnetization    =     0.73 Bohr mag/cell

     iteration #  3     ecut=    70.00 Ry     beta= 0.70
     Davidson diagonalization with overlap
     ethr =  2.57E-03,  avg # of iterations =  8.6

     negative rho (up, down):  6.890E-07 1.404E-06

     total cpu time spent up to now is       11.0 secs

     total energy              =    -658.39034419 Ry
     estimated scf accuracy    <       1.93893550 Ry

     total magnetization       =     1.73 Bohr mag/cell
     absolute magnetization    =     1.86 Bohr mag/cell

     iteration #  4     ecut=    70.00 Ry     beta= 0.70
     Davidson diagonalization with overlap
     ethr =  2.57E-03,  avg # of iterations =  2.6

     negative rho (up, down):  5.307E-06 5.785E-06

     total cpu time spent up to now is       13.4 secs

     total energy              =    -658.54481247 Ry
     estimated scf accuracy    <       0.16557599 Ry

     total magnetization       =     2.40 Bohr mag/cell
     absolute magnetization    =     2.76 Bohr mag/cell

     iteration #  5     ecut=    70.00 Ry     beta= 0.70
     Davidson diagonalization with overlap
     ethr =  4.73E-04,  avg # of iterations =  7.0

     negative rho (up, down):  3.015E-04 3.268E-04

     total cpu time spent up to now is       16.1 secs

     total energy              =    -658.54817248 Ry
     estimated scf accuracy    <       1.20148969 Ry

     total magnetization       =     1.00 Bohr mag/cell
     absolute magnetization    =     1.36 Bohr mag/cell

     iteration #  6     ecut=    70.00 Ry     beta= 0.70
     Davidson diagonalization with overlap
     ethr =  4.73E-04,  avg # of iterations =  2.3

     negative rho (up, down):  2.900E-05 2.659E-05

     total cpu time spent up to now is       18.4 secs

     total energy              =    -658.62131298 Ry
     estimated scf accuracy    <       0.08136424 Ry

     total magnetization       =     2.02 Bohr mag/cell
     absolute magnetization    =     2.28 Bohr mag/cell

     iteration #  7     ecut=    70.00 Ry     beta= 0.70
     Davidson diagonalization with overlap
     ethr =  2.32E-04,  avg # of iterations =  2.3

     negative rho (up, down):  3.948E-04 4.560E-04

     total cpu time spent up to now is       20.8 secs

     total energy              =    -658.63037876 Ry
     estimated scf accuracy    <       0.03930655 Ry

     total magnetization       =     1.75 Bohr mag/cell
     absolute magnetization    =     2.02 Bohr mag/cell

     iteration #  8     ecut=    70.00 Ry     beta= 0.70
     Davidson diagonalization with overlap
     ethr =  1.12E-04,  avg # of iterations =  2.2

     negative rho (up, down):  4.912E-04 6.168E-04

     total cpu time spent up to now is       23.0 secs

     total energy              =    -658.63608017 Ry
     estimated scf accuracy    <       0.00418663 Ry

     total magnetization       =     1.81 Bohr mag/cell
     absolute magnetization    =     2.07 Bohr mag/cell

     iteration #  9     ecut=    70.00 Ry     beta= 0.70
     Davidson diagonalization with overlap
     ethr =  1.20E-05,  avg # of iterations =  5.3

     negative rho (up, down):  1.788E-04 2.510E-04

     total cpu time spent up to now is       25.5 secs

     total energy              =    -658.63663629 Ry
     estimated scf accuracy    <       0.00140200 Ry

     total magnetization       =     1.76 Bohr mag/cell
     absolute magnetization    =     2.00 Bohr mag/cell

     iteration # 10     ecut=    70.00 Ry     beta= 0.70
     Davidson diagonalization with overlap
     ethr =  4.01E-06,  avg # of iterations =  2.7

     negative rho (up, down):  8.941E-05 1.306E-04

     total cpu time spent up to now is       27.8 secs

     total energy              =    -658.63673919 Ry
     estimated scf accuracy    <       0.00007052 Ry

     total magnetization       =     1.73 Bohr mag/cell
     absolute magnetization    =     1.97 Bohr mag/cell

     iteration # 11     ecut=    70.00 Ry     beta= 0.70
     Davidson diagonalization with overlap
     ethr =  2.01E-07,  avg # of iterations =  5.1

     negative rho (up, down):  5.048E-05 6.097E-05

     total cpu time spent up to now is       30.4 secs

     total energy              =    -658.63676684 Ry
     estimated scf accuracy    <       0.00001918 Ry

     total magnetization       =     1.73 Bohr mag/cell
     absolute magnetization    =     1.96 Bohr mag/cell

     iteration # 12     ecut=    70.00 Ry     beta= 0.70
     Davidson diagonalization with overlap
     ethr =  5.48E-08,  avg # of iterations =  3.7

     negative rho (up, down):  4.819E-05 5.657E-05

     total cpu time spent up to now is       32.8 secs

     total energy              =    -658.63677044 Ry
     estimated scf accuracy    <       0.00003974 Ry

     total magnetization       =     1.73 Bohr mag/cell
     absolute magnetization    =     1.96 Bohr mag/cell

     iteration # 13     ecut=    70.00 Ry     beta= 0.70
     Davidson diagonalization with overlap
     ethr =  5.48E-08,  avg # of iterations =  1.5

     negative rho (up, down):  4.594E-05 5.182E-05

     total cpu time spent up to now is       35.0 secs

     total energy              =    -658.63677375 Ry
     estimated scf accuracy    <       0.00000134 Ry

     total magnetization       =     1.73 Bohr mag/cell
     absolute magnetization    =     1.96 Bohr mag/cell

     iteration # 14     ecut=    70.00 Ry     beta= 0.70
     Davidson diagonalization with overlap
     ethr =  3.83E-09,  avg # of iterations =  3.2

     negative rho (up, down):  4.444E-05 4.889E-05
 
     Magnetic moment per site  (integrated on atomic sphere of radius R)
     atom   1 (R=0.314)  charge= 10.7662  magn= -0.0378
     atom   2 (R=0.261)  charge=  2.9509  magn=  0.0222
     atom   3 (R=0.261)  charge=  2.8914  magn=  0.0033
     atom   4 (R=0.261)  charge=  6.5477  magn=  1.5949

     total cpu time spent up to now is       37.4 secs

     End of self-consistent calculation

 ------ SPIN UP ------------


          k = 0.0000 0.0000 0.0000 ( 14351 PWs)   bands (ev):

   -61.3941 -35.5588 -35.3309 -35.3309 -15.2889 -13.8225  -7.1953  -3.9648
    -3.3925  -3.3924  -3.2825  -2.3501  -2.3501  -1.7941  -1.7941  -1.3125
    -1.1711  -1.1711  -0.0701   2.0616   2.0616   2.3437

          k = 0.0000 0.0962 0.0000 ( 14357 PWs)   bands (ev):

   -61.3914 -35.5533 -35.3583 -35.3371 -15.1927 -13.7694  -7.0945  -4.0165
    -3.6811  -3.3132  -3.1864  -2.5286  -2.4835  -1.8145  -1.7556  -1.2404
    -1.1879  -1.1726  -0.0491   1.9613   2.0905   2.1398

          k = 0.0000 0.1925 0.0000 ( 14400 PWs)   bands (ev):

   -61.3840 -35.5385 -35.4325 -35.3540 -14.9211 -13.6161  -6.8353  -4.4024
    -4.1365  -3.1971  -3.0746  -2.7287  -2.7035  -1.8501  -1.6514  -1.3256
    -1.2072  -1.1604  -0.0648   1.7287   1.9436   1.9834

          k = 0.0000 0.2887 0.0000 ( 14448 PWs)   bands (ev):

   -61.3738 -35.5326 -35.5181 -35.3770 -14.5267 -13.3823  -6.5573  -5.1545
    -4.5169  -3.4298  -3.2604  -2.5615  -2.5061  -1.7921  -1.5687  -1.5046
    -1.2715  -1.1777  -0.0715   1.7152   1.7397   2.3461

          k = 0.0000 0.3849 0.0000 ( 14480 PWs)   bands (ev):

   -61.3636 -35.6310 -35.4978 -35.3998 -14.1008 -13.1062  -6.4876  -5.8144
    -4.9393  -3.7556  -3.4522  -2.4077  -2.3390  -1.7896  -1.5413  -1.3512
    -1.2427  -1.0654   0.2270   1.6150   2.0088   2.8505

          k = 0.0000 0.4811 0.0000 ( 14494 PWs)   bands (ev):

   -61.3562 -35.7021 -35.4828 -35.4165 -13.7677 -12.8593  -6.7391  -6.1511
    -5.2371  -3.9804  -3.6456  -2.4293  -2.2307  -1.7121  -1.5463  -1.2351
    -0.9292  -0.8515   0.8698   1.6578   2.3071   3.1872

          k = 0.0000-0.5774 0.0000 ( 14518 PWs)   bands (ev):

   -61.3534 -35.7280 -35.4773 -35.4226 -13.6416 -12.7542  -6.9045  -6.2466
    -5.3390  -4.0590  -3.7295  -2.4451  -2.2046  -1.6343  -1.5740  -1.1914
    -0.8731  -0.6154   1.3638   1.7080   2.3746   3.2102

          k = 0.0833 0.1443 0.0000 ( 14400 PWs)   bands (ev):

   -61.3864 -35.5432 -35.4077 -35.3500 -15.0087 -13.6660  -6.9130  -4.1906
    -4.0693  -3.2290  -3.0812  -2.8037  -2.5809  -1.8546  -1.6754  -1.2907
    -1.2111  -1.1126  -0.0482   1.7924   1.8880   2.0011

          k = 0.0833 0.2406 0.0000 ( 14456 PWs)   bands (ev):

   -61.3776 -35.5257 -35.4912 -35.3735 -14.6748 -13.4715  -6.6342  -4.8221
    -4.3470  -3.5889  -3.0777  -2.7067  -2.4879  -1.8905  -1.5279  -1.4603
    -1.2115  -1.1548  -0.0878   1.5932   1.8345   2.0370

          k = 0.0833 0.3368 0.0000 ( 14475 PWs)   bands (ev):

   -61.3674 -35.5862 -35.5053 -35.4007 -14.2618 -13.2127  -6.4367  -5.5043
    -4.7587  -3.9485  -3.2066  -2.5666  -2.3144  -1.7728  -1.7038  -1.3924
    -1.1933  -1.0960   0.0141   1.5821   1.9209   2.4671

          k = 0.0833 0.4330 0.0000 ( 14478 PWs)   bands (ev):

   -61.3585 -35.6672 -35.4876 -35.4242 -13.8776 -12.9420  -6.5311  -5.9849
    -5.1739  -4.0967  -3.4484  -2.5624  -2.2986  -1.7559  -1.5279  -1.3567
    -1.0149  -0.9241   0.4989   1.7291   2.1620   2.9578

          k = 0.0833 0.5292 0.0000 ( 14500 PWs)   bands (ev):

   -61.3534 -35.7136 -35.4773 -35.4377 -13.6449 -12.7539  -6.7748  -6.1895
    -5.3910  -4.1174  -3.6969  -2.5808  -2.3071  -1.6395  -1.4938  -1.2736
    -0.9347  -0.6723   1.2677   1.7936   2.3922   3.1714

          k = 0.1667 0.2887 0.0000 ( 14482 PWs)   bands (ev):

   -61.3687 -35.5632 -35.5080 -35.4077 -14.3201 -13.2492  -6.4149  -5.3073
    -4.6424  -4.1777  -3.1557  -2.6586  -2.1717  -1.9564  -1.6918  -1.3691
    -1.1553  -1.0629  -0.0629   1.5127   1.9066   2.2404

          k = 0.1667 0.3849 0.0000 ( 14494 PWs)   bands (ev):

   -61.3599 -35.6308 -35.4903 -35.4454 -13.9425 -12.9858  -6.3467  -5.7283
    -5.1694  -4.3341  -3.3696  -2.8031  -2.1133  -1.8488  -1.7618  -1.3078
    -1.0190  -0.9107   0.2339   1.8025   2.0316   2.6005

          k = 0.1667 0.4811 0.0000 ( 14497 PWs)   bands (ev):

   -61.3534 -35.6785 -35.4774 -35.4742 -13.6515 -12.7530  -6.4865  -6.0189
    -5.5069  -4.2976  -3.6900  -2.9912  -2.1617  -1.7280  -1.5661  -1.2886
    -0.9729  -0.7715   0.9900   1.9191   2.3667   2.9051

          k = 0.1667 0.5774 0.0000 ( 14512 PWs)   bands (ev):

   -61.3511 -35.6957 -35.4849 -35.4726 -13.5421 -12.6560  -6.5861  -6.1270
    -5.6119  -4.1852  -3.9191  -3.0627  -2.1802  -1.6555  -1.4737  -1.3018
    -0.9701  -0.6525   1.4939   2.0424   2.4293   2.8793

          k = 0.2500 0.4330 0.0000 ( 14510 PWs)   bands (ev):

   -61.3534 -35.6551 -35.4984 -35.4774 -13.6549 -12.7524  -6.3252  -5.9001
    -5.5389  -4.4662  -3.7802  -3.0758  -1.9866  -1.8251  -1.7371  -1.2229
    -0.9444  -0.8445   0.8547   1.9064   2.3247   2.8289

          k = 0.2500 0.5292 0.0000 ( 14528 PWs)   bands (ev):

   -61.3497 -35.6600 -35.5380 -35.4699 -13.4841 -12.5974  -6.3839  -5.9653
    -5.6963  -4.5920  -4.0088  -3.2971  -1.9861  -1.7142  -1.6515  -1.2290
    -0.9474  -0.6661   1.2951   1.9759   2.5120   3.2418

          k = 0.3333 0.5774 0.0000 ( 14538 PWs)   bands (ev):

   -61.3483 -35.6305 -35.5841 -35.4672 -13.4222 -12.5367  -6.4046  -5.7297
    -5.7263  -5.0184  -3.9937  -3.4322  -1.8437  -1.7924  -1.6687  -1.2231
    -0.9638  -0.5169   1.1164   2.0613   2.6896   3.9281

 ------ SPIN DOWN ----------


          k = 0.0000 0.0000 0.0000 ( 14351 PWs)   bands (ev):

   -61.4268 -35.6037 -35.3621 -35.3621 -15.2517 -13.8085  -7.1447  -3.9054
    -3.3670  -3.3670  -2.2931  -2.2930  -2.2366  -1.1062  -0.3252  -0.3252
     0.0703   0.0703   0.8340   2.1681   2.1681   2.4048

          k = 0.0000 0.0962 0.0000 ( 14357 PWs)   bands (ev):

   -61.4240 -35.5983 -35.3894 -35.3683 -15.1547 -13.7557  -7.0402  -3.9619
    -3.6269  -3.2791  -2.4707  -2.4441  -2.1343  -1.0801  -0.3717  -0.3298
     0.0356   0.1158   0.9200   2.0481   2.1884   2.2984

          k = 0.0000 0.1925 0.0000 ( 14400 PWs)   bands (ev):

   -61.4166 -35.5835 -35.4634 -35.3852 -14.8810 -13.6036  -6.7700  -4.3303
    -4.1078  -3.1259  -2.7303  -2.7091  -1.9527  -1.1810  -0.4617  -0.3379
    -0.0501   0.2421   1.0194   1.8322   2.0532   2.1194

          k = 0.0000 0.2887 0.0000 ( 14448 PWs)   bands (ev):

   -61.4065 -35.5640 -35.5625 -35.4081 -14.4828 -13.3718  -6.4808  -5.0680
    -4.5019  -3.3740  -3.0278  -2.5342  -1.5794  -1.4735  -0.5358  -0.3173
    -0.1157   0.4222   1.0034   1.8099   1.9343   2.4894

          k = 0.0000 0.3849 0.0000 ( 14480 PWs)   bands (ev):

   -61.3963 -35.6614 -35.5430 -35.4309 -14.0518 -13.0984  -6.4293  -5.7017
    -4.9118  -3.7150  -3.2797  -2.2449  -1.7745  -1.0452  -0.5971  -0.2307
     0.0562   0.6151   1.1199   1.6746   2.2120   3.0050

          k = 0.0000 0.4811 0.0000 ( 14494 PWs)   bands (ev):

   -61.3889 -35.7323 -35.5281 -35.4476 -13.7144 -12.8534  -6.7034  -6.0359
    -5.1888  -3.9459  -3.4846  -2.0757  -1.6743  -0.8744  -0.6544  -0.1149
     0.6804   0.7665   1.3881   1.6713   2.4255   3.3629

          k = 0.0000-0.5774 0.0000 ( 14518 PWs)   bands (ev):

   -61.3861 -35.7581 -35.5226 -35.4536 -13.5868 -12.7488  -6.8701  -6.1426
    -5.2835  -4.0261  -3.5648  -2.0272  -1.5646  -0.8536  -0.6791  -0.0637
     0.8238   1.1908   1.5155   1.7010   2.4224   3.4574

          k = 0.0833 0.1443 0.0000 ( 14400 PWs)   bands (ev):

   -61.4190 -35.5882 -35.4387 -35.3812 -14.9693 -13.6531  -6.8512  -4.1205
    -4.0325  -3.1670  -2.8163  -2.5053  -2.0173  -1.1118  -0.4530  -0.3228
    -0.0264   0.2040   1.0145   1.8442   2.0506   2.1166

          k = 0.0833 0.2406 0.0000 ( 14456 PWs)   bands (ev):

   -61.4102 -35.5707 -35.5220 -35.4047 -14.6324 -13.4601  -6.5596  -4.7385
    -4.3277  -3.5305  -2.8756  -2.5295  -1.7125  -1.3409  -0.5450  -0.3012
    -0.1186   0.3695   1.0131   1.7353   1.9306   2.2120

          k = 0.0833 0.3368 0.0000 ( 14475 PWs)   bands (ev):

   -61.4000 -35.6167 -35.5504 -35.4318 -14.2148 -13.2039  -6.3625  -5.3987
    -4.7400  -3.9085  -3.0027  -2.4674  -1.6609  -1.1790  -0.5884  -0.2511
    -0.1360   0.5890   1.0002   1.7130   2.0723   2.6436

          k = 0.0833 0.4330 0.0000 ( 14478 PWs)   bands (ev):

   -61.3912 -35.6975 -35.5328 -35.4552 -13.8258 -12.9356  -6.4882  -5.8604
    -5.1330  -4.0585  -3.2785  -2.4598  -1.6309  -0.8444  -0.6013  -0.1762
     0.1789   0.8575   1.1252   1.8168   2.3214   3.1030

          k = 0.0833 0.5292 0.0000 ( 14500 PWs)   bands (ev):

   -61.3861 -35.7437 -35.5226 -35.4687 -13.5902 -12.7485  -6.7391  -6.0848
    -5.3303  -4.0812  -3.5277  -2.4450  -1.4493  -0.7854  -0.6219  -0.1122
     0.5546   1.1425   1.5028   1.8579   2.4856   3.2653

          k = 0.1667 0.2887 0.0000 ( 14482 PWs)   bands (ev):

   -61.4014 -35.5938 -35.5531 -35.4387 -14.2738 -13.2400  -6.3347  -5.1974
    -4.6269  -4.1508  -2.9915  -2.4469  -1.6021  -1.2266  -0.6078  -0.2327
    -0.2063   0.5923   0.9594   1.6802   1.9960   2.4648

          k = 0.1667 0.3849 0.0000 ( 14494 PWs)   bands (ev):

   -61.3926 -35.6612 -35.5356 -35.4764 -13.8915 -12.9789  -6.2892  -5.5851
    -5.1474  -4.2965  -3.2712  -2.6454  -1.6431  -0.7336  -0.5652  -0.2289
    -0.1647   0.8883   0.9684   1.9345   2.1384   2.8310

          k = 0.1667 0.4811 0.0000 ( 14497 PWs)   bands (ev):

   -61.3861 -35.7088 -35.5227 -35.5051 -13.5969 -12.7475  -6.4468  -5.9150
    -5.4288  -4.2428  -3.5845  -2.9081  -1.4468  -0.6049  -0.5125  -0.1927
     0.1367   0.9933   1.4280   2.0181   2.4677   3.1064

          k = 0.1667 0.5774 0.0000 ( 14512 PWs)   bands (ev):

   -61.3838 -35.7259 -35.5179 -35.5158 -13.4863 -12.6507  -6.5464  -6.0467
    -5.5181  -4.1199  -3.8038  -3.0025  -1.3055  -0.5973  -0.5120  -0.1808
     0.3069   1.0803   1.6067   2.2577   2.5798   3.0358

          k = 0.2500 0.4330 0.0000 ( 14510 PWs)   bands (ev):

   -61.3861 -35.6854 -35.5292 -35.5227 -13.6004 -12.7468  -6.2816  -5.8109
    -5.4272  -4.4084  -3.7600  -2.9394  -1.4854  -0.5113  -0.3207  -0.2543
    -0.1616   0.9107   1.4049   2.0303   2.3774   3.1264

          k = 0.2500 0.5292 0.0000 ( 14528 PWs)   bands (ev):

   -61.3824 -35.6903 -35.5687 -35.5152 -13.4278 -12.5921  -6.3473  -5.9149
    -5.5389  -4.5185  -3.9851  -3.2129  -1.2585  -0.4204  -0.3533  -0.2252
     0.0405   0.9699   1.4136   2.2616   2.6422   3.4967

          k = 0.3333 0.5774 0.0000 ( 14538 PWs)   bands (ev):

   -61.3810 -35.6608 -35.6148 -35.5125 -13.3653 -12.5313  -6.3800  -5.6873
    -5.5142  -4.9971  -3.9490  -3.3664  -1.1631  -0.3597  -0.2815  -0.1147
    -0.0672   1.0339   1.0941   2.3075   2.8731   4.0947

     the Fermi energy is     0.0829 ev

!    total energy              =    -658.63677396 Ry
     total all-electron energy =    -12481.810665 Ry
     estimated scf accuracy    <       0.00000012 Ry
     smearing contrib. (-TS)   =      -0.00089298 Ry
     internal energy E=F+TS    =    -658.63588098 Ry

     The total energy is F=E-TS. E is the sum of the following terms:
     one-electron contribution =   -2207.10142839 Ry
     hartree contribution      =    1114.98037900 Ry
     xc contribution           =     -62.37768229 Ry
     ewald contribution        =     902.09526274 Ry
     DFT-D3 Dispersion         =      -0.06882743 Ry
     one-center paw contrib.   =    -406.16358460 Ry

     total magnetization       =     1.73 Bohr mag/cell
     absolute magnetization    =     1.96 Bohr mag/cell

     convergence has been achieved in  14 iterations

     negative rho (up, down):  4.444E-05 4.889E-05

     Forces acting on atoms (cartesian axes, Ry/au):

     atom    1 type  1   force =     0.00000000   -0.00000000   -0.00481240
     atom    2 type  2   force =     0.00000000    0.00000000   -0.04868633
     atom    3 type  2   force =     0.00000000   -0.00000000    0.00085149
     atom    4 type  3   force =     0.00000000   -0.00000000    0.05264724
     The non-local contrib.  to forces
     atom    1 type  1   force =     0.00000000    0.00000000    0.00364270
     atom    2 type  2   force =     0.00000000    0.00000000   -0.14035971
     atom    3 type  2   force =     0.00000000    0.00000000    0.26712072
     atom    4 type  3   force =     0.00000000   -0.00000000    0.14407048
     The ionic contribution  to forces
     atom    1 type  1   force =     0.00000000    0.00000508  -36.48139233
     atom    2 type  2   force =    -0.00000000   -0.00000250   18.50786126
     atom    3 type  2   force =    -0.00000000   -0.00000250  -51.21917330
     atom    4 type  3   force =    -0.00000000   -0.00000008   69.19270436
     The local contribution  to forces
     atom    1 type  1   force =    -0.00000000   -0.00000307   36.46476468
     atom    2 type  2   force =    -0.00000000    0.00000173  -18.41921453
     atom    3 type  2   force =    -0.00000000    0.00000174   50.95269701
     atom    4 type  3   force =    -0.00000002    0.00000007  -69.26144594
     The core correction contribution to forces
     atom    1 type  1   force =     0.00000000    0.00000000    0.00051751
     atom    2 type  2   force =     0.00000000    0.00000000    0.00289269
     atom    3 type  2   force =     0.00000000    0.00000000   -0.00215114
     atom    4 type  3   force =    -0.00000000    0.00000000   -0.01314317
     The Hubbard contrib.    to forces
     atom    1 type  1   force =     0.00000000    0.00000000    0.00000000
     atom    2 type  2   force =     0.00000000    0.00000000    0.00000000
     atom    3 type  2   force =     0.00000000    0.00000000    0.00000000
     atom    4 type  3   force =     0.00000000    0.00000000    0.00000000
     The SCF correction term to forces
     atom    1 type  1   force =    -0.00000000   -0.00000000    0.00018924
     atom    2 type  2   force =     0.00000000   -0.00000000    0.00048840
     atom    3 type  2   force =    -0.00000000   -0.00000000   -0.00023611
     atom    4 type  3   force =     0.00000000   -0.00000000   -0.00014503

     DFT-D3 dispersion contribution to forces:
     atom    1 type  1   force =     0.00000000   -0.00000001    0.00738776
     atom    2 type  2   force =    -0.00000000    0.00000000   -0.00043250
     atom    3 type  2   force =    -0.00000000    0.00000000    0.00251625
     atom    4 type  3   force =    -0.00000000   -0.00000000   -0.00947151

     Total force =     0.071875     Total SCF correction =     0.000593


     Computing stress (Cartesian axis) and pressure


     negative rho (up, down):  4.444E-05 4.889E-05
          total   stress  (Ry/bohr**3)                   (kbar)     P=       -4.82
  -0.00011843   0.00000000   0.00000000          -17.42        0.00        0.00
   0.00000000  -0.00011843  -0.00000000            0.00      -17.42       -0.00
   0.00000000  -0.00000000   0.00013855            0.00       -0.00       20.38


     BFGS Geometry Optimization
     Energy error            =      0.0E+00 Ry
     Gradient error          =      5.3E-02 Ry/Bohr

     number of scf cycles    =   1
     number of bfgs steps    =   0

     energy             new  =    -658.6367739617 Ry

     new trust radius        =       0.0526472394 bohr
     new conv_thr            =       0.0000010000 Ry


ATOMIC_POSITIONS (crystal)
Mo           -0.0000000000       -0.0000000000        0.3798981365
S             0.6666666667        0.3333333333        0.4416318906
S             0.6666666667        0.3333333333        0.3173555868
Co            0.6666666667        0.3333333333        0.5237768273



     Writing config-only to output data dir ./tmp/scf.save/
     NEW-OLD atomic charge density approx. for the potential

     negative rho (up, down):  4.603E-05 5.217E-05
     Generating pointlists ...

     total cpu time spent up to now is       44.6 secs

     Self-consistent Calculation

     iteration #  1     ecut=    70.00 Ry     beta= 0.70
     Davidson diagonalization with overlap
     ethr =  1.00E-06,  avg # of iterations =  8.5

     negative rho (up, down):  4.557E-05 5.038E-05

     total cpu time spent up to now is       48.1 secs

     total energy              =    -658.63675000 Ry
     estimated scf accuracy    <       0.00515441 Ry

     total magnetization       =     1.77 Bohr mag/cell
     absolute magnetization    =     1.97 Bohr mag/cell

     iteration #  2     ecut=    70.00 Ry     beta= 0.70
     Davidson diagonalization with overlap
     ethr =  1.47E-05,  avg # of iterations =  8.6

     negative rho (up, down):  4.527E-05 5.105E-05

     total cpu time spent up to now is       51.1 secs

     total energy              =    -658.57462561 Ry
     estimated scf accuracy    <       2.04939962 Ry

     total magnetization       =     2.32 Bohr mag/cell
     absolute magnetization    =     2.66 Bohr mag/cell

     iteration #  3     ecut=    70.00 Ry     beta= 0.70
     Davidson diagonalization with overlap
     ethr =  1.47E-05,  avg # of iterations =  9.2

     negative rho (up, down):  4.479E-05 4.983E-05

     total cpu time spent up to now is       54.0 secs

     total energy              =    -658.63912333 Ry
     estimated scf accuracy    <       0.00515234 Ry

     total magnetization       =     1.75 Bohr mag/cell
     absolute magnetization    =     1.98 Bohr mag/cell

     iteration #  4     ecut=    70.00 Ry     beta= 0.70
     Davidson diagonalization with overlap
     ethr =  1.47E-05,  avg # of iterations =  2.4

     negative rho (up, down):  4.467E-05 4.920E-05

     total cpu time spent up to now is       56.4 secs

     total energy              =    -658.63979758 Ry
     estimated scf accuracy    <       0.00125580 Ry

     total magnetization       =     1.78 Bohr mag/cell
     absolute magnetization    =     1.99 Bohr mag/cell

     iteration #  5     ecut=    70.00 Ry     beta= 0.70
     Davidson diagonalization with overlap
     ethr =  3.59E-06,  avg # of iterations =  3.1

     negative rho (up, down):  4.466E-05 4.885E-05

     total cpu time spent up to now is       58.7 secs

     total energy              =    -658.63993159 Ry
     estimated scf accuracy    <       0.00124393 Ry

     total magnetization       =     1.79 Bohr mag/cell
     absolute magnetization    =     2.01 Bohr mag/cell

     iteration #  6     ecut=    70.00 Ry     beta= 0.70
     Davidson diagonalization with overlap
     ethr =  3.55E-06,  avg # of iterations =  2.0

     negative rho (up, down):  4.461E-05 4.875E-05

     total cpu time spent up to now is       61.0 secs

     total energy              =    -658.64007610 Ry
     estimated scf accuracy    <       0.00003693 Ry

     total magnetization       =     1.79 Bohr mag/cell
     absolute magnetization    =     2.01 Bohr mag/cell

     iteration #  7     ecut=    70.00 Ry     beta= 0.70
     Davidson diagonalization with overlap
     ethr =  1.06E-07,  avg # of iterations =  4.8

     negative rho (up, down):  4.458E-05 4.873E-05

     total cpu time spent up to now is       63.5 secs

     total energy              =    -658.64008829 Ry
     estimated scf accuracy    <       0.00003833 Ry

     total magnetization       =     1.78 Bohr mag/cell
     absolute magnetization    =     2.01 Bohr mag/cell

     iteration #  8     ecut=    70.00 Ry     beta= 0.70
     Davidson diagonalization with overlap
     ethr =  1.06E-07,  avg # of iterations =  2.0

     negative rho (up, down):  4.449E-05 4.869E-05

     total cpu time spent up to now is       65.7 secs

     total energy              =    -658.64009369 Ry
     estimated scf accuracy    <       0.00001318 Ry

     total magnetization       =     1.79 Bohr mag/cell
     absolute magnetization    =     2.01 Bohr mag/cell

     iteration #  9     ecut=    70.00 Ry     beta= 0.70
     Davidson diagonalization with overlap
     ethr =  3.77E-08,  avg # of iterations =  1.4

     negative rho (up, down):  4.448E-05 4.868E-05

     total cpu time spent up to now is       67.9 secs

     total energy              =    -658.64009442 Ry
     estimated scf accuracy    <       0.00000516 Ry

     total magnetization       =     1.78 Bohr mag/cell
     absolute magnetization    =     2.01 Bohr mag/cell

     iteration # 10     ecut=    70.00 Ry     beta= 0.70
     Davidson diagonalization with overlap
     ethr =  1.48E-08,  avg # of iterations =  1.3

     negative rho (up, down):  4.448E-05 4.868E-05

     total cpu time spent up to now is       70.1 secs

     total energy              =    -658.64009443 Ry
     estimated scf accuracy    <       0.00000211 Ry

     total magnetization       =     1.78 Bohr mag/cell
     absolute magnetization    =     2.01 Bohr mag/cell

     iteration # 11     ecut=    70.00 Ry     beta= 0.70
     Davidson diagonalization with overlap
     ethr =  6.03E-09,  avg # of iterations =  1.3

     negative rho (up, down):  4.449E-05 4.868E-05
 
     Magnetic moment per site  (integrated on atomic sphere of radius R)
     atom   1 (R=0.314)  charge= 10.7741  magn= -0.0348
     atom   2 (R=0.261)  charge=  2.9458  magn=  0.0218
     atom   3 (R=0.261)  charge=  2.8928  magn=  0.0034
     atom   4 (R=0.261)  charge=  6.5324  magn=  1.6476

     total cpu time spent up to now is       72.2 secs

     End of self-consistent calculation

 ------ SPIN UP ------------


          k = 0.0000 0.0000 0.0000 ( 14351 PWs)   bands (ev):

   -61.4558 -35.6234 -35.3989 -35.3989 -15.3333 -13.8557  -7.2346  -3.9583
    -3.5114  -3.5114  -3.2128  -2.4039  -2.4039  -1.8018  -1.8018  -1.3706
    -1.1297  -1.1297  -0.0917   2.0232   2.0232   2.2976

          k = 0.0000 0.0962 0.0000 ( 14357 PWs)   bands (ev):

   -61.4530 -35.6179 -35.4265 -35.4051 -15.2356 -13.8048  -7.1319  -4.0184
    -3.7791  -3.4270  -3.1377  -2.5626  -2.5459  -1.8222  -1.7641  -1.2811
    -1.1569  -1.1415  -0.0742   1.9254   2.0389   2.1315

          k = 0.0000 0.1925 0.0000 ( 14400 PWs)   bands (ev):

   -61.4455 -35.6029 -35.5014 -35.4222 -14.9599 -13.6581  -6.8681  -4.4597
    -4.1892  -3.2863  -3.0220  -2.7893  -2.7384  -1.8579  -1.6611  -1.3353
    -1.1860  -1.1583  -0.1034   1.6870   1.9132   1.9383

          k = 0.0000 0.2887 0.0000 ( 14448 PWs)   bands (ev):

   -61.4353 -35.6025 -35.5821 -35.4453 -14.5599 -13.4343  -6.5901  -5.1898
    -4.5761  -3.5060  -3.2242  -2.6392  -2.4950  -1.8044  -1.6032  -1.5154
    -1.2770  -1.1439  -0.1211   1.6716   1.6927   2.3098

          k = 0.0000 0.3849 0.0000 ( 14480 PWs)   bands (ev):

   -61.4251 -35.7017 -35.5616 -35.4683 -14.1290 -13.1693  -6.5409  -5.8018
    -4.9947  -3.8353  -3.4317  -2.3994  -2.3704  -1.8585  -1.5148  -1.3629
    -1.2620  -1.0659   0.1831   1.5575   1.9509   2.8215

          k = 0.0000 0.4811 0.0000 ( 14494 PWs)   bands (ev):

   -61.4175 -35.7735 -35.5464 -35.4851 -13.7939 -12.9306  -6.7911  -6.1263
    -5.2907  -4.0625  -3.6273  -2.4228  -2.2218  -1.7767  -1.5206  -1.2475
    -0.9579  -0.8943   0.8549   1.5866   2.2381   3.1616

          k = 0.0000-0.5774 0.0000 ( 14518 PWs)   bands (ev):

   -61.4148 -35.7995 -35.5408 -35.4912 -13.6680 -12.8282  -6.9451  -6.2287
    -5.3947  -4.1419  -3.7091  -2.4389  -2.1822  -1.6972  -1.5441  -1.2043
    -0.9101  -0.6765   1.3798   1.6306   2.3105   3.1758

          k = 0.0833 0.1443 0.0000 ( 14400 PWs)   bands (ev):

   -61.4479 -35.6076 -35.4764 -35.4182 -15.0488 -13.7059  -6.9471  -4.2330
    -4.1340  -3.3237  -3.0418  -2.8536  -2.6155  -1.8624  -1.6847  -1.2806
    -1.1921  -1.1259  -0.0823   1.7474   1.8433   1.9743

          k = 0.0833 0.2406 0.0000 ( 14456 PWs)   bands (ev):

   -61.4391 -35.5899 -35.5606 -35.4418 -14.7100 -13.5196  -6.6649  -4.8714
    -4.4005  -3.6560  -3.0668  -2.7461  -2.5030  -1.8982  -1.5405  -1.4681
    -1.2315  -1.1291  -0.1346   1.5477   1.7864   2.0019

          k = 0.0833 0.3368 0.0000 ( 14475 PWs)   bands (ev):

   -61.4288 -35.6565 -35.5691 -35.4692 -14.2916 -13.2715  -6.4777  -5.5121
    -4.8169  -4.0176  -3.1875  -2.6086  -2.3164  -1.8062  -1.7074  -1.3901
    -1.2194  -1.0890  -0.0316   1.5291   1.8638   2.4334

          k = 0.0833 0.4330 0.0000 ( 14478 PWs)   bands (ev):

   -61.4199 -35.7383 -35.5512 -35.4929 -13.9040 -13.0105  -6.5891  -5.9589
    -5.2295  -4.1615  -3.4365  -2.5839  -2.3029  -1.7899  -1.5111  -1.3670
    -1.0311  -0.9661   0.4735   1.6634   2.0945   2.9289

          k = 0.0833 0.5292 0.0000 ( 14500 PWs)   bands (ev):

   -61.4148 -35.7850 -35.5409 -35.5065 -13.6710 -12.8275  -6.8165  -6.1754
    -5.4465  -4.1844  -3.6791  -2.5856  -2.3103  -1.6616  -1.4778  -1.2873
    -0.9674  -0.7326   1.2643   1.7250   2.3269   3.1524

          k = 0.1667 0.2887 0.0000 ( 14482 PWs)   bands (ev):

   -61.4302 -35.6334 -35.5719 -35.4763 -14.3505 -13.3063  -6.4506  -5.3227
    -4.6983  -4.2540  -3.1477  -2.6822  -2.1725  -1.9644  -1.7082  -1.3651
    -1.1916  -1.0609  -0.1072   1.4584   1.8453   2.2084

          k = 0.1667 0.3849 0.0000 ( 14494 PWs)   bands (ev):

   -61.4213 -35.7015 -35.5540 -35.5143 -13.9691 -13.0523  -6.4016  -5.7035
    -5.2339  -4.3855  -3.3816  -2.8223  -2.1194  -1.8616  -1.7466  -1.3128
    -1.0438  -0.9550   0.2121   1.7387   1.9616   2.5685

          k = 0.1667 0.4811 0.0000 ( 14497 PWs)   bands (ev):

   -61.4148 -35.7497 -35.5433 -35.5409 -13.6771 -12.8258  -6.5330  -6.0176
    -5.5489  -4.3288  -3.7053  -3.0152  -2.1675  -1.7181  -1.5622  -1.2909
    -1.0120  -0.8325   0.9820   1.8424   2.3036   2.8847

          k = 0.1667 0.5774 0.0000 ( 14512 PWs)   bands (ev):

   -61.4124 -35.7670 -35.5541 -35.5361 -13.5681 -12.7306  -6.6192  -6.1422
    -5.6512  -4.2069  -3.9331  -3.0879  -2.1859  -1.6378  -1.4717  -1.3032
    -1.0134  -0.7216   1.4371   2.0280   2.3852   2.8553

          k = 0.2500 0.4330 0.0000 ( 14510 PWs)   bands (ev):

   -61.4148 -35.7261 -35.5676 -35.5409 -13.6802 -12.8247  -6.3773  -5.9215
    -5.5478  -4.4838  -3.8315  -3.0889  -1.9944  -1.8241  -1.7103  -1.2189
    -0.9942  -0.9072   0.8496   1.8289   2.2608   2.8036

          k = 0.2500 0.5292 0.0000 ( 14528 PWs)   bands (ev):

   -61.4110 -35.7312 -35.6074 -35.5333 -13.5100 -12.6723  -6.4356  -6.0042
    -5.6817  -4.6011  -4.0525  -3.3239  -1.9928  -1.6969  -1.6302  -1.2210
    -0.9987  -0.7439   1.2226   1.9637   2.4766   3.2161

          k = 0.3333 0.5774 0.0000 ( 14538 PWs)   bands (ev):

   -61.4097 -35.7019 -35.6535 -35.5305 -13.4485 -12.6122  -6.4787  -5.7461
    -5.6842  -5.0691  -4.0075  -3.4748  -1.8484  -1.7958  -1.6192  -1.2170
    -1.0145  -0.5972   1.0166   2.0631   2.6717   3.9299

 ------ SPIN DOWN ----------


          k = 0.0000 0.0000 0.0000 ( 14351 PWs)   bands (ev):

   -61.4854 -35.6646 -35.4269 -35.4269 -15.3000 -13.8418  -7.1915  -3.9020
    -3.4927  -3.4927  -2.3676  -2.3676  -2.1682  -1.1183  -0.2118  -0.2118
     0.1226   0.1226   0.8971   2.1033   2.1033   2.3707

          k = 0.0000 0.0962 0.0000 ( 14357 PWs)   bands (ev):

   -61.4827 -35.6592 -35.4545 -35.4332 -15.2016 -13.7912  -7.0857  -3.9699
    -3.7435  -3.4022  -2.5265  -2.5206  -2.0544  -1.1109  -0.2687  -0.2164
     0.0879   0.1679   0.9823   1.9739   2.1634   2.2520

          k = 0.0000 0.1925 0.0000 ( 14400 PWs)   bands (ev):

   -61.4752 -35.6442 -35.5292 -35.4502 -14.9240 -13.6455  -6.8126  -4.4025
    -4.1661  -3.2350  -2.7940  -2.7332  -1.8821  -1.2342  -0.3763  -0.2282
     0.0019   0.2939   1.0659   1.7752   2.0088   2.0928

          k = 0.0000 0.2887 0.0000 ( 14448 PWs)   bands (ev):

   -61.4650 -35.6302 -35.6234 -35.4733 -14.5205 -13.4236  -6.5261  -5.1149
    -4.5644  -3.4649  -3.0012  -2.6203  -1.6061  -1.4602  -0.4645  -0.2216
    -0.0667   0.4735   1.0324   1.7584   1.8932   2.4664

          k = 0.0000 0.3849 0.0000 ( 14480 PWs)   bands (ev):

   -61.4548 -35.7290 -35.6031 -35.4963 -14.0847 -13.1612  -6.4939  -5.7003
    -4.9703  -3.8052  -3.2587  -2.3008  -1.8435  -0.9893  -0.5324  -0.1611
     0.0975   0.6660   1.1440   1.6144   2.1660   2.9801

          k = 0.0000 0.4811 0.0000 ( 14494 PWs)   bands (ev):

   -61.4473 -35.8005 -35.5880 -35.5130 -13.7454 -12.9246  -6.7611  -6.0257
    -5.2467  -4.0367  -3.4639  -2.1000  -1.7382  -0.8160  -0.5910  -0.0696
     0.7262   0.8173   1.4077   1.6016   2.3669   3.3293

          k = 0.0000-0.5774 0.0000 ( 14518 PWs)   bands (ev):

   -61.4445 -35.8265 -35.5825 -35.5191 -13.6181 -12.8227  -6.9163  -6.1375
    -5.3446  -4.1172  -3.5415  -2.0392  -1.6211  -0.7972  -0.6160  -0.0272
     0.8747   1.2408   1.5423   1.6264   2.3588   3.4126

          k = 0.0833 0.1443 0.0000 ( 14400 PWs)   bands (ev):

   -61.4776 -35.6490 -35.5042 -35.4462 -15.0136 -13.6929  -6.8945  -4.1750
    -4.1078  -3.2806  -2.8810  -2.5437  -1.9356  -1.1619  -0.3594  -0.2167
     0.0262   0.2559   1.0681   1.7752   2.0232   2.0771

          k = 0.0833 0.2406 0.0000 ( 14456 PWs)   bands (ev):

   -61.4687 -35.6313 -35.5883 -35.4698 -14.6720 -13.5081  -6.6018  -4.8024
    -4.3844  -3.6110  -2.9230  -2.5581  -1.6556  -1.4055  -0.4644  -0.2106
    -0.0655   0.4206   1.0446   1.6876   1.8772   2.1924

          k = 0.0833 0.3368 0.0000 ( 14475 PWs)   bands (ev):

   -61.4585 -35.6839 -35.6107 -35.4972 -14.2493 -13.2624  -6.4172  -5.4169
    -4.8013  -3.9851  -2.9957  -2.5245  -1.7225  -1.1354  -0.5230  -0.1781
    -0.0891   0.6386   1.0262   1.6605   2.0231   2.6195

          k = 0.0833 0.4330 0.0000 ( 14478 PWs)   bands (ev):

   -61.4496 -35.7654 -35.5928 -35.5208 -13.8570 -13.0038  -6.5536  -5.8505
    -5.1902  -4.1313  -3.2677  -2.5053  -1.6860  -0.7885  -0.5438  -0.1217
     0.2180   0.9083   1.1427   1.7574   2.2679   3.0727

          k = 0.0833 0.5292 0.0000 ( 14500 PWs)   bands (ev):

   -61.4445 -35.8120 -35.5825 -35.5344 -13.6212 -12.8220  -6.7866  -6.0862
    -5.3888  -4.1568  -3.5077  -2.4752  -1.4959  -0.7300  -0.5632  -0.0724
     0.5977   1.1932   1.5063   1.8045   2.4303   3.2425

          k = 0.1667 0.2887 0.0000 ( 14482 PWs)   bands (ev):

   -61.4599 -35.6608 -35.6134 -35.5042 -14.3089 -13.2968  -6.3846  -5.2243
    -4.6858  -4.2316  -3.0138  -2.4658  -1.6549  -1.1960  -0.5408  -0.1829
    -0.1376   0.6401   0.9852   1.6333   1.9379   2.4447

          k = 0.1667 0.3849 0.0000 ( 14494 PWs)   bands (ev):

   -61.4510 -35.7288 -35.5956 -35.5421 -13.9229 -13.0451  -6.3553  -5.5778
    -5.2087  -4.3554  -3.2970  -2.6622  -1.6871  -0.6847  -0.5240  -0.1764
    -0.1200   0.9139   1.0203   1.8728   2.0840   2.8034

          k = 0.1667 0.4811 0.0000 ( 14497 PWs)   bands (ev):

   -61.4445 -35.7768 -35.5826 -35.5710 -13.6275 -12.8201  -6.4997  -5.9404
    -5.4625  -4.2857  -3.6014  -2.9341  -1.4797  -0.5498  -0.4713  -0.1496
     0.1723   1.0329   1.4538   1.9535   2.4181   3.0843

          k = 0.1667 0.5774 0.0000 ( 14512 PWs)   bands (ev):

   -61.4421 -35.7941 -35.5818 -35.5777 -13.5173 -12.7252  -6.5861  -6.0837
    -5.5541  -4.1635  -3.8049  -3.0331  -1.3309  -0.5476  -0.4639  -0.1467
     0.3447   1.1260   1.5603   2.2506   2.5483   3.0186

          k = 0.2500 0.4330 0.0000 ( 14510 PWs)   bands (ev):

   -61.4445 -35.7533 -35.5953 -35.5826 -13.6307 -12.8190  -6.3408  -5.8663
    -5.4199  -4.4357  -3.8148  -2.9501  -1.5082  -0.4616  -0.2784  -0.2167
    -0.1310   0.9499   1.4394   1.9658   2.3251   3.1020

          k = 0.2500 0.5292 0.0000 ( 14528 PWs)   bands (ev):

   -61.4408 -35.7583 -35.6350 -35.5750 -13.4587 -12.6669  -6.4062  -5.9716
    -5.5269  -4.5354  -4.0299  -3.2365  -1.2562  -0.3789  -0.3026  -0.2109
     0.0704   1.0051   1.3736   2.2626   2.6085   3.4808

          k = 0.3333 0.5774 0.0000 ( 14538 PWs)   bands (ev):

   -61.4394 -35.7291 -35.6811 -35.5723 -13.3966 -12.6068  -6.4590  -5.7147
    -5.4860  -5.0508  -3.9666  -3.4037  -1.1350  -0.2969  -0.2570  -0.1167
    -0.0411   0.9949   1.1171   2.3041   2.8571   4.0691

     the Fermi energy is     0.1101 ev

!    total energy              =    -658.64009424 Ry
     total all-electron energy =    -12481.813985 Ry
     estimated scf accuracy    <       0.00000032 Ry
     smearing contrib. (-TS)   =      -0.00083902 Ry
     internal energy E=F+TS    =    -658.63925522 Ry

     The total energy is F=E-TS. E is the sum of the following terms:
     one-electron contribution =   -2201.33156967 Ry
     hartree contribution      =    1112.05755838 Ry
     xc contribution           =     -62.37283993 Ry
     ewald contribution        =     899.23926241 Ry
     DFT-D3 Dispersion         =      -0.06830824 Ry
     one-center paw contrib.   =    -406.16335818 Ry

     total magnetization       =     1.78 Bohr mag/cell
     absolute magnetization    =     2.01 Bohr mag/cell

     convergence has been achieved in  11 iterations

     negative rho (up, down):  4.449E-05 4.868E-05

     Forces acting on atoms (cartesian axes, Ry/au):

     atom    1 type  1   force =     0.00000000   -0.00000000   -0.01625681
     atom    2 type  2   force =     0.00000000   -0.00000000   -0.00531212
     atom    3 type  2   force =     0.00000000   -0.00000000   -0.00294703
     atom    4 type  3   force =     0.00000000    0.00000000    0.02451595
     The non-local contrib.  to forces
     atom    1 type  1   force =     0.00000000    0.00000000    0.00625589
     atom    2 type  2   force =     0.00000000   -0.00000000   -0.12091742
     atom    3 type  2   force =     0.00000000    0.00000000    0.26579696
     atom    4 type  3   force =     0.00000000   -0.00000000    0.14115485
     The ionic contribution  to forces
     atom    1 type  1   force =     0.00000000    0.00000519  -36.30587090
     atom    2 type  2   force =    -0.00000000   -0.00000260   18.74245896
     atom    3 type  2   force =    -0.00000000   -0.00000251  -51.19822530
     atom    4 type  3   force =    -0.00000000   -0.00000008   68.76163724
     The local contribution  to forces
     atom    1 type  1   force =     0.00000000   -0.00000313   36.27445600
     atom    2 type  2   force =    -0.00000000    0.00000180  -18.62960002
     atom    3 type  2   force =    -0.00000000    0.00000175   50.92920770
     atom    4 type  3   force =    -0.00000002    0.00000007  -68.85922077
     The core correction contribution to forces
     atom    1 type  1   force =    -0.00000000    0.00000000    0.00027873
     atom    2 type  2   force =     0.00000000    0.00000000    0.00162745
     atom    3 type  2   force =     0.00000000    0.00000000   -0.00209418
     atom    4 type  3   force =    -0.00000000    0.00000000   -0.01060632
     The Hubbard contrib.    to forces
     atom    1 type  1   force =     0.00000000    0.00000000    0.00000000
     atom    2 type  2   force =     0.00000000    0.00000000    0.00000000
     atom    3 type  2   force =     0.00000000    0.00000000    0.00000000
     atom    4 type  3   force =     0.00000000    0.00000000    0.00000000
     The SCF correction term to forces
     atom    1 type  1   force =     0.00000000    0.00000000    0.00139665
     atom    2 type  2   force =    -0.00000000   -0.00000000    0.00135121
     atom    3 type  2   force =     0.00000000   -0.00000000   -0.00011646
     atom    4 type  3   force =    -0.00000000    0.00000000    0.00115072

     DFT-D3 dispersion contribution to forces:
     atom    1 type  1   force =     0.00000000   -0.00000001    0.00725706
     atom    2 type  2   force =    -0.00000000    0.00000000   -0.00020205
     atom    3 type  2   force =    -0.00000000    0.00000000    0.00251450
     atom    4 type  3   force =    -0.00000000   -0.00000000   -0.00956951

     Total force =     0.030037     Total SCF correction =     0.002261


     Computing stress (Cartesian axis) and pressure


     negative rho (up, down):  4.449E-05 4.868E-05
          total   stress  (Ry/bohr**3)                   (kbar)     P=       -6.08
  -0.00011234   0.00000000   0.00000000          -16.53        0.00        0.00
   0.00000000  -0.00011234   0.00000000            0.00      -16.53        0.00
   0.00000000   0.00000000   0.00010078            0.00        0.00       14.83

     Energy error            =      3.3E-03 Ry
     Gradient error          =      2.5E-02 Ry/Bohr

     number of scf cycles    =   2
     number of bfgs steps    =   1

     energy             old  =    -658.6367739617 Ry
     energy             new  =    -658.6400942399 Ry

     CASE: energy            _new < energy            _old

     new trust radius        =       0.0442492825 bohr
     new conv_thr            =       0.0000002452 Ry


ATOMIC_POSITIONS (crystal)
Mo           -0.0000000000       -0.0000000000        0.3793796923
S             0.6666666667        0.3333333333        0.4413018108
S             0.6666666667        0.3333333333        0.3172674824
Co            0.6666666667        0.3333333333        0.5247134557



     Writing config-only to output data dir ./tmp/scf.save/
     NEW-OLD atomic charge density approx. for the potential

     negative rho (up, down):  4.593E-05 5.402E-05
     Generating pointlists ...

     total cpu time spent up to now is       79.5 secs

     Self-consistent Calculation

     iteration #  1     ecut=    70.00 Ry     beta= 0.70
     Davidson diagonalization with overlap
     ethr =  1.00E-06,  avg # of iterations =  7.6

     negative rho (up, down):  4.714E-05 5.113E-05

     total cpu time spent up to now is       83.0 secs

     total energy              =    -658.63983298 Ry
     estimated scf accuracy    <       0.00232230 Ry

     total magnetization       =     1.80 Bohr mag/cell
     absolute magnetization    =     2.02 Bohr mag/cell

     iteration #  2     ecut=    70.00 Ry     beta= 0.70
     Davidson diagonalization with overlap
     ethr =  6.64E-06,  avg # of iterations =  7.7

     negative rho (up, down):  4.528E-05 5.047E-05

     total cpu time spent up to now is       86.1 secs

     total energy              =    -658.62587500 Ry
     estimated scf accuracy    <       0.37574146 Ry

     total magnetization       =     2.06 Bohr mag/cell
     absolute magnetization    =     2.34 Bohr mag/cell

     iteration #  3     ecut=    70.00 Ry     beta= 0.70
     Davidson diagonalization with overlap
     ethr =  6.64E-06,  avg # of iterations =  8.0

     negative rho (up, down):  4.487E-05 5.008E-05

     total cpu time spent up to now is       89.1 secs

     total energy              =    -658.64030681 Ry
     estimated scf accuracy    <       0.00533768 Ry

     total magnetization       =     1.79 Bohr mag/cell
     absolute magnetization    =     2.01 Bohr mag/cell

     iteration #  4     ecut=    70.00 Ry     beta= 0.70
     Davidson diagonalization with overlap
     ethr =  6.64E-06,  avg # of iterations =  3.7

     negative rho (up, down):  4.457E-05 4.910E-05

     total cpu time spent up to now is       91.5 secs

     total energy              =    -658.64093587 Ry
     estimated scf accuracy    <       0.00123600 Ry

     total magnetization       =     1.81 Bohr mag/cell
     absolute magnetization    =     2.03 Bohr mag/cell

     iteration #  5     ecut=    70.00 Ry     beta= 0.70
     Davidson diagonalization with overlap
     ethr =  3.53E-06,  avg # of iterations =  2.4

     negative rho (up, down):  4.444E-05 4.842E-05

     total cpu time spent up to now is       93.8 secs

     total energy              =    -658.64109039 Ry
     estimated scf accuracy    <       0.00041885 Ry

     total magnetization       =     1.82 Bohr mag/cell
     absolute magnetization    =     2.04 Bohr mag/cell

     iteration #  6     ecut=    70.00 Ry     beta= 0.70
     Davidson diagonalization with overlap
     ethr =  1.20E-06,  avg # of iterations =  1.7

     negative rho (up, down):  4.440E-05 4.833E-05

     total cpu time spent up to now is       96.0 secs

     total energy              =    -658.64114554 Ry
     estimated scf accuracy    <       0.00002446 Ry

     total magnetization       =     1.82 Bohr mag/cell
     absolute magnetization    =     2.04 Bohr mag/cell

     iteration #  7     ecut=    70.00 Ry     beta= 0.70
     Davidson diagonalization with overlap
     ethr =  6.99E-08,  avg # of iterations =  3.3

     negative rho (up, down):  4.438E-05 4.832E-05

     total cpu time spent up to now is       98.4 secs

     total energy              =    -658.64115061 Ry
     estimated scf accuracy    <       0.00001522 Ry

     total magnetization       =     1.81 Bohr mag/cell
     absolute magnetization    =     2.04 Bohr mag/cell

     iteration #  8     ecut=    70.00 Ry     beta= 0.70
     Davidson diagonalization with overlap
     ethr =  4.35E-08,  avg # of iterations =  2.3

     negative rho (up, down):  4.435E-05 4.830E-05

     total cpu time spent up to now is      100.7 secs

     total energy              =    -658.64115296 Ry
     estimated scf accuracy    <       0.00000388 Ry

     total magnetization       =     1.82 Bohr mag/cell
     absolute magnetization    =     2.04 Bohr mag/cell

     iteration #  9     ecut=    70.00 Ry     beta= 0.70
     Davidson diagonalization with overlap
     ethr =  1.11E-08,  avg # of iterations =  1.8

     negative rho (up, down):  4.435E-05 4.830E-05

     total cpu time spent up to now is      103.0 secs

     total energy              =    -658.64115324 Ry
     estimated scf accuracy    <       0.00000076 Ry

     total magnetization       =     1.82 Bohr mag/cell
     absolute magnetization    =     2.04 Bohr mag/cell

     iteration # 10     ecut=    70.00 Ry     beta= 0.70
     Davidson diagonalization with overlap
     ethr =  2.18E-09,  avg # of iterations =  3.4

     negative rho (up, down):  4.435E-05 4.831E-05
 
     Magnetic moment per site  (integrated on atomic sphere of radius R)
     atom   1 (R=0.314)  charge= 10.7751  magn= -0.0332
     atom   2 (R=0.261)  charge=  2.9384  magn=  0.0215
     atom   3 (R=0.261)  charge=  2.8964  magn=  0.0031
     atom   4 (R=0.261)  charge=  6.5243  magn=  1.6781

     total cpu time spent up to now is      105.3 secs

     End of self-consistent calculation

 ------ SPIN UP ------------


          k = 0.0000 0.0000 0.0000 ( 14351 PWs)   bands (ev):

   -61.4764 -35.6444 -35.4206 -35.4206 -15.3274 -13.8669  -7.2216  -3.9877
    -3.5227  -3.5227  -3.1948  -2.4275  -2.4275  -1.8248  -1.8248  -1.3542
    -1.1160  -1.1160  -0.1357   1.9895   1.9909   2.3002

          k = 0.0000 0.0962 0.0000 ( 14357 PWs)   bands (ev):

   -61.4737 -35.6389 -35.4483 -35.4268 -15.2288 -13.8171  -7.1181  -4.0453
    -3.7842  -3.4320  -3.1254  -2.5847  -2.5769  -1.8451  -1.7874  -1.2652
    -1.1464  -1.1266  -0.1203   1.8876   2.0429   2.0883

          k = 0.0000 0.1925 0.0000 ( 14400 PWs)   bands (ev):

   -61.4662 -35.6239 -35.5233 -35.4439 -14.9504 -13.6737  -6.8521  -4.4648
    -4.2053  -3.2617  -3.0121  -2.8499  -2.7593  -1.8805  -1.6849  -1.3260
    -1.1791  -1.1430  -0.1537   1.6812   1.8926   1.9079

          k = 0.0000 0.2887 0.0000 ( 14448 PWs)   bands (ev):

   -61.4560 -35.6244 -35.6032 -35.4671 -14.5455 -13.4558  -6.5732  -5.1789
    -4.5983  -3.4945  -3.2215  -2.6811  -2.5065  -1.8223  -1.5971  -1.5399
    -1.2880  -1.1335  -0.1709   1.6516   1.6852   2.2799

          k = 0.0000 0.3849 0.0000 ( 14480 PWs)   bands (ev):

   -61.4457 -35.7239 -35.5825 -35.4901 -14.1082 -13.1987  -6.5317  -5.7754
    -5.0133  -3.8350  -3.4296  -2.4120  -2.3884  -1.8573  -1.5215  -1.3880
    -1.2936  -1.0674   0.1383   1.5364   1.9396   2.7931

          k = 0.0000 0.4811 0.0000 ( 14494 PWs)   bands (ev):

   -61.4382 -35.7957 -35.5673 -35.5069 -13.7677 -12.9671  -6.7849  -6.1009
    -5.2982  -4.0660  -3.6243  -2.4362  -2.2233  -1.7787  -1.5271  -1.2731
    -0.9713  -0.9403   0.8254   1.5640   2.2244   3.1312

          k = 0.0000-0.5774 0.0000 ( 14518 PWs)   bands (ev):

   -61.4354 -35.8219 -35.5617 -35.5131 -13.6400 -12.8673  -6.9372  -6.2079
    -5.3974  -4.1463  -3.7053  -2.4525  -2.1779  -1.7014  -1.5487  -1.2302
    -0.9277  -0.7314   1.3674   1.6073   2.2943   3.1379

          k = 0.0833 0.1443 0.0000 ( 14400 PWs)   bands (ev):

   -61.4686 -35.6287 -35.4982 -35.4399 -15.0402 -13.7204  -6.9317  -4.2544
    -4.1347  -3.3091  -3.0423  -2.8858  -2.6467  -1.8850  -1.7085  -1.2681
    -1.1817  -1.1136  -0.1318   1.7455   1.8097   1.9520

          k = 0.0833 0.2406 0.0000 ( 14456 PWs)   bands (ev):

   -61.4597 -35.6108 -35.5826 -35.4636 -14.6976 -13.5387  -6.6473  -4.8696
    -4.4158  -3.6551  -3.0545  -2.7783  -2.5279  -1.9203  -1.5620  -1.4581
    -1.2345  -1.1216  -0.1845   1.5396   1.7765   1.9621

          k = 0.0833 0.3368 0.0000 ( 14475 PWs)   bands (ev):

   -61.4494 -35.6786 -35.5901 -35.4910 -14.2734 -13.2977  -6.4628  -5.4924
    -4.8393  -4.0189  -3.1733  -2.6380  -2.3322  -1.8113  -1.7132  -1.4034
    -1.2499  -1.0885  -0.0762   1.5107   1.8559   2.3991

          k = 0.0833 0.4330 0.0000 ( 14478 PWs)   bands (ev):

   -61.4405 -35.7605 -35.5722 -35.5147 -13.8797 -13.0445  -6.5815  -5.9316
    -5.2427  -4.1641  -3.4271  -2.5976  -2.3202  -1.7841  -1.5222  -1.3904
    -1.0510  -0.9973   0.4400   1.6415   2.0822   2.8989

          k = 0.0833 0.5292 0.0000 ( 14500 PWs)   bands (ev):

   -61.4354 -35.8073 -35.5618 -35.5283 -13.6431 -12.8663  -6.8069  -6.1579
    -5.4479  -4.1882  -3.6704  -2.5907  -2.3271  -1.6558  -1.4881  -1.3136
    -0.9862  -0.7812   1.2445   1.7041   2.3103   3.1400

          k = 0.1667 0.2887 0.0000 ( 14482 PWs)   bands (ev):

   -61.4508 -35.6554 -35.5929 -35.4981 -14.3332 -13.3314  -6.4328  -5.3077
    -4.7215  -4.2547  -3.1349  -2.7072  -2.1892  -1.9864  -1.6974  -1.3753
    -1.2186  -1.0676  -0.1499   1.4453   1.8402   2.1646

          k = 0.1667 0.3849 0.0000 ( 14494 PWs)   bands (ev):

   -61.4419 -35.7237 -35.5750 -35.5361 -13.9459 -13.0846  -6.3891  -5.6726
    -5.2597  -4.3799  -3.3796  -2.8360  -2.1373  -1.8651  -1.7507  -1.3295
    -1.0528  -0.9999   0.1820   1.7263   1.9482   2.5296

          k = 0.1667 0.4811 0.0000 ( 14497 PWs)   bands (ev):

   -61.4354 -35.7719 -35.5652 -35.5618 -13.6495 -12.8639  -6.5188  -6.0103
    -5.5443  -4.3223  -3.7052  -3.0240  -2.1878  -1.7091  -1.5793  -1.3111
    -1.0321  -0.8766   0.9598   1.8226   2.2969   2.8548

          k = 0.1667 0.5774 0.0000 ( 14512 PWs)   bands (ev):

   -61.4330 -35.7893 -35.5760 -35.5570 -13.5391 -12.7708  -6.6012  -6.1468
    -5.6368  -4.1970  -3.9345  -3.0963  -2.2066  -1.6278  -1.4904  -1.3231
    -1.0403  -0.7635   1.4142   2.0162   2.3683   2.8434

          k = 0.2500 0.4330 0.0000 ( 14510 PWs)   bands (ev):

   -61.4354 -35.7483 -35.5895 -35.5618 -13.6527 -12.8626  -6.3604  -5.9231
    -5.5357  -4.4669  -3.8529  -3.0884  -2.0157  -1.8335  -1.7079  -1.2367
    -1.0143  -0.9539   0.8277   1.8132   2.2579   2.7613

          k = 0.2500 0.5292 0.0000 ( 14528 PWs)   bands (ev):

   -61.4316 -35.7534 -35.6294 -35.5542 -13.4805 -12.7130  -6.4219  -6.0158
    -5.6485  -4.5921  -4.0662  -3.3259  -2.0143  -1.7087  -1.6270  -1.2360
    -1.0430  -0.7731   1.1982   1.9530   2.4654   3.1933

          k = 0.3333 0.5774 0.0000 ( 14538 PWs)   bands (ev):

   -61.4303 -35.7243 -35.6754 -35.5514 -13.4184 -12.6537  -6.4793  -5.7357
    -5.6384  -5.0899  -4.0071  -3.4802  -1.8684  -1.8173  -1.6074  -1.2314
    -1.0645  -0.6226   0.9899   2.0613   2.6472   3.9174

 ------ SPIN DOWN ----------


          k = 0.0000 0.0000 0.0000 ( 14351 PWs)   bands (ev):

   -61.5047 -35.6832 -35.4476 -35.4476 -15.2963 -13.8533  -7.1821  -3.9323
    -3.5081  -3.5081  -2.3951  -2.3951  -2.1462  -1.0864  -0.1639  -0.1639
     0.1344   0.1344   0.9073   2.0817   2.0818   2.3534

          k = 0.0000 0.0962 0.0000 ( 14357 PWs)   bands (ev):

   -61.5019 -35.6778 -35.4752 -35.4538 -15.1971 -13.8038  -7.0757  -3.9979
    -3.7559  -3.4124  -2.5546  -2.5531  -2.0282  -1.0840  -0.2271  -0.1687
     0.0999   0.1796   0.9928   1.9715   2.1254   2.2351

          k = 0.0000 0.1925 0.0000 ( 14400 PWs)   bands (ev):

   -61.4945 -35.6628 -35.5501 -35.4709 -14.9168 -13.6613  -6.8011  -4.4132
    -4.1854  -3.2165  -2.8539  -2.7548  -1.8577  -1.2173  -0.3464  -0.1820
     0.0138   0.3053   1.0739   1.7881   1.9896   2.0415

          k = 0.0000 0.2887 0.0000 ( 14448 PWs)   bands (ev):

   -61.4843 -35.6510 -35.6421 -35.4940 -14.5086 -13.4452  -6.5144  -5.1101
    -4.5871  -3.4601  -3.0080  -2.6619  -1.5959  -1.4499  -0.4436  -0.1802
    -0.0562   0.4846   1.0364   1.7376   1.8976   2.4270

          k = 0.0000 0.3849 0.0000 ( 14480 PWs)   bands (ev):

   -61.4740 -35.7501 -35.6216 -35.5170 -14.0665 -13.1909  -6.4892  -5.6810
    -4.9884  -3.8099  -3.2594  -2.3239  -1.8419  -0.9754  -0.5164  -0.1290
     0.1028   0.6769   1.1437   1.5926   2.1619   2.9460

          k = 0.0000 0.4811 0.0000 ( 14494 PWs)   bands (ev):

   -61.4665 -35.8218 -35.6064 -35.5338 -13.7217 -12.9615  -6.7576  -6.0090
    -5.2535  -4.0443  -3.4611  -2.1105  -1.7380  -0.8002  -0.5764  -0.0473
     0.7312   0.8279   1.4017   1.5789   2.3551   3.2984

          k = 0.0000-0.5774 0.0000 ( 14518 PWs)   bands (ev):

   -61.4637 -35.8479 -35.6009 -35.5399 -13.5925 -12.8623  -6.9109  -6.1250
    -5.3471  -4.1256  -3.5371  -2.0449  -1.6196  -0.7820  -0.6018  -0.0089
     0.8853   1.2434   1.5397   1.6034   2.3432   3.3867

          k = 0.0833 0.1443 0.0000 ( 14400 PWs)   bands (ev):

   -61.4968 -35.6675 -35.5250 -35.4669 -15.0072 -13.7077  -6.8834  -4.2036
    -4.1106  -3.2722  -2.9265  -2.5762  -1.9069  -1.1425  -0.3244  -0.1727
     0.0386   0.2674   1.0776   1.7907   1.9701   2.0555

          k = 0.0833 0.2406 0.0000 ( 14456 PWs)   bands (ev):

   -61.4880 -35.6498 -35.6092 -35.4905 -14.6620 -13.5274  -6.5891  -4.8076
    -4.4007  -3.6135  -2.9376  -2.5927  -1.6377  -1.3960  -0.4368  -0.1740
    -0.0523   0.4318   1.0510   1.6861   1.8674   2.1459

          k = 0.0833 0.3368 0.0000 ( 14475 PWs)   bands (ev):

   -61.4778 -35.7049 -35.6292 -35.5179 -14.2336 -13.2887  -6.4076  -5.4037
    -4.8234  -3.9900  -2.9871  -2.5589  -1.7182  -1.1263  -0.5037  -0.1481
    -0.0788   0.6487   1.0307   1.6407   2.0247   2.5785

          k = 0.0833 0.4330 0.0000 ( 14478 PWs)   bands (ev):

   -61.4689 -35.7866 -35.6113 -35.5416 -13.8351 -13.0381  -6.5493  -5.8328
    -5.2015  -4.1377  -3.2598  -2.5231  -1.6869  -0.7745  -0.5310  -0.0964
     0.2217   0.9170   1.1431   1.7360   2.2615   3.0392

          k = 0.0833 0.5292 0.0000 ( 14500 PWs)   bands (ev):

   -61.4637 -35.8333 -35.6009 -35.5552 -13.5957 -12.8612  -6.7797  -6.0781
    -5.3888  -4.1644  -3.4991  -2.4844  -1.4961  -0.7154  -0.5513  -0.0525
     0.6035   1.1996   1.5001   1.7866   2.4156   3.2287

          k = 0.1667 0.2887 0.0000 ( 14482 PWs)   bands (ev):

   -61.4791 -35.6818 -35.6319 -35.5249 -14.2941 -13.3220  -6.3724  -5.2166
    -4.7084  -4.2350  -3.0137  -2.4912  -1.6488  -1.1900  -0.5178  -0.1705
    -0.1119   0.6495   0.9928   1.6199   1.9354   2.3999

          k = 0.1667 0.3849 0.0000 ( 14494 PWs)   bands (ev):

   -61.4703 -35.7499 -35.6141 -35.5629 -13.9022 -13.0777  -6.3474  -5.5571
    -5.2314  -4.3533  -3.3008  -2.6721  -1.6873  -0.6772  -0.5114  -0.1645
    -0.1027   0.9144   1.0356   1.8538   2.0833   2.7589

          k = 0.1667 0.4811 0.0000 ( 14497 PWs)   bands (ev):

   -61.4637 -35.7980 -35.6009 -35.5919 -13.6022 -12.8587  -6.4884  -5.9473
    -5.4521  -4.2847  -3.6018  -2.9418  -1.4806  -0.5353  -0.4651  -0.1288
     0.1748   1.0389   1.4558   1.9330   2.4174   3.0502

          k = 0.1667 0.5774 0.0000 ( 14512 PWs)   bands (ev):

   -61.4614 -35.8154 -35.6027 -35.5961 -13.4906 -12.7659  -6.5709  -6.0993
    -5.5373  -4.1632  -3.8010  -3.0419  -1.3302  -0.5348  -0.4560  -0.1281
     0.3483   1.1320   1.5470   2.2403   2.5416   3.0002

          k = 0.2500 0.4330 0.0000 ( 14510 PWs)   bands (ev):

   -61.4637 -35.7745 -35.6162 -35.6010 -13.6055 -12.8573  -6.3270  -5.8825
    -5.4022  -4.4225  -3.8370  -2.9475  -1.5093  -0.4490  -0.2685  -0.2042
    -0.1270   0.9579   1.4433   1.9456   2.3265   3.0613

          k = 0.2500 0.5292 0.0000 ( 14528 PWs)   bands (ev):

   -61.4600 -35.7796 -35.6560 -35.5934 -13.4314 -12.7082  -6.3955  -5.9901
    -5.4966  -4.5293  -4.0439  -3.2368  -1.2526  -0.3696  -0.2922  -0.1977
     0.0715   1.0090   1.3648   2.2517   2.6003   3.4641

          k = 0.3333 0.5774 0.0000 ( 14538 PWs)   bands (ev):

   -61.4586 -35.7504 -35.7020 -35.5906 -13.3688 -12.6489  -6.4621  -5.7079
    -5.4483  -5.0720  -3.9678  -3.4069  -1.1260  -0.2810  -0.2488  -0.1113
    -0.0427   0.9695   1.1358   2.2947   2.8401   4.0646

     the Fermi energy is     0.1087 ev

!    total energy              =    -658.64115326 Ry
     total all-electron energy =    -12481.815044 Ry
     estimated scf accuracy    <       0.00000010 Ry
     smearing contrib. (-TS)   =      -0.00091060 Ry
     internal energy E=F+TS    =    -658.64024265 Ry

     The total energy is F=E-TS. E is the sum of the following terms:
     one-electron contribution =   -2193.63700127 Ry
     hartree contribution      =    1108.19500980 Ry
     xc contribution           =     -62.36429070 Ry
     ewald contribution        =     895.39669272 Ry
     DFT-D3 Dispersion         =      -0.06770181 Ry
     one-center paw contrib.   =    -406.16295139 Ry

     total magnetization       =     1.82 Bohr mag/cell
     absolute magnetization    =     2.04 Bohr mag/cell

     convergence has been achieved in  10 iterations

     negative rho (up, down):  4.435E-05 4.831E-05

     Forces acting on atoms (cartesian axes, Ry/au):

     atom    1 type  1   force =     0.00000000    0.00000000   -0.00692180
     atom    2 type  2   force =     0.00000000   -0.00000000    0.00567018
     atom    3 type  2   force =     0.00000000   -0.00000000   -0.00969694
     atom    4 type  3   force =     0.00000000    0.00000000    0.01094857
     The non-local contrib.  to forces
     atom    1 type  1   force =     0.00000000    0.00000000    0.00162023
     atom    2 type  2   force =     0.00000000   -0.00000000   -0.11564506
     atom    3 type  2   force =     0.00000000    0.00000000    0.26313431
     atom    4 type  3   force =     0.00000000    0.00000000    0.13748831
     The ionic contribution  to forces
     atom    1 type  1   force =     0.00000000    0.00000521  -36.20156430
     atom    2 type  2   force =    -0.00000000   -0.00000258   18.90818984
     atom    3 type  2   force =    -0.00000000   -0.00000256  -51.13310871
     atom    4 type  3   force =    -0.00000000   -0.00000007   68.42648316
     The local contribution  to forces
     atom    1 type  1   force =    -0.00000000   -0.00000314   36.18529123
     atom    2 type  2   force =    -0.00000000    0.00000179  -18.78834840
     atom    3 type  2   force =    -0.00000000    0.00000178   50.85997819
     atom    4 type  3   force =    -0.00000002    0.00000006  -68.53495220
     The core correction contribution to forces
     atom    1 type  1   force =    -0.00000000    0.00000000    0.00052108
     atom    2 type  2   force =     0.00000000    0.00000000    0.00120862
     atom    3 type  2   force =     0.00000000    0.00000000   -0.00195535
     atom    4 type  3   force =    -0.00000000    0.00000000   -0.00930744
     The Hubbard contrib.    to forces
     atom    1 type  1   force =     0.00000000    0.00000000    0.00000000
     atom    2 type  2   force =     0.00000000    0.00000000    0.00000000
     atom    3 type  2   force =     0.00000000    0.00000000    0.00000000
     atom    4 type  3   force =     0.00000000    0.00000000    0.00000000
     The SCF correction term to forces
     atom    1 type  1   force =     0.00000000   -0.00000000    0.00015599
     atom    2 type  2   force =     0.00000000   -0.00000000    0.00039896
     atom    3 type  2   force =    -0.00000000   -0.00000000   -0.00018460
     atom    4 type  3   force =    -0.00000000   -0.00000000    0.00079928

     DFT-D3 dispersion contribution to forces:
     atom    1 type  1   force =     0.00000000   -0.00000001    0.00710475
     atom    2 type  2   force =    -0.00000000    0.00000000   -0.00008300
     atom    3 type  2   force =    -0.00000000    0.00000000    0.00249000
     atom    4 type  3   force =    -0.00000000   -0.00000000   -0.00951175

     Total force =     0.017145     Total SCF correction =     0.000925


     Computing stress (Cartesian axis) and pressure


     negative rho (up, down):  4.435E-05 4.831E-05
          total   stress  (Ry/bohr**3)                   (kbar)     P=       -6.89
  -0.00010842  -0.00000000   0.00000000          -15.95       -0.00        0.00
  -0.00000000  -0.00010842  -0.00000000           -0.00      -15.95       -0.00
   0.00000000   0.00000000   0.00007639            0.00        0.00       11.24

     Energy error            =      1.1E-03 Ry
     Gradient error          =      1.1E-02 Ry/Bohr

     number of scf cycles    =   3
     number of bfgs steps    =   2

     energy             old  =    -658.6400942399 Ry
     energy             new  =    -658.6411532552 Ry

     CASE: energy            _new < energy            _old

     new trust radius        =       0.0382143549 bohr
     new conv_thr            =       0.0000001059 Ry


ATOMIC_POSITIONS (crystal)
Mo           -0.0000000000       -0.0000000000        0.3789677570
S             0.6666666667        0.3333333333        0.4412631504
S             0.6666666667        0.3333333333        0.3169091914
Co            0.6666666667        0.3333333333        0.5255223424



     Writing config-only to output data dir ./tmp/scf.save/
     NEW-OLD atomic charge density approx. for the potential

     negative rho (up, down):  4.599E-05 4.890E-05
     Generating pointlists ...

     total cpu time spent up to now is      112.6 secs

     Self-consistent Calculation

     iteration #  1     ecut=    70.00 Ry     beta= 0.70
     Davidson diagonalization with overlap
     ethr =  1.00E-06,  avg # of iterations =  7.4

     negative rho (up, down):  4.525E-05 4.750E-05

     total cpu time spent up to now is      115.9 secs

     total energy              =    -658.64102402 Ry
     estimated scf accuracy    <       0.00128305 Ry

     total magnetization       =     1.83 Bohr mag/cell
     absolute magnetization    =     2.05 Bohr mag/cell

     iteration #  2     ecut=    70.00 Ry     beta= 0.70
     Davidson diagonalization with overlap
     ethr =  3.67E-06,  avg # of iterations =  6.2

     negative rho (up, down):  4.487E-05 4.831E-05

     total cpu time spent up to now is      118.6 secs

     total energy              =    -658.63586635 Ry
     estimated scf accuracy    <       0.12540019 Ry

     total magnetization       =     2.00 Bohr mag/cell
     absolute magnetization    =     2.24 Bohr mag/cell

     iteration #  3     ecut=    70.00 Ry     beta= 0.70
     Davidson diagonalization with overlap
     ethr =  3.67E-06,  avg # of iterations =  6.6

     negative rho (up, down):  4.466E-05 4.839E-05

     total cpu time spent up to now is      121.4 secs

     total energy              =    -658.64101829 Ry
     estimated scf accuracy    <       0.00438425 Ry

     total magnetization       =     1.81 Bohr mag/cell
     absolute magnetization    =     2.03 Bohr mag/cell

     iteration #  4     ecut=    70.00 Ry     beta= 0.70
     Davidson diagonalization with overlap
     ethr =  3.67E-06,  avg # of iterations =  4.0

     negative rho (up, down):  4.455E-05 4.825E-05

     total cpu time spent up to now is      123.8 secs

     total energy              =    -658.64149973 Ry
     estimated scf accuracy    <       0.00096281 Ry

     total magnetization       =     1.84 Bohr mag/cell
     absolute magnetization    =     2.06 Bohr mag/cell

     iteration #  5     ecut=    70.00 Ry     beta= 0.70
     Davidson diagonalization with overlap
     ethr =  2.75E-06,  avg # of iterations =  2.3

     negative rho (up, down):  4.449E-05 4.819E-05

     total cpu time spent up to now is      126.1 secs

     total energy              =    -658.64159792 Ry
     estimated scf accuracy    <       0.00024632 Ry

     total magnetization       =     1.85 Bohr mag/cell
     absolute magnetization    =     2.06 Bohr mag/cell

     iteration #  6     ecut=    70.00 Ry     beta= 0.70
     Davidson diagonalization with overlap
     ethr =  7.04E-07,  avg # of iterations =  1.7

     negative rho (up, down):  4.445E-05 4.816E-05

     total cpu time spent up to now is      128.3 secs

     total energy              =    -658.64163432 Ry
     estimated scf accuracy    <       0.00000887 Ry

     total magnetization       =     1.84 Bohr mag/cell
     absolute magnetization    =     2.06 Bohr mag/cell

     iteration #  7     ecut=    70.00 Ry     beta= 0.70
     Davidson diagonalization with overlap
     ethr =  2.53E-08,  avg # of iterations =  4.7

     negative rho (up, down):  4.443E-05 4.816E-05

     total cpu time spent up to now is      130.8 secs

     total energy              =    -658.64163785 Ry
     estimated scf accuracy    <       0.00000143 Ry

     total magnetization       =     1.84 Bohr mag/cell
     absolute magnetization    =     2.06 Bohr mag/cell

     iteration #  8     ecut=    70.00 Ry     beta= 0.70
     Davidson diagonalization with overlap
     ethr =  4.10E-09,  avg # of iterations =  2.4

     negative rho (up, down):  4.442E-05 4.815E-05

     total cpu time spent up to now is      133.1 secs

     total energy              =    -658.64163792 Ry
     estimated scf accuracy    <       0.00000163 Ry

     total magnetization       =     1.84 Bohr mag/cell
     absolute magnetization    =     2.06 Bohr mag/cell

     iteration #  9     ecut=    70.00 Ry     beta= 0.70
     Davidson diagonalization with overlap
     ethr =  4.10E-09,  avg # of iterations =  2.0

     negative rho (up, down):  4.442E-05 4.815E-05

     total cpu time spent up to now is      135.4 secs

     total energy              =    -658.64163805 Ry
     estimated scf accuracy    <       0.00000043 Ry

     total magnetization       =     1.84 Bohr mag/cell
     absolute magnetization    =     2.06 Bohr mag/cell

     iteration # 10     ecut=    70.00 Ry     beta= 0.70
     Davidson diagonalization with overlap
     ethr =  1.24E-09,  avg # of iterations =  1.2

     negative rho (up, down):  4.443E-05 4.816E-05
 
     Magnetic moment per site  (integrated on atomic sphere of radius R)
     atom   1 (R=0.314)  charge= 10.7716  magn= -0.0314
     atom   2 (R=0.261)  charge=  2.9318  magn=  0.0216
     atom   3 (R=0.261)  charge=  2.8967  magn=  0.0029
     atom   4 (R=0.261)  charge=  6.5191  magn=  1.7000

     total cpu time spent up to now is      137.5 secs

     End of self-consistent calculation

 ------ SPIN UP ------------


          k = 0.0000 0.0000 0.0000 ( 14351 PWs)   bands (ev):

   -61.4870 -35.6532 -35.4288 -35.4288 -15.3019 -13.8675  -7.1936  -4.0118
    -3.4924  -3.4924  -3.1922  -2.4128  -2.4128  -1.8492  -1.8492  -1.3532
    -1.1131  -1.1131  -0.1768   1.9661   1.9661   2.2945

          k = 0.0000 0.0962 0.0000 ( 14357 PWs)   bands (ev):

   -61.4843 -35.6477 -35.4564 -35.4351 -15.2030 -13.8177  -7.0895  -4.0633
    -3.7528  -3.3988  -3.1248  -2.5762  -2.5655  -1.8695  -1.8120  -1.2623
    -1.1460  -1.1236  -0.1615   1.8571   2.0411   2.0521

          k = 0.0000 0.1925 0.0000 ( 14400 PWs)   bands (ev):

   -61.4768 -35.6327 -35.5312 -35.4520 -14.9235 -13.6746  -6.8214  -4.4459
    -4.1973  -3.2127  -3.0057  -2.8552  -2.7703  -1.9045  -1.7099  -1.3241
    -1.1823  -1.1402  -0.1953   1.6571   1.8687   1.8942

          k = 0.0000 0.2887 0.0000 ( 14448 PWs)   bands (ev):

   -61.4666 -35.6319 -35.6122 -35.4752 -14.5165 -13.4574  -6.5396  -5.1515
    -4.5934  -3.4589  -3.2186  -2.6732  -2.5215  -1.8424  -1.5939  -1.5653
    -1.3022  -1.1326  -0.2114   1.6335   1.6645   2.2583

          k = 0.0000 0.3849 0.0000 ( 14480 PWs)   bands (ev):

   -61.4563 -35.7311 -35.5916 -35.4982 -14.0756 -13.2019  -6.4994  -5.7459
    -5.0081  -3.8056  -3.4287  -2.4291  -2.3734  -1.8525  -1.5360  -1.4140
    -1.3211  -1.0713   0.1018   1.5239   1.9213   2.7677

          k = 0.0000 0.4811 0.0000 ( 14494 PWs)   bands (ev):

   -61.4488 -35.8027 -35.5765 -35.5149 -13.7316 -12.9717  -6.7589  -6.0727
    -5.2875  -4.0385  -3.6227  -2.4540  -2.2053  -1.7774  -1.5399  -1.2995
    -0.9808  -0.9777   0.7994   1.5572   2.2128   3.1022

          k = 0.0000-0.5774 0.0000 ( 14518 PWs)   bands (ev):

   -61.4461 -35.8288 -35.5709 -35.5210 -13.6026 -12.8723  -6.9137  -6.1821
    -5.3831  -4.1193  -3.7031  -2.4706  -2.1591  -1.7039  -1.5601  -1.2567
    -0.9396  -0.7735   1.3519   1.6030   2.2863   3.1053

          k = 0.0833 0.1443 0.0000 ( 14400 PWs)   bands (ev):

   -61.4792 -35.6375 -35.5062 -35.4481 -15.0136 -13.7211  -6.9017  -4.2504
    -4.1143  -3.2660  -3.0385  -2.8899  -2.6481  -1.9091  -1.7334  -1.2646
    -1.1838  -1.1112  -0.1733   1.7132   1.8062   1.9260

          k = 0.0833 0.2406 0.0000 ( 14456 PWs)   bands (ev):

   -61.4703 -35.6198 -35.5903 -35.4717 -14.6694 -13.5400  -6.6144  -4.8448
    -4.4083  -3.6305  -3.0303  -2.7788  -2.5446  -1.9438  -1.5857  -1.4538
    -1.2434  -1.1222  -0.2253   1.5196   1.7622   1.9367

          k = 0.0833 0.3368 0.0000 ( 14475 PWs)   bands (ev):

   -61.4601 -35.6859 -35.5992 -35.4991 -14.2423 -13.3002  -6.4281  -5.4639
    -4.8339  -3.9980  -3.1573  -2.6335  -2.3495  -1.8208  -1.7172  -1.4208
    -1.2756  -1.0924  -0.1135   1.4934   1.8420   2.3729

          k = 0.0833 0.4330 0.0000 ( 14478 PWs)   bands (ev):

   -61.4512 -35.7676 -35.5813 -35.5227 -13.8449 -13.0486  -6.5517  -5.9025
    -5.2329  -4.1441  -3.4165  -2.5917  -2.3375  -1.7753  -1.5394  -1.4126
    -1.0775  -1.0130   0.4111   1.6306   2.0695   2.8718

          k = 0.0833 0.5292 0.0000 ( 14500 PWs)   bands (ev):

   -61.4461 -35.8142 -35.5709 -35.5363 -13.6059 -12.8713  -6.7818  -6.1332
    -5.4303  -4.1677  -3.6622  -2.5853  -2.3423  -1.6504  -1.5024  -1.3401
    -1.0033  -0.8146   1.2262   1.6981   2.3007   3.1203

          k = 0.1667 0.2887 0.0000 ( 14482 PWs)   bands (ev):

   -61.4615 -35.6629 -35.6019 -35.5061 -14.3026 -13.3336  -6.3972  -5.2804
    -4.7142  -4.2354  -3.1133  -2.7077  -2.2064  -2.0096  -1.6888  -1.3912
    -1.2408  -1.0760  -0.1864   1.4282   1.8324   2.1323

          k = 0.1667 0.3849 0.0000 ( 14494 PWs)   bands (ev):

   -61.4526 -35.7309 -35.5841 -35.5440 -13.9119 -13.0885  -6.3548  -5.6400
    -5.2535  -4.3610  -3.3647  -2.8372  -2.1574  -1.8724  -1.7536  -1.3458
    -1.0610  -1.0358   0.1536   1.7132   1.9413   2.4968

          k = 0.1667 0.4811 0.0000 ( 14497 PWs)   bands (ev):

   -61.4461 -35.7790 -35.5730 -35.5710 -13.6125 -12.8690  -6.4885  -5.9895
    -5.5212  -4.3053  -3.6930  -3.0239  -2.2097  -1.7026  -1.5997  -1.3303
    -1.0519  -0.9042   0.9382   1.8175   2.2895   2.8222

          k = 0.1667 0.5774 0.0000 ( 14512 PWs)   bands (ev):

   -61.4437 -35.7963 -35.5838 -35.5662 -13.5011 -12.7762  -6.5722  -6.1323
    -5.6065  -4.1792  -3.9237  -3.0960  -2.2287  -1.6232  -1.5124  -1.3428
    -1.0650  -0.7870   1.4071   2.0033   2.3535   2.8261

          k = 0.2500 0.4330 0.0000 ( 14510 PWs)   bands (ev):

   -61.4461 -35.7554 -35.5973 -35.5710 -13.6159 -12.8677  -6.3262  -5.9034
    -5.5126  -4.4443  -3.8509  -3.0870  -2.0382  -1.8465  -1.7081  -1.2552
    -1.0341  -0.9819   0.8052   1.8094   2.2538   2.7204

          k = 0.2500 0.5292 0.0000 ( 14528 PWs)   bands (ev):

   -61.4423 -35.7605 -35.6371 -35.5634 -13.4421 -12.7185  -6.3905  -6.0036
    -5.6119  -4.5728  -4.0646  -3.3257  -2.0372  -1.7267  -1.6276  -1.2544
    -1.0810  -0.7835   1.1950   1.9380   2.4467   3.1686

          k = 0.3333 0.5774 0.0000 ( 14538 PWs)   bands (ev):

   -61.4410 -35.7312 -35.6831 -35.5607 -13.3795 -12.6593  -6.4534  -5.7149
    -5.5952  -5.0836  -4.0018  -3.4809  -1.8899  -1.8409  -1.6053  -1.2496
    -1.1069  -0.6304   0.9950   2.0442   2.6157   3.9026

 ------ SPIN DOWN ----------


          k = 0.0000 0.0000 0.0000 ( 14351 PWs)   bands (ev):

   -61.5138 -35.6899 -35.4545 -35.4544 -15.2716 -13.8541  -7.1553  -3.9560
    -3.4791  -3.4791  -2.3806  -2.3806  -2.1399  -1.0772  -0.1381  -0.1381
     0.1353   0.1353   0.9077   2.0661   2.0677   2.3355

          k = 0.0000 0.0962 0.0000 ( 14357 PWs)   bands (ev):

   -61.5110 -35.6845 -35.4820 -35.4607 -15.1721 -13.8046  -7.0484  -4.0160
    -3.7262  -3.3811  -2.5503  -2.5412  -2.0162  -1.0754  -0.2053  -0.1432
     0.1009   0.1805   0.9935   1.9649   2.0958   2.1942

          k = 0.0000 0.1925 0.0000 ( 14400 PWs)   bands (ev):

   -61.5036 -35.6695 -35.5566 -35.4776 -14.8908 -13.6624  -6.7718  -4.3965
    -4.1779  -3.1693  -2.8584  -2.7590  -1.8473  -1.2103  -0.3326  -0.1574
     0.0149   0.3060   1.0722   1.7867   1.9672   2.0054

          k = 0.0000 0.2887 0.0000 ( 14448 PWs)   bands (ev):

   -61.4934 -35.6571 -35.6491 -35.5007 -14.4804 -13.4470  -6.4823  -5.0858
    -4.5818  -3.4273  -3.0116  -2.6524  -1.5876  -1.4480  -0.4361  -0.1577
    -0.0557   0.4850   1.0307   1.7189   1.8893   2.3975

          k = 0.0000 0.3849 0.0000 ( 14480 PWs)   bands (ev):

   -61.4832 -35.7560 -35.6286 -35.5237 -14.0349 -13.1942  -6.4583  -5.6552
    -4.9825  -3.7824  -3.2614  -2.3091  -1.8352  -0.9720  -0.5121  -0.1108
     0.1007   0.6770   1.1366   1.5793   2.1491   2.9175

          k = 0.0000 0.4811 0.0000 ( 14494 PWs)   bands (ev):

   -61.4757 -35.8274 -35.6135 -35.5404 -13.6865 -12.9664  -6.7326  -5.9853
    -5.2413  -4.0184  -3.4610  -2.0938  -1.7323  -0.7961  -0.5732  -0.0349
     0.7291   0.8278   1.3922   1.5720   2.3440   3.2707

          k = 0.0000-0.5774 0.0000 ( 14518 PWs)   bands (ev):

   -61.4729 -35.8534 -35.6080 -35.5465 -13.5559 -12.8677  -6.8885  -6.1036
    -5.3314  -4.1000  -3.5359  -2.0277  -1.6142  -0.7783  -0.5990   0.0009
     0.8850   1.2388   1.5316   1.5994   2.3378   3.3613

          k = 0.0833 0.1443 0.0000 ( 14400 PWs)   bands (ev):

   -61.5060 -35.6743 -35.5316 -35.4737 -14.9816 -13.7086  -6.8548  -4.2027
    -4.0899  -3.2311  -2.9254  -2.5804  -1.8935  -1.1350  -0.3073  -0.1494
     0.0399   0.2681   1.0774   1.7970   1.9269   2.0313

          k = 0.0833 0.2406 0.0000 ( 14456 PWs)   bands (ev):

   -61.4971 -35.6566 -35.6155 -35.4973 -14.6348 -13.5288  -6.5578  -4.7860
    -4.3930  -3.5892  -2.9186  -2.6000  -1.6299  -1.3901  -0.4251  -0.1552
    -0.0500   0.4322   1.0466   1.6759   1.8571   2.1100

          k = 0.0833 0.3368 0.0000 ( 14475 PWs)   bands (ev):

   -61.4869 -35.7109 -35.6361 -35.5246 -14.2035 -13.2913  -6.3744  -5.3788
    -4.8173  -3.9701  -2.9726  -2.5576  -1.7081  -1.1252  -0.4969  -0.1330
    -0.0774   0.6482   1.0248   1.6262   2.0177   2.5464

          k = 0.0833 0.4330 0.0000 ( 14478 PWs)   bands (ev):

   -61.4781 -35.7924 -35.6183 -35.5481 -13.8012 -13.0425  -6.5208  -5.8082
    -5.1900  -4.1190  -3.2509  -2.5166  -1.6759  -0.7711  -0.5282  -0.0826
     0.2186   0.9155   1.1372   1.7273   2.2506   3.0097

          k = 0.0833 0.5292 0.0000 ( 14500 PWs)   bands (ev):

   -61.4729 -35.8389 -35.6080 -35.5617 -13.5592 -12.8666  -6.7557  -6.0584
    -5.3691  -4.1452  -3.4922  -2.4753  -1.4865  -0.7118  -0.5497  -0.0422
     0.6010   1.1983   1.4933   1.7811   2.4069   3.2083

          k = 0.1667 0.2887 0.0000 ( 14482 PWs)   bands (ev):

   -61.4883 -35.6879 -35.6389 -35.5316 -14.2645 -13.3244  -6.3383  -5.1932
    -4.7001  -4.2169  -2.9942  -2.4956  -1.6378  -1.1904  -0.5084  -0.1682
    -0.0995   0.6484   0.9877   1.6083   1.9306   2.3638

          k = 0.1667 0.3849 0.0000 ( 14494 PWs)   bands (ev):

   -61.4794 -35.7558 -35.6211 -35.5694 -13.8692 -13.0818  -6.3146  -5.5291
    -5.2236  -4.3362  -3.2870  -2.6735  -1.6742  -0.6779  -0.5070  -0.1636
    -0.0945   0.9053   1.0382   1.8468   2.0779   2.7214

          k = 0.1667 0.4811 0.0000 ( 14497 PWs)   bands (ev):

   -61.4729 -35.8037 -35.6080 -35.5983 -13.5661 -12.8641  -6.4593  -5.9326
    -5.4259  -4.2702  -3.5887  -2.9426  -1.4689  -0.5316  -0.4657  -0.1189
     0.1705   1.0357   1.4519   1.9289   2.4111   3.0164

          k = 0.1667 0.5774 0.0000 ( 14512 PWs)   bands (ev):

   -61.4706 -35.8210 -35.6091 -35.6032 -13.4534 -12.7716  -6.5430  -6.0895
    -5.5052  -4.1497  -3.7874  -3.0426  -1.3196  -0.5319  -0.4562  -0.1191
     0.3445   1.1315   1.5458   2.2292   2.5315   2.9800

          k = 0.2500 0.4330 0.0000 ( 14510 PWs)   bands (ev):

   -61.4729 -35.7802 -35.6226 -35.6080 -13.5696 -12.8627  -6.2941  -5.8685
    -5.3769  -4.4017  -3.8349  -2.9460  -1.4969  -0.4451  -0.2666  -0.2030
    -0.1277   0.9544   1.4402   1.9413   2.3219   3.0224

          k = 0.2500 0.5292 0.0000 ( 14528 PWs)   bands (ev):

   -61.4692 -35.7853 -35.6623 -35.6005 -13.3939 -12.7141  -6.3651  -5.9809
    -5.4609  -4.5109  -4.0424  -3.2366  -1.2413  -0.3672  -0.2917  -0.1918
     0.0666   1.0105   1.3667   2.2337   2.5858   3.4449

          k = 0.3333 0.5774 0.0000 ( 14538 PWs)   bands (ev):

   -61.4678 -35.7560 -35.7083 -35.5978 -13.3308 -12.6549  -6.4371  -5.6885
    -5.4081  -5.0657  -3.9633  -3.4075  -1.1145  -0.2778  -0.2447  -0.1105
    -0.0498   0.9766   1.1373   2.2722   2.8161   4.0495

     the Fermi energy is     0.1012 ev

!    total energy              =    -658.64163800 Ry
     total all-electron energy =    -12481.815529 Ry
     estimated scf accuracy    <       0.00000009 Ry
     smearing contrib. (-TS)   =      -0.00097842 Ry
     internal energy E=F+TS    =    -658.64065958 Ry

     The total energy is F=E-TS. E is the sum of the following terms:
     one-electron contribution =   -2185.37247738 Ry
     hartree contribution      =    1104.05780376 Ry
     xc contribution           =     -62.34984303 Ry
     ewald contribution        =     891.25297530 Ry
     DFT-D3 Dispersion         =      -0.06716149 Ry
     one-center paw contrib.   =    -406.16195674 Ry

     total magnetization       =     1.84 Bohr mag/cell
     absolute magnetization    =     2.06 Bohr mag/cell

     convergence has been achieved in  10 iterations

     negative rho (up, down):  4.443E-05 4.816E-05

     Forces acting on atoms (cartesian axes, Ry/au):

     atom    1 type  1   force =     0.00000000   -0.00000000   -0.00055914
     atom    2 type  2   force =     0.00000000    0.00000000    0.00723880
     atom    3 type  2   force =     0.00000000    0.00000000   -0.00995010
     atom    4 type  3   force =     0.00000000   -0.00000000    0.00327045
     The non-local contrib.  to forces
     atom    1 type  1   force =     0.00000000    0.00000000   -0.00186539
     atom    2 type  2   force =     0.00000000   -0.00000000   -0.11488318
     atom    3 type  2   force =     0.00000000    0.00000000    0.26319061
     atom    4 type  3   force =     0.00000000   -0.00000000    0.13410516
     The ionic contribution  to forces
     atom    1 type  1   force =     0.00000000    0.00000517  -36.10790438
     atom    2 type  2   force =    -0.00000000   -0.00000254   19.01567309
     atom    3 type  2   force =    -0.00000000   -0.00000257  -51.06766532
     atom    4 type  3   force =    -0.00000000   -0.00000007   68.15989661
     The local contribution  to forces
     atom    1 type  1   force =    -0.00000000   -0.00000311   36.10101897
     atom    2 type  2   force =    -0.00000000    0.00000176  -18.89516398
     atom    3 type  2   force =    -0.00000000    0.00000178   50.79418751
     atom    4 type  3   force =    -0.00000002    0.00000006  -68.27324822
     The core correction contribution to forces
     atom    1 type  1   force =     0.00000000    0.00000000    0.00069706
     atom    2 type  2   force =     0.00000000    0.00000000    0.00105316
     atom    3 type  2   force =     0.00000000    0.00000000   -0.00194862
     atom    4 type  3   force =    -0.00000000    0.00000000   -0.00853514
     The Hubbard contrib.    to forces
     atom    1 type  1   force =     0.00000000    0.00000000    0.00000000
     atom    2 type  2   force =     0.00000000    0.00000000    0.00000000
     atom    3 type  2   force =     0.00000000    0.00000000    0.00000000
     atom    4 type  3   force =     0.00000000    0.00000000    0.00000000
     The SCF correction term to forces
     atom    1 type  1   force =    -0.00000000   -0.00000000    0.00054579
     atom    2 type  2   force =    -0.00000000   -0.00000000    0.00057254
     atom    3 type  2   force =    -0.00000000   -0.00000000   -0.00015846
     atom    4 type  3   force =    -0.00000000   -0.00000000    0.00047750

     DFT-D3 dispersion contribution to forces:
     atom    1 type  1   force =     0.00000000   -0.00000001    0.00696014
     atom    2 type  2   force =    -0.00000000    0.00000000   -0.00000150
     atom    3 type  2   force =    -0.00000000    0.00000000    0.00245550
     atom    4 type  3   force =     0.00000000    0.00000000   -0.00941414

     Total force =     0.012744     Total SCF correction =     0.000937


     Computing stress (Cartesian axis) and pressure


     negative rho (up, down):  4.443E-05 4.816E-05
          total   stress  (Ry/bohr**3)                   (kbar)     P=       -8.96
  -0.00011376   0.00000000   0.00000000          -16.74        0.00        0.00
   0.00000000  -0.00011376  -0.00000000            0.00      -16.74       -0.00
   0.00000000  -0.00000000   0.00004486            0.00       -0.00        6.60

     Energy error            =      4.8E-04 Ry
     Gradient error          =      1.0E-02 Ry/Bohr

     number of scf cycles    =   4
     number of bfgs steps    =   3

     energy             old  =    -658.6411532552 Ry
     energy             new  =    -658.6416380041 Ry

     CASE: energy            _new < energy            _old

     new trust radius        =       0.0297718548 bohr
     new conv_thr            =       0.0000000485 Ry


ATOMIC_POSITIONS (crystal)
Mo           -0.0000000000       -0.0000000000        0.3787104072
S             0.6666666667        0.3333333333        0.4413843152
S             0.6666666667        0.3333333333        0.3164151929
Co            0.6666666667        0.3333333333        0.5261525259



     Writing config-only to output data dir ./tmp/scf.save/
     NEW-OLD atomic charge density approx. for the potential

     negative rho (up, down):  4.590E-05 4.778E-05
     Generating pointlists ...

     total cpu time spent up to now is      144.8 secs

     Self-consistent Calculation

     iteration #  1     ecut=    70.00 Ry     beta= 0.70
     Davidson diagonalization with overlap
     ethr =  1.00E-06,  avg # of iterations =  6.6

     negative rho (up, down):  4.499E-05 4.747E-05

     total cpu time spent up to now is      148.1 secs

     total energy              =    -658.64156405 Ry
     estimated scf accuracy    <       0.00070547 Ry

     total magnetization       =     1.85 Bohr mag/cell
     absolute magnetization    =     2.06 Bohr mag/cell

     iteration #  2     ecut=    70.00 Ry     beta= 0.70
     Davidson diagonalization with overlap
     ethr =  2.02E-06,  avg # of iterations =  6.2

     negative rho (up, down):  4.472E-05 4.800E-05

     total cpu time spent up to now is      150.8 secs

     total energy              =    -658.63877658 Ry
     estimated scf accuracy    <       0.06776404 Ry

     total magnetization       =     1.99 Bohr mag/cell
     absolute magnetization    =     2.21 Bohr mag/cell

     iteration #  3     ecut=    70.00 Ry     beta= 0.70
     Davidson diagonalization with overlap
     ethr =  2.02E-06,  avg # of iterations =  6.4

     negative rho (up, down):  4.455E-05 4.807E-05

     total cpu time spent up to now is      153.5 secs

     total energy              =    -658.64158945 Ry
     estimated scf accuracy    <       0.00175722 Ry

     total magnetization       =     1.84 Bohr mag/cell
     absolute magnetization    =     2.06 Bohr mag/cell

     iteration #  4     ecut=    70.00 Ry     beta= 0.70
     Davidson diagonalization with overlap
     ethr =  2.02E-06,  avg # of iterations =  4.0

     negative rho (up, down):  4.444E-05 4.803E-05

     total cpu time spent up to now is      156.0 secs

     total energy              =    -658.64179219 Ry
     estimated scf accuracy    <       0.00073424 Ry

     total magnetization       =     1.86 Bohr mag/cell
     absolute magnetization    =     2.07 Bohr mag/cell

     iteration #  5     ecut=    70.00 Ry     beta= 0.70
     Davidson diagonalization with overlap
     ethr =  2.02E-06,  avg # of iterations =  2.4

     negative rho (up, down):  4.438E-05 4.801E-05

     total cpu time spent up to now is      158.3 secs

     total energy              =    -658.64185908 Ry
     estimated scf accuracy    <       0.00009687 Ry

     total magnetization       =     1.87 Bohr mag/cell
     absolute magnetization    =     2.08 Bohr mag/cell

     iteration #  6     ecut=    70.00 Ry     beta= 0.70
     Davidson diagonalization with overlap
     ethr =  2.77E-07,  avg # of iterations =  2.3

     negative rho (up, down):  4.435E-05 4.800E-05

     total cpu time spent up to now is      160.6 secs

     total energy              =    -658.64187636 Ry
     estimated scf accuracy    <       0.00000635 Ry

     total magnetization       =     1.86 Bohr mag/cell
     absolute magnetization    =     2.07 Bohr mag/cell

     iteration #  7     ecut=    70.00 Ry     beta= 0.70
     Davidson diagonalization with overlap
     ethr =  1.81E-08,  avg # of iterations =  4.8

     negative rho (up, down):  4.434E-05 4.799E-05

     total cpu time spent up to now is      163.1 secs

     total energy              =    -658.64187818 Ry
     estimated scf accuracy    <       0.00000643 Ry

     total magnetization       =     1.86 Bohr mag/cell
     absolute magnetization    =     2.08 Bohr mag/cell

     iteration #  8     ecut=    70.00 Ry     beta= 0.70
     Davidson diagonalization with overlap
     ethr =  1.81E-08,  avg # of iterations =  1.6

     negative rho (up, down):  4.433E-05 4.799E-05

     total cpu time spent up to now is      165.3 secs

     total energy              =    -658.64187878 Ry
     estimated scf accuracy    <       0.00000068 Ry

     total magnetization       =     1.86 Bohr mag/cell
     absolute magnetization    =     2.08 Bohr mag/cell

     iteration #  9     ecut=    70.00 Ry     beta= 0.70
     Davidson diagonalization with overlap
     ethr =  1.95E-09,  avg # of iterations =  2.7

     negative rho (up, down):  4.434E-05 4.799E-05

     total cpu time spent up to now is      167.6 secs

     total energy              =    -658.64187888 Ry
     estimated scf accuracy    <       0.00000027 Ry

     total magnetization       =     1.86 Bohr mag/cell
     absolute magnetization    =     2.08 Bohr mag/cell

     iteration # 10     ecut=    70.00 Ry     beta= 0.70
     Davidson diagonalization with overlap
     ethr =  7.72E-10,  avg # of iterations =  1.5

     negative rho (up, down):  4.434E-05 4.799E-05
 
     Magnetic moment per site  (integrated on atomic sphere of radius R)
     atom   1 (R=0.314)  charge= 10.7655  magn= -0.0297
     atom   2 (R=0.261)  charge=  2.9268  magn=  0.0218
     atom   3 (R=0.261)  charge=  2.8945  magn=  0.0028
     atom   4 (R=0.261)  charge=  6.5159  magn=  1.7141

     total cpu time spent up to now is      169.8 secs

     End of self-consistent calculation

 ------ SPIN UP ------------


          k = 0.0000 0.0000 0.0000 ( 14351 PWs)   bands (ev):

   -61.4914 -35.6547 -35.4293 -35.4293 -15.2689 -13.8621  -7.1621  -4.0260
    -3.4421  -3.4421  -3.1952  -2.3765  -2.3765  -1.8679  -1.8679  -1.3674
    -1.1142  -1.1142  -0.2089   1.9537   1.9540   2.2792

          k = 0.0000 0.0962 0.0000 ( 14357 PWs)   bands (ev):

   -61.4887 -35.6493 -35.4567 -35.4355 -15.1701 -13.8118  -7.0574  -4.0705
    -3.7049  -3.3482  -3.1277  -2.5491  -2.5299  -1.8880  -1.8308  -1.2729
    -1.1492  -1.1249  -0.1922   1.8385   2.0281   2.0288

          k = 0.0000 0.1925 0.0000 ( 14400 PWs)   bands (ev):

   -61.4813 -35.6344 -35.5310 -35.4524 -14.8908 -13.6669  -6.7874  -4.4144
    -4.1766  -3.1598  -2.9988  -2.8232  -2.7703  -1.9228  -1.7289  -1.3286
    -1.1927  -1.1419  -0.2240   1.6274   1.8473   1.8865

          k = 0.0000 0.2887 0.0000 ( 14448 PWs)   bands (ev):

   -61.4711 -35.6312 -35.6141 -35.4754 -14.4836 -13.4472  -6.5016  -5.1170
    -4.5741  -3.4147  -3.2126  -2.6356  -2.5336  -1.8586  -1.5956  -1.5847
    -1.3154  -1.1347  -0.2395   1.6184   1.6370   2.2428

          k = 0.0000 0.3849 0.0000 ( 14480 PWs)   bands (ev):

   -61.4609 -35.7298 -35.5936 -35.4983 -14.0418 -13.1887  -6.4586  -5.7179
    -4.9904  -3.7634  -3.4266  -2.4433  -2.3393  -1.8503  -1.5495  -1.4336
    -1.3404  -1.0743   0.0770   1.5173   1.8989   2.7464

          k = 0.0000 0.4811 0.0000 ( 14494 PWs)   bands (ev):

   -61.4534 -35.8010 -35.5786 -35.5150 -13.6965 -12.9559  -6.7254  -6.0456
    -5.2689  -3.9968  -3.6208  -2.4688  -2.1761  -1.7783  -1.5516  -1.3194
    -1.0026  -0.9858   0.7812   1.5596   2.2015   3.0782

          k = 0.0000-0.5774 0.0000 ( 14518 PWs)   bands (ev):

   -61.4507 -35.8269 -35.5731 -35.5211 -13.5669 -12.8553  -6.8847  -6.1555
    -5.3628  -4.0777  -3.7006  -2.4854  -2.1318  -1.7086  -1.5710  -1.2767
    -0.9458  -0.8006   1.3393   1.6094   2.2823   3.0817

          k = 0.0833 0.1443 0.0000 ( 14400 PWs)   bands (ev):

   -61.4837 -35.6391 -35.5062 -35.4484 -14.9809 -13.7140  -6.8684  -4.2322
    -4.0832  -3.2146  -3.0285  -2.8744  -2.6289  -1.9274  -1.7523  -1.2675
    -1.1936  -1.1141  -0.2024   1.6815   1.8032   1.9030

          k = 0.0833 0.2406 0.0000 ( 14456 PWs)   bands (ev):

   -61.4748 -35.6215 -35.5898 -35.4720 -14.6367 -13.5307  -6.5781  -4.8080
    -4.3902  -3.5959  -3.0015  -2.7568  -2.5511  -1.9616  -1.6043  -1.4553
    -1.2550  -1.1252  -0.2534   1.4945   1.7444   1.9228

          k = 0.0833 0.3368 0.0000 ( 14475 PWs)   bands (ev):

   -61.4647 -35.6849 -35.6011 -35.4992 -14.2090 -13.2882  -6.3873  -5.4330
    -4.8133  -3.9679  -3.1408  -2.6074  -2.3620  -1.8318  -1.7185  -1.4357
    -1.2930  -1.0963  -0.1399   1.4778   1.8240   2.3545

          k = 0.0833 0.4330 0.0000 ( 14478 PWs)   bands (ev):

   -61.4558 -35.7660 -35.5834 -35.5227 -13.8103 -13.0338  -6.5136  -5.8748
    -5.2121  -4.1142  -3.4053  -2.5748  -2.3488  -1.7680  -1.5542  -1.4285
    -1.0992  -1.0192   0.3906   1.6264   2.0558   2.8486

          k = 0.0833 0.5292 0.0000 ( 14500 PWs)   bands (ev):

   -61.4507 -35.8125 -35.5732 -35.5362 -13.5703 -12.8545  -6.7515  -6.1062
    -5.4058  -4.1359  -3.6541  -2.5745  -2.3504  -1.6476  -1.5142  -1.3599
    -1.0165  -0.8324   1.2131   1.7007   2.2946   3.0986

          k = 0.1667 0.2887 0.0000 ( 14482 PWs)   bands (ev):

   -61.4660 -35.6619 -35.6039 -35.5062 -14.2695 -13.3221  -6.3569  -5.2477
    -4.6904  -4.2088  -3.0887  -2.6904  -2.2187  -2.0273  -1.6843  -1.4057
    -1.2552  -1.0827  -0.2131   1.4090   1.8201   2.1125

          k = 0.1667 0.3849 0.0000 ( 14494 PWs)   bands (ev):

   -61.4572 -35.7296 -35.5862 -35.5439 -13.8777 -13.0744  -6.3132  -5.6099
    -5.2291  -4.3386  -3.3436  -2.8296  -2.1731  -1.8810  -1.7521  -1.3578
    -1.0673  -1.0582   0.1317   1.6985   1.9367   2.4721

          k = 0.1667 0.4811 0.0000 ( 14497 PWs)   bands (ev):

   -61.4507 -35.7774 -35.5732 -35.5727 -13.5771 -12.8526  -6.4540  -5.9607
    -5.4924  -4.2843  -3.6751  -3.0185  -2.2264  -1.6982  -1.6157  -1.3437
    -1.0691  -0.9159   0.9219   1.8199   2.2797   2.7923

          k = 0.1667 0.5774 0.0000 ( 14512 PWs)   bands (ev):

   -61.4483 -35.7946 -35.5835 -35.5684 -13.4652 -12.7588  -6.5417  -6.1056
    -5.5731  -4.1580  -3.9080  -3.0904  -2.2456  -1.6216  -1.5299  -1.3572
    -1.0846  -0.7952   1.4097   1.9922   2.3416   2.8062

          k = 0.2500 0.4330 0.0000 ( 14510 PWs)   bands (ev):

   -61.4507 -35.7539 -35.5969 -35.5732 -13.5806 -12.8515  -6.2883  -5.8703
    -5.4873  -4.4229  -3.8350  -3.0855  -2.0552  -1.8579  -1.7069  -1.2689
    -1.0550  -0.9895   0.7875   1.8104   2.2459   2.6871

          k = 0.2500 0.5292 0.0000 ( 14528 PWs)   bands (ev):

   -61.4470 -35.7589 -35.6365 -35.5657 -13.4060 -12.7010  -6.3542  -5.9773
    -5.5786  -4.5494  -4.0548  -3.3252  -2.0546  -1.7419  -1.6287  -1.2695
    -1.1089  -0.7818   1.2038   1.9230   2.4239   3.1468

          k = 0.3333 0.5774 0.0000 ( 14538 PWs)   bands (ev):

   -61.4456 -35.7295 -35.6826 -35.5630 -13.3432 -12.6413  -6.4161  -5.6906
    -5.5588  -5.0619  -3.9946  -3.4805  -1.9063  -1.8592  -1.6062  -1.2650
    -1.1373  -0.6278   1.0169   2.0190   2.5850   3.8908

 ------ SPIN DOWN ----------


          k = 0.0000 0.0000 0.0000 ( 14351 PWs)   bands (ev):

   -61.5169 -35.6899 -35.4535 -35.4534 -15.2387 -13.8488  -7.1236  -3.9697
    -3.4285  -3.4285  -2.3433  -2.3433  -2.1417  -1.0870  -0.1249  -0.1249
     0.1328   0.1328   0.9046   2.0575   2.0575   2.3142

          k = 0.0000 0.0962 0.0000 ( 14357 PWs)   bands (ev):

   -61.5142 -35.6845 -35.4808 -35.4596 -15.1393 -13.7987  -7.0161  -4.0229
    -3.6772  -3.3302  -2.5270  -2.5046  -2.0109  -1.0839  -0.1944  -0.1303
     0.0984   0.1779   0.9906   1.9584   2.0697   2.1673

          k = 0.0000 0.1925 0.0000 ( 14400 PWs)   bands (ev):

   -61.5067 -35.6697 -35.5549 -35.4765 -14.8582 -13.6548  -6.7376  -4.3655
    -4.1562  -3.1158  -2.8260  -2.7488  -1.8443  -1.2153  -0.3269  -0.1450
     0.0126   0.3032   1.0669   1.7707   1.9457   1.9861

          k = 0.0000 0.2887 0.0000 ( 14448 PWs)   bands (ev):

   -61.4966 -35.6549 -35.6494 -35.4995 -14.4477 -13.4369  -6.4438  -5.0525
    -4.5620  -3.3835  -3.0095  -2.6132  -1.5854  -1.4499  -0.4345  -0.1459
    -0.0584   0.4821   1.0215   1.7032   1.8709   2.3788

          k = 0.0000 0.3849 0.0000 ( 14480 PWs)   bands (ev):

   -61.4864 -35.7532 -35.6291 -35.5223 -14.0012 -13.1811  -6.4171  -5.6284
    -4.9644  -3.7403  -3.2619  -2.2730  -1.8303  -0.9724  -0.5121  -0.1007
     0.0971   0.6739   1.1280   1.5719   2.1299   2.8964

          k = 0.0000 0.4811 0.0000 ( 14494 PWs)   bands (ev):

   -61.4789 -35.8243 -35.6142 -35.5390 -13.6515 -12.9507  -6.6993  -5.9598
    -5.2213  -3.9767  -3.4611  -2.0622  -1.7277  -0.7964  -0.5741  -0.0279
     0.7257   0.8245   1.3834   1.5742   2.3324   3.2487

          k = 0.0000-0.5774 0.0000 ( 14518 PWs)   bands (ev):

   -61.4762 -35.8501 -35.6087 -35.5451 -13.5203 -12.8507  -6.8597  -6.0790
    -5.3091  -4.0584  -3.5355  -1.9980  -1.6106  -0.7788  -0.6003   0.0060
     0.8816   1.2333   1.5231   1.6062   2.3371   3.3390

          k = 0.0833 0.1443 0.0000 ( 14400 PWs)   bands (ev):

   -61.5091 -35.6744 -35.5302 -35.4726 -14.9490 -13.7016  -6.8213  -4.1860
    -4.0566  -3.1788  -2.8945  -2.5653  -1.8880  -1.1410  -0.2994  -0.1377
     0.0377   0.2655   1.0735   1.7888   1.9008   2.0083

          k = 0.0833 0.2406 0.0000 ( 14456 PWs)   bands (ev):

   -61.5003 -35.6569 -35.6136 -35.4961 -14.6022 -13.5197  -6.5212  -4.7499
    -4.3743  -3.5535  -2.8815  -2.5866  -1.6268  -1.3923  -0.4210  -0.1458
    -0.0513   0.4292   1.0377   1.6599   1.8436   2.0880

          k = 0.0833 0.3368 0.0000 ( 14475 PWs)   bands (ev):

   -61.4901 -35.7084 -35.6366 -35.5232 -14.1703 -13.2795  -6.3329  -5.3494
    -4.7963  -3.9395  -2.9559  -2.5331  -1.6993  -1.1268  -0.4955  -0.1258
    -0.0785   0.6447   1.0147   1.6160   2.0023   2.5253

          k = 0.0833 0.4330 0.0000 ( 14478 PWs)   bands (ev):

   -61.4813 -35.7894 -35.6189 -35.5467 -13.7668 -13.0279  -6.4827  -5.7819
    -5.1681  -4.0887  -3.2414  -2.4963  -1.6615  -0.7715  -0.5288  -0.0753
     0.2143   0.9113   1.1293   1.7265   2.2355   2.9864

          k = 0.0833 0.5292 0.0000 ( 14500 PWs)   bands (ev):

   -61.4762 -35.8357 -35.6087 -35.5602 -13.5238 -12.8499  -6.7256  -6.0332
    -5.3426  -4.1132  -3.4862  -2.4566  -1.4740  -0.7122  -0.5512  -0.0370
     0.5967   1.1954   1.4876   1.7833   2.4012   3.1851

          k = 0.1667 0.2887 0.0000 ( 14482 PWs)   bands (ev):

   -61.4915 -35.6855 -35.6393 -35.5302 -14.2315 -13.3130  -6.2973  -5.1621
    -4.6755  -4.1903  -2.9652  -2.4839  -1.6283  -1.1930  -0.5053  -0.1692
    -0.0939   0.6441   0.9766   1.5983   1.9203   2.3400

          k = 0.1667 0.3849 0.0000 ( 14494 PWs)   bands (ev):

   -61.4827 -35.7530 -35.6217 -35.5679 -13.8351 -13.0678  -6.2728  -5.4995
    -5.1991  -4.3143  -3.2644  -2.6690  -1.6562  -0.6804  -0.5062  -0.1659
    -0.0911   0.8932   1.0354   1.8466   2.0660   2.6944

          k = 0.1667 0.4811 0.0000 ( 14497 PWs)   bands (ev):

   -61.4762 -35.8007 -35.6087 -35.5966 -13.5308 -12.8479  -6.4250  -5.9050
    -5.3956  -4.2502  -3.5695  -2.9395  -1.4519  -0.5317  -0.4677  -0.1147
     0.1655   1.0295   1.4468   1.9340   2.3988   2.9879

          k = 0.1667 0.5774 0.0000 ( 14512 PWs)   bands (ev):

   -61.4739 -35.8179 -35.6074 -35.6040 -13.4177 -12.7544  -6.5128  -6.0642
    -5.4702  -4.1299  -3.7704  -3.0389  -1.3050  -0.5325  -0.4583  -0.1154
     0.3396   1.1296   1.5514   2.2197   2.5191   2.9611

          k = 0.2500 0.4330 0.0000 ( 14510 PWs)   bands (ev):

   -61.4762 -35.7773 -35.6207 -35.6087 -13.5344 -12.8467  -6.2562  -5.8366
    -5.3507  -4.3811  -3.8185  -2.9458  -1.4780  -0.4441  -0.2676  -0.2053
    -0.1299   0.9462   1.4354   1.9457   2.3102   2.9914

          k = 0.2500 0.5292 0.0000 ( 14528 PWs)   bands (ev):

   -61.4725 -35.7823 -35.6603 -35.6013 -13.3580 -12.6966  -6.3287  -5.9556
    -5.4268  -4.4878  -4.0328  -3.2375  -1.2256  -0.3671  -0.2941  -0.1900
     0.0612   1.0119   1.3749   2.2141   2.5673   3.4271

          k = 0.3333 0.5774 0.0000 ( 14538 PWs)   bands (ev):

   -61.4711 -35.7528 -35.7063 -35.5985 -13.2947 -12.6369  -6.3997  -5.6647
    -5.3717  -5.0438  -3.9566  -3.4084  -1.1008  -0.2792  -0.2428  -0.1116
    -0.0569   1.0005   1.1321   2.2438   2.7913   4.0271

     the Fermi energy is     0.0938 ev

!    total energy              =    -658.64187887 Ry
     total all-electron energy =    -12481.815770 Ry
     estimated scf accuracy    <       0.00000003 Ry
     smearing contrib. (-TS)   =      -0.00102756 Ry
     internal energy E=F+TS    =    -658.64085131 Ry

     The total energy is F=E-TS. E is the sum of the following terms:
     one-electron contribution =   -2177.87837210 Ry
     hartree contribution      =    1100.31022961 Ry
     xc contribution           =     -62.33322728 Ry
     ewald contribution        =     887.48788091 Ry
     DFT-D3 Dispersion         =      -0.06674194 Ry
     one-center paw contrib.   =    -406.16062051 Ry

     total magnetization       =     1.86 Bohr mag/cell
     absolute magnetization    =     2.08 Bohr mag/cell

     convergence has been achieved in  10 iterations

     negative rho (up, down):  4.434E-05 4.799E-05

     Forces acting on atoms (cartesian axes, Ry/au):

     atom    1 type  1   force =     0.00000000    0.00000000    0.00150269
     atom    2 type  2   force =     0.00000000   -0.00000000    0.00483727
     atom    3 type  2   force =     0.00000000    0.00000000   -0.00552193
     atom    4 type  3   force =     0.00000000    0.00000000   -0.00081803
     The non-local contrib.  to forces
     atom    1 type  1   force =     0.00000000    0.00000000   -0.00357881
     atom    2 type  2   force =     0.00000000    0.00000000   -0.11587065
     atom    3 type  2   force =     0.00000000    0.00000000    0.26526729
     atom    4 type  3   force =     0.00000000    0.00000000    0.13172774
     The ionic contribution  to forces
     atom    1 type  1   force =     0.00000000    0.00000510  -36.02757185
     atom    2 type  2   force =    -0.00000000   -0.00000250   19.07425315
     atom    3 type  2   force =    -0.00000000   -0.00000254  -51.01370008
     atom    4 type  3   force =    -0.00000000   -0.00000006   67.96701878
     The local contribution  to forces
     atom    1 type  1   force =     0.00000000   -0.00000308   36.02430041
     atom    2 type  2   force =    -0.00000000    0.00000173  -18.95501416
     atom    3 type  2   force =    -0.00000000    0.00000177   50.74240606
     atom    4 type  3   force =    -0.00000002    0.00000006  -68.08235910
     The core correction contribution to forces
     atom    1 type  1   force =    -0.00000000    0.00000000    0.00077649
     atom    2 type  2   force =     0.00000000    0.00000000    0.00102729
     atom    3 type  2   force =     0.00000000    0.00000000   -0.00204275
     atom    4 type  3   force =    -0.00000000    0.00000000   -0.00811783
     The Hubbard contrib.    to forces
     atom    1 type  1   force =     0.00000000    0.00000000    0.00000000
     atom    2 type  2   force =     0.00000000    0.00000000    0.00000000
     atom    3 type  2   force =     0.00000000    0.00000000    0.00000000
     atom    4 type  3   force =     0.00000000    0.00000000    0.00000000
     The SCF correction term to forces
     atom    1 type  1   force =    -0.00000000   -0.00000000    0.00070645
     atom    2 type  2   force =    -0.00000000   -0.00000000    0.00036463
     atom    3 type  2   force =     0.00000000   -0.00000000    0.00010235
     atom    4 type  3   force =    -0.00000000   -0.00000000    0.00020699

     DFT-D3 dispersion contribution to forces:
     atom    1 type  1   force =     0.00000000   -0.00000001    0.00684560
     atom    2 type  2   force =    -0.00000000    0.00000000    0.00005261
     atom    3 type  2   force =    -0.00000000    0.00000000    0.00242079
     atom    4 type  3   force =     0.00000000    0.00000000   -0.00931900

     Total force =     0.007538     Total SCF correction =     0.000828
     SCF correction compared to forces is large: reduce conv_thr to get better values


     Computing stress (Cartesian axis) and pressure


     negative rho (up, down):  4.434E-05 4.799E-05
          total   stress  (Ry/bohr**3)                   (kbar)     P=      -11.32
  -0.00012187  -0.00000000   0.00000000          -17.93       -0.00        0.00
  -0.00000000  -0.00012187   0.00000000           -0.00      -17.93        0.00
   0.00000000   0.00000000   0.00001280            0.00        0.00        1.88

     Energy error            =      2.4E-04 Ry
     Gradient error          =      5.5E-03 Ry/Bohr

     number of scf cycles    =   5
     number of bfgs steps    =   4

     energy             old  =    -658.6416380041 Ry
     energy             new  =    -658.6418788698 Ry

     CASE: energy            _new < energy            _old

     new trust radius        =       0.0130787079 bohr
     new conv_thr            =       0.0000000241 Ry


ATOMIC_POSITIONS (crystal)
Mo           -0.0000000000       -0.0000000000        0.3786642532
S             0.6666666667        0.3333333333        0.4415205893
S             0.6666666667        0.3333333333        0.3161383548
Co            0.6666666667        0.3333333333        0.5263392439



     Writing config-only to output data dir ./tmp/scf.save/
     NEW-OLD atomic charge density approx. for the potential

     negative rho (up, down):  4.548E-05 4.656E-05
     Generating pointlists ...

     total cpu time spent up to now is      177.1 secs

     Self-consistent Calculation

     iteration #  1     ecut=    70.00 Ry     beta= 0.70
     Davidson diagonalization with overlap
     ethr =  1.00E-06,  avg # of iterations =  4.8

     negative rho (up, down):  4.458E-05 4.749E-05

     total cpu time spent up to now is      180.0 secs

     total energy              =    -658.64190253 Ry
     estimated scf accuracy    <       0.00006442 Ry

     total magnetization       =     1.86 Bohr mag/cell
     absolute magnetization    =     2.07 Bohr mag/cell

     iteration #  2     ecut=    70.00 Ry     beta= 0.70
     Davidson diagonalization with overlap
     ethr =  1.84E-07,  avg # of iterations =  5.2

     negative rho (up, down):  4.449E-05 4.767E-05

     total cpu time spent up to now is      182.6 secs

     total energy              =    -658.64163653 Ry
     estimated scf accuracy    <       0.00657397 Ry

     total magnetization       =     1.91 Bohr mag/cell
     absolute magnetization    =     2.12 Bohr mag/cell

     iteration #  3     ecut=    70.00 Ry     beta= 0.70
     Davidson diagonalization with overlap
     ethr =  1.84E-07,  avg # of iterations =  5.3

     negative rho (up, down):  4.437E-05 4.779E-05

     total cpu time spent up to now is      185.1 secs

     total energy              =    -658.64192476 Ry
     estimated scf accuracy    <       0.00005955 Ry

     total magnetization       =     1.86 Bohr mag/cell
     absolute magnetization    =     2.07 Bohr mag/cell

     iteration #  4     ecut=    70.00 Ry     beta= 0.70
     Davidson diagonalization with overlap
     ethr =  1.70E-07,  avg # of iterations =  2.9

     negative rho (up, down):  4.430E-05 4.786E-05

     total cpu time spent up to now is      187.5 secs

     total energy              =    -658.64192446 Ry
     estimated scf accuracy    <       0.00008473 Ry

     total magnetization       =     1.87 Bohr mag/cell
     absolute magnetization    =     2.08 Bohr mag/cell

     iteration #  5     ecut=    70.00 Ry     beta= 0.70
     Davidson diagonalization with overlap
     ethr =  1.70E-07,  avg # of iterations =  2.3

     negative rho (up, down):  4.427E-05 4.788E-05

     total cpu time spent up to now is      189.7 secs

     total energy              =    -658.64193369 Ry
     estimated scf accuracy    <       0.00000283 Ry

     total magnetization       =     1.87 Bohr mag/cell
     absolute magnetization    =     2.08 Bohr mag/cell

     iteration #  6     ecut=    70.00 Ry     beta= 0.70
     Davidson diagonalization with overlap
     ethr =  8.08E-09,  avg # of iterations =  4.1

     negative rho (up, down):  4.426E-05 4.790E-05

     total cpu time spent up to now is      192.2 secs

     total energy              =    -658.64193450 Ry
     estimated scf accuracy    <       0.00000339 Ry

     total magnetization       =     1.87 Bohr mag/cell
     absolute magnetization    =     2.08 Bohr mag/cell

     iteration #  7     ecut=    70.00 Ry     beta= 0.70
     Davidson diagonalization with overlap
     ethr =  8.08E-09,  avg # of iterations =  2.0

     negative rho (up, down):  4.426E-05 4.790E-05

     total cpu time spent up to now is      194.5 secs

     total energy              =    -658.64193493 Ry
     estimated scf accuracy    <       0.00000025 Ry

     total magnetization       =     1.87 Bohr mag/cell
     absolute magnetization    =     2.08 Bohr mag/cell

     iteration #  8     ecut=    70.00 Ry     beta= 0.70
     Davidson diagonalization with overlap
     ethr =  7.20E-10,  avg # of iterations =  2.6

     negative rho (up, down):  4.426E-05 4.790E-05

     total cpu time spent up to now is      196.8 secs

     total energy              =    -658.64193496 Ry
     estimated scf accuracy    <       0.00000003 Ry

     total magnetization       =     1.87 Bohr mag/cell
     absolute magnetization    =     2.08 Bohr mag/cell

     iteration #  9     ecut=    70.00 Ry     beta= 0.70
     Davidson diagonalization with overlap
     ethr =  8.11E-11,  avg # of iterations =  4.1

     negative rho (up, down):  4.426E-05 4.790E-05
 
     Magnetic moment per site  (integrated on atomic sphere of radius R)
     atom   1 (R=0.314)  charge= 10.7616  magn= -0.0294
     atom   2 (R=0.261)  charge=  2.9252  magn=  0.0219
     atom   3 (R=0.261)  charge=  2.8925  magn=  0.0027
     atom   4 (R=0.261)  charge=  6.5155  magn=  1.7163

     total cpu time spent up to now is      199.2 secs

     End of self-consistent calculation

 ------ SPIN UP ------------


          k = 0.0000 0.0000 0.0000 ( 14351 PWs)   bands (ev):

   -61.4901 -35.6515 -35.4254 -35.4254 -15.2503 -13.8565  -7.1460  -4.0281
    -3.4092  -3.4092  -3.1987  -2.3505  -2.3505  -1.8730  -1.8730  -1.3790
    -1.1156  -1.1156  -0.2188   1.9537   1.9537   2.2686

          k = 0.0000 0.0962 0.0000 ( 14357 PWs)   bands (ev):

   -61.4874 -35.6461 -35.4527 -35.4315 -15.1517 -13.8056  -7.0412  -4.0690
    -3.6748  -3.3161  -3.1301  -2.5285  -2.5031  -1.8931  -1.8359  -1.2823
    -1.1514  -1.1267  -0.2008   1.8362   2.0192   2.0221

          k = 0.0000 0.1925 0.0000 ( 14400 PWs)   bands (ev):

   -61.4800 -35.6313 -35.5267 -35.4484 -14.8731 -13.6591  -6.7705  -4.3936
    -4.1616  -3.1330  -2.9957  -2.7919  -2.7648  -1.9277  -1.7340  -1.3324
    -1.1994  -1.1439  -0.2304   1.6139   1.8392   1.8848

          k = 0.0000 0.2887 0.0000 ( 14448 PWs)   bands (ev):

   -61.4698 -35.6265 -35.6111 -35.4713 -14.4667 -13.4367  -6.4825  -5.0976
    -4.5587  -3.3896  -3.2085  -2.6056  -2.5371  -1.8631  -1.5976  -1.5898
    -1.3202  -1.1361  -0.2455   1.6137   1.6233   2.2382

          k = 0.0000 0.3849 0.0000 ( 14480 PWs)   bands (ev):

   -61.4597 -35.7247 -35.5908 -35.4942 -14.0257 -13.1748  -6.4359  -5.7058
    -4.9763  -3.7374  -3.4252  -2.4477  -2.3156  -1.8493  -1.5541  -1.4389
    -1.3450  -1.0742   0.0719   1.5177   1.8884   2.7389

          k = 0.0000 0.4811 0.0000 ( 14494 PWs)   bands (ev):

   -61.4522 -35.7957 -35.5759 -35.5108 -13.6808 -12.9389  -6.7063  -6.0338
    -5.2567  -3.9705  -3.6196  -2.4733  -2.1582  -1.7784  -1.5557  -1.3248
    -1.0072  -0.9848   0.7767   1.5655   2.1975   3.0701

          k = 0.0000-0.5774 0.0000 ( 14518 PWs)   bands (ev):

   -61.4495 -35.8215 -35.5704 -35.5169 -13.5513 -12.8371  -6.8685  -6.1431
    -5.3505  -4.0513  -3.6993  -2.4900  -2.1160  -1.7104  -1.5751  -1.2821
    -0.9448  -0.8049   1.3347   1.6177   2.2828   3.0759

          k = 0.0833 0.1443 0.0000 ( 14400 PWs)   bands (ev):

   -61.4823 -35.6360 -35.5020 -35.4445 -14.9630 -13.7067  -6.8517  -4.2173
    -4.0636  -3.1865  -3.0231  -2.8565  -2.6109  -1.9324  -1.7574  -1.2708
    -1.2005  -1.1166  -0.2091   1.6699   1.8010   1.8946

          k = 0.0833 0.2406 0.0000 ( 14456 PWs)   bands (ev):

   -61.4736 -35.6185 -35.5853 -35.4679 -14.6195 -13.5213  -6.5602  -4.7849
    -4.3773  -3.5746  -2.9874  -2.7369  -2.5478  -1.9663  -1.6093  -1.4576
    -1.2605  -1.1268  -0.2595   1.4824   1.7364   1.9208

          k = 0.0833 0.3368 0.0000 ( 14475 PWs)   bands (ev):

   -61.4634 -35.6800 -35.5982 -35.4951 -14.1926 -13.2757  -6.3660  -5.4176
    -4.7970  -3.9491  -3.1330  -2.5863  -2.3647  -1.8352  -1.7183  -1.4405
    -1.2966  -1.0972  -0.1460   1.4722   1.8157   2.3494

          k = 0.0833 0.4330 0.0000 ( 14478 PWs)   bands (ev):

   -61.4546 -35.7609 -35.5806 -35.5185 -13.7945 -13.0181  -6.4920  -5.8631
    -5.1975  -4.0952  -3.3999  -2.5623  -2.3502  -1.7645  -1.5589  -1.4324
    -1.1044  -1.0179   0.3857   1.6281   2.0505   2.8401

          k = 0.0833 0.5292 0.0000 ( 14500 PWs)   bands (ev):

   -61.4495 -35.8071 -35.5704 -35.5320 -13.5547 -12.8365  -6.7349  -6.0928
    -5.3914  -4.1154  -3.6505  -2.5671  -2.3501  -1.6467  -1.5176  -1.3651
    -1.0191  -0.8327   1.2097   1.7064   2.2942   3.0883

          k = 0.1667 0.2887 0.0000 ( 14482 PWs)   bands (ev):

   -61.4648 -35.6571 -35.6010 -35.5020 -14.2530 -13.3101  -6.3366  -5.2299
    -4.6724  -4.1920  -3.0765  -2.6743  -2.2211  -2.0319  -1.6833  -1.4107
    -1.2573  -1.0844  -0.2199   1.4006   1.8141   2.1087

          k = 0.1667 0.3849 0.0000 ( 14494 PWs)   bands (ev):

   -61.4559 -35.7245 -35.5834 -35.5396 -13.8619 -13.0594  -6.2907  -5.5973
    -5.2096  -4.3257  -3.3314  -2.8217  -2.1775  -1.8836  -1.7501  -1.3607
    -1.0681  -1.0614   0.1254   1.6920   1.9372   2.4647

          k = 0.1667 0.4811 0.0000 ( 14497 PWs)   bands (ev):

   -61.4495 -35.7721 -35.5704 -35.5684 -13.5616 -12.8350  -6.4358  -5.9437
    -5.4770  -4.2722  -3.6647  -3.0130  -2.2309  -1.6964  -1.6204  -1.3466
    -1.0736  -0.9138   0.9172   1.8248   2.2754   2.7804

          k = 0.1667 0.5774 0.0000 ( 14512 PWs)   bands (ev):

   -61.4471 -35.7893 -35.5791 -35.5657 -13.4496 -12.7401  -6.5268  -6.0878
    -5.5568  -4.1455  -3.8995  -3.0850  -2.2502  -1.6216  -1.5348  -1.3607
    -1.0895  -0.7914   1.4154   1.9883   2.3381   2.7966

          k = 0.2500 0.4330 0.0000 ( 14510 PWs)   bands (ev):

   -61.4495 -35.7487 -35.5925 -35.5705 -13.5651 -12.8341  -6.2687  -5.8487
    -5.4755  -4.4131  -3.8211  -3.0843  -2.0597  -1.8610  -1.7061  -1.2723
    -1.0609  -0.9852   0.7818   1.8133   2.2420   2.6760

          k = 0.2500 0.5292 0.0000 ( 14528 PWs)   bands (ev):

   -61.4458 -35.7537 -35.6320 -35.5630 -13.3905 -12.6821  -6.3349  -5.9583
    -5.5656  -4.5370  -4.0461  -3.3241  -2.0593  -1.7461  -1.6297  -1.2741
    -1.1156  -0.7747   1.2134   1.9164   2.4128   3.1386

          k = 0.3333 0.5774 0.0000 ( 14538 PWs)   bands (ev):

   -61.4444 -35.7242 -35.6781 -35.5603 -13.3277 -12.6220  -6.3932  -5.6776
    -5.5459  -5.0449  -3.9901  -3.4789  -1.9107  -1.8642  -1.6076  -1.2701
    -1.1443  -0.6209   1.0349   2.0044   2.5720   3.8869

 ------ SPIN DOWN ----------


          k = 0.0000 0.0000 0.0000 ( 14351 PWs)   bands (ev):

   -61.5152 -35.6865 -35.4491 -35.4491 -15.2198 -13.8433  -7.1071  -3.9717
    -3.3949  -3.3949  -2.3161  -2.3161  -2.1460  -1.0991  -0.1249  -0.1249
     0.1302   0.1302   0.9009   2.0584   2.0584   2.3026

          k = 0.0000 0.0962 0.0000 ( 14357 PWs)   bands (ev):

   -61.5125 -35.6812 -35.4764 -35.4553 -15.1207 -13.7926  -6.9994  -4.0213
    -3.6453  -3.2972  -2.5081  -2.4771  -2.0114  -1.0943  -0.1946  -0.1304
     0.0958   0.1753   0.9872   1.9587   2.0575   2.1607

          k = 0.0000 0.1925 0.0000 ( 14400 PWs)   bands (ev):

   -61.5051 -35.6665 -35.5502 -35.4721 -14.8402 -13.6471  -6.7200  -4.3442
    -4.1401  -3.0875  -2.7949  -2.7379  -1.8465  -1.2217  -0.3282  -0.1451
     0.0100   0.3005   1.0629   1.7589   1.9374   1.9839

          k = 0.0000 0.2887 0.0000 ( 14448 PWs)   bands (ev):

   -61.4950 -35.6498 -35.6463 -35.4950 -14.4305 -13.4265  -6.4236  -5.0326
    -4.5465  -3.3575  -3.0062  -2.5825  -1.5861  -1.4525  -0.4367  -0.1456
    -0.0610   0.4794   1.0162   1.6982   1.8594   2.3746

          k = 0.0000 0.3849 0.0000 ( 14480 PWs)   bands (ev):

   -61.4849 -35.7478 -35.6261 -35.5178 -13.9847 -13.1674  -6.3935  -5.6158
    -4.9503  -3.7138  -3.2616  -2.2473  -1.8280  -0.9745  -0.5143  -0.0997
     0.0945   0.6711   1.1237   1.5719   2.1195   2.8901

          k = 0.0000 0.4811 0.0000 ( 14494 PWs)   bands (ev):

   -61.4774 -35.8186 -35.6112 -35.5344 -13.6355 -12.9338  -6.6799  -5.9475
    -5.2084  -3.9498  -3.4614  -2.0413  -1.7252  -0.7986  -0.5764  -0.0271
     0.7232   0.8217   1.3800   1.5798   2.3277   3.2416

          k = 0.0000-0.5774 0.0000 ( 14518 PWs)   bands (ev):

   -61.4747 -35.8443 -35.6058 -35.5405 -13.5044 -12.8326  -6.8433  -6.0664
    -5.2957  -4.0315  -3.5358  -1.9790  -1.6089  -0.7811  -0.6028   0.0064
     0.8788   1.2301   1.5190   1.6146   2.3392   3.3311

          k = 0.0833 0.1443 0.0000 ( 14400 PWs)   bands (ev):

   -61.5075 -35.6711 -35.5255 -35.4682 -14.9308 -13.6944  -6.8040  -4.1714
    -4.0350  -3.1489  -2.8676  -2.5498  -1.8891  -1.1487  -0.3003  -0.1379
     0.0351   0.2628   1.0699   1.7795   1.8969   1.9995

          k = 0.0833 0.2406 0.0000 ( 14456 PWs)   bands (ev):

   -61.4987 -35.6537 -35.6087 -35.4916 -14.5847 -13.5103  -6.5024  -4.7260
    -4.3611  -3.5310  -2.8575  -2.5707  -1.6279  -1.3957  -0.4228  -0.1460
    -0.0538   0.4265   1.0320   1.6515   1.8366   2.0839

          k = 0.0833 0.3368 0.0000 ( 14475 PWs)   bands (ev):

   -61.4886 -35.7031 -35.6335 -35.5187 -14.1536 -13.2671  -6.3104  -5.3337
    -4.7799  -3.9199  -2.9474  -2.5116  -1.6948  -1.1289  -0.4974  -0.1259
    -0.0807   0.6417   1.0086   1.6140   1.9928   2.5203

          k = 0.0833 0.4330 0.0000 ( 14478 PWs)   bands (ev):

   -61.4798 -35.7838 -35.6159 -35.5421 -13.7507 -13.0122  -6.4607  -5.7692
    -5.1533  -4.0691  -3.2369  -2.4808  -1.6526  -0.7734  -0.5308  -0.0748
     0.2117   0.9083   1.1252   1.7302   2.2277   2.9786

          k = 0.0833 0.5292 0.0000 ( 14500 PWs)   bands (ev):

   -61.4747 -35.8299 -35.6058 -35.5556 -13.5079 -12.8320  -6.7087  -6.0194
    -5.3274  -4.0921  -3.4841  -2.4437  -1.4666  -0.7142  -0.5534  -0.0369
     0.5939   1.1936   1.4855   1.7880   2.4005   3.1735

          k = 0.1667 0.2887 0.0000 ( 14482 PWs)   bands (ev):

   -61.4899 -35.6803 -35.6362 -35.5256 -14.2147 -13.3011  -6.2757  -5.1440
    -4.6574  -4.1734  -2.9482  -2.4712  -1.6237  -1.1954  -0.5071  -0.1711
    -0.0947   0.6408   0.9694   1.5953   1.9140   2.3347

          k = 0.1667 0.3849 0.0000 ( 14494 PWs)   bands (ev):

   -61.4811 -35.7475 -35.6187 -35.5632 -13.8190 -13.0529  -6.2495  -5.4854
    -5.1805  -4.3014  -3.2502  -2.6639  -1.6454  -0.6823  -0.5076  -0.1682
    -0.0920   0.8866   1.0319   1.8500   2.0590   2.6869

          k = 0.1667 0.4811 0.0000 ( 14497 PWs)   bands (ev):

   -61.4747 -35.7950 -35.6058 -35.5919 -13.5150 -12.8303  -6.4065  -5.8866
    -5.3803  -4.2378  -3.5582  -2.9358  -1.4416  -0.5334  -0.4694  -0.1153
     0.1627   1.0257   1.4438   1.9407   2.3914   2.9775

          k = 0.1667 0.5774 0.0000 ( 14512 PWs)   bands (ev):

   -61.4723 -35.8121 -35.6025 -35.6011 -13.4018 -12.7358  -6.4975  -6.0455
    -5.4532  -4.1170  -3.7618  -3.0346  -1.2963  -0.5343  -0.4602  -0.1158
     0.3368   1.1283   1.5574   2.2160   2.5128   2.9534

          k = 0.2500 0.4330 0.0000 ( 14510 PWs)   bands (ev):

   -61.4747 -35.7717 -35.6159 -35.6058 -13.5186 -12.8293  -6.2363  -5.8135
    -5.3391  -4.3712  -3.8042  -2.9459  -1.4663  -0.4449  -0.2693  -0.2072
    -0.1321   0.9407   1.4325   1.9516   2.3028   2.9810

          k = 0.2500 0.5292 0.0000 ( 14528 PWs)   bands (ev):

   -61.4710 -35.7766 -35.6553 -35.5984 -13.3422 -12.6778  -6.3089  -5.9365
    -5.4126  -4.4751  -4.0242  -3.2378  -1.2167  -0.3679  -0.2964  -0.1907
     0.0585   1.0124   1.3821   2.2044   2.5580   3.4197

          k = 0.3333 0.5774 0.0000 ( 14538 PWs)   bands (ev):

   -61.4696 -35.7471 -35.7014 -35.5957 -13.2789 -12.6177  -6.3764  -5.6514
    -5.3574  -5.0267  -3.9520  -3.4082  -1.0939  -0.2819  -0.2427  -0.1126
    -0.0600   1.0191   1.1268   2.2287   2.7801   4.0141

     the Fermi energy is     0.0907 ev

!    total energy              =    -658.64193497 Ry
     total all-electron energy =    -12481.815826 Ry
     estimated scf accuracy    <          3.8E-09 Ry
     smearing contrib. (-TS)   =      -0.00104003 Ry
     internal energy E=F+TS    =    -658.64089494 Ry

     The total energy is F=E-TS. E is the sum of the following terms:
     one-electron contribution =   -2174.96716861 Ry
     hartree contribution      =    1098.85748214 Ry
     xc contribution           =     -62.32489523 Ry
     ewald contribution        =     886.02014269 Ry
     DFT-D3 Dispersion         =      -0.06661382 Ry
     one-center paw contrib.   =    -406.15984210 Ry

     total magnetization       =     1.87 Bohr mag/cell
     absolute magnetization    =     2.08 Bohr mag/cell

     convergence has been achieved in   9 iterations

     negative rho (up, down):  4.426E-05 4.790E-05

     Forces acting on atoms (cartesian axes, Ry/au):

     atom    1 type  1   force =     0.00000000   -0.00000000    0.00082838
     atom    2 type  2   force =     0.00000000   -0.00000000    0.00197078
     atom    3 type  2   force =     0.00000000    0.00000000   -0.00152298
     atom    4 type  3   force =     0.00000000   -0.00000000   -0.00127618
     The non-local contrib.  to forces
     atom    1 type  1   force =     0.00000000    0.00000000   -0.00357225
     atom    2 type  2   force =     0.00000000   -0.00000000   -0.11702813
     atom    3 type  2   force =     0.00000000    0.00000000    0.26706019
     atom    4 type  3   force =     0.00000000    0.00000000    0.13146098
     The ionic contribution  to forces
     atom    1 type  1   force =     0.00000000    0.00000506  -36.00064062
     atom    2 type  2   force =    -0.00000000   -0.00000248   19.07738502
     atom    3 type  2   force =    -0.00000000   -0.00000251  -50.99471222
     atom    4 type  3   force =    -0.00000000   -0.00000006   67.91796783
     The local contribution  to forces
     atom    1 type  1   force =    -0.00000000   -0.00000305   35.99717687
     atom    2 type  2   force =    -0.00000000    0.00000172  -18.95956988
     atom    3 type  2   force =    -0.00000000    0.00000175   50.72578333
     atom    4 type  3   force =    -0.00000002    0.00000006  -68.03326418
     The core correction contribution to forces
     atom    1 type  1   force =     0.00000000    0.00000000    0.00077400
     atom    2 type  2   force =     0.00000000    0.00000000    0.00107598
     atom    3 type  2   force =     0.00000000    0.00000000   -0.00212664
     atom    4 type  3   force =    -0.00000000    0.00000000   -0.00809893
     The Hubbard contrib.    to forces
     atom    1 type  1   force =     0.00000000    0.00000000    0.00000000
     atom    2 type  2   force =     0.00000000    0.00000000    0.00000000
     atom    3 type  2   force =     0.00000000    0.00000000    0.00000000
     atom    4 type  3   force =     0.00000000    0.00000000    0.00000000
     The SCF correction term to forces
     atom    1 type  1   force =     0.00000000   -0.00000000    0.00025890
     atom    2 type  2   force =    -0.00000000    0.00000000    0.00002600
     atom    3 type  2   force =     0.00000000   -0.00000000    0.00004866
     atom    4 type  3   force =    -0.00000000    0.00000000   -0.00007772

     DFT-D3 dispersion contribution to forces:
     atom    1 type  1   force =     0.00000000   -0.00000001    0.00681328
     atom    2 type  2   force =    -0.00000000    0.00000000    0.00006358
     atom    3 type  2   force =    -0.00000000    0.00000000    0.00240549
     atom    4 type  3   force =     0.00000000    0.00000000   -0.00928236

     Total force =     0.002919     Total SCF correction =     0.000276


     Computing stress (Cartesian axis) and pressure


     negative rho (up, down):  4.426E-05 4.790E-05
          total   stress  (Ry/bohr**3)                   (kbar)     P=      -12.47
  -0.00012630   0.00000000   0.00000000          -18.58        0.00        0.00
   0.00000000  -0.00012630  -0.00000000            0.00      -18.58       -0.00
   0.00000000  -0.00000000  -0.00000171            0.00       -0.00       -0.25

     Energy error            =      5.6E-05 Ry
     Gradient error          =      2.0E-03 Ry/Bohr

     number of scf cycles    =   6
     number of bfgs steps    =   5

     energy             old  =    -658.6418788698 Ry
     energy             new  =    -658.6419349682 Ry

     CASE: energy            _new < energy            _old

     new trust radius        =       0.0031099308 bohr
     new conv_thr            =       0.0000000100 Ry


ATOMIC_POSITIONS (crystal)
Mo           -0.0000000000       -0.0000000000        0.3786933232
S             0.6666666667        0.3333333333        0.4415864175
S             0.6666666667        0.3333333333        0.3160825232
Co            0.6666666667        0.3333333333        0.5263001773



     Writing config-only to output data dir ./tmp/scf.save/
     NEW-OLD atomic charge density approx. for the potential

     negative rho (up, down):  4.539E-05 4.607E-05
     Generating pointlists ...

     total cpu time spent up to now is      206.5 secs

     Self-consistent Calculation

     iteration #  1     ecut=    70.00 Ry     beta= 0.70
     Davidson diagonalization with overlap
     ethr =  1.00E-06,  avg # of iterations =  3.0

     Threshold (ethr) on eigenvalues was too large:
     Diagonalizing with lowered threshold

     Davidson diagonalization with overlap
     ethr =  1.12E-08,  avg # of iterations =  4.4

     negative rho (up, down):  4.443E-05 4.749E-05

     total cpu time spent up to now is      211.1 secs

     total energy              =    -658.64194131 Ry
     estimated scf accuracy    <       0.00000462 Ry

     total magnetization       =     1.86 Bohr mag/cell
     absolute magnetization    =     2.08 Bohr mag/cell

     iteration #  2     ecut=    70.00 Ry     beta= 0.70
     Davidson diagonalization with overlap
     ethr =  1.32E-08,  avg # of iterations =  3.9

     negative rho (up, down):  4.437E-05 4.763E-05

     total cpu time spent up to now is      213.6 secs

     total energy              =    -658.64193945 Ry
     estimated scf accuracy    <       0.00001876 Ry

     total magnetization       =     1.87 Bohr mag/cell
     absolute magnetization    =     2.08 Bohr mag/cell

     iteration #  3     ecut=    70.00 Ry     beta= 0.70
     Davidson diagonalization with overlap
     ethr =  1.32E-08,  avg # of iterations =  3.8

     negative rho (up, down):  4.435E-05 4.767E-05

     total cpu time spent up to now is      216.0 secs

     total energy              =    -658.64194006 Ry
     estimated scf accuracy    <       0.00005547 Ry

     total magnetization       =     1.86 Bohr mag/cell
     absolute magnetization    =     2.07 Bohr mag/cell

     iteration #  4     ecut=    70.00 Ry     beta= 0.70
     Davidson diagonalization with overlap
     ethr =  1.32E-08,  avg # of iterations =  2.8

     negative rho (up, down):  4.431E-05 4.776E-05

     total cpu time spent up to now is      218.3 secs

     total energy              =    -658.64194239 Ry
     estimated scf accuracy    <       0.00000435 Ry

     total magnetization       =     1.86 Bohr mag/cell
     absolute magnetization    =     2.08 Bohr mag/cell

     iteration #  5     ecut=    70.00 Ry     beta= 0.70
     Davidson diagonalization with overlap
     ethr =  1.24E-08,  avg # of iterations =  2.4

     negative rho (up, down):  4.425E-05 4.788E-05

     total cpu time spent up to now is      220.6 secs

     total energy              =    -658.64194291 Ry
     estimated scf accuracy    <       0.00000252 Ry

     total magnetization       =     1.86 Bohr mag/cell
     absolute magnetization    =     2.07 Bohr mag/cell

     iteration #  6     ecut=    70.00 Ry     beta= 0.70
     Davidson diagonalization with overlap
     ethr =  7.21E-09,  avg # of iterations =  1.1

     negative rho (up, down):  4.424E-05 4.790E-05

     total cpu time spent up to now is      222.8 secs

     total energy              =    -658.64194312 Ry
     estimated scf accuracy    <       0.00000009 Ry

     total magnetization       =     1.86 Bohr mag/cell
     absolute magnetization    =     2.08 Bohr mag/cell

     iteration #  7     ecut=    70.00 Ry     beta= 0.70
     Davidson diagonalization with overlap
     ethr =  2.53E-10,  avg # of iterations =  4.8

     negative rho (up, down):  4.424E-05 4.790E-05
 
     Magnetic moment per site  (integrated on atomic sphere of radius R)
     atom   1 (R=0.314)  charge= 10.7606  magn= -0.0296
     atom   2 (R=0.261)  charge=  2.9253  magn=  0.0219
     atom   3 (R=0.261)  charge=  2.8917  magn=  0.0027
     atom   4 (R=0.261)  charge=  6.5161  magn=  1.7139

     total cpu time spent up to now is      225.3 secs

     End of self-consistent calculation

 ------ SPIN UP ------------


          k = 0.0000 0.0000 0.0000 ( 14351 PWs)   bands (ev):

   -61.4879 -35.6488 -35.4224 -35.4224 -15.2460 -13.8541  -7.1431  -4.0266
    -3.3994  -3.3994  -3.2008  -2.3424  -2.3424  -1.8721  -1.8721  -1.3821
    -1.1166  -1.1166  -0.2175   1.9565   1.9565   2.2661

          k = 0.0000 0.0962 0.0000 ( 14357 PWs)   bands (ev):

   -61.4852 -35.6434 -35.4497 -35.4286 -15.1476 -13.8029  -7.0383  -4.0668
    -3.6663  -3.3069  -3.1314  -2.5220  -2.4943  -1.8922  -1.8350  -1.2849
    -1.1522  -1.1279  -0.1990   1.8390   2.0167   2.0236

          k = 0.0000 0.1925 0.0000 ( 14400 PWs)   bands (ev):

   -61.4778 -35.6287 -35.5236 -35.4454 -14.8694 -13.6558  -6.7676  -4.3873
    -4.1569  -3.1276  -2.9959  -2.7797  -2.7616  -1.9268  -1.7331  -1.3335
    -1.2010  -1.1451  -0.2276   1.6125   1.8392   1.8859

          k = 0.0000 0.2887 0.0000 ( 14448 PWs)   bands (ev):

   -61.4676 -35.6233 -35.6085 -35.4683 -14.4636 -13.4322  -6.4792  -5.0932
    -4.5532  -3.3834  -3.2080  -2.5953  -2.5368  -1.8623  -1.5980  -1.5889
    -1.3203  -1.1368  -0.2425   1.6144   1.6215   2.2392

          k = 0.0000 0.3849 0.0000 ( 14480 PWs)   bands (ev):

   -61.4575 -35.7214 -35.5882 -35.4911 -14.0233 -13.1689  -6.4309  -5.7049
    -4.9713  -3.7304  -3.4251  -2.4475  -2.3087  -1.8485  -1.5541  -1.4379
    -1.3436  -1.0735   0.0746   1.5198   1.8875   2.7392

          k = 0.0000 0.4811 0.0000 ( 14494 PWs)   bands (ev):

   -61.4500 -35.7924 -35.5733 -35.5078 -13.6790 -12.9317  -6.7018  -6.0331
    -5.2530  -3.9632  -3.6198  -2.4730  -2.1540  -1.7776  -1.5559  -1.3237
    -1.0043  -0.9828   0.7781   1.5691   2.1982   3.0706

          k = 0.0000-0.5774 0.0000 ( 14518 PWs)   bands (ev):

   -61.4473 -35.8181 -35.5678 -35.5138 -13.5495 -12.8293  -6.8649  -6.1418
    -5.3472  -4.0439  -3.6995  -2.4897  -2.1128  -1.7098  -1.5755  -1.2811
    -0.9425  -0.8012   1.3344   1.6219   2.2845   3.0779

          k = 0.0833 0.1443 0.0000 ( 14400 PWs)   bands (ev):

   -61.4801 -35.6334 -35.4989 -35.4415 -14.9592 -13.7036  -6.8489  -4.2116
    -4.0585  -3.1800  -3.0222  -2.8490  -2.6043  -1.9315  -1.7565  -1.2719
    -1.2025  -1.1176  -0.2066   1.6697   1.8012   1.8945

          k = 0.0833 0.2406 0.0000 ( 14456 PWs)   bands (ev):

   -61.4714 -35.6159 -35.5821 -35.4649 -14.6162 -13.5173  -6.5573  -4.7788
    -4.3730  -3.5688  -2.9854  -2.7297  -2.5444  -1.9654  -1.6084  -1.4585
    -1.2612  -1.1274  -0.2565   1.4810   1.7359   1.9228

          k = 0.0833 0.3368 0.0000 ( 14475 PWs)   bands (ev):

   -61.4612 -35.6768 -35.5956 -35.4920 -14.1899 -13.2704  -6.3620  -5.4152
    -4.7913  -3.9438  -3.1323  -2.5791  -2.3636  -1.8345  -1.7179  -1.4403
    -1.2949  -1.0969  -0.1434   1.4728   1.8152   2.3506

          k = 0.0833 0.4330 0.0000 ( 14478 PWs)   bands (ev):

   -61.4524 -35.7575 -35.5780 -35.5154 -13.7925 -13.0113  -6.4870  -5.8625
    -5.1929  -4.0897  -3.3994  -2.5583  -2.3487  -1.7636  -1.5587  -1.4313
    -1.1026  -1.0157   0.3874   1.6306   2.0509   2.8403

          k = 0.0833 0.5292 0.0000 ( 14500 PWs)   bands (ev):

   -61.4473 -35.8037 -35.5679 -35.5289 -13.5529 -12.8288  -6.7313  -6.0910
    -5.3878  -4.1094  -3.6506  -2.5649  -2.3484  -1.6465  -1.5173  -1.3640
    -1.0173  -0.8288   1.2104   1.7097   2.2959   3.0869

          k = 0.1667 0.2887 0.0000 ( 14482 PWs)   bands (ev):

   -61.4626 -35.6539 -35.5984 -35.4990 -14.2502 -13.3050  -6.3331  -5.2264
    -4.6664  -4.1871  -3.0748  -2.6685  -2.2200  -2.0310  -1.6833  -1.4106
    -1.2552  -1.0841  -0.2176   1.4003   1.8138   2.1109

          k = 0.1667 0.3849 0.0000 ( 14494 PWs)   bands (ev):

   -61.4538 -35.7212 -35.5808 -35.5366 -13.8597 -13.0529  -6.2860  -5.5968
    -5.2028  -4.3224  -3.3287  -2.8186  -2.1767  -1.8829  -1.7496  -1.3598
    -1.0650  -1.0601   0.1265   1.6920   1.9391   2.4657

          k = 0.1667 0.4811 0.0000 ( 14497 PWs)   bands (ev):

   -61.4473 -35.7688 -35.5679 -35.5653 -13.5599 -12.8275  -6.4322  -5.9399
    -5.4740  -4.2692  -3.6625  -3.0107  -2.2300  -1.6962  -1.6200  -1.3455
    -1.0720  -0.9098   0.9179   1.8279   2.2756   2.7799

          k = 0.1667 0.5774 0.0000 ( 14512 PWs)   bands (ev):

   -61.4449 -35.7859 -35.5760 -35.5632 -13.4480 -12.7322  -6.5242  -6.0828
    -5.5542  -4.1423  -3.8980  -3.0827  -2.2494  -1.6221  -1.5341  -1.3597
    -1.0877  -0.7870   1.4188   1.9884   2.3389   2.7955

          k = 0.2500 0.4330 0.0000 ( 14510 PWs)   bands (ev):

   -61.4473 -35.7454 -35.5894 -35.5679 -13.5634 -12.8266  -6.2649  -5.8428
    -5.4743  -4.4117  -3.8159  -3.0839  -2.0587  -1.8602  -1.7063  -1.2715
    -1.0589  -0.9811   0.7823   1.8156   2.2420   2.6767

          k = 0.2500 0.5292 0.0000 ( 14528 PWs)   bands (ev):

   -61.4436 -35.7504 -35.6288 -35.5605 -13.3889 -12.6741  -6.3309  -5.9523
    -5.5655  -4.5346  -4.0427  -3.3234  -2.0584  -1.7453  -1.6305  -1.2737
    -1.1131  -0.7703   1.2179   1.9158   2.4114   3.1388

          k = 0.3333 0.5774 0.0000 ( 14538 PWs)   bands (ev):

   -61.4422 -35.7208 -35.6750 -35.5578 -13.3261 -12.6138  -6.3870  -5.6749
    -5.5469  -5.0392  -3.9889  -3.4777  -1.9098  -1.8634  -1.6087  -1.2699
    -1.1415  -0.6167   1.0417   2.0011   2.5709   3.8871

 ------ SPIN DOWN ----------


          k = 0.0000 0.0000 0.0000 ( 14351 PWs)   bands (ev):

   -61.5132 -35.6842 -35.4463 -35.4463 -15.2154 -13.8409  -7.1039  -3.9704
    -3.3848  -3.3848  -2.3075  -2.3075  -2.1487  -1.1040  -0.1289  -0.1289
     0.1286   0.1286   0.8986   2.0613   2.0613   2.3006

          k = 0.0000 0.0962 0.0000 ( 14357 PWs)   bands (ev):

   -61.5105 -35.6788 -35.4735 -35.4525 -15.1164 -13.7901  -6.9962  -4.0192
    -3.6360  -3.2876  -2.5016  -2.4681  -2.0135  -1.0984  -0.1982  -0.1344
     0.0942   0.1736   0.9850   1.9608   2.0561   2.1622

          k = 0.0000 0.1925 0.0000 ( 14400 PWs)   bands (ev):

   -61.5031 -35.6642 -35.5473 -35.4693 -14.8363 -13.6438  -6.7168  -4.3376
    -4.1350  -3.0813  -2.7829  -2.7338  -1.8492  -1.2240  -0.3312  -0.1490
     0.0083   0.2989   1.0612   1.7561   1.9374   1.9866

          k = 0.0000 0.2887 0.0000 ( 14448 PWs)   bands (ev):

   -61.4930 -35.6468 -35.6440 -35.4922 -14.4272 -13.4221  -6.4198  -5.0278
    -4.5410  -3.3507  -3.0052  -2.5721  -1.5865  -1.4542  -0.4391  -0.1490
    -0.0626   0.4778   1.0147   1.6990   1.8569   2.3762

          k = 0.0000 0.3849 0.0000 ( 14480 PWs)   bands (ev):

   -61.4829 -35.7446 -35.6238 -35.5150 -13.9821 -13.1616  -6.3880  -5.6143
    -4.9454  -3.7063  -3.2618  -2.2394  -1.8269  -0.9763  -0.5164  -0.1021
     0.0932   0.6696   1.1227   1.5739   2.1178   2.8910

          k = 0.0000 0.4811 0.0000 ( 14494 PWs)   bands (ev):

   -61.4754 -35.8154 -35.6090 -35.5316 -13.6334 -12.9267  -6.6751  -5.9460
    -5.2046  -3.9422  -3.4620  -2.0356  -1.7241  -0.8005  -0.5784  -0.0286
     0.7217   0.8202   1.3796   1.5832   2.3279   3.2423

          k = 0.0000-0.5774 0.0000 ( 14518 PWs)   bands (ev):

   -61.4727 -35.8411 -35.6036 -35.5376 -13.5025 -12.8249  -6.8394  -6.0645
    -5.2921  -4.0238  -3.5366  -1.9741  -1.6081  -0.7830  -0.6047   0.0051
     0.8772   1.2287   1.5180   1.6186   2.3411   3.3315

          k = 0.0833 0.1443 0.0000 ( 14400 PWs)   bands (ev):

   -61.5055 -35.6688 -35.5226 -35.4654 -14.9268 -13.6914  -6.8009  -4.1657
    -4.0292  -3.1414  -2.8578  -2.5438  -1.8919  -1.1514  -0.3036  -0.1416
     0.0334   0.2612   1.0680   1.7767   1.8999   1.9994

          k = 0.0833 0.2406 0.0000 ( 14456 PWs)   bands (ev):

   -61.4967 -35.6514 -35.6057 -35.4888 -14.5812 -13.5064  -6.4989  -4.7192
    -4.3569  -3.5247  -2.8510  -2.5641  -1.6299  -1.3967  -0.4256  -0.1491
    -0.0557   0.4249   1.0302   1.6504   1.8358   2.0860

          k = 0.0833 0.3368 0.0000 ( 14475 PWs)   bands (ev):

   -61.4866 -35.7001 -35.6312 -35.5158 -14.1507 -13.2619  -6.3058  -5.3307
    -4.7743  -3.9142  -2.9463  -2.5037  -1.6935  -1.1304  -0.4997  -0.1281
    -0.0825   0.6402   1.0069   1.6153   1.9909   2.5220

          k = 0.0833 0.4330 0.0000 ( 14478 PWs)   bands (ev):

   -61.4778 -35.7807 -35.6137 -35.5392 -13.7484 -13.0055  -6.4554  -5.7677
    -5.1489  -4.0633  -3.2366  -2.4757  -1.6501  -0.7751  -0.5325  -0.0767
     0.2104   0.9069   1.1241   1.7329   2.2269   2.9792

          k = 0.0833 0.5292 0.0000 ( 14500 PWs)   bands (ev):

   -61.4727 -35.8267 -35.6036 -35.5527 -13.5060 -12.8243  -6.7049  -6.0167
    -5.3238  -4.0859  -3.4846  -2.4398  -1.4645  -0.7160  -0.5551  -0.0383
     0.5926   1.1927   1.4851   1.7906   2.4017   3.1718

          k = 0.1667 0.2887 0.0000 ( 14482 PWs)   bands (ev):

   -61.4880 -35.6773 -35.6340 -35.5228 -14.2117 -13.2961  -6.2715  -5.1398
    -4.6515  -4.1684  -2.9443  -2.4661  -1.6225  -1.1968  -0.5095  -0.1725
    -0.0972   0.6392   0.9672   1.5960   1.9130   2.3367

          k = 0.1667 0.3849 0.0000 ( 14494 PWs)   bands (ev):

   -61.4792 -35.7444 -35.6165 -35.5603 -13.8166 -13.0466  -6.2442  -5.4836
    -5.1743  -4.2979  -3.2466  -2.6619  -1.6425  -0.6834  -0.5093  -0.1696
    -0.0939   0.8850   1.0298   1.8524   2.0579   2.6884

          k = 0.1667 0.4811 0.0000 ( 14497 PWs)   bands (ev):

   -61.4727 -35.7919 -35.6036 -35.5889 -13.5131 -12.8228  -6.4026  -5.8814
    -5.3778  -4.2344  -3.5558  -2.9341  -1.4389  -0.5350  -0.4705  -0.1170
     0.1616   1.0244   1.4427   1.9439   2.3901   2.9776

          k = 0.1667 0.5774 0.0000 ( 14512 PWs)   bands (ev):

   -61.4704 -35.8090 -35.5996 -35.5989 -13.4000 -12.7279  -6.4947  -6.0397
    -5.4506  -4.1132  -3.7607  -3.0326  -1.2942  -0.5358  -0.4614  -0.1174
     0.3356   1.1275   1.5601   2.2158   2.5119   2.9528

          k = 0.2500 0.4330 0.0000 ( 14510 PWs)   bands (ev):

   -61.4727 -35.7686 -35.6130 -35.6036 -13.5167 -12.8219  -6.2322  -5.8063
    -5.3383  -4.3696  -3.7989  -2.9460  -1.4634  -0.4461  -0.2706  -0.2083
    -0.1337   0.9388   1.4312   1.9547   2.3015   2.9816

          k = 0.2500 0.5292 0.0000 ( 14528 PWs)   bands (ev):

   -61.4690 -35.7735 -35.6524 -35.5962 -13.3405 -12.6698  -6.3046  -5.9301
    -5.4119  -4.4725  -4.0208  -3.2376  -1.2150  -0.3689  -0.2979  -0.1919
     0.0575   1.0121   1.3848   2.2027   2.5568   3.4190

          k = 0.3333 0.5774 0.0000 ( 14538 PWs)   bands (ev):

   -61.4676 -35.7439 -35.6985 -35.5935 -13.2771 -12.6095  -6.3701  -5.6485
    -5.3574  -5.0209  -3.9507  -3.4076  -1.0932  -0.2839  -0.2432  -0.1132
    -0.0608   1.0258   1.1242   2.2258   2.7788   4.0114

     the Fermi energy is     0.0900 ev

!    total energy              =    -658.64194315 Ry
     total all-electron energy =    -12481.815834 Ry
     estimated scf accuracy    <          9.0E-09 Ry
     smearing contrib. (-TS)   =      -0.00103546 Ry
     internal energy E=F+TS    =    -658.64090769 Ry

     The total energy is F=E-TS. E is the sum of the following terms:
     one-electron contribution =   -2174.93695503 Ry
     hartree contribution      =    1098.84485069 Ry
     xc contribution           =     -62.32364867 Ry
     ewald contribution        =     886.00113732 Ry
     DFT-D3 Dispersion         =      -0.06663416 Ry
     one-center paw contrib.   =    -406.15965783 Ry

     total magnetization       =     1.86 Bohr mag/cell
     absolute magnetization    =     2.08 Bohr mag/cell

     convergence has been achieved in   7 iterations

     negative rho (up, down):  4.424E-05 4.790E-05

     Forces acting on atoms (cartesian axes, Ry/au):

     atom    1 type  1   force =     0.00000000    0.00000000    0.00015209
     atom    2 type  2   force =     0.00000000   -0.00000000    0.00048197
     atom    3 type  2   force =     0.00000000    0.00000000   -0.00010700
     atom    4 type  3   force =     0.00000000   -0.00000000   -0.00052705
     The non-local contrib.  to forces
     atom    1 type  1   force =     0.00000000    0.00000000   -0.00322694
     atom    2 type  2   force =     0.00000000    0.00000000   -0.11760918
     atom    3 type  2   force =     0.00000000    0.00000000    0.26767496
     atom    4 type  3   force =     0.00000000    0.00000000    0.13197406
     The ionic contribution  to forces
     atom    1 type  1   force =     0.00000000    0.00000504  -36.00432326
     atom    2 type  2   force =    -0.00000000   -0.00000248   19.06450380
     atom    3 type  2   force =    -0.00000000   -0.00000251  -50.99539514
     atom    4 type  3   force =    -0.00000000   -0.00000006   67.93521461
     The local contribution  to forces
     atom    1 type  1   force =     0.00000000   -0.00000305   36.00047582
     atom    2 type  2   force =    -0.00000000    0.00000172  -18.94743151
     atom    3 type  2   force =    -0.00000000    0.00000174   50.72744294
     atom    4 type  3   force =    -0.00000002    0.00000006  -68.05003992
     The core correction contribution to forces
     atom    1 type  1   force =    -0.00000000    0.00000000    0.00075937
     atom    2 type  2   force =     0.00000000    0.00000000    0.00111976
     atom    3 type  2   force =     0.00000000    0.00000000   -0.00215585
     atom    4 type  3   force =    -0.00000000    0.00000000   -0.00819770
     The Hubbard contrib.    to forces
     atom    1 type  1   force =     0.00000000    0.00000000    0.00000000
     atom    2 type  2   force =     0.00000000    0.00000000    0.00000000
     atom    3 type  2   force =     0.00000000    0.00000000    0.00000000
     atom    4 type  3   force =     0.00000000    0.00000000    0.00000000
     The SCF correction term to forces
     atom    1 type  1   force =     0.00000000    0.00000000   -0.00036471
     atom    2 type  2   force =    -0.00000000   -0.00000000   -0.00016762
     atom    3 type  2   force =    -0.00000000   -0.00000000   -0.00008799
     atom    4 type  3   force =    -0.00000000    0.00000000   -0.00020638

     DFT-D3 dispersion contribution to forces:
     atom    1 type  1   force =     0.00000000   -0.00000001    0.00682158
     atom    2 type  2   force =    -0.00000000    0.00000000    0.00005650
     atom    3 type  2   force =    -0.00000000    0.00000000    0.00240386
     atom    4 type  3   force =     0.00000000    0.00000000   -0.00928194

     Total force =     0.000738     Total SCF correction =     0.000460
     SCF correction compared to forces is large: reduce conv_thr to get better values


     Computing stress (Cartesian axis) and pressure


     negative rho (up, down):  4.424E-05 4.790E-05
          total   stress  (Ry/bohr**3)                   (kbar)     P=      -12.58
  -0.00012679   0.00000000   0.00000000          -18.65        0.00        0.00
   0.00000000  -0.00012679   0.00000000            0.00      -18.65        0.00
  -0.00000000   0.00000000  -0.00000292           -0.00        0.00       -0.43

     Energy error            =      8.2E-06 Ry
     Gradient error          =      5.3E-04 Ry/Bohr

     bfgs converged in   7 scf cycles and   6 bfgs steps
     (criteria: energy <  1.0E-04 Ry, force <  1.0E-03 Ry/Bohr)

     End of BFGS Geometry Optimization

     Final energy             =    -658.6419431456 Ry

     File ./tmp/scf.bfgs deleted, as requested
Begin final coordinates

ATOMIC_POSITIONS (crystal)
Mo           -0.0000000000       -0.0000000000        0.3786933232
S             0.6666666667        0.3333333333        0.4415864175
S             0.6666666667        0.3333333333        0.3160825232
Co            0.6666666667        0.3333333333        0.5263001773
End final coordinates



     Writing all to output data dir ./tmp/scf.save/
 
     init_run     :      1.50s CPU      1.71s WALL (       1 calls)
     electrons    :    158.31s CPU    179.65s WALL (       7 calls)
     update_pot   :      8.19s CPU     10.60s WALL (       6 calls)
     forces       :      7.28s CPU      8.18s WALL (       7 calls)
     force_dftd3  :      0.10s CPU      0.11s WALL (       7 calls)
     stress       :     23.43s CPU     26.94s WALL (       7 calls)
     stres_dftd3  :      0.10s CPU      0.11s WALL (       7 calls)

     Called by init_run:
     wfcinit      :      0.33s CPU      0.34s WALL (       1 calls)
     potinit      :      0.36s CPU      0.40s WALL (       1 calls)
     hinit0       :      0.52s CPU      0.56s WALL (       1 calls)

     Called by electrons:
     c_bands      :     91.74s CPU     94.35s WALL (      72 calls)
     sum_band     :     37.80s CPU     47.35s WALL (      72 calls)
     v_of_rho     :      5.05s CPU      5.84s WALL (      78 calls)
     newd         :     16.92s CPU     26.06s WALL (      78 calls)
     PAW_pot      :      8.60s CPU      8.82s WALL (      84 calls)
     mix_rho      :      0.64s CPU      0.65s WALL (      72 calls)
     energy_dftd3 :      0.06s CPU      0.07s WALL (       7 calls)

     Called by c_bands:
     init_us_2    :      1.96s CPU      2.02s WALL (    6270 calls)
     init_us_2:cp :      1.94s CPU      2.01s WALL (    6270 calls)
     cegterg      :     60.61s CPU     63.07s WALL (    2736 calls)

     Called by *egterg:
     cdiaghg      :      5.31s CPU      5.45s WALL (   13175 calls)
     h_psi        :     44.24s CPU     46.23s WALL (   13479 calls)
     s_psi        :      1.67s CPU      1.74s WALL (   13479 calls)
     g_psi        :      0.23s CPU      0.24s WALL (   10705 calls)

     Called by h_psi:
     h_psi:calbec :      4.58s CPU      4.75s WALL (   13479 calls)
     vloc_psi     :     36.68s CPU     38.39s WALL (   13479 calls)
     add_vuspsi   :      2.49s CPU      2.59s WALL (   13479 calls)

     General routines
     calbec       :      6.74s CPU      7.02s WALL (   17773 calls)
     fft          :      6.72s CPU      9.75s WALL (    2224 calls)
     ffts         :      0.05s CPU      0.05s WALL (     300 calls)
     fftw         :     27.60s CPU     29.00s WALL (  399384 calls)
     interpolate  :      0.22s CPU      0.24s WALL (     156 calls)
 
     Parallel routines
 
     PWSCF        :   3m21.18s CPU   3m50.58s WALL

 
   This run was terminated on:  13:13:29  17Jul2025            

=------------------------------------------------------------------------------=
   JOB DONE.
=------------------------------------------------------------------------------=
