
     Program PWSCF v.7.2 starts on 12Jun2025 at 13:39:11 

     This program is part of the open-source Quantum ESPRESSO suite
     for quantum simulation of materials; please cite
         "P. Giannozzi et al., J. Phys.:Condens. Matter 21 395502 (2009);
         "P. Giannozzi et al., J. Phys.:Condens. Matter 29 465901 (2017);
         "P. Giannozzi et al., J. Chem. Phys. 152 154105 (2020);
          URL http://www.quantum-espresso.org", 
     in publications or presentations arising from this work. More details at
     http://www.quantum-espresso.org/quote

     Parallel version (MPI), running on    16 processors

     MPI processes distributed on     1 nodes
     14942 MiB available memory on the printing compute node when the environment starts
 
     Waiting for input...
     Reading input from standard input

     Current dimensions of program PWSCF are:
     Max number of different atomic species (ntypx) = 10
     Max number of k-points (npk) =  40000
     Max angular momentum in pseudopotentials (lmaxx) =  4
     file Mo.pbe-spn-kjpaw_psl.1.0.0.UPF: wavefunction(s)  4S 4D renormalized
     file S.pbe-n-kjpaw_psl.1.0.0.UPF: wavefunction(s)  3S 3P renormalized
     file Co.pbe-n-kjpaw_psl.1.0.0.UPF: wavefunction(s)  4S 3D renormalized
     Message from routine setup:
     using ibrav=0 with symmetry is DISCOURAGED, use correct ibrav instead
 
     R & G space division:  proc/nbgrp/npool/nimage =      16
     Subspace diagonalization in iterative solution of the eigenvalue problem:
     a serial algorithm will be used

 
     Parallelization info
     --------------------
     sticks:   dense  smooth     PW     G-vecs:    dense   smooth      PW
     Min          49      49     13                 6439     6439     975
     Max          50      50     14                 6452     6452     996
     Sum         793     793    223               103119   103119   15795
 
     Using Slab Decomposition
 


     bravais-lattice index     =            0
     lattice parameter (alat)  =       5.9876  a.u.
     unit-cell volume          =    1067.2529 (a.u.)^3
     number of atoms/cell      =            4
     number of atomic types    =            3
     number of electrons       =        35.00
     number of Kohn-Sham states=           22
     kinetic-energy cutoff     =      80.0000  Ry
     charge density cutoff     =     320.0000  Ry
     scf convergence threshold =      1.0E-06
     mixing beta               =       0.7000
     number of iterations used =            8  plain     mixing
     energy convergence thresh.=      1.0E-04
     force convergence thresh. =      1.0E-03
     Exchange-correlation= SLA  PW   PBX  PBC
                           (   1   4   3   4   0   0   0)
     nstep                     =          100


     celldm(1)=   5.987597  celldm(2)=   0.000000  celldm(3)=   0.000000
     celldm(4)=   0.000000  celldm(5)=   0.000000  celldm(6)=   0.000000

     crystal axes: (cart. coord. in units of alat)
               a(1) = (   1.000000   0.000000   0.000000 )  
               a(2) = (  -0.500000   0.866025   0.000000 )  
               a(3) = (   0.000000   0.000000   5.740887 )  

     reciprocal axes: (cart. coord. in units 2 pi/alat)
               b(1) = (  1.000000  0.577350  0.000000 )  
               b(2) = (  0.000000  1.154701  0.000000 )  
               b(3) = (  0.000000  0.000000  0.174189 )  


     PseudoPot. # 1 for Mo read from file:
     /shared/ESPRESSO/PSLIBRARY/1.0.0/pbe/PSEUDOPOTENTIALS/Mo.pbe-spn-kjpaw_psl.1.0.0.UPF
     MD5 check sum: 4396e0c640fcce5c25f020efccf1ab12
     Pseudo is Projector augmented-wave + core cor, Zval = 14.0
     Generated using &quot;atomic&quot; code by A. Dal Corso  v.6.3
     Shape of augmentation charge: PSQ
     Using radial grid of 1229 points,  6 beta functions with: 
                l(1) =   0
                l(2) =   0
                l(3) =   1
                l(4) =   1
                l(5) =   2
                l(6) =   2
     Q(r) pseudized with 0 coefficients 


     PseudoPot. # 2 for S  read from file:
     /shared/ESPRESSO/PSLIBRARY/1.0.0/pbe/PSEUDOPOTENTIALS/S.pbe-n-kjpaw_psl.1.0.0.UPF
     MD5 check sum: c08f931834bcc19553f8bde8f1a3adc5
     Pseudo is Projector augmented-wave + core cor, Zval =  6.0
     Generated using "atomic" code by A. Dal Corso  (Quantum ESPRESSO distribution)
     Shape of augmentation charge: PSQ
     Using radial grid of 1151 points,  6 beta functions with: 
                l(1) =   0
                l(2) =   0
                l(3) =   1
                l(4) =   1
                l(5) =   2
                l(6) =   2
     Q(r) pseudized with 0 coefficients 


     PseudoPot. # 3 for Co read from file:
     /shared/ESPRESSO/PSLIBRARY/1.0.0/pbe/PSEUDOPOTENTIALS/Co.pbe-n-kjpaw_psl.1.0.0.UPF
     MD5 check sum: 17e7ab8db721b244d1352252ea6cb8e7
     Pseudo is Projector augmented-wave + core cor, Zval =  9.0
     Generated using "atomic" code by A. Dal Corso  (Quantum ESPRESSO distribution)
     Shape of augmentation charge: PSQ
     Using radial grid of 1193 points,  6 beta functions with: 
                l(1) =   0
                l(2) =   0
                l(3) =   1
                l(4) =   1
                l(5) =   2
                l(6) =   2
     Q(r) pseudized with 0 coefficients 


     atomic species   valence    mass     pseudopotential
        Mo            14.00    95.94000     Mo( 1.00)
        S              6.00    32.06500     S ( 1.00)
        Co             9.00    58.93320     Co( 1.00)

     Starting magnetic structure 
     atomic species   magnetization
        Mo           0.000
        S            0.000
        Co           0.800

      6 Sym. Ops. (no inversion) found



   Cartesian axes

     site n.     atom                  positions (alat units)
         1           Mo  tau(   1) = (   0.0000000   0.0000000   2.8704434  )
         2           S   tau(   2) = (   0.5000000   0.2886751   3.3738362  )
         3           S   tau(   3) = (   0.5000000   0.2886751   2.3670507  )
         4           Co  tau(   4) = (   0.5000000   0.2886751   4.0050497  )

     number of k points=    14  Fermi-Dirac smearing, width (Ry)=  0.0070
                       cart. coord. in units 2pi/alat
        k(    1) = (   0.0000000   0.0000000   0.0000000), wk =   0.0100000
        k(    2) = (   0.0000000   0.1154701   0.0000000), wk =   0.0600000
        k(    3) = (   0.0000000   0.2309401   0.0000000), wk =   0.0600000
        k(    4) = (   0.0000000   0.3464102   0.0000000), wk =   0.0600000
        k(    5) = (   0.0000000   0.4618802   0.0000000), wk =   0.0600000
        k(    6) = (   0.0000000  -0.5773503   0.0000000), wk =   0.0300000
        k(    7) = (   0.1000000   0.1732051   0.0000000), wk =   0.0600000
        k(    8) = (   0.1000000   0.2886751   0.0000000), wk =   0.1200000
        k(    9) = (   0.1000000   0.4041452   0.0000000), wk =   0.1200000
        k(   10) = (   0.1000000   0.5196152   0.0000000), wk =   0.1200000
        k(   11) = (   0.2000000   0.3464102   0.0000000), wk =   0.0600000
        k(   12) = (   0.2000000   0.4618802   0.0000000), wk =   0.1200000
        k(   13) = (   0.2000000   0.5773503   0.0000000), wk =   0.0600000
        k(   14) = (   0.3000000   0.5196152   0.0000000), wk =   0.0600000

     Dense  grid:   103119 G-vectors     FFT dimensions: (  36,  36, 200)

     Estimated max dynamical RAM per process >      39.80 MB

     Estimated total dynamical RAM >     636.87 MB
     Generating pointlists ...
     new r_m :   0.3160 (alat units)  1.8919 (a.u.) for type    1
     new r_m :   0.2604 (alat units)  1.5590 (a.u.) for type    2
     new r_m :   0.2604 (alat units)  1.5590 (a.u.) for type    3

     Initial potential from superposition of free atoms

     starting charge      34.9988, renormalised to      35.0000

     negative rho (up, down):  2.107E-04 1.946E-04
     Starting wfcs are   27 randomized atomic wfcs
     Checking if some PAW data can be deallocated... 

     total cpu time spent up to now is        1.6 secs

     Self-consistent Calculation

     iteration #  1     ecut=    80.00 Ry     beta= 0.70
     Davidson diagonalization with overlap
     ethr =  1.00E-02,  avg # of iterations =  2.2

     negative rho (up, down):  1.326E-04 1.459E-04

     total cpu time spent up to now is        3.2 secs

     total energy              =    -658.01262949 Ry
     estimated scf accuracy    <       0.82318117 Ry

     total magnetization       =     2.77 Bohr mag/cell
     absolute magnetization    =     3.37 Bohr mag/cell

     iteration #  2     ecut=    80.00 Ry     beta= 0.70
     Davidson diagonalization with overlap
     ethr =  2.35E-03,  avg # of iterations =  8.4

     negative rho (up, down):  5.576E-05 4.848E-05

     total cpu time spent up to now is        5.5 secs

     total energy              =    -653.23616220 Ry
     estimated scf accuracy    <     165.65144792 Ry

     total magnetization       =     0.50 Bohr mag/cell
     absolute magnetization    =     0.63 Bohr mag/cell

     iteration #  3     ecut=    80.00 Ry     beta= 0.70
     Davidson diagonalization with overlap
     ethr =  2.35E-03,  avg # of iterations =  7.9

     negative rho (up, down):  6.034E-05 4.857E-05

     total cpu time spent up to now is        7.8 secs

     total energy              =    -658.31489395 Ry
     estimated scf accuracy    <       1.47048990 Ry

     total magnetization       =     2.08 Bohr mag/cell
     absolute magnetization    =     2.18 Bohr mag/cell

     iteration #  4     ecut=    80.00 Ry     beta= 0.70
     Davidson diagonalization with overlap
     ethr =  2.35E-03,  avg # of iterations =  4.8

     negative rho (up, down):  1.010E-04 8.035E-05

     total cpu time spent up to now is        9.5 secs

     total energy              =    -658.51142947 Ry
     estimated scf accuracy    <       0.19218128 Ry

     total magnetization       =     2.32 Bohr mag/cell
     absolute magnetization    =     2.69 Bohr mag/cell

     iteration #  5     ecut=    80.00 Ry     beta= 0.70
     Davidson diagonalization with overlap
     ethr =  5.49E-04,  avg # of iterations =  4.6

     negative rho (up, down):  1.031E-03 1.599E-03

     total cpu time spent up to now is       11.2 secs

     total energy              =    -658.49673641 Ry
     estimated scf accuracy    <       0.75503153 Ry

     total magnetization       =     1.14 Bohr mag/cell
     absolute magnetization    =     1.49 Bohr mag/cell

     iteration #  6     ecut=    80.00 Ry     beta= 0.70
     Davidson diagonalization with overlap
     ethr =  5.49E-04,  avg # of iterations =  2.0

     negative rho (up, down):  2.747E-04 3.111E-04

     total cpu time spent up to now is       12.7 secs

     total energy              =    -658.55658995 Ry
     estimated scf accuracy    <       0.10059504 Ry

     total magnetization       =     2.07 Bohr mag/cell
     absolute magnetization    =     2.33 Bohr mag/cell

     iteration #  7     ecut=    80.00 Ry     beta= 0.70
     Davidson diagonalization with overlap
     ethr =  2.87E-04,  avg # of iterations =  2.4

     negative rho (up, down):  6.298E-04 9.812E-04

     total cpu time spent up to now is       14.2 secs

     total energy              =    -658.56580879 Ry
     estimated scf accuracy    <       0.03031714 Ry

     total magnetization       =     1.75 Bohr mag/cell
     absolute magnetization    =     2.01 Bohr mag/cell

     iteration #  8     ecut=    80.00 Ry     beta= 0.70
     Davidson diagonalization with overlap
     ethr =  8.66E-05,  avg # of iterations =  3.0

     negative rho (up, down):  4.493E-04 7.422E-04

     total cpu time spent up to now is       15.7 secs

     total energy              =    -658.57002798 Ry
     estimated scf accuracy    <       0.00375083 Ry

     total magnetization       =     1.83 Bohr mag/cell
     absolute magnetization    =     2.07 Bohr mag/cell

     iteration #  9     ecut=    80.00 Ry     beta= 0.70
     Davidson diagonalization with overlap
     ethr =  1.07E-05,  avg # of iterations =  5.4

     negative rho (up, down):  2.921E-04 4.350E-04

     total cpu time spent up to now is       17.4 secs

     total energy              =    -658.57049595 Ry
     estimated scf accuracy    <       0.00049744 Ry

     total magnetization       =     1.76 Bohr mag/cell
     absolute magnetization    =     2.00 Bohr mag/cell

     iteration # 10     ecut=    80.00 Ry     beta= 0.70
     Davidson diagonalization with overlap
     ethr =  1.42E-06,  avg # of iterations =  3.6

     negative rho (up, down):  2.222E-04 2.656E-04

     total cpu time spent up to now is       19.0 secs

     total energy              =    -658.57057394 Ry
     estimated scf accuracy    <       0.00005692 Ry

     total magnetization       =     1.74 Bohr mag/cell
     absolute magnetization    =     1.97 Bohr mag/cell

     iteration # 11     ecut=    80.00 Ry     beta= 0.70
     Davidson diagonalization with overlap
     ethr =  1.63E-07,  avg # of iterations =  4.3

     negative rho (up, down):  2.070E-04 2.296E-04

     total cpu time spent up to now is       20.7 secs

     total energy              =    -658.57059362 Ry
     estimated scf accuracy    <       0.00002433 Ry

     total magnetization       =     1.73 Bohr mag/cell
     absolute magnetization    =     1.96 Bohr mag/cell

     iteration # 12     ecut=    80.00 Ry     beta= 0.70
     Davidson diagonalization with overlap
     ethr =  6.95E-08,  avg # of iterations =  2.1

     negative rho (up, down):  2.083E-04 2.314E-04

     total cpu time spent up to now is       22.1 secs

     total energy              =    -658.57059704 Ry
     estimated scf accuracy    <       0.00000444 Ry

     total magnetization       =     1.73 Bohr mag/cell
     absolute magnetization    =     1.96 Bohr mag/cell

     iteration # 13     ecut=    80.00 Ry     beta= 0.70
     Davidson diagonalization with overlap
     ethr =  1.27E-08,  avg # of iterations =  2.1

     negative rho (up, down):  2.068E-04 2.280E-04

     total cpu time spent up to now is       23.5 secs

     total energy              =    -658.57059757 Ry
     estimated scf accuracy    <       0.00000110 Ry

     total magnetization       =     1.73 Bohr mag/cell
     absolute magnetization    =     1.96 Bohr mag/cell

     iteration # 14     ecut=    80.00 Ry     beta= 0.70
     Davidson diagonalization with overlap
     ethr =  3.14E-09,  avg # of iterations =  3.4

     negative rho (up, down):  2.053E-04 2.245E-04
 
     Magnetic moment per site  (integrated on atomic sphere of radius R)
     atom   1 (R=0.316)  charge= 10.8099  magn= -0.0335
     atom   2 (R=0.260)  charge=  2.9396  magn=  0.0218
     atom   3 (R=0.260)  charge=  2.8798  magn=  0.0036
     atom   4 (R=0.260)  charge=  6.5442  magn=  1.6007

     total cpu time spent up to now is       24.9 secs

     End of self-consistent calculation

 ------ SPIN UP ------------


          k = 0.0000 0.0000 0.0000 ( 12991 PWs)   bands (ev):

   -59.5328 -33.6828 -33.4588 -33.4588 -13.3302 -11.9265  -5.2474  -2.1096
    -1.4191  -1.3687  -1.3687  -0.3744  -0.3744   0.0930   0.0930   0.5045
     0.6781   0.6781   1.7548   3.9003   3.9004   4.1395

          k = 0.0000 0.1155 0.0000 ( 12953 PWs)   bands (ev):

   -59.5290 -33.6754 -33.4966 -33.4674 -13.1952 -11.8465  -5.1046  -2.1705
    -1.7853  -1.2743  -1.2695  -0.6396  -0.5438   0.0652   0.1476   0.5842
     0.6497   0.6799   1.7867   3.7415   3.8339   3.9163

          k = 0.0000 0.2309 0.0000 ( 12929 PWs)   bands (ev):

   -59.5191 -33.6560 -33.5944 -33.4898 -12.8247 -11.6197  -4.7649  -2.7250
    -2.3420  -1.2678  -1.2455  -0.7758  -0.6745   0.0376   0.2901   0.4435
     0.6231   0.6372   1.7548   3.4706   3.6515   3.9243

          k = 0.0000 0.3464 0.0000 ( 12915 PWs)   bands (ev):

   -59.5069 -33.7134 -33.6318 -33.5174 -12.3262 -11.2906  -4.5069  -3.6428
    -2.8336  -1.6448  -1.5072  -0.5412  -0.4433   0.1141   0.2451   0.4743
     0.5446   0.7377   1.9058   3.4714   3.6814   4.4661

          k = 0.0000 0.4619 0.0000 ( 12872 PWs)   bands (ev):

   -59.4970 -33.8080 -33.6123 -33.5396 -11.8839 -10.9575  -4.7068  -4.1919
    -3.2650  -1.9533  -1.7458  -0.5388  -0.3159   0.1291   0.2939   0.6299
     0.9159   0.9162   2.5847   3.5128   4.0834   4.9545

          k = 0.0000-0.5774 0.0000 ( 12854 PWs)   bands (ev):

   -59.4932 -33.8438 -33.6048 -33.5481 -11.7054 -10.8039  -4.9525  -4.3205
    -3.4147  -2.0644  -1.8612  -0.5593  -0.2919   0.2234   0.2540   0.6918
     0.9939   1.2308   3.2231   3.5947   4.2263   5.0528

          k = 0.1000 0.1732 0.0000 ( 12937 PWs)   bands (ev):

   -59.5222 -33.6620 -33.5616 -33.4857 -12.9422 -11.6927  -4.8595  -2.4229
    -2.2610  -1.3384  -1.1490  -0.8768  -0.6231   0.0112   0.2632   0.4994
     0.6245   0.7217   1.7778   3.4746   3.7067   3.7501

          k = 0.1000 0.2887 0.0000 ( 12944 PWs)   bands (ev):

   -59.5112 -33.6634 -33.6402 -33.5173 -12.5050 -11.4115  -4.5363  -3.2294
    -2.5971  -1.9353  -1.2203  -0.6752  -0.4411   0.0064   0.2405   0.4462
     0.6283   0.7319   1.7661   3.3455   3.6754   4.0373

          k = 0.1000 0.4041 0.0000 ( 12898 PWs)   bands (ev):

   -59.5001 -33.7632 -33.6183 -33.5492 -12.0276 -11.0687  -4.4678  -3.9443
    -3.1447  -2.1807  -1.4631  -0.6947  -0.3832   0.0872   0.2584   0.4954
     0.8154   0.8944   2.1547   3.5563   3.9046   4.5880

          k = 0.1000 0.5196 0.0000 ( 12858 PWs)   bands (ev):

   -59.4932 -33.8240 -33.6048 -33.5688 -11.7102 -10.8047  -4.7675  -4.2348
    -3.4716  -2.1878  -1.8019  -0.7641  -0.4021   0.2008   0.3694   0.5772
     0.9020   1.1725   3.0714   3.7089   4.2408   4.9081

          k = 0.2000 0.3464 0.0000 ( 12917 PWs)   bands (ev):

   -59.5013 -33.7334 -33.6206 -33.5657 -12.0831 -11.1080  -4.3515  -3.6957
    -3.0939  -2.4239  -1.4107  -0.8695  -0.1372  -0.0805   0.0671   0.5443
     0.8293   0.9223   1.9525   3.5356   3.8511   4.3072

          k = 0.2000 0.4619 0.0000 ( 12869 PWs)   bands (ev):

   -59.4932 -33.7824 -33.6120 -33.6048 -11.7182 -10.8057  -4.4216  -4.0071
    -3.5869  -2.4705  -1.8138  -1.1830  -0.1899   0.0930   0.2070   0.5919
     0.8920   1.0573   2.7508   3.7867   4.1732   4.6523

          k = 0.2000 0.5774 0.0000 ( 12850 PWs)   bands (ev):

   -59.4902 -33.7994 -33.6311 -33.5988 -11.5730 -10.6709  -4.5382  -4.1201
    -3.7362  -2.3803  -2.0880  -1.3241  -0.2180   0.1746   0.3384   0.5680
     0.8707   1.2322   3.3163   3.9254   4.2740   4.8030

          k = 0.3000 0.5196 0.0000 ( 12860 PWs)   bands (ev):

   -59.4890 -33.7645 -33.6807 -33.5965 -11.5212 -10.6180  -4.3938  -3.9542
    -3.7527  -2.8643  -2.1085  -1.4904  -0.0242   0.1232   0.1762   0.6054
     0.8831   1.2761   3.1362   3.8070   4.3482   5.2858

 ------ SPIN DOWN ----------


          k = 0.0000 0.0000 0.0000 ( 12991 PWs)   bands (ev):

   -59.5613 -33.7258 -33.4842 -33.4842 -13.2919 -11.9128  -5.1931  -2.0530
    -1.3324  -1.3324  -0.3927  -0.3001  -0.3001   0.6970   1.5389   1.5389
     1.9372   1.9372   2.6565   4.0228   4.0229   4.1944

          k = 0.0000 0.1155 0.0000 ( 12953 PWs)   bands (ev):

   -59.5575 -33.7185 -33.5219 -33.4928 -13.1559 -11.8333  -5.0446  -2.1170
    -1.7074  -1.2166  -0.5652  -0.5033  -0.2581   0.7370   1.4740   1.5316
     1.8885   2.0017   2.7716   3.8293   3.9467   4.0528

          k = 0.0000 0.2309 0.0000 ( 12929 PWs)   bands (ev):

   -59.5477 -33.6991 -33.6195 -33.5152 -12.7822 -11.6081  -4.6881  -2.6411
    -2.3157  -1.1804  -0.9603  -0.6742   0.0511   0.5435   1.3602   1.5295
     1.7816   2.1750   2.8308   3.6300   3.7628   4.0584

          k = 0.0000 0.3464 0.0000 ( 12915 PWs)   bands (ev):

   -59.5355 -33.7382 -33.6751 -33.5428 -12.2782 -11.2817  -4.4258  -3.5409
    -2.8128  -1.5894  -1.3229  -0.3606   0.1521   0.6544   1.2828   1.6010
     1.7999   2.4037   2.8648   3.5522   3.8937   4.6212

          k = 0.0000 0.4619 0.0000 ( 12872 PWs)   bands (ev):

   -59.5256 -33.8326 -33.6557 -33.5649 -11.8305 -10.9509  -4.6663  -4.0678
    -3.2175  -1.9098  -1.5933  -0.1447   0.1700   0.9777   1.2119   1.7440
     2.3871   2.6052   3.1546   3.5380   4.2188   5.1268

          k = 0.0000-0.5774 0.0000 ( 12854 PWs)   bands (ev):

   -59.5218 -33.8683 -33.6482 -33.5734 -11.6499 -10.7978  -4.9158  -4.2125
    -3.3529  -2.0239  -1.7057  -0.0878   0.3061   1.0146   1.1770   1.8136
     2.6859   3.0216   3.3454   3.5922   4.2826   5.2728

          k = 0.1000 0.1732 0.0000 ( 12937 PWs)   bands (ev):

   -59.5507 -33.7051 -33.5868 -33.5111 -12.9007 -11.6806  -4.7877  -2.3352
    -2.2281  -1.2432  -0.9240  -0.5621  -0.0697   0.6662   1.3641   1.5485
     1.8052   2.1264   2.8512   3.5801   3.8194   3.9053

          k = 0.1000 0.2887 0.0000 ( 12944 PWs)   bands (ev):

   -59.5397 -33.6884 -33.6833 -33.5427 -12.4592 -11.4016  -4.4483  -3.1302
    -2.5789  -1.8878  -0.9924  -0.5210   0.3130   0.4697   1.2729   1.6013
     1.7050   2.3571   2.7979   3.5181   3.7880   4.2255

          k = 0.1000 0.4041 0.0000 ( 12898 PWs)   bands (ev):

   -59.5287 -33.7878 -33.6617 -33.5745 -11.9760 -11.0614  -4.4089  -3.8132
    -3.1122  -2.1386  -1.2895  -0.5994   0.2505   0.9964   1.2693   1.6745
     1.8711   2.6656   2.8579   3.6790   4.0464   4.7613

          k = 0.1000 0.5196 0.0000 ( 12858 PWs)   bands (ev):

   -59.5218 -33.8485 -33.6482 -33.5941 -11.6549 -10.7986  -4.7288  -4.1231
    -3.4053  -2.1425  -1.6419  -0.6514   0.4593   1.1130   1.2562   1.7458
     2.3338   2.9440   3.3308   3.7824   4.3439   4.9970

          k = 0.2000 0.3464 0.0000 ( 12917 PWs)   bands (ev):

   -59.5298 -33.7582 -33.6640 -33.5909 -12.0323 -11.1003  -4.2748  -3.5489
    -3.0833  -2.3868  -1.3073  -0.6888   0.2490   1.0632   1.2821   1.6020
     1.6809   2.6690   2.7580   3.7140   3.9257   4.5480

          k = 0.2000 0.4619 0.0000 ( 12869 PWs)   bands (ev):

   -59.5218 -33.8069 -33.6483 -33.6371 -11.6630 -10.7994  -4.3766  -3.8874
    -3.5062  -2.4079  -1.7569  -1.0763   0.4429   1.3236   1.4224   1.6554
     1.8450   2.7529   3.2554   3.9116   4.2296   4.9159

          k = 0.2000 0.5774 0.0000 ( 12850 PWs)   bands (ev):

   -59.5188 -33.8240 -33.6562 -33.6422 -11.5162 -10.6647  -4.4948  -4.0430
    -3.6208  -2.2673  -2.0498  -1.2612   0.6261   1.3630   1.3980   1.6670
     2.0696   2.8609   3.4030   4.1708   4.4139   4.9981

          k = 0.3000 0.5196 0.0000 ( 12860 PWs)   bands (ev):

   -59.5176 -33.7891 -33.7057 -33.6399 -11.4639 -10.6118  -4.3593  -3.8880
    -3.5777  -2.8170  -2.0776  -1.4157   0.6736   1.4766   1.5660   1.6856
     1.8373   2.7788   3.2143   4.0731   4.5132   5.5396

     the Fermi energy is     1.9729 ev

!    total energy              =    -658.57059771 Ry
     total all-electron energy =    -12481.744489 Ry
     estimated scf accuracy    <       0.00000012 Ry
     smearing contrib. (-TS)   =      -0.00619039 Ry
     internal energy E=F+TS    =    -658.56440732 Ry

     The total energy is F=E-TS. E is the sum of the following terms:
     one-electron contribution =   -1223.07771173 Ry
     hartree contribution      =     625.38055297 Ry
     xc contribution           =     -62.32624913 Ry
     ewald contribution        =     407.61783924 Ry
     one-center paw contrib.   =    -406.15883868 Ry

     total magnetization       =     1.73 Bohr mag/cell
     absolute magnetization    =     1.96 Bohr mag/cell

     convergence has been achieved in  14 iterations

     negative rho (up, down):  2.053E-04 2.245E-04

     Forces acting on atoms (cartesian axes, Ry/au):

     atom    1 type  1   force =     0.00000000    0.00000000   -0.01345623
     atom    2 type  2   force =     0.00000000    0.00000000   -0.06615699
     atom    3 type  2   force =     0.00000000    0.00000000    0.01823870
     atom    4 type  3   force =     0.00000000    0.00000000    0.06137452
     The non-local contrib.  to forces
     atom    1 type  1   force =     0.00000000    0.00000000    0.00292285
     atom    2 type  2   force =     0.00000000    0.00000000   -0.14720305
     atom    3 type  2   force =     0.00000000    0.00000000    0.27590801
     atom    4 type  3   force =     0.00000000    0.00000000    0.14696982
     The ionic contribution  to forces
     atom    1 type  1   force =     0.00000000   -0.00000000  -30.79878777
     atom    2 type  2   force =    -0.00000000    0.00000000   16.73949485
     atom    3 type  2   force =    -0.00000000    0.00000000  -44.58193370
     atom    4 type  3   force =    -0.00000000   -0.00000000   58.64122663
     The local contribution  to forces
     atom    1 type  1   force =    -0.00000000   -0.00000000   30.78049131
     atom    2 type  2   force =    -0.00000000    0.00000000  -16.66257060
     atom    3 type  2   force =    -0.00000000    0.00000000   44.32686839
     atom    4 type  3   force =    -0.00000000    0.00000000  -58.71380611
     The core correction contribution to forces
     atom    1 type  1   force =    -0.00000000    0.00000000    0.00055731
     atom    2 type  2   force =     0.00000000   -0.00000000    0.00327666
     atom    3 type  2   force =     0.00000000   -0.00000000   -0.00259277
     atom    4 type  3   force =    -0.00000000    0.00000000   -0.01294305
     The Hubbard contrib.    to forces
     atom    1 type  1   force =     0.00000000    0.00000000    0.00000000
     atom    2 type  2   force =     0.00000000    0.00000000    0.00000000
     atom    3 type  2   force =     0.00000000    0.00000000    0.00000000
     atom    4 type  3   force =     0.00000000    0.00000000    0.00000000
     The SCF correction term to forces
     atom    1 type  1   force =    -0.00000000    0.00000000    0.00128073
     atom    2 type  2   force =    -0.00000000   -0.00000000    0.00076582
     atom    3 type  2   force =     0.00000000    0.00000000   -0.00009057
     atom    4 type  3   force =    -0.00000000   -0.00000000   -0.00015211

     Total force =     0.093045     Total SCF correction =     0.001503


     Computing stress (Cartesian axis) and pressure


     negative rho (up, down):  2.053E-04 2.245E-04
          total   stress  (Ry/bohr**3)                   (kbar)     P=       -7.40
  -0.00014961   0.00000000   0.00000000          -22.01        0.00        0.00
   0.00000000  -0.00014961   0.00000000            0.00      -22.01        0.00
   0.00000000   0.00000000   0.00014824            0.00        0.00       21.81


     BFGS Geometry Optimization
     Energy error            =      0.0E+00 Ry
     Gradient error          =      6.6E-02 Ry/Bohr

     number of scf cycles    =   1
     number of bfgs steps    =   0

     energy             new  =    -658.5705977134 Ry

     new trust radius        =       0.0661569917 bohr
     new conv_thr            =       0.0000010000 Ry


ATOMIC_POSITIONS (crystal)
Mo            0.0000000000        0.0000000000        0.4996085359
S             0.6666666667        0.3333333333        0.5857609251
S             0.6666666667        0.3333333333        0.4128450526
Co            0.6666666667        0.3333333333        0.6994215502



     Writing config-only to output data dir ./tmp/relax.save/
     NEW-OLD atomic charge density approx. for the potential

     negative rho (up, down):  2.249E-04 2.367E-04
     Generating pointlists ...

     total cpu time spent up to now is       28.9 secs

     Self-consistent Calculation

     iteration #  1     ecut=    80.00 Ry     beta= 0.70
     Davidson diagonalization with overlap
     ethr =  1.00E-06,  avg # of iterations =  9.5

     negative rho (up, down):  2.167E-04 2.311E-04

     total cpu time spent up to now is       31.9 secs

     total energy              =    -658.57259891 Ry
     estimated scf accuracy    <       0.00615564 Ry

     total magnetization       =     1.80 Bohr mag/cell
     absolute magnetization    =     2.00 Bohr mag/cell

     iteration #  2     ecut=    80.00 Ry     beta= 0.70
     Davidson diagonalization with overlap
     ethr =  1.76E-05,  avg # of iterations =  9.0

     negative rho (up, down):  2.162E-04 2.303E-04

     total cpu time spent up to now is       33.9 secs

     total energy              =    -658.51501296 Ry
     estimated scf accuracy    <       1.78481985 Ry

     total magnetization       =     2.28 Bohr mag/cell
     absolute magnetization    =     2.67 Bohr mag/cell

     iteration #  3     ecut=    80.00 Ry     beta= 0.70
     Davidson diagonalization with overlap
     ethr =  1.76E-05,  avg # of iterations =  8.2

     negative rho (up, down):  2.141E-04 2.280E-04

     total cpu time spent up to now is       35.9 secs

     total energy              =    -658.57478443 Ry
     estimated scf accuracy    <       0.00934040 Ry

     total magnetization       =     1.76 Bohr mag/cell
     absolute magnetization    =     1.98 Bohr mag/cell

     iteration #  4     ecut=    80.00 Ry     beta= 0.70
     Davidson diagonalization with overlap
     ethr =  1.76E-05,  avg # of iterations =  2.7

     negative rho (up, down):  2.113E-04 2.251E-04

     total cpu time spent up to now is       37.5 secs

     total energy              =    -658.57598181 Ry
     estimated scf accuracy    <       0.00163040 Ry

     total magnetization       =     1.82 Bohr mag/cell
     absolute magnetization    =     2.03 Bohr mag/cell

     iteration #  5     ecut=    80.00 Ry     beta= 0.70
     Davidson diagonalization with overlap
     ethr =  4.66E-06,  avg # of iterations =  3.8

     negative rho (up, down):  2.092E-04 2.234E-04

     total cpu time spent up to now is       39.1 secs

     total energy              =    -658.57618233 Ry
     estimated scf accuracy    <       0.00158367 Ry

     total magnetization       =     1.83 Bohr mag/cell
     absolute magnetization    =     2.04 Bohr mag/cell

     iteration #  6     ecut=    80.00 Ry     beta= 0.70
     Davidson diagonalization with overlap
     ethr =  4.52E-06,  avg # of iterations =  1.9

     negative rho (up, down):  2.086E-04 2.231E-04

     total cpu time spent up to now is       40.6 secs

     total energy              =    -658.57637011 Ry
     estimated scf accuracy    <       0.00011711 Ry

     total magnetization       =     1.83 Bohr mag/cell
     absolute magnetization    =     2.04 Bohr mag/cell

     iteration #  7     ecut=    80.00 Ry     beta= 0.70
     Davidson diagonalization with overlap
     ethr =  3.35E-07,  avg # of iterations =  4.0

     negative rho (up, down):  2.085E-04 2.230E-04

     total cpu time spent up to now is       42.2 secs

     total energy              =    -658.57638128 Ry
     estimated scf accuracy    <       0.00010178 Ry

     total magnetization       =     1.83 Bohr mag/cell
     absolute magnetization    =     2.04 Bohr mag/cell

     iteration #  8     ecut=    80.00 Ry     beta= 0.70
     Davidson diagonalization with overlap
     ethr =  2.91E-07,  avg # of iterations =  2.0

     negative rho (up, down):  2.080E-04 2.227E-04

     total cpu time spent up to now is       43.7 secs

     total energy              =    -658.57638864 Ry
     estimated scf accuracy    <       0.00006859 Ry

     total magnetization       =     1.83 Bohr mag/cell
     absolute magnetization    =     2.04 Bohr mag/cell

     iteration #  9     ecut=    80.00 Ry     beta= 0.70
     Davidson diagonalization with overlap
     ethr =  1.96E-07,  avg # of iterations =  1.0

     negative rho (up, down):  2.079E-04 2.226E-04

     total cpu time spent up to now is       45.1 secs

     total energy              =    -658.57639021 Ry
     estimated scf accuracy    <       0.00001641 Ry

     total magnetization       =     1.83 Bohr mag/cell
     absolute magnetization    =     2.04 Bohr mag/cell

     iteration # 10     ecut=    80.00 Ry     beta= 0.70
     Davidson diagonalization with overlap
     ethr =  4.69E-08,  avg # of iterations =  1.5

     negative rho (up, down):  2.080E-04 2.227E-04

     total cpu time spent up to now is       46.5 secs

     total energy              =    -658.57639047 Ry
     estimated scf accuracy    <       0.00000403 Ry

     total magnetization       =     1.83 Bohr mag/cell
     absolute magnetization    =     2.04 Bohr mag/cell

     iteration # 11     ecut=    80.00 Ry     beta= 0.70
     Davidson diagonalization with overlap
     ethr =  1.15E-08,  avg # of iterations =  2.5

     negative rho (up, down):  2.080E-04 2.227E-04
 
     Magnetic moment per site  (integrated on atomic sphere of radius R)
     atom   1 (R=0.316)  charge= 10.8235  magn= -0.0276
     atom   2 (R=0.260)  charge=  2.9342  magn=  0.0223
     atom   3 (R=0.260)  charge=  2.8856  magn=  0.0036
     atom   4 (R=0.260)  charge=  6.5241  magn=  1.6823

     total cpu time spent up to now is       48.0 secs

     End of self-consistent calculation

 ------ SPIN UP ------------


          k = 0.0000 0.0000 0.0000 ( 12991 PWs)   bands (ev):

   -59.6079 -33.7637 -33.5439 -33.5439 -13.3954 -11.9785  -5.3040  -2.1198
    -1.5338  -1.5338  -1.3621  -0.4718  -0.4718   0.0542   0.0542   0.4658
     0.6800   0.6800   1.7129   3.8462   3.8462   4.1036

          k = 0.0000 0.1155 0.0000 ( 12953 PWs)   bands (ev):

   -59.6041 -33.7561 -33.5823 -33.5526 -13.2573 -11.9034  -5.1582  -2.1966
    -1.9119  -1.4178  -1.2496  -0.7088  -0.6653   0.0265   0.1074   0.5682
     0.6502   0.6616   1.7346   3.7096   3.7734   3.8938

          k = 0.0000 0.2309 0.0000 ( 12929 PWs)   bands (ev):

   -59.5941 -33.7362 -33.6816 -33.5753 -12.8782 -11.6908  -4.8126  -2.8068
    -2.4275  -1.3635  -1.2250  -0.8397  -0.7955   0.0004   0.2479   0.4121
     0.5928   0.6479   1.6799   3.4419   3.6125   3.8674

          k = 0.0000 0.3464 0.0000 ( 12915 PWs)   bands (ev):

   -59.5818 -33.8023 -33.7116 -33.6032 -12.3688 -11.3827  -4.5701  -3.6667
    -2.9265  -1.7547  -1.4958  -0.5545  -0.5394   0.0447   0.2391   0.4303
     0.4991   0.7071   1.8302   3.4099   3.6378   4.4260

          k = 0.0000 0.4619 0.0000 ( 12872 PWs)   bands (ev):

   -59.5718 -33.8982 -33.6915 -33.6257 -11.9197 -11.0690  -4.7884  -4.1745
    -3.3426  -2.0717  -1.7402  -0.5570  -0.3393   0.0606   0.2869   0.5846
     0.8393   0.8401   2.5438   3.4249   4.0166   4.9205

          k = 0.0000-0.5774 0.0000 ( 12854 PWs)   bands (ev):

   -59.5679 -33.9345 -33.6839 -33.6343 -11.7405 -10.9224  -5.0127  -4.3182
    -3.4885  -2.1851  -1.8541  -0.5783  -0.2909   0.1578   0.2525   0.6455
     0.9066   1.1254   3.2314   3.4935   4.1561   4.9968

          k = 0.1000 0.1732 0.0000 ( 12937 PWs)   bands (ev):

   -59.5972 -33.7424 -33.6483 -33.5711 -12.9983 -11.7592  -4.9080  -2.5124
    -2.3344  -1.4309  -1.1665  -0.9513  -0.7142  -0.0274   0.2223   0.4944
     0.6174   0.6898   1.7081   3.4466   3.6525   3.7048

          k = 0.1000 0.2887 0.0000 ( 12944 PWs)   bands (ev):

   -59.5860 -33.7516 -33.7201 -33.6032 -12.5513 -11.4957  -4.5856  -3.2831
    -2.6874  -2.0352  -1.2141  -0.7620  -0.4790  -0.0300   0.2124   0.4168
     0.5729   0.7053   1.6915   3.3001   3.6257   3.9843

          k = 0.1000 0.4041 0.0000 ( 12898 PWs)   bands (ev):

   -59.5749 -33.8528 -33.6977 -33.6354 -12.0649 -11.1734  -4.5508  -3.9289
    -3.2375  -2.2698  -1.4639  -0.7583  -0.4146   0.0522   0.2445   0.4536
     0.7611   0.8109   2.1060   3.4839   3.8387   4.5478

          k = 0.1000 0.5196 0.0000 ( 12858 PWs)   bands (ev):

   -59.5679 -33.9145 -33.6839 -33.6553 -11.7449 -10.9222  -4.8291  -4.2388
    -3.5501  -2.2758  -1.8012  -0.7990  -0.4337   0.1801   0.3520   0.5303
     0.8257   1.0671   3.0524   3.6215   4.1696   4.9021

          k = 0.2000 0.3464 0.0000 ( 12917 PWs)   bands (ev):

   -59.5760 -33.8227 -33.7001 -33.6521 -12.1210 -11.2098  -4.4233  -3.6837
    -3.2105  -2.4972  -1.4402  -0.9161  -0.1709  -0.1086   0.0643   0.5071
     0.7624   0.8387   1.9117   3.4779   3.7747   4.2581

          k = 0.2000 0.4619 0.0000 ( 12869 PWs)   bands (ev):

   -59.5679 -33.8723 -33.6990 -33.6839 -11.7524 -10.9215  -4.4914  -4.0287
    -3.6500  -2.5051  -1.8769  -1.2153  -0.2256   0.0915   0.1873   0.5598
     0.8089   0.9507   2.7331   3.6995   4.1114   4.6191

          k = 0.2000 0.5774 0.0000 ( 12850 PWs)   bands (ev):

   -59.5648 -33.8897 -33.7183 -33.6777 -11.6073 -10.7914  -4.5868  -4.1774
    -3.7812  -2.3728  -2.1730  -1.3636  -0.2536   0.1857   0.3091   0.5379
     0.7843   1.1199   3.2251   3.9213   4.2337   4.7729

          k = 0.3000 0.5196 0.0000 ( 12860 PWs)   bands (ev):

   -59.5636 -33.8546 -33.7683 -33.6754 -11.5553 -10.7392  -4.4845  -4.0046
    -3.7368  -2.9169  -2.1585  -1.5319  -0.0594   0.1028   0.1892   0.5770
     0.7914   1.1652   3.0247   3.8067   4.3223   5.2547

 ------ SPIN DOWN ----------


          k = 0.0000 0.0000 0.0000 ( 12991 PWs)   bands (ev):

   -59.6312 -33.8000 -33.5641 -33.5641 -13.3609 -11.9643  -5.2572  -2.0637
    -1.5078  -1.5078  -0.4246  -0.4246  -0.3138   0.7139   1.6615   1.6615
     1.9827   1.9827   2.7308   3.9477   3.9478   4.1650

          k = 0.0000 0.1155 0.0000 ( 12953 PWs)   bands (ev):

   -59.6274 -33.7925 -33.6023 -33.5728 -13.2218 -11.8896  -5.1066  -2.1476
    -1.8645  -1.3815  -0.6528  -0.6371  -0.1687   0.7240   1.5805   1.6543
     1.9342   2.0470   2.8412   3.7724   3.9025   4.0182

          k = 0.0000 0.2309 0.0000 ( 12929 PWs)   bands (ev):

   -59.6175 -33.7727 -33.7014 -33.5954 -12.8397 -11.6785  -4.7474  -2.7391
    -2.4072  -1.3006  -0.9669  -0.8392   0.1155   0.4958   1.4453   1.6430
     1.8272   2.2196   2.8705   3.6064   3.7154   4.0152

          k = 0.0000 0.3464 0.0000 ( 12915 PWs)   bands (ev):

   -59.6052 -33.8218 -33.7482 -33.6233 -12.3250 -11.3732  -4.5047  -3.5747
    -2.9074  -1.7154  -1.3078  -0.4793   0.0857   0.7077   1.3519   1.6826
     1.8395   2.4473   2.8910   3.4885   3.8681   4.5897

          k = 0.0000 0.4619 0.0000 ( 12872 PWs)   bands (ev):

   -59.5952 -33.9175 -33.7282 -33.6457 -11.8704 -11.0622  -4.7540  -4.0676
    -3.2975  -2.0401  -1.5791  -0.2060   0.1020   1.0358   1.2771   1.7869
     2.4306   2.6481   3.1686   3.4539   4.1683   5.0904

          k = 0.0000-0.5774 0.0000 ( 12854 PWs)   bands (ev):

   -59.5913 -33.9537 -33.7206 -33.6543 -11.6889 -10.9163  -4.9819  -4.2248
    -3.4318  -2.1554  -1.6886  -0.1255   0.2498   1.0687   1.2420   1.8427
     2.7289   3.0721   3.3663   3.4965   4.2129   5.2246

          k = 0.1000 0.1732 0.0000 ( 12937 PWs)   bands (ev):

   -59.6206 -33.7788 -33.6682 -33.5912 -12.9608 -11.7463  -4.8467  -2.4445
    -2.3081  -1.3645  -1.0440  -0.6394   0.0089   0.6244   1.4607   1.6556
     1.8522   2.1714   2.9004   3.5439   3.7691   3.8642

          k = 0.1000 0.2887 0.0000 ( 12944 PWs)   bands (ev):

   -59.6094 -33.7713 -33.7566 -33.6232 -12.5096 -11.4851  -4.5126  -3.1977
    -2.6712  -1.9963  -1.0154  -0.6218   0.2700   0.4975   1.3504   1.6778
     1.7541   2.4006   2.8279   3.4738   3.7449   4.1905

          k = 0.1000 0.4041 0.0000 ( 12898 PWs)   bands (ev):

   -59.5983 -33.8722 -33.7344 -33.6554 -12.0174 -11.1657  -4.5035  -3.8136
    -3.2038  -2.2363  -1.2912  -0.6804   0.1869   1.0490   1.3244   1.7315
     1.9040   2.7075   2.8835   3.6086   4.0047   4.7250

          k = 0.1000 0.5196 0.0000 ( 12858 PWs)   bands (ev):

   -59.5913 -33.9337 -33.7206 -33.6752 -11.6936 -10.9161  -4.7965  -4.1470
    -3.4833  -2.2421  -1.6321  -0.7076   0.4088   1.1650   1.3126   1.7810
     2.3697   2.9882   3.3331   3.7106   4.2886   4.9855

          k = 0.2000 0.3464 0.0000 ( 12917 PWs)   bands (ev):

   -59.5994 -33.8421 -33.7368 -33.6721 -12.0744 -11.2017  -4.3633  -3.5473
    -3.1997  -2.4673  -1.3559  -0.7216   0.1938   1.1037   1.3261   1.6433
     1.7342   2.6957   2.8092   3.6568   3.8692   4.5109

          k = 0.2000 0.4619 0.0000 ( 12869 PWs)   bands (ev):

   -59.5913 -33.8917 -33.7207 -33.7188 -11.7012 -10.9152  -4.4533  -3.9546
    -3.5425  -2.4545  -1.8226  -1.1005   0.4051   1.3821   1.4480   1.6960
     1.8701   2.7957   3.2811   3.8321   4.1882   4.8894

          k = 0.2000 0.5774 0.0000 ( 12850 PWs)   bands (ev):

   -59.5882 -33.9090 -33.7382 -33.7145 -11.5545 -10.7854  -4.5505  -4.1315
    -3.6546  -2.2799  -2.1226  -1.2973   0.6072   1.4086   1.4396   1.6892
     2.0976   2.9091   3.3259   4.1764   4.3837   4.9830

          k = 0.3000 0.5196 0.0000 ( 12860 PWs)   bands (ev):

   -59.5871 -33.8739 -33.7881 -33.7122 -11.5021 -10.7332  -4.4574  -3.9624
    -3.5602  -2.8749  -2.1289  -1.4482   0.6825   1.5238   1.6142   1.6777
     1.8529   2.8203   3.1385   4.0810   4.4927   5.5291

     the Fermi energy is     1.9892 ev

!    total energy              =    -658.57639050 Ry
     total all-electron energy =    -12481.750281 Ry
     estimated scf accuracy    <       0.00000033 Ry
     smearing contrib. (-TS)   =      -0.00635450 Ry
     internal energy E=F+TS    =    -658.57003600 Ry

     The total energy is F=E-TS. E is the sum of the following terms:
     one-electron contribution =   -1218.85110405 Ry
     hartree contribution      =     623.20781205 Ry
     xc contribution           =     -62.32703202 Ry
     ewald contribution        =     405.56015987 Ry
     one-center paw contrib.   =    -406.15987185 Ry

     total magnetization       =     1.83 Bohr mag/cell
     absolute magnetization    =     2.04 Bohr mag/cell

     convergence has been achieved in  11 iterations

     negative rho (up, down):  2.080E-04 2.227E-04

     Forces acting on atoms (cartesian axes, Ry/au):

     atom    1 type  1   force =     0.00000000    0.00000000   -0.01886107
     atom    2 type  2   force =     0.00000000    0.00000000   -0.01615464
     atom    3 type  2   force =     0.00000000    0.00000000    0.00608149
     atom    4 type  3   force =     0.00000000    0.00000000    0.02893421
     The non-local contrib.  to forces
     atom    1 type  1   force =     0.00000000    0.00000000    0.00288045
     atom    2 type  2   force =     0.00000000   -0.00000000   -0.12434628
     atom    3 type  2   force =     0.00000000    0.00000000    0.27114818
     atom    4 type  3   force =     0.00000000    0.00000000    0.14069908
     The ionic contribution  to forces
     atom    1 type  1   force =     0.00000000   -0.00000000  -30.56399901
     atom    2 type  2   force =    -0.00000000    0.00000000   17.14910415
     atom    3 type  2   force =    -0.00000000    0.00000000  -44.58281760
     atom    4 type  3   force =    -0.00000000   -0.00000000   57.99771247
     The local contribution  to forces
     atom    1 type  1   force =    -0.00000000    0.00000000   30.54053688
     atom    2 type  2   force =    -0.00000000    0.00000000  -17.04387315
     atom    3 type  2   force =    -0.00000000    0.00000000   44.32028857
     atom    4 type  3   force =    -0.00000000    0.00000000  -58.10050140
     The core correction contribution to forces
     atom    1 type  1   force =    -0.00000000   -0.00000000    0.00045603
     atom    2 type  2   force =     0.00000000   -0.00000000    0.00175318
     atom    3 type  2   force =     0.00000000   -0.00000000   -0.00235571
     atom    4 type  3   force =    -0.00000000    0.00000000   -0.01009040
     The Hubbard contrib.    to forces
     atom    1 type  1   force =     0.00000000    0.00000000    0.00000000
     atom    2 type  2   force =     0.00000000    0.00000000    0.00000000
     atom    3 type  2   force =     0.00000000    0.00000000    0.00000000
     atom    4 type  3   force =     0.00000000    0.00000000    0.00000000
     The SCF correction term to forces
     atom    1 type  1   force =    -0.00000000   -0.00000000    0.00132275
     atom    2 type  2   force =     0.00000000    0.00000000    0.00126561
     atom    3 type  2   force =    -0.00000000    0.00000000   -0.00012379
     atom    4 type  3   force =    -0.00000000    0.00000000    0.00117262

     Total force =     0.038612     Total SCF correction =     0.002178


     Computing stress (Cartesian axis) and pressure


     negative rho (up, down):  2.080E-04 2.227E-04
          total   stress  (Ry/bohr**3)                   (kbar)     P=       -7.32
  -0.00013170   0.00000000   0.00000000          -19.37        0.00        0.00
   0.00000000  -0.00013170   0.00000000            0.00      -19.37        0.00
   0.00000000   0.00000000   0.00011417            0.00        0.00       16.80

     Energy error            =      5.8E-03 Ry
     Gradient error          =      2.9E-02 Ry/Bohr

     number of scf cycles    =   2
     number of bfgs steps    =   1

     energy             old  =    -658.5705977134 Ry
     energy             new  =    -658.5763904954 Ry

     CASE: energy            _new < energy            _old

     new trust radius        =       0.0513705019 bohr
     new conv_thr            =       0.0000002893 Ry


ATOMIC_POSITIONS (crystal)
Mo            0.0000000000        0.0000000000        0.4987022207
S             0.6666666667        0.3333333333        0.5848450334
S             0.6666666667        0.3333333333        0.4131728066
Co            0.6666666667        0.3333333333        0.7009160031



     Writing config-only to output data dir ./tmp/relax.save/
     NEW-OLD atomic charge density approx. for the potential

     negative rho (up, down):  2.177E-04 3.078E-04
     Generating pointlists ...
     new r_m :   0.3126 (alat units)  1.8720 (a.u.) for type    1

     total cpu time spent up to now is       51.9 secs

     Self-consistent Calculation

     iteration #  1     ecut=    80.00 Ry     beta= 0.70
     Davidson diagonalization with overlap
     ethr =  1.00E-06,  avg # of iterations =  8.8

     negative rho (up, down):  2.452E-04 2.881E-04

     total cpu time spent up to now is       54.6 secs

     total energy              =    -658.57637973 Ry
     estimated scf accuracy    <       0.00295375 Ry

     total magnetization       =     1.87 Bohr mag/cell
     absolute magnetization    =     2.06 Bohr mag/cell

     iteration #  2     ecut=    80.00 Ry     beta= 0.70
     Davidson diagonalization with overlap
     ethr =  8.44E-06,  avg # of iterations =  7.6

     negative rho (up, down):  2.429E-04 2.841E-04

     total cpu time spent up to now is       56.5 secs

     total energy              =    -658.56140910 Ry
     estimated scf accuracy    <       0.37299302 Ry

     total magnetization       =     2.09 Bohr mag/cell
     absolute magnetization    =     2.39 Bohr mag/cell

     iteration #  3     ecut=    80.00 Ry     beta= 0.70
     Davidson diagonalization with overlap
     ethr =  8.44E-06,  avg # of iterations =  6.9

     negative rho (up, down):  2.329E-04 2.670E-04

     total cpu time spent up to now is       58.5 secs

     total energy              =    -658.57679607 Ry
     estimated scf accuracy    <       0.00836458 Ry

     total magnetization       =     1.84 Bohr mag/cell
     absolute magnetization    =     2.05 Bohr mag/cell

     iteration #  4     ecut=    80.00 Ry     beta= 0.70
     Davidson diagonalization with overlap
     ethr =  8.44E-06,  avg # of iterations =  3.9

     negative rho (up, down):  2.192E-04 2.426E-04

     total cpu time spent up to now is       60.2 secs

     total energy              =    -658.57773546 Ry
     estimated scf accuracy    <       0.00156170 Ry

     total magnetization       =     1.88 Bohr mag/cell
     absolute magnetization    =     2.09 Bohr mag/cell

     iteration #  5     ecut=    80.00 Ry     beta= 0.70
     Davidson diagonalization with overlap
     ethr =  4.46E-06,  avg # of iterations =  3.0

     negative rho (up, down):  2.114E-04 2.244E-04

     total cpu time spent up to now is       61.7 secs

     total energy              =    -658.57794434 Ry
     estimated scf accuracy    <       0.00058688 Ry

     total magnetization       =     1.89 Bohr mag/cell
     absolute magnetization    =     2.09 Bohr mag/cell

     iteration #  6     ecut=    80.00 Ry     beta= 0.70
     Davidson diagonalization with overlap
     ethr =  1.68E-06,  avg # of iterations =  1.9

     negative rho (up, down):  2.108E-04 2.224E-04

     total cpu time spent up to now is       63.2 secs

     total energy              =    -658.57801579 Ry
     estimated scf accuracy    <       0.00007027 Ry

     total magnetization       =     1.89 Bohr mag/cell
     absolute magnetization    =     2.10 Bohr mag/cell

     iteration #  7     ecut=    80.00 Ry     beta= 0.70
     Davidson diagonalization with overlap
     ethr =  2.01E-07,  avg # of iterations =  2.2

     negative rho (up, down):  2.106E-04 2.223E-04

     total cpu time spent up to now is       64.7 secs

     total energy              =    -658.57802415 Ry
     estimated scf accuracy    <       0.00003736 Ry

     total magnetization       =     1.89 Bohr mag/cell
     absolute magnetization    =     2.09 Bohr mag/cell

     iteration #  8     ecut=    80.00 Ry     beta= 0.70
     Davidson diagonalization with overlap
     ethr =  1.07E-07,  avg # of iterations =  2.2

     negative rho (up, down):  2.105E-04 2.223E-04

     total cpu time spent up to now is       66.3 secs

     total energy              =    -658.57802827 Ry
     estimated scf accuracy    <       0.00001210 Ry

     total magnetization       =     1.89 Bohr mag/cell
     absolute magnetization    =     2.09 Bohr mag/cell

     iteration #  9     ecut=    80.00 Ry     beta= 0.70
     Davidson diagonalization with overlap
     ethr =  3.46E-08,  avg # of iterations =  1.9

     negative rho (up, down):  2.104E-04 2.222E-04

     total cpu time spent up to now is       67.7 secs

     total energy              =    -658.57802891 Ry
     estimated scf accuracy    <       0.00000142 Ry

     total magnetization       =     1.89 Bohr mag/cell
     absolute magnetization    =     2.09 Bohr mag/cell

     iteration # 10     ecut=    80.00 Ry     beta= 0.70
     Davidson diagonalization with overlap
     ethr =  4.05E-09,  avg # of iterations =  4.4

     negative rho (up, down):  2.105E-04 2.223E-04
 
     Magnetic moment per site  (integrated on atomic sphere of radius R)
     atom   1 (R=0.313)  charge= 10.7462  magn= -0.0235
     atom   2 (R=0.260)  charge=  2.9276  magn=  0.0228
     atom   3 (R=0.260)  charge=  2.8930  magn=  0.0032
     atom   4 (R=0.260)  charge=  6.5125  magn=  1.7312

     total cpu time spent up to now is       69.3 secs

     End of self-consistent calculation

 ------ SPIN UP ------------


          k = 0.0000 0.0000 0.0000 ( 12991 PWs)   bands (ev):

   -59.6416 -33.8002 -33.5828 -33.5828 -13.4139 -12.0043  -5.3097  -2.1568
    -1.5998  -1.5998  -1.3448  -0.5397  -0.5397   0.0250   0.0250   0.4974
     0.6736   0.6736   1.6590   3.7921   3.7921   4.1247

          k = 0.0000 0.1155 0.0000 ( 12953 PWs)   bands (ev):

   -59.6378 -33.7925 -33.6214 -33.5915 -13.2735 -11.9324  -5.1625  -2.2385
    -1.9594  -1.4689  -1.2429  -0.7659  -0.7498  -0.0026   0.0776   0.5843
     0.6523   0.6582   1.6735   3.6444   3.8027   3.8543

          k = 0.0000 0.2309 0.0000 ( 12929 PWs)   bands (ev):

   -59.6278 -33.7725 -33.7215 -33.6144 -12.8875 -11.7297  -4.8145  -2.8423
    -2.4715  -1.3669  -1.2336  -0.9673  -0.8210  -0.0284   0.2172   0.4131
     0.5901   0.6433   1.6093   3.4407   3.5898   3.8339

          k = 0.0000 0.3464 0.0000 ( 12915 PWs)   bands (ev):

   -59.6153 -33.8430 -33.7475 -33.6424 -12.3674 -11.4381  -4.5821  -3.6622
    -2.9784  -1.7901  -1.5006  -0.6117  -0.5723   0.0408   0.2192   0.3984
     0.4574   0.6862   1.7657   3.3799   3.6328   4.3954

          k = 0.0000 0.4619 0.0000 ( 12872 PWs)   bands (ev):

   -59.6053 -33.9397 -33.7273 -33.6650 -11.9077 -11.1421  -4.8110  -4.1552
    -3.3745  -2.1159  -1.7424  -0.5751  -0.3715   0.0529   0.2623   0.5518
     0.7725   0.7972   2.5025   3.3836   4.0004   4.8883

          k = 0.0000-0.5774 0.0000 ( 12854 PWs)   bands (ev):

   -59.6014 -33.9762 -33.7195 -33.6736 -11.7249 -11.0029  -5.0268  -4.3095
    -3.5099  -2.2313  -1.8552  -0.5965  -0.3091   0.1474   0.2308   0.6122
     0.8567   1.0420   3.2217   3.4463   4.1302   4.9481

          k = 0.1000 0.1732 0.0000 ( 12937 PWs)   bands (ev):

   -59.6309 -33.7787 -33.6880 -33.6101 -13.0099 -11.7947  -4.9101  -2.5717
    -2.3533  -1.4498  -1.2054  -0.9996  -0.7838  -0.0561   0.1918   0.4926
     0.6212   0.6901   1.6385   3.4432   3.6291   3.6717

          k = 0.1000 0.2887 0.0000 ( 12944 PWs)   bands (ev):

   -59.6196 -33.7919 -33.7562 -33.6424 -12.5540 -11.5446  -4.5885  -3.3005
    -2.7356  -2.0711  -1.2072  -0.8400  -0.5102  -0.0581   0.2174   0.3926
     0.5375   0.6850   1.6277   3.2862   3.6204   3.9369

          k = 0.1000 0.4041 0.0000 ( 12898 PWs)   bands (ev):

   -59.6084 -33.8939 -33.7336 -33.6748 -12.0563 -11.2401  -4.5710  -3.9087
    -3.2864  -2.3006  -1.4606  -0.8073  -0.4395   0.0492   0.2220   0.4163
     0.7173   0.7587   2.0617   3.4522   3.8252   4.5134

          k = 0.1000 0.5196 0.0000 ( 12858 PWs)   bands (ev):

   -59.6014 -33.9561 -33.7195 -33.6948 -11.7295 -11.0018  -4.8410  -4.2379
    -3.5731  -2.3101  -1.7975  -0.8248  -0.4598   0.1765   0.3239   0.4955
     0.7774   0.9915   3.0273   3.5822   4.1462   4.9029

          k = 0.2000 0.3464 0.0000 ( 12917 PWs)   bands (ev):

   -59.6096 -33.8636 -33.7360 -33.6916 -12.1139 -11.2739  -4.4356  -3.6610
    -3.2848  -2.5096  -1.4572  -0.9524  -0.1931  -0.1321   0.0609   0.4741
     0.7253   0.7741   1.8737   3.4671   3.7526   4.2091

          k = 0.2000 0.4619 0.0000 ( 12869 PWs)   bands (ev):

   -59.6014 -33.9136 -33.7388 -33.7196 -11.7371 -10.9995  -4.4983  -4.0526
    -3.6608  -2.5060  -1.9128  -1.2286  -0.2532   0.0840   0.1663   0.5222
     0.7576   0.8806   2.7080   3.6669   4.1081   4.5789

          k = 0.2000 0.5774 0.0000 ( 12850 PWs)   bands (ev):

   -59.5983 -33.9311 -33.7583 -33.7133 -11.5897 -10.8746  -4.5824  -4.2264
    -3.7716  -2.3495  -2.2247  -1.3800  -0.2814   0.1830   0.2826   0.5015
     0.7231   1.0541   3.1767   3.9169   4.2198   4.7576

          k = 0.3000 0.5196 0.0000 ( 12860 PWs)   bands (ev):

   -59.5971 -33.8960 -33.8084 -33.7109 -11.5372 -10.8234  -4.5089  -4.0305
    -3.7054  -2.9425  -2.1814  -1.5406  -0.0872   0.0778   0.1860   0.5423
     0.7159   1.1109   2.9684   3.8092   4.3104   5.2384

 ------ SPIN DOWN ----------


          k = 0.0000 0.0000 0.0000 ( 12991 PWs)   bands (ev):

   -59.6617 -33.8317 -33.6001 -33.6001 -13.3815 -11.9897  -5.2668  -2.1001
    -1.5793  -1.5793  -0.4981  -0.4981  -0.2813   0.7696   1.7244   1.7244
     1.9983   1.9983   2.7504   3.9072   3.9072   4.1645

          k = 0.0000 0.1155 0.0000 ( 12953 PWs)   bands (ev):

   -59.6579 -33.8241 -33.6386 -33.6088 -13.2401 -11.9182  -5.1153  -2.1898
    -1.9240  -1.4410  -0.7216  -0.7148  -0.1328   0.7675   1.6330   1.7168
     1.9501   2.0625   2.8586   3.7811   3.8528   3.9938

          k = 0.0000 0.2309 0.0000 ( 12929 PWs)   bands (ev):

   -59.6479 -33.8041 -33.7384 -33.6316 -12.8514 -11.7170  -4.7550  -2.7829
    -2.4528  -1.3133  -0.9971  -0.9644   0.1419   0.5158   1.4827   1.7015
     1.8431   2.2346   2.8783   3.6296   3.6942   3.9621

          k = 0.0000 0.3464 0.0000 ( 12915 PWs)   bands (ev):

   -59.6355 -33.8597 -33.7793 -33.6596 -12.3260 -11.4283  -4.5239  -3.5773
    -2.9581  -1.7584  -1.3135  -0.5565   0.0856   0.7251   1.3783   1.7279
     1.8515   2.4617   2.8919   3.4595   3.8788   4.5504

          k = 0.0000 0.4619 0.0000 ( 12872 PWs)   bands (ev):

   -59.6255 -33.9561 -33.7591 -33.6822 -11.8604 -11.1355  -4.7798  -4.0593
    -3.3279  -2.0897  -1.5770  -0.2519   0.0952   1.0573   1.2998   1.8147
     2.4403   2.6620   3.1578   3.4148   4.1598   5.0553

          k = 0.0000-0.5774 0.0000 ( 12854 PWs)   bands (ev):

   -59.6216 -33.9926 -33.7514 -33.6908 -11.6751 -10.9973  -4.9988  -4.2258
    -3.4535  -2.2066  -1.6836  -0.1586   0.2466   1.0892   1.2642   1.8636
     2.7426   3.0779   3.3620   3.4519   4.1873   5.1965

          k = 0.1000 0.1732 0.0000 ( 12937 PWs)   bands (ev):

   -59.6510 -33.8103 -33.7050 -33.6274 -12.9747 -11.7815  -4.8540  -2.5157
    -2.3273  -1.3872  -1.1418  -0.7041   0.0434   0.6504   1.5054   1.7097
     1.8694   2.1866   2.9116   3.5708   3.7335   3.8167

          k = 0.1000 0.2887 0.0000 ( 12944 PWs)   bands (ev):

   -59.6398 -33.8087 -33.7879 -33.6596 -12.5147 -11.5335  -4.5225  -3.2239
    -2.7183  -2.0358  -1.0282  -0.7015   0.2757   0.5122   1.3849   1.7131
     1.7763   2.4150   2.8362   3.4578   3.7526   4.1385

          k = 0.1000 0.4041 0.0000 ( 12898 PWs)   bands (ev):

   -59.6286 -33.9104 -33.7654 -33.6919 -12.0111 -11.2324  -4.5289  -3.8049
    -3.2487  -2.2713  -1.2882  -0.7320   0.1719   1.0653   1.3449   1.7644
     1.9119   2.7183   2.8887   3.5734   4.0089   4.6837

          k = 0.1000 0.5196 0.0000 ( 12858 PWs)   bands (ev):

   -59.6216 -33.9725 -33.7514 -33.7119 -11.6799 -10.9961  -4.8114  -4.1593
    -3.5029  -2.2813  -1.6236  -0.7396   0.3955   1.1839   1.3299   1.8054
     2.3785   2.9909   3.3270   3.6767   4.2721   4.9797

          k = 0.2000 0.3464 0.0000 ( 12917 PWs)   bands (ev):

   -59.6298 -33.8802 -33.7678 -33.7087 -12.0695 -11.2657  -4.3829  -3.5313
    -3.2738  -2.4828  -1.3837  -0.7451   0.1786   1.1092   1.3501   1.6543
     1.7646   2.7030   2.8273   3.6327   3.8687   4.4590

          k = 0.2000 0.4619 0.0000 ( 12869 PWs)   bands (ev):

   -59.6216 -33.9301 -33.7558 -33.7514 -11.6878 -10.9937  -4.4636  -4.0021
    -3.5397  -2.4613  -1.8593  -1.1063   0.3873   1.4029   1.4535   1.7226
     1.8738   2.8042   3.2841   3.7943   4.1976   4.8513

          k = 0.2000 0.5774 0.0000 ( 12850 PWs)   bands (ev):

   -59.6185 -33.9476 -33.7752 -33.7452 -11.5387 -10.8692  -4.5490  -4.1940
    -3.6428  -2.2694  -2.1652  -1.3088   0.5969   1.4249   1.4499   1.7105
     2.1033   2.9123   3.2896   4.1723   4.3815   4.9665

          k = 0.3000 0.5196 0.0000 ( 12860 PWs)   bands (ev):

   -59.6173 -33.9125 -33.8253 -33.7428 -11.4857 -10.8181  -4.4853  -3.9973
    -3.5323  -2.9021  -2.1517  -1.4510   0.6785   1.5367   1.6375   1.6823
     1.8541   2.8158   3.1081   4.0835   4.4846   5.5296

     the Fermi energy is     1.9935 ev

!    total energy              =    -658.57802915 Ry
     total all-electron energy =    -12481.751920 Ry
     estimated scf accuracy    <       0.00000008 Ry
     smearing contrib. (-TS)   =      -0.00656216 Ry
     internal energy E=F+TS    =    -658.57146699 Ry

     The total energy is F=E-TS. E is the sum of the following terms:
     one-electron contribution =   -1213.05237605 Ry
     hartree contribution      =     620.27583679 Ry
     xc contribution           =     -62.32551650 Ry
     ewald contribution        =     402.69125011 Ry
     one-center paw contrib.   =    -406.16066134 Ry

     total magnetization       =     1.89 Bohr mag/cell
     absolute magnetization    =     2.09 Bohr mag/cell

     convergence has been achieved in  10 iterations

     negative rho (up, down):  2.105E-04 2.223E-04

     Forces acting on atoms (cartesian axes, Ry/au):

     atom    1 type  1   force =     0.00000000    0.00000000   -0.00572581
     atom    2 type  2   force =     0.00000000    0.00000000    0.00100047
     atom    3 type  2   force =     0.00000000    0.00000000   -0.00831767
     atom    4 type  3   force =     0.00000000    0.00000000    0.01304302
     The non-local contrib.  to forces
     atom    1 type  1   force =     0.00000000    0.00000000   -0.00368625
     atom    2 type  2   force =     0.00000000    0.00000000   -0.11685208
     atom    3 type  2   force =     0.00000000    0.00000000    0.26530856
     atom    4 type  3   force =     0.00000000    0.00000000    0.13335862
     The ionic contribution  to forces
     atom    1 type  1   force =     0.00000000   -0.00000000  -30.35652474
     atom    2 type  2   force =    -0.00000000    0.00000000   17.41189151
     atom    3 type  2   force =    -0.00000000    0.00000000  -44.53737704
     atom    4 type  3   force =    -0.00000000   -0.00000000   57.48201027
     The local contribution  to forces
     atom    1 type  1   force =    -0.00000000   -0.00000000   30.35408975
     atom    2 type  2   force =    -0.00000000    0.00000000  -17.29482413
     atom    3 type  2   force =    -0.00000000    0.00000000   44.26580778
     atom    4 type  3   force =    -0.00000000    0.00000000  -57.59448912
     The core correction contribution to forces
     atom    1 type  1   force =    -0.00000000    0.00000000    0.00078863
     atom    2 type  2   force =     0.00000000   -0.00000000    0.00115225
     atom    3 type  2   force =     0.00000000   -0.00000000   -0.00205967
     atom    4 type  3   force =    -0.00000000    0.00000000   -0.00853218
     The Hubbard contrib.    to forces
     atom    1 type  1   force =     0.00000000    0.00000000    0.00000000
     atom    2 type  2   force =     0.00000000    0.00000000    0.00000000
     atom    3 type  2   force =     0.00000000    0.00000000    0.00000000
     atom    4 type  3   force =     0.00000000    0.00000000    0.00000000
     The SCF correction term to forces
     atom    1 type  1   force =     0.00000000    0.00000000   -0.00028736
     atom    2 type  2   force =     0.00000000    0.00000000   -0.00026125
     atom    3 type  2   force =     0.00000000   -0.00000000    0.00010854
     atom    4 type  3   force =     0.00000000   -0.00000000    0.00080127

     Total force =     0.016525     Total SCF correction =     0.000897


     Computing stress (Cartesian axis) and pressure


     negative rho (up, down):  2.105E-04 2.223E-04
          total   stress  (Ry/bohr**3)                   (kbar)     P=       -6.13
  -0.00011511   0.00000000   0.00000000          -16.93        0.00        0.00
   0.00000000  -0.00011511   0.00000000            0.00      -16.93        0.00
   0.00000000   0.00000000   0.00010519            0.00        0.00       15.47

     Energy error            =      1.6E-03 Ry
     Gradient error          =      1.3E-02 Ry/Bohr

     number of scf cycles    =   3
     number of bfgs steps    =   2

     energy             old  =    -658.5763904954 Ry
     energy             new  =    -658.5780291492 Ry

     CASE: energy            _new < energy            _old

     new trust radius        =       0.0315847961 bohr
     new conv_thr            =       0.0000001304 Ry


ATOMIC_POSITIONS (crystal)
Mo            0.0000000000        0.0000000000        0.4982627369
S             0.6666666667        0.3333333333        0.5846052181
S             0.6666666667        0.3333333333        0.4129332517
Co            0.6666666667        0.3333333333        0.7018348571



     Writing config-only to output data dir ./tmp/relax.save/
     NEW-OLD atomic charge density approx. for the potential

     negative rho (up, down):  2.124E-04 2.399E-04
     Generating pointlists ...

     total cpu time spent up to now is       73.2 secs

     Self-consistent Calculation

     iteration #  1     ecut=    80.00 Ry     beta= 0.70
     Davidson diagonalization with overlap
     ethr =  1.00E-06,  avg # of iterations =  6.5

     negative rho (up, down):  2.109E-04 2.307E-04

     total cpu time spent up to now is       75.6 secs

     total energy              =    -658.57813820 Ry
     estimated scf accuracy    <       0.00069879 Ry

     total magnetization       =     1.91 Bohr mag/cell
     absolute magnetization    =     2.10 Bohr mag/cell

     iteration #  2     ecut=    80.00 Ry     beta= 0.70
     Davidson diagonalization with overlap
     ethr =  2.00E-06,  avg # of iterations =  5.9

     negative rho (up, down):  2.108E-04 2.300E-04

     total cpu time spent up to now is       77.4 secs

     total energy              =    -658.57624999 Ry
     estimated scf accuracy    <       0.03757321 Ry

     total magnetization       =     1.99 Bohr mag/cell
     absolute magnetization    =     2.21 Bohr mag/cell

     iteration #  3     ecut=    80.00 Ry     beta= 0.70
     Davidson diagonalization with overlap
     ethr =  2.00E-06,  avg # of iterations =  6.0

     negative rho (up, down):  2.109E-04 2.278E-04

     total cpu time spent up to now is       79.2 secs

     total energy              =    -658.57807785 Ry
     estimated scf accuracy    <       0.00291004 Ry

     total magnetization       =     1.88 Bohr mag/cell
     absolute magnetization    =     2.09 Bohr mag/cell

     iteration #  4     ecut=    80.00 Ry     beta= 0.70
     Davidson diagonalization with overlap
     ethr =  2.00E-06,  avg # of iterations =  4.3

     negative rho (up, down):  2.108E-04 2.242E-04

     total cpu time spent up to now is       80.9 secs

     total energy              =    -658.57833574 Ry
     estimated scf accuracy    <       0.00066363 Ry

     total magnetization       =     1.92 Bohr mag/cell
     absolute magnetization    =     2.12 Bohr mag/cell

     iteration #  5     ecut=    80.00 Ry     beta= 0.70
     Davidson diagonalization with overlap
     ethr =  1.90E-06,  avg # of iterations =  2.6

     negative rho (up, down):  2.110E-04 2.219E-04

     total cpu time spent up to now is       82.4 secs

     total energy              =    -658.57840809 Ry
     estimated scf accuracy    <       0.00017417 Ry

     total magnetization       =     1.92 Bohr mag/cell
     absolute magnetization    =     2.12 Bohr mag/cell

     iteration #  6     ecut=    80.00 Ry     beta= 0.70
     Davidson diagonalization with overlap
     ethr =  4.98E-07,  avg # of iterations =  1.6

     negative rho (up, down):  2.109E-04 2.215E-04

     total cpu time spent up to now is       83.9 secs

     total energy              =    -658.57843174 Ry
     estimated scf accuracy    <       0.00000863 Ry

     total magnetization       =     1.92 Bohr mag/cell
     absolute magnetization    =     2.12 Bohr mag/cell

     iteration #  7     ecut=    80.00 Ry     beta= 0.70
     Davidson diagonalization with overlap
     ethr =  2.47E-08,  avg # of iterations =  3.8

     negative rho (up, down):  2.109E-04 2.215E-04

     total cpu time spent up to now is       85.5 secs

     total energy              =    -658.57843350 Ry
     estimated scf accuracy    <       0.00000369 Ry

     total magnetization       =     1.91 Bohr mag/cell
     absolute magnetization    =     2.11 Bohr mag/cell

     iteration #  8     ecut=    80.00 Ry     beta= 0.70
     Davidson diagonalization with overlap
     ethr =  1.05E-08,  avg # of iterations =  2.8

     negative rho (up, down):  2.109E-04 2.215E-04

     total cpu time spent up to now is       87.0 secs

     total energy              =    -658.57843406 Ry
     estimated scf accuracy    <       0.00000169 Ry

     total magnetization       =     1.92 Bohr mag/cell
     absolute magnetization    =     2.12 Bohr mag/cell

     iteration #  9     ecut=    80.00 Ry     beta= 0.70
     Davidson diagonalization with overlap
     ethr =  4.82E-09,  avg # of iterations =  1.6

     negative rho (up, down):  2.108E-04 2.215E-04

     total cpu time spent up to now is       88.3 secs

     total energy              =    -658.57843419 Ry
     estimated scf accuracy    <       0.00000021 Ry

     total magnetization       =     1.92 Bohr mag/cell
     absolute magnetization    =     2.12 Bohr mag/cell

     iteration # 10     ecut=    80.00 Ry     beta= 0.70
     Davidson diagonalization with overlap
     ethr =  5.89E-10,  avg # of iterations =  2.7

     negative rho (up, down):  2.109E-04 2.215E-04
 
     Magnetic moment per site  (integrated on atomic sphere of radius R)
     atom   1 (R=0.313)  charge= 10.7461  magn= -0.0214
     atom   2 (R=0.260)  charge=  2.9229  magn=  0.0230
     atom   3 (R=0.260)  charge=  2.8941  magn=  0.0031
     atom   4 (R=0.260)  charge=  6.5072  magn=  1.7533

     total cpu time spent up to now is       89.9 secs

     End of self-consistent calculation

 ------ SPIN UP ------------


          k = 0.0000 0.0000 0.0000 ( 12991 PWs)   bands (ev):

   -59.6556 -33.8136 -33.5966 -33.5966 -13.4050 -12.0084  -5.2965  -2.1713
    -1.6010  -1.6010  -1.3388  -0.5431  -0.5431   0.0125   0.0125   0.4978
     0.6705   0.6705   1.6280   3.7705   3.7705   4.1235

          k = 0.0000 0.1155 0.0000 ( 12953 PWs)   bands (ev):

   -59.6518 -33.8059 -33.6352 -33.6053 -13.2639 -11.9372  -5.1485  -2.2508
    -1.9558  -1.4660  -1.2401  -0.7708  -0.7577  -0.0150   0.0649   0.5825
     0.6500   0.6556   1.6407   3.6154   3.8055   3.8311

          k = 0.0000 0.2309 0.0000 ( 12929 PWs)   bands (ev):

   -59.6417 -33.7859 -33.7352 -33.6281 -12.8760 -11.7366  -4.7983  -2.8394
    -2.4748  -1.3490  -1.2291  -0.9892  -0.8306  -0.0408   0.2041   0.4101
     0.5832   0.6401   1.5737   3.4235   3.5738   3.8208

          k = 0.0000 0.3464 0.0000 ( 12915 PWs)   bands (ev):

   -59.6293 -33.8567 -33.7610 -33.6562 -12.3522 -11.4487  -4.5675  -3.6470
    -2.9844  -1.7845  -1.4985  -0.6163  -0.5807   0.0381   0.2082   0.3847
     0.4376   0.6777   1.7336   3.3652   3.6169   4.3782

          k = 0.0000 0.4619 0.0000 ( 12872 PWs)   bands (ev):

   -59.6193 -33.9533 -33.7407 -33.6788 -11.8884 -11.1570  -4.8029  -4.1352
    -3.3750  -2.1127  -1.7400  -0.5833  -0.3664   0.0490   0.2487   0.5377
     0.7407   0.7808   2.4830   3.3701   3.9865   4.8683

          k = 0.0000-0.5774 0.0000 ( 12854 PWs)   bands (ev):

   -59.6154 -33.9899 -33.7330 -33.6874 -11.7039 -11.0194  -5.0188  -4.2930
    -3.5067  -2.2288  -1.8518  -0.6047  -0.3007   0.1402   0.2188   0.5979
     0.8371   1.0031   3.2167   3.4333   4.1190   4.9232

          k = 0.1000 0.1732 0.0000 ( 12937 PWs)   bands (ev):

   -59.6448 -33.7921 -33.7017 -33.6239 -12.9990 -11.8009  -4.8944  -2.5765
    -2.3499  -1.4385  -1.2077  -1.0056  -0.7973  -0.0683   0.1786   0.4892
     0.6169   0.6873   1.6034   3.4231   3.6217   3.6530

          k = 0.1000 0.2887 0.0000 ( 12944 PWs)   bands (ev):

   -59.6336 -33.8056 -33.7696 -33.6561 -12.5402 -11.5537  -4.5714  -3.2917
    -2.7393  -2.0698  -1.1939  -0.8516  -0.5218  -0.0704   0.2182   0.3808
     0.5205   0.6760   1.5950   3.2703   3.6089   3.9165

          k = 0.1000 0.4041 0.0000 ( 12898 PWs)   bands (ev):

   -59.6224 -33.9076 -33.7470 -33.6885 -12.0384 -11.2535  -4.5598  -3.8888
    -3.2901  -2.2988  -1.4519  -0.8128  -0.4499   0.0503   0.2105   0.3997
     0.6929   0.7413   2.0393   3.4370   3.8124   4.4935

          k = 0.1000 0.5196 0.0000 ( 12858 PWs)   bands (ev):

   -59.6154 -33.9697 -33.7330 -33.7085 -11.7087 -11.0181  -4.8316  -4.2242
    -3.5670  -2.3091  -1.7894  -0.8247  -0.4701   0.1748   0.3101   0.4805
     0.7546   0.9603   3.0157   3.5702   4.1340   4.8923

          k = 0.2000 0.3464 0.0000 ( 12917 PWs)   bands (ev):

   -59.6236 -33.8773 -33.7494 -33.7054 -12.0966 -11.2866  -4.4209  -3.6390
    -3.2950  -2.5045  -1.4518  -0.9580  -0.2033  -0.1428   0.0625   0.4591
     0.7092   0.7455   1.8527   3.4534   3.7420   4.1842

          k = 0.2000 0.4619 0.0000 ( 12869 PWs)   bands (ev):

   -59.6154 -33.9273 -33.7525 -33.7330 -11.7165 -11.0156  -4.4848  -4.0483
    -3.6469  -2.4974  -1.9144  -1.2303  -0.2650   0.0819   0.1572   0.5046
     0.7314   0.8541   2.6945   3.6556   4.1013   4.5528

          k = 0.2000 0.5774 0.0000 ( 12850 PWs)   bands (ev):

   -59.6123 -33.9448 -33.7720 -33.7268 -11.5680 -10.8917  -4.5668  -4.2310
    -3.7499  -2.3306  -2.2343  -1.3833  -0.2933   0.1818   0.2707   0.4832
     0.6916   1.0314   3.1640   3.9092   4.2075   4.7468

          k = 0.3000 0.5196 0.0000 ( 12860 PWs)   bands (ev):

   -59.6111 -33.9096 -33.8221 -33.7244 -11.5152 -10.8408  -4.5013  -4.0264
    -3.6780  -2.9389  -2.1835  -1.5424  -0.0989   0.0667   0.1845   0.5239
     0.6773   1.0939   2.9561   3.8018   4.2950   5.2238

 ------ SPIN DOWN ----------


          k = 0.0000 0.0000 0.0000 ( 12991 PWs)   bands (ev):

   -59.6741 -33.8430 -33.6122 -33.6122 -13.3733 -11.9939  -5.2547  -2.1145
    -1.5816  -1.5816  -0.5029  -0.5029  -0.2717   0.7807   1.7532   1.7532
     2.0052   2.0052   2.7553   3.8880   3.8880   4.1568

          k = 0.0000 0.1155 0.0000 ( 12953 PWs)   bands (ev):

   -59.6703 -33.8354 -33.6507 -33.6209 -13.2314 -11.9230  -5.1025  -2.2026
    -1.9229  -1.4403  -0.7293  -0.7234  -0.1182   0.7755   1.6571   1.7452
     1.9571   2.0692   2.8626   3.7693   3.8358   3.9699

          k = 0.0000 0.2309 0.0000 ( 12929 PWs)   bands (ev):

   -59.6603 -33.8154 -33.7505 -33.6437 -12.8407 -11.7237  -4.7405  -2.7829
    -2.4561  -1.2987  -1.0015  -0.9847   0.1524   0.5187   1.4990   1.7283
     1.8501   2.2411   2.8762   3.6260   3.6776   3.9392

          k = 0.0000 0.3464 0.0000 ( 12915 PWs)   bands (ev):

   -59.6479 -33.8718 -33.7906 -33.6718 -12.3117 -11.4387  -4.5114  -3.5650
    -2.9638  -1.7550  -1.3131  -0.5620   0.0855   0.7316   1.3896   1.7499
     1.8568   2.4679   2.8871   3.4444   3.8703   4.5298

          k = 0.0000 0.4619 0.0000 ( 12872 PWs)   bands (ev):

   -59.6378 -33.9682 -33.7704 -33.6943 -11.8418 -11.1504  -4.7728  -4.0435
    -3.3276  -2.0882  -1.5741  -0.2503   0.0937   1.0663   1.3093   1.8295
     2.4443   2.6680   3.1497   3.4017   4.1480   5.0345

          k = 0.0000-0.5774 0.0000 ( 12854 PWs)   bands (ev):

   -59.6340 -34.0046 -33.7627 -33.7029 -11.6549 -11.0140  -4.9918  -4.2133
    -3.4498  -2.2054  -1.6791  -0.1541   0.2458   1.0981   1.2732   1.8749
     2.7485   3.0784   3.3571   3.4399   4.1775   5.1767

          k = 0.1000 0.1732 0.0000 ( 12937 PWs)   bands (ev):

   -59.6634 -33.8216 -33.7171 -33.6395 -12.9647 -11.7875  -4.8400  -2.5238
    -2.3239  -1.3765  -1.1559  -0.7152   0.0579   0.6543   1.5251   1.7345
     1.8771   2.1932   2.9115   3.5707   3.7115   3.7939

          k = 0.1000 0.2887 0.0000 ( 12944 PWs)   bands (ev):

   -59.6522 -33.8208 -33.7992 -33.6717 -12.5019 -11.5425  -4.5075  -3.2185
    -2.7215  -2.0353  -1.0197  -0.7151   0.2785   0.5171   1.3997   1.7283
     1.7880   2.4210   2.8327   3.4446   3.7478   4.1131

          k = 0.1000 0.4041 0.0000 ( 12898 PWs)   bands (ev):

   -59.6409 -33.9225 -33.7767 -33.7040 -11.9940 -11.2457  -4.5194  -3.7893
    -3.2509  -2.2708  -1.2797  -0.7391   0.1730   1.0718   1.3541   1.7806
     1.9154   2.7217   2.8862   3.5599   4.0007   4.6605

          k = 0.1000 0.5196 0.0000 ( 12858 PWs)   bands (ev):

   -59.6340 -33.9845 -33.7627 -33.7240 -11.6598 -11.0126  -4.8031  -4.1505
    -3.4952  -2.2816  -1.6150  -0.7412   0.3964   1.1921   1.3373   1.8177
     2.3822   2.9896   3.3237   3.6666   4.2619   4.9668

          k = 0.2000 0.3464 0.0000 ( 12917 PWs)   bands (ev):

   -59.6421 -33.8923 -33.7791 -33.7208 -12.0530 -11.2783  -4.3704  -3.5119
    -3.2840  -2.4790  -1.3813  -0.7482   0.1807   1.1104   1.3618   1.6594
     1.7790   2.7004   2.8324   3.6213   3.8629   4.4309

          k = 0.2000 0.4619 0.0000 ( 12869 PWs)   bands (ev):

   -59.6340 -33.9422 -33.7679 -33.7628 -11.6679 -11.0099  -4.4513  -4.0043
    -3.5225  -2.4551  -1.8608  -1.1065   0.3894   1.4118   1.4566   1.7348
     1.8755   2.8026   3.2841   3.7838   4.1932   4.8257

          k = 0.2000 0.5774 0.0000 ( 12850 PWs)   bands (ev):

   -59.6309 -33.9596 -33.7873 -33.7565 -11.5177 -10.8866  -4.5344  -4.2024
    -3.6210  -2.2594  -2.1673  -1.3113   0.6001   1.4323   1.4542   1.7207
     2.1059   2.9114   3.2813   4.1638   4.3726   4.9566

          k = 0.3000 0.5196 0.0000 ( 12860 PWs)   bands (ev):

   -59.6297 -33.9245 -33.8374 -33.7542 -11.4644 -10.8357  -4.4789  -3.9960
    -3.5064  -2.8991  -2.1541  -1.4514   0.6843   1.5423   1.6478   1.6852
     1.8550   2.8138   3.1028   4.0739   4.4720   5.5206

     the Fermi energy is     1.9965 ev

!    total energy              =    -658.57843421 Ry
     total all-electron energy =    -12481.752325 Ry
     estimated scf accuracy    <       0.00000002 Ry
     smearing contrib. (-TS)   =      -0.00667915 Ry
     internal energy E=F+TS    =    -658.57175506 Ry

     The total energy is F=E-TS. E is the sum of the following terms:
     one-electron contribution =   -1208.07175097 Ry
     hartree contribution      =     617.77744365 Ry
     xc contribution           =     -62.31722649 Ry
     ewald contribution        =     400.20011366 Ry
     one-center paw contrib.   =    -406.16033491 Ry

     total magnetization       =     1.92 Bohr mag/cell
     absolute magnetization    =     2.12 Bohr mag/cell

     convergence has been achieved in  10 iterations

     negative rho (up, down):  2.109E-04 2.215E-04

     Forces acting on atoms (cartesian axes, Ry/au):

     atom    1 type  1   force =     0.00000000    0.00000000   -0.00128127
     atom    2 type  2   force =     0.00000000    0.00000000    0.00512125
     atom    3 type  2   force =     0.00000000    0.00000000   -0.01041917
     atom    4 type  3   force =     0.00000000    0.00000000    0.00657919
     The non-local contrib.  to forces
     atom    1 type  1   force =     0.00000000    0.00000000   -0.00617547
     atom    2 type  2   force =     0.00000000    0.00000000   -0.11534533
     atom    3 type  2   force =     0.00000000    0.00000000    0.26457288
     atom    4 type  3   force =     0.00000000    0.00000000    0.12910755
     The ionic contribution  to forces
     atom    1 type  1   force =     0.00000000   -0.00000000  -30.23130399
     atom    2 type  2   force =    -0.00000000    0.00000000   17.52041521
     atom    3 type  2   force =    -0.00000000    0.00000000  -44.48068422
     atom    4 type  3   force =    -0.00000000    0.00000000   57.19157300
     The local contribution  to forces
     atom    1 type  1   force =     0.00000000    0.00000000   30.23497000
     atom    2 type  2   force =    -0.00000000    0.00000000  -17.40107229
     atom    3 type  2   force =    -0.00000000    0.00000000   44.20778750
     atom    4 type  3   force =    -0.00000000    0.00000000  -57.30642890
     The core correction contribution to forces
     atom    1 type  1   force =    -0.00000000    0.00000000    0.00090650
     atom    2 type  2   force =     0.00000000   -0.00000000    0.00095536
     atom    3 type  2   force =     0.00000000   -0.00000000   -0.00201667
     atom    4 type  3   force =    -0.00000000    0.00000000   -0.00784557
     The Hubbard contrib.    to forces
     atom    1 type  1   force =     0.00000000    0.00000000    0.00000000
     atom    2 type  2   force =     0.00000000    0.00000000    0.00000000
     atom    3 type  2   force =     0.00000000    0.00000000    0.00000000
     atom    4 type  3   force =     0.00000000    0.00000000    0.00000000
     The SCF correction term to forces
     atom    1 type  1   force =     0.00000000    0.00000000    0.00033117
     atom    2 type  2   force =    -0.00000000    0.00000000    0.00017778
     atom    3 type  2   force =     0.00000000    0.00000000   -0.00006918
     atom    4 type  3   force =     0.00000000    0.00000000    0.00018260

     Total force =     0.013406     Total SCF correction =     0.000424


     Computing stress (Cartesian axis) and pressure


     negative rho (up, down):  2.109E-04 2.215E-04
          total   stress  (Ry/bohr**3)                   (kbar)     P=       -7.50
  -0.00011751   0.00000000   0.00000000          -17.29        0.00        0.00
   0.00000000  -0.00011751   0.00000000            0.00      -17.29        0.00
   0.00000000   0.00000000   0.00008209            0.00        0.00       12.08

     Energy error            =      4.1E-04 Ry
     Gradient error          =      1.0E-02 Ry/Bohr

     number of scf cycles    =   4
     number of bfgs steps    =   3

     energy             old  =    -658.5780291492 Ry
     energy             new  =    -658.5784342067 Ry

     CASE: energy            _new < energy            _old

     new trust radius        =       0.0380992239 bohr
     new conv_thr            =       0.0000000405 Ry


ATOMIC_POSITIONS (crystal)
Mo            0.0000000000        0.0000000000        0.4978291664
S             0.6666666667        0.3333333333        0.5845725984
S             0.6666666667        0.3333333333        0.4122910723
Co            0.6666666667        0.3333333333        0.7029432266



     Writing config-only to output data dir ./tmp/relax.save/
     NEW-OLD atomic charge density approx. for the potential

     negative rho (up, down):  2.139E-04 2.274E-04
     Generating pointlists ...

     total cpu time spent up to now is       93.8 secs

     Self-consistent Calculation

     iteration #  1     ecut=    80.00 Ry     beta= 0.70
     Davidson diagonalization with overlap
     ethr =  1.00E-06,  avg # of iterations =  7.2

     negative rho (up, down):  2.100E-04 2.220E-04

     total cpu time spent up to now is       96.3 secs

     total energy              =    -658.57829719 Ry
     estimated scf accuracy    <       0.00103734 Ry

     total magnetization       =     1.93 Bohr mag/cell
     absolute magnetization    =     2.12 Bohr mag/cell

     iteration #  2     ecut=    80.00 Ry     beta= 0.70
     Davidson diagonalization with overlap
     ethr =  2.96E-06,  avg # of iterations =  6.4

     negative rho (up, down):  2.100E-04 2.218E-04

     total cpu time spent up to now is       98.2 secs

     total energy              =    -658.57457985 Ry
     estimated scf accuracy    <       0.08295658 Ry

     total magnetization       =     2.05 Bohr mag/cell
     absolute magnetization    =     2.28 Bohr mag/cell

     iteration #  3     ecut=    80.00 Ry     beta= 0.70
     Davidson diagonalization with overlap
     ethr =  2.96E-06,  avg # of iterations =  6.3

     negative rho (up, down):  2.103E-04 2.216E-04

     total cpu time spent up to now is      100.1 secs

     total energy              =    -658.57834340 Ry
     estimated scf accuracy    <       0.00264544 Ry

     total magnetization       =     1.91 Bohr mag/cell
     absolute magnetization    =     2.11 Bohr mag/cell

     iteration #  4     ecut=    80.00 Ry     beta= 0.70
     Davidson diagonalization with overlap
     ethr =  2.96E-06,  avg # of iterations =  4.1

     negative rho (up, down):  2.105E-04 2.208E-04

     total cpu time spent up to now is      101.8 secs

     total energy              =    -658.57864395 Ry
     estimated scf accuracy    <       0.00095387 Ry

     total magnetization       =     1.94 Bohr mag/cell
     absolute magnetization    =     2.14 Bohr mag/cell

     iteration #  5     ecut=    80.00 Ry     beta= 0.70
     Davidson diagonalization with overlap
     ethr =  2.73E-06,  avg # of iterations =  2.5

     negative rho (up, down):  2.105E-04 2.202E-04

     total cpu time spent up to now is      103.3 secs

     total energy              =    -658.57873971 Ry
     estimated scf accuracy    <       0.00016695 Ry

     total magnetization       =     1.95 Bohr mag/cell
     absolute magnetization    =     2.14 Bohr mag/cell

     iteration #  6     ecut=    80.00 Ry     beta= 0.70
     Davidson diagonalization with overlap
     ethr =  4.77E-07,  avg # of iterations =  2.0

     negative rho (up, down):  2.103E-04 2.201E-04

     total cpu time spent up to now is      104.8 secs

     total energy              =    -658.57876752 Ry
     estimated scf accuracy    <       0.00000704 Ry

     total magnetization       =     1.94 Bohr mag/cell
     absolute magnetization    =     2.14 Bohr mag/cell

     iteration #  7     ecut=    80.00 Ry     beta= 0.70
     Davidson diagonalization with overlap
     ethr =  2.01E-08,  avg # of iterations =  4.1

     negative rho (up, down):  2.102E-04 2.202E-04

     total cpu time spent up to now is      106.5 secs

     total energy              =    -658.57876991 Ry
     estimated scf accuracy    <       0.00000114 Ry

     total magnetization       =     1.94 Bohr mag/cell
     absolute magnetization    =     2.14 Bohr mag/cell

     iteration #  8     ecut=    80.00 Ry     beta= 0.70
     Davidson diagonalization with overlap
     ethr =  3.25E-09,  avg # of iterations =  2.7

     negative rho (up, down):  2.102E-04 2.202E-04

     total cpu time spent up to now is      108.1 secs

     total energy              =    -658.57877004 Ry
     estimated scf accuracy    <       0.00000041 Ry

     total magnetization       =     1.94 Bohr mag/cell
     absolute magnetization    =     2.14 Bohr mag/cell

     iteration #  9     ecut=    80.00 Ry     beta= 0.70
     Davidson diagonalization with overlap
     ethr =  1.16E-09,  avg # of iterations =  2.0

     negative rho (up, down):  2.102E-04 2.202E-04

     total cpu time spent up to now is      109.6 secs

     total energy              =    -658.57877005 Ry
     estimated scf accuracy    <       0.00000018 Ry

     total magnetization       =     1.94 Bohr mag/cell
     absolute magnetization    =     2.14 Bohr mag/cell

     iteration # 10     ecut=    80.00 Ry     beta= 0.70
     Davidson diagonalization with overlap
     ethr =  5.00E-10,  avg # of iterations =  2.0

     negative rho (up, down):  2.103E-04 2.202E-04
 
     Magnetic moment per site  (integrated on atomic sphere of radius R)
     atom   1 (R=0.313)  charge= 10.7417  magn= -0.0191
     atom   2 (R=0.260)  charge=  2.9177  magn=  0.0232
     atom   3 (R=0.260)  charge=  2.8926  magn=  0.0029
     atom   4 (R=0.260)  charge=  6.5022  magn=  1.7744

     total cpu time spent up to now is      111.1 secs

     End of self-consistent calculation

 ------ SPIN UP ------------


          k = 0.0000 0.0000 0.0000 ( 12991 PWs)   bands (ev):

   -59.6667 -33.8222 -33.6048 -33.6048 -13.3782 -12.0065  -5.2681  -2.1835
    -1.5684  -1.5684  -1.3351  -0.5180  -0.5180   0.0009   0.0009   0.4818
     0.6673   0.6673   1.5914   3.7528   3.7528   4.1087

          k = 0.0000 0.1155 0.0000 ( 12953 PWs)   bands (ev):

   -59.6628 -33.8146 -33.6433 -33.6135 -13.2370 -11.9349  -5.1190  -2.2553
    -1.9239  -1.4319  -1.2383  -0.7537  -0.7347  -0.0264   0.0532   0.5739
     0.6400   0.6526   1.6047   3.5879   3.7954   3.8052

          k = 0.0000 0.2309 0.0000 ( 12929 PWs)   bands (ev):

   -59.6529 -33.7946 -33.7428 -33.6363 -12.8483 -11.7335  -4.7656  -2.8136
    -2.4626  -1.3108  -1.2165  -0.9712  -0.8383  -0.0524   0.1919   0.4040
     0.5689   0.6363   1.5372   3.3920   3.5525   3.8065

          k = 0.0000 0.3464 0.0000 ( 12915 PWs)   bands (ev):

   -59.6405 -33.8638 -33.7699 -33.6642 -12.3226 -11.4448  -4.5321  -3.6185
    -2.9738  -1.7541  -1.4929  -0.5911  -0.5894   0.0333   0.1963   0.3721
     0.4176   0.6705   1.7006   3.3503   3.5883   4.3566

          k = 0.0000 0.4619 0.0000 ( 12872 PWs)   bands (ev):

   -59.6304 -33.9601 -33.7498 -33.6867 -11.8561 -11.1523  -4.7754  -4.1054
    -3.3626  -2.0836  -1.7356  -0.5915  -0.3410   0.0436   0.2343   0.5246
     0.7097   0.7682   2.4635   3.3631   3.9670   4.8425

          k = 0.0000-0.5774 0.0000 ( 12854 PWs)   bands (ev):

   -59.6266 -33.9964 -33.7421 -33.6953 -11.6705 -11.0141  -4.9956  -4.2653
    -3.4913  -2.1999  -1.8463  -0.6127  -0.2755   0.1297   0.2059   0.5846
     0.8217   0.9660   3.2104   3.4303   4.1092   4.8965

          k = 0.1000 0.1732 0.0000 ( 12937 PWs)   bands (ev):

   -59.6559 -33.8008 -33.7095 -33.6320 -12.9717 -11.7980  -4.8627  -2.5556
    -2.3349  -1.4072  -1.1832  -1.0021  -0.7928  -0.0795   0.1665   0.4845
     0.6063   0.6797   1.5672   3.3908   3.6120   3.6296

          k = 0.1000 0.2887 0.0000 ( 12944 PWs)   bands (ev):

   -59.6448 -33.8130 -33.7784 -33.6642 -12.5115 -11.5500  -4.5358  -3.2638
    -2.7261  -2.0494  -1.1709  -0.8361  -0.5313  -0.0818   0.2169   0.3689
     0.5029   0.6677   1.5605   3.2458   3.5882   3.8966

          k = 0.1000 0.4041 0.0000 ( 12898 PWs)   bands (ev):

   -59.6336 -33.9145 -33.7560 -33.6965 -12.0071 -11.2491  -4.5270  -3.8587
    -3.2761  -2.2803  -1.4366  -0.8007  -0.4593   0.0534   0.1988   0.3845
     0.6672   0.7291   2.0157   3.4222   3.7935   4.4686

          k = 0.1000 0.5196 0.0000 ( 12858 PWs)   bands (ev):

   -59.6266 -33.9763 -33.7421 -33.7164 -11.6753 -11.0130  -4.8066  -4.1975
    -3.5458  -2.2899  -1.7767  -0.8136  -0.4786   0.1726   0.2968   0.4668
     0.7315   0.9355   3.0042   3.5653   4.1214   4.8699

          k = 0.2000 0.3464 0.0000 ( 12917 PWs)   bands (ev):

   -59.6347 -33.8843 -33.7584 -33.7132 -12.0657 -11.2824  -4.3849  -3.6064
    -3.2805  -2.4892  -1.4324  -0.9534  -0.2134  -0.1538   0.0677   0.4452
     0.6956   0.7187   1.8289   3.4320   3.7304   4.1571

          k = 0.2000 0.4619 0.0000 ( 12869 PWs)   bands (ev):

   -59.6266 -33.9341 -33.7602 -33.7421 -11.6834 -11.0107  -4.4545  -4.0245
    -3.6186  -2.4804  -1.9015  -1.2293  -0.2759   0.0809   0.1494   0.4883
     0.7028   0.8365   2.6792   3.6498   4.0881   4.5190

          k = 0.2000 0.5774 0.0000 ( 12850 PWs)   bands (ev):

   -59.6235 -33.9515 -33.7796 -33.7359 -11.5341 -10.8863  -4.5383  -4.2145
    -3.7137  -2.3052  -2.2294  -1.3838  -0.3045   0.1807   0.2594   0.4648
     0.6585   1.0183   3.1628   3.8954   4.1887   4.7312

          k = 0.3000 0.5196 0.0000 ( 12860 PWs)   bands (ev):

   -59.6223 -33.9164 -33.8296 -33.7336 -11.4811 -10.8353  -4.4733  -4.0056
    -3.6398  -2.9205  -2.1788  -1.5438  -0.1097   0.0562   0.1836   0.5047
     0.6369   1.0870   2.9594   3.7851   4.2688   5.2026

 ------ SPIN DOWN ----------


          k = 0.0000 0.0000 0.0000 ( 12991 PWs)   bands (ev):

   -59.6832 -33.8494 -33.6183 -33.6183 -13.3470 -11.9919  -5.2268  -2.1266
    -1.5491  -1.5491  -0.4780  -0.4780  -0.2682   0.7746   1.7800   1.7800
     2.0108   2.0108   2.7565   3.8715   3.8715   4.1370

          k = 0.0000 0.1155 0.0000 ( 12953 PWs)   bands (ev):

   -59.6794 -33.8419 -33.6567 -33.6270 -13.2049 -11.9207  -5.0736  -2.2076
    -1.8912  -1.4067  -0.7112  -0.7059  -0.1066   0.7688   1.6797   1.7715
     1.9629   2.0748   2.8630   3.7524   3.8127   3.9409

          k = 0.0000 0.2309 0.0000 ( 12929 PWs)   bands (ev):

   -59.6694 -33.8220 -33.7560 -33.6497 -12.8135 -11.7207  -4.7084  -2.7590
    -2.4434  -1.2624  -0.9959  -0.9649   0.1602   0.5134   1.5133   1.7533
     1.8559   2.2465   2.8688   3.6070   3.6549   3.9181

          k = 0.0000 0.3464 0.0000 ( 12915 PWs)   bands (ev):

   -59.6571 -33.8768 -33.7974 -33.6777 -12.2826 -11.4348  -4.4766  -3.5387
    -2.9530  -1.7257  -1.3103  -0.5364   0.0843   0.7364   1.3992   1.7714
     1.8610   2.4730   2.8775   3.4283   3.8483   4.5067

          k = 0.0000 0.4619 0.0000 ( 12872 PWs)   bands (ev):

   -59.6471 -33.9728 -33.7773 -33.7001 -11.8100 -11.1459  -4.7459  -4.0168
    -3.3140  -2.0596  -1.5709  -0.2252   0.0931   1.0738   1.3172   1.8447
     2.4472   2.6728   3.1391   3.3948   4.1292   5.0090

          k = 0.0000-0.5774 0.0000 ( 12854 PWs)   bands (ev):

   -59.6432 -34.0091 -33.7697 -33.7087 -11.6218 -11.0089  -4.9692  -4.1889
    -3.4328  -2.1770  -1.6745  -0.1295   0.2448   1.1056   1.2804   1.8865
     2.7532   3.0768   3.3495   3.4380   4.1707   5.1507

          k = 0.1000 0.1732 0.0000 ( 12937 PWs)   bands (ev):

   -59.6725 -33.8282 -33.7228 -33.6455 -12.9378 -11.7847  -4.8089  -2.5047
    -2.3084  -1.3442  -1.1338  -0.7085   0.0698   0.6482   1.5430   1.7576
     1.8837   2.1987   2.9066   3.5555   3.6894   3.7675

          k = 0.1000 0.2887 0.0000 ( 12944 PWs)   bands (ev):

   -59.6614 -33.8260 -33.8059 -33.6776 -12.4736 -11.5389  -4.4724  -3.1929
    -2.7079  -2.0149  -0.9950  -0.7058   0.2804   0.5195   1.4125   1.7416
     1.7999   2.4257   2.8224   3.4269   3.7325   4.0878

          k = 0.1000 0.4041 0.0000 ( 12898 PWs)   bands (ev):

   -59.6502 -33.9273 -33.7835 -33.7098 -11.9632 -11.2415  -4.4873  -3.7622
    -3.2358  -2.2525  -1.2648  -0.7293   0.1821   1.0770   1.3623   1.7965
     1.9181   2.7228   2.8793   3.5506   3.9820   4.6335

          k = 0.1000 0.5196 0.0000 ( 12858 PWs)   bands (ev):

   -59.6432 -33.9890 -33.7697 -33.7297 -11.6269 -11.0077  -4.7788  -4.1275
    -3.4720  -2.2627  -1.6034  -0.7303   0.4049   1.1992   1.3434   1.8297
     2.3850   2.9868   3.3199   3.6632   4.2500   4.9429

          k = 0.2000 0.3464 0.0000 ( 12917 PWs)   bands (ev):

   -59.6514 -33.8972 -33.7859 -33.7266 -12.0226 -11.2742  -4.3352  -3.4811
    -3.2694  -2.4647  -1.3628  -0.7448   0.1924   1.1106   1.3724   1.6636
     1.7923   2.6913   2.8345   3.6120   3.8491   4.4000

          k = 0.2000 0.4619 0.0000 ( 12869 PWs)   bands (ev):

   -59.6432 -33.9469 -33.7734 -33.7697 -11.6352 -11.0052  -4.4217  -3.9841
    -3.4922  -2.4401  -1.8474  -1.1061   0.4030   1.4200   1.4592   1.7459
     1.8764   2.7959   3.2827   3.7816   4.1785   4.7933

          k = 0.2000 0.5774 0.0000 ( 12850 PWs)   bands (ev):

   -59.6401 -33.9642 -33.7928 -33.7635 -11.4842 -10.8813  -4.5065  -4.1882
    -3.5844  -2.2442  -2.1532  -1.3129   0.6124   1.4390   1.4577   1.7301
     2.1077   2.9097   3.2824   4.1487   4.3549   4.9445

          k = 0.3000 0.5196 0.0000 ( 12860 PWs)   bands (ev):

   -59.6390 -33.9292 -33.8428 -33.7612 -11.4307 -10.8303  -4.4513  -3.9774
    -3.4687  -2.8810  -2.1499  -1.4532   0.6991   1.5474   1.6566   1.6879
     1.8553   2.8153   3.1056   4.0526   4.4504   5.5036

     the Fermi energy is     1.9994 ev

!    total energy              =    -658.57877005 Ry
     total all-electron energy =    -12481.752661 Ry
     estimated scf accuracy    <       0.00000004 Ry
     smearing contrib. (-TS)   =      -0.00679983 Ry
     internal energy E=F+TS    =    -658.57197022 Ry

     The total energy is F=E-TS. E is the sum of the following terms:
     one-electron contribution =   -1200.93363096 Ry
     hartree contribution      =     614.20461915 Ry
     xc contribution           =     -62.30059137 Ry
     ewald contribution        =     396.61684282 Ry
     one-center paw contrib.   =    -406.15920987 Ry

     total magnetization       =     1.94 Bohr mag/cell
     absolute magnetization    =     2.14 Bohr mag/cell

     convergence has been achieved in  10 iterations

     negative rho (up, down):  2.103E-04 2.202E-04

     Forces acting on atoms (cartesian axes, Ry/au):

     atom    1 type  1   force =     0.00000000    0.00000000    0.00079523
     atom    2 type  2   force =     0.00000000    0.00000000    0.00560386
     atom    3 type  2   force =     0.00000000    0.00000000   -0.00755458
     atom    4 type  3   force =     0.00000000    0.00000000    0.00115549
     The non-local contrib.  to forces
     atom    1 type  1   force =     0.00000000    0.00000000   -0.00792330
     atom    2 type  2   force =     0.00000000    0.00000000   -0.11550365
     atom    3 type  2   force =     0.00000000    0.00000000    0.26600482
     atom    4 type  3   force =     0.00000000    0.00000000    0.12493009
     The ionic contribution  to forces
     atom    1 type  1   force =     0.00000000   -0.00000000  -30.08026405
     atom    2 type  2   force =    -0.00000000    0.00000000   17.61041583
     atom    3 type  2   force =    -0.00000000    0.00000000  -44.39089370
     atom    4 type  3   force =    -0.00000000   -0.00000000   56.86074192
     The local contribution  to forces
     atom    1 type  1   force =    -0.00000000    0.00000000   30.08770588
     atom    2 type  2   force =    -0.00000000    0.00000000  -17.49031083
     atom    3 type  2   force =    -0.00000000    0.00000000   44.11941965
     atom    4 type  3   force =    -0.00000000    0.00000000  -56.97764370
     The core correction contribution to forces
     atom    1 type  1   force =     0.00000000    0.00000000    0.00098625
     atom    2 type  2   force =     0.00000000   -0.00000000    0.00084023
     atom    3 type  2   force =     0.00000000   -0.00000000   -0.00207906
     atom    4 type  3   force =    -0.00000000    0.00000000   -0.00723040
     The Hubbard contrib.    to forces
     atom    1 type  1   force =     0.00000000    0.00000000    0.00000000
     atom    2 type  2   force =     0.00000000    0.00000000    0.00000000
     atom    3 type  2   force =     0.00000000    0.00000000    0.00000000
     atom    4 type  3   force =     0.00000000    0.00000000    0.00000000
     The SCF correction term to forces
     atom    1 type  1   force =     0.00000000   -0.00000000    0.00031861
     atom    2 type  2   force =    -0.00000000   -0.00000000    0.00019044
     atom    3 type  2   force =     0.00000000    0.00000000    0.00002187
     atom    4 type  3   force =     0.00000000    0.00000000    0.00038574

     Total force =     0.009510     Total SCF correction =     0.000536


     Computing stress (Cartesian axis) and pressure


     negative rho (up, down):  2.103E-04 2.202E-04
          total   stress  (Ry/bohr**3)                   (kbar)     P=      -10.75
  -0.00012903   0.00000000   0.00000000          -18.98        0.00        0.00
   0.00000000  -0.00012903   0.00000000            0.00      -18.98        0.00
   0.00000000   0.00000000   0.00003887            0.00        0.00        5.72

     Energy error            =      3.4E-04 Ry
     Gradient error          =      7.6E-03 Ry/Bohr

     number of scf cycles    =   5
     number of bfgs steps    =   4

     energy             old  =    -658.5784342067 Ry
     energy             new  =    -658.5787700505 Ry

     CASE: energy            _new < energy            _old

     new trust radius        =       0.0223650300 bohr
     new conv_thr            =       0.0000000336 Ry


ATOMIC_POSITIONS (crystal)
Mo            0.0000000000        0.0000000000        0.4976150064
S             0.6666666667        0.3333333333        0.5847324010
S             0.6666666667        0.3333333333        0.4116947940
Co            0.6666666667        0.3333333333        0.7035938624



     Writing config-only to output data dir ./tmp/relax.save/
     NEW-OLD atomic charge density approx. for the potential

     negative rho (up, down):  2.100E-04 2.205E-04
     Generating pointlists ...

     total cpu time spent up to now is      114.8 secs

     Self-consistent Calculation

     iteration #  1     ecut=    80.00 Ry     beta= 0.70
     Davidson diagonalization with overlap
     ethr =  1.00E-06,  avg # of iterations =  6.2

     negative rho (up, down):  2.084E-04 2.195E-04

     total cpu time spent up to now is      117.0 secs

     total energy              =    -658.57874952 Ry
     estimated scf accuracy    <       0.00033037 Ry

     total magnetization       =     1.95 Bohr mag/cell
     absolute magnetization    =     2.14 Bohr mag/cell

     iteration #  2     ecut=    80.00 Ry     beta= 0.70
     Davidson diagonalization with overlap
     ethr =  9.44E-07,  avg # of iterations =  5.9

     negative rho (up, down):  2.084E-04 2.194E-04

     total cpu time spent up to now is      118.8 secs

     total energy              =    -658.57766117 Ry
     estimated scf accuracy    <       0.02328513 Ry

     total magnetization       =     2.01 Bohr mag/cell
     absolute magnetization    =     2.22 Bohr mag/cell

     iteration #  3     ecut=    80.00 Ry     beta= 0.70
     Davidson diagonalization with overlap
     ethr =  9.44E-07,  avg # of iterations =  5.5

     negative rho (up, down):  2.089E-04 2.195E-04

     total cpu time spent up to now is      120.7 secs

     total energy              =    -658.57876801 Ry
     estimated scf accuracy    <       0.00073897 Ry

     total magnetization       =     1.94 Bohr mag/cell
     absolute magnetization    =     2.13 Bohr mag/cell

     iteration #  4     ecut=    80.00 Ry     beta= 0.70
     Davidson diagonalization with overlap
     ethr =  9.44E-07,  avg # of iterations =  4.1

     negative rho (up, down):  2.093E-04 2.193E-04

     total cpu time spent up to now is      122.3 secs

     total energy              =    -658.57884459 Ry
     estimated scf accuracy    <       0.00038307 Ry

     total magnetization       =     1.96 Bohr mag/cell
     absolute magnetization    =     2.15 Bohr mag/cell

     iteration #  5     ecut=    80.00 Ry     beta= 0.70
     Davidson diagonalization with overlap
     ethr =  9.44E-07,  avg # of iterations =  2.4

     negative rho (up, down):  2.093E-04 2.190E-04

     total cpu time spent up to now is      123.8 secs

     total energy              =    -658.57888199 Ry
     estimated scf accuracy    <       0.00003682 Ry

     total magnetization       =     1.96 Bohr mag/cell
     absolute magnetization    =     2.15 Bohr mag/cell

     iteration #  6     ecut=    80.00 Ry     beta= 0.70
     Davidson diagonalization with overlap
     ethr =  1.05E-07,  avg # of iterations =  2.4

     negative rho (up, down):  2.093E-04 2.190E-04

     total cpu time spent up to now is      125.3 secs

     total energy              =    -658.57888920 Ry
     estimated scf accuracy    <       0.00000367 Ry

     total magnetization       =     1.95 Bohr mag/cell
     absolute magnetization    =     2.14 Bohr mag/cell

     iteration #  7     ecut=    80.00 Ry     beta= 0.70
     Davidson diagonalization with overlap
     ethr =  1.05E-08,  avg # of iterations =  4.3

     negative rho (up, down):  2.093E-04 2.190E-04

     total cpu time spent up to now is      127.0 secs

     total energy              =    -658.57889006 Ry
     estimated scf accuracy    <       0.00000308 Ry

     total magnetization       =     1.95 Bohr mag/cell
     absolute magnetization    =     2.15 Bohr mag/cell

     iteration #  8     ecut=    80.00 Ry     beta= 0.70
     Davidson diagonalization with overlap
     ethr =  8.79E-09,  avg # of iterations =  1.6

     negative rho (up, down):  2.093E-04 2.190E-04

     total cpu time spent up to now is      128.4 secs

     total energy              =    -658.57889036 Ry
     estimated scf accuracy    <       0.00000030 Ry

     total magnetization       =     1.95 Bohr mag/cell
     absolute magnetization    =     2.15 Bohr mag/cell

     iteration #  9     ecut=    80.00 Ry     beta= 0.70
     Davidson diagonalization with overlap
     ethr =  8.57E-10,  avg # of iterations =  3.0

     negative rho (up, down):  2.093E-04 2.190E-04

     total cpu time spent up to now is      130.0 secs

     total energy              =    -658.57889041 Ry
     estimated scf accuracy    <       0.00000007 Ry

     total magnetization       =     1.95 Bohr mag/cell
     absolute magnetization    =     2.15 Bohr mag/cell

     iteration # 10     ecut=    80.00 Ry     beta= 0.70
     Davidson diagonalization with overlap
     ethr =  2.02E-10,  avg # of iterations =  2.5

     negative rho (up, down):  2.093E-04 2.190E-04
 
     Magnetic moment per site  (integrated on atomic sphere of radius R)
     atom   1 (R=0.313)  charge= 10.7367  magn= -0.0179
     atom   2 (R=0.260)  charge=  2.9145  magn=  0.0234
     atom   3 (R=0.260)  charge=  2.8902  magn=  0.0028
     atom   4 (R=0.260)  charge=  6.5004  magn=  1.7835

     total cpu time spent up to now is      131.4 secs

     End of self-consistent calculation

 ------ SPIN UP ------------


          k = 0.0000 0.0000 0.0000 ( 12991 PWs)   bands (ev):

   -59.6701 -33.8229 -33.6048 -33.6048 -13.3510 -12.0008  -5.2427  -2.1890
    -1.5262  -1.5262  -1.3364  -0.4849  -0.4849  -0.0058  -0.0058   0.4643
     0.6644   0.6644   1.5692   3.7463   3.7464   4.0931

          k = 0.0000 0.1155 0.0000 ( 12953 PWs)   bands (ev):

   -59.6663 -33.8154 -33.6430 -33.6135 -13.2100 -11.9283  -5.0930  -2.2533
    -1.8856  -1.3902  -1.2393  -0.7299  -0.7014  -0.0331   0.0464   0.5644
     0.6308   0.6493   1.5844   3.5739   3.7836   3.7899

          k = 0.0000 0.2309 0.0000 ( 12929 PWs)   bands (ev):

   -59.6563 -33.7956 -33.7421 -33.6361 -12.8218 -11.7245  -4.7371  -2.7837
    -2.4450  -1.2746  -1.2059  -0.9341  -0.8412  -0.0590   0.1850   0.3988
     0.5569   0.6327   1.5187   3.3674   3.5385   3.7982

          k = 0.0000 0.3464 0.0000 ( 12915 PWs)   bands (ev):

   -59.6440 -33.8625 -33.7711 -33.6640 -12.2963 -11.4321  -4.4989  -3.5941
    -2.9565  -1.7193  -1.4887  -0.5950  -0.5576   0.0305   0.1889   0.3649
     0.4066   0.6670   1.6840   3.3430   3.5661   4.3423

          k = 0.0000 0.4619 0.0000 ( 12872 PWs)   bands (ev):

   -59.6340 -33.9582 -33.7511 -33.6864 -11.8295 -11.1357  -4.7465  -4.0835
    -3.3468  -2.0486  -1.7330  -0.5969  -0.3145   0.0409   0.2254   0.5171
     0.6948   0.7643   2.4535   3.3648   3.9543   4.8251

          k = 0.0000-0.5774 0.0000 ( 12854 PWs)   bands (ev):

   -59.6302 -33.9944 -33.7435 -33.6949 -11.6436 -10.9956  -4.9720  -4.2437
    -3.4743  -2.1649  -1.8431  -0.6181  -0.2520   0.1229   0.1977   0.5771
     0.8170   0.9492   3.2053   3.4365   4.1056   4.8819

          k = 0.1000 0.1732 0.0000 ( 12937 PWs)   bands (ev):

   -59.6594 -33.8017 -33.7089 -33.6319 -12.9450 -11.7899  -4.8351  -2.5274
    -2.3172  -1.3759  -1.1516  -0.9954  -0.7775  -0.0859   0.1595   0.4806
     0.5957   0.6732   1.5488   3.3673   3.6041   3.6159

          k = 0.1000 0.2887 0.0000 ( 12944 PWs)   bands (ev):

   -59.6483 -33.8119 -33.7796 -33.6639 -12.4852 -11.5388  -4.5044  -3.2353
    -2.7074  -2.0244  -1.1530  -0.8096  -0.5350  -0.0882   0.2152   0.3614
     0.4933   0.6632   1.5426   3.2279   3.5727   3.8863

          k = 0.1000 0.4041 0.0000 ( 12898 PWs)   bands (ev):

   -59.6371 -33.9129 -33.7573 -33.6961 -11.9807 -11.2341  -4.4939  -3.8363
    -3.2565  -2.2577  -1.4247  -0.7826  -0.4643   0.0565   0.1916   0.3771
     0.6537   0.7259   2.0030   3.4152   3.7813   4.4523

          k = 0.1000 0.5196 0.0000 ( 12858 PWs)   bands (ev):

   -59.6302 -33.9744 -33.7435 -33.7159 -11.6485 -10.9948  -4.7818  -4.1748
    -3.5243  -2.2660  -1.7677  -0.8006  -0.4827   0.1709   0.2899   0.4592
     0.7197   0.9282   2.9979   3.5682   4.1153   4.8500

          k = 0.2000 0.3464 0.0000 ( 12917 PWs)   bands (ev):

   -59.6383 -33.8828 -33.7597 -33.7128 -12.0394 -11.2680  -4.3506  -3.5826
    -3.2554  -2.4728  -1.4127  -0.9446  -0.2194  -0.1605   0.0722   0.4384
     0.6905   0.7062   1.8150   3.4165   3.7253   4.1414

          k = 0.2000 0.4619 0.0000 ( 12869 PWs)   bands (ev):

   -59.6302 -33.9324 -33.7595 -33.7435 -11.6567 -10.9930  -4.4257  -3.9974
    -3.5955  -2.4648  -1.8847  -1.2268  -0.2821   0.0801   0.1451   0.4800
     0.6869   0.8347   2.6696   3.6508   4.0785   4.4963

          k = 0.2000 0.5774 0.0000 ( 12850 PWs)   bands (ev):

   -59.6271 -33.9497 -33.7788 -33.7374 -11.5072 -10.8671  -4.5134  -4.1905
    -3.6858  -2.2874  -2.2167  -1.3817  -0.3109   0.1793   0.2526   0.4547
     0.6409   1.0193   3.1701   3.8838   4.1747   4.7200

          k = 0.3000 0.5196 0.0000 ( 12860 PWs)   bands (ev):

   -59.6259 -33.9146 -33.8287 -33.7350 -11.4542 -10.8158  -4.4430  -3.9824
    -3.6140  -2.9003  -2.1713  -1.5439  -0.1158   0.0501   0.1819   0.4935
     0.6160   1.0914   2.9722   3.7695   4.2481   5.1876

 ------ SPIN DOWN ----------


          k = 0.0000 0.0000 0.0000 ( 12991 PWs)   bands (ev):

   -59.6857 -33.8494 -33.6171 -33.6171 -13.3197 -11.9863  -5.2011  -2.1322
    -1.5063  -1.5063  -0.4440  -0.4440  -0.2714   0.7600   1.7899   1.7899
     2.0112   2.0112   2.7532   3.8660   3.8660   4.1189

          k = 0.0000 0.1155 0.0000 ( 12953 PWs)   bands (ev):

   -59.6819 -33.8418 -33.6553 -33.6258 -13.1779 -11.9143  -5.0473  -2.2057
    -1.8515  -1.3643  -0.6903  -0.6719  -0.1034   0.7561   1.6877   1.7811
     1.9633   2.0751   2.8595   3.7443   3.7941   3.9230

          k = 0.0000 0.2309 0.0000 ( 12929 PWs)   bands (ev):

   -59.6719 -33.8221 -33.7542 -33.6484 -12.7870 -11.7118  -4.6795  -2.7292
    -2.4252  -1.2259  -0.9866  -0.9269   0.1608   0.5064   1.5173   1.7625
     1.8563   2.2467   2.8611   3.5880   3.6400   3.9082

          k = 0.0000 0.3464 0.0000 ( 12915 PWs)   bands (ev):

   -59.6596 -33.8743 -33.7977 -33.6763 -12.2563 -11.4223  -4.4426  -3.5150
    -2.9356  -1.6905  -1.3082  -0.5014   0.0841   0.7364   1.4011   1.7800
     1.8607   2.4731   2.8690   3.4201   3.8289   4.4930

          k = 0.0000 0.4619 0.0000 ( 12872 PWs)   bands (ev):

   -59.6497 -33.9698 -33.7778 -33.6986 -11.7832 -11.1295  -4.7169  -3.9956
    -3.2973  -2.0244  -1.5700  -0.1960   0.0945   1.0749   1.3185   1.8510
     2.4464   2.6727   3.1316   3.3963   4.1157   4.9928

          k = 0.0000-0.5774 0.0000 ( 12854 PWs)   bands (ev):

   -59.6458 -34.0060 -33.7702 -33.7072 -11.5949 -10.9905  -4.9457  -4.1685
    -3.4140  -2.1418  -1.6731  -0.1029   0.2452   1.1068   1.2813   1.8910
     2.7530   3.0732   3.3429   3.4446   4.1695   5.1335

          k = 0.1000 0.1732 0.0000 ( 12937 PWs)   bands (ev):

   -59.6750 -33.8282 -33.7210 -33.6442 -12.9112 -11.7767  -4.7810  -2.4767
    -2.2899  -1.3105  -1.0969  -0.6930   0.0726   0.6393   1.5486   1.7659
     1.8845   2.1989   2.9001   3.5386   3.6787   3.7516

          k = 0.1000 0.2887 0.0000 ( 12944 PWs)   bands (ev):

   -59.6639 -33.8238 -33.8061 -33.6762 -12.4473 -11.5278  -4.4403  -3.1649
    -2.6889  -1.9892  -0.9712  -0.6849   0.2819   0.5180   1.4158   1.7454
     1.8037   2.4253   2.8120   3.4156   3.7182   4.0747

          k = 0.1000 0.4041 0.0000 ( 12898 PWs)   bands (ev):

   -59.6527 -33.9245 -33.7840 -33.7083 -11.9367 -11.2266  -4.4540  -3.7401
    -3.2159  -2.2297  -1.2531  -0.7122   0.1935   1.0774   1.3640   1.8026
     1.9172   2.7204   2.8722   3.5492   3.9665   4.6170

          k = 0.1000 0.5196 0.0000 ( 12858 PWs)   bands (ev):

   -59.6458 -33.9860 -33.7702 -33.7281 -11.6000 -10.9896  -4.7540  -4.1057
    -3.4490  -2.2383  -1.5961  -0.7156   0.4151   1.2004   1.3442   1.8341
     2.3842   2.9834   3.3164   3.6662   4.2432   4.9227

          k = 0.2000 0.3464 0.0000 ( 12917 PWs)   bands (ev):

   -59.6539 -33.8946 -33.7863 -33.7249 -11.9962 -11.2599  -4.3002  -3.4576
    -3.2442  -2.4487  -1.3417  -0.7389   0.2058   1.1090   1.3753   1.6637
     1.7968   2.6813   2.8322   3.6089   3.8378   4.3824

          k = 0.2000 0.4619 0.0000 ( 12869 PWs)   bands (ev):

   -59.6458 -33.9440 -33.7716 -33.7703 -11.6085 -10.9877  -4.3930  -3.9572
    -3.4686  -2.4252  -1.8297  -1.1055   0.4181   1.4223   1.4588   1.7493
     1.8748   2.7884   3.2796   3.7863   4.1648   4.7720

          k = 0.2000 0.5774 0.0000 ( 12850 PWs)   bands (ev):

   -59.6428 -33.9613 -33.7909 -33.7641 -11.4572 -10.8623  -4.4816  -4.1645
    -3.5555  -2.2303  -2.1364  -1.3127   0.6249   1.4401   1.4580   1.7330
     2.1065   2.9073   3.2895   4.1355   4.3398   4.9358

          k = 0.3000 0.5196 0.0000 ( 12860 PWs)   bands (ev):

   -59.6416 -33.9263 -33.8407 -33.7618 -11.4037 -10.8110  -4.4207  -3.9549
    -3.4420  -2.8608  -2.1426  -1.4547   0.7123   1.5486   1.6585   1.6879
     1.8537   2.8173   3.1129   4.0328   4.4333   5.4887

     the Fermi energy is     1.9991 ev

!    total energy              =    -658.57889041 Ry
     total all-electron energy =    -12481.752781 Ry
     estimated scf accuracy    <          8.0E-09 Ry
     smearing contrib. (-TS)   =      -0.00685777 Ry
     internal energy E=F+TS    =    -658.57203264 Ry

     The total energy is F=E-TS. E is the sum of the following terms:
     one-electron contribution =   -1195.97380476 Ry
     hartree contribution      =     611.72670087 Ry
     xc contribution           =     -62.28695780 Ry
     ewald contribution        =     394.12011499 Ry
     one-center paw contrib.   =    -406.15808594 Ry

     total magnetization       =     1.95 Bohr mag/cell
     absolute magnetization    =     2.15 Bohr mag/cell

     convergence has been achieved in  10 iterations

     negative rho (up, down):  2.093E-04 2.190E-04

     Forces acting on atoms (cartesian axes, Ry/au):

     atom    1 type  1   force =     0.00000000    0.00000000    0.00062988
     atom    2 type  2   force =     0.00000000    0.00000000    0.00312340
     atom    3 type  2   force =     0.00000000    0.00000000   -0.00261840
     atom    4 type  3   force =     0.00000000    0.00000000   -0.00113487
     The non-local contrib.  to forces
     atom    1 type  1   force =     0.00000000    0.00000000   -0.00848357
     atom    2 type  2   force =     0.00000000   -0.00000000   -0.11672951
     atom    3 type  2   force =     0.00000000    0.00000000    0.26820621
     atom    4 type  3   force =     0.00000000    0.00000000    0.12302956
     The ionic contribution  to forces
     atom    1 type  1   force =     0.00000000   -0.00000000  -29.99134063
     atom    2 type  2   force =    -0.00000000    0.00000000   17.63746615
     atom    3 type  2   force =    -0.00000000    0.00000000  -44.32334361
     atom    4 type  3   force =    -0.00000000    0.00000000   56.67721808
     The local contribution  to forces
     atom    1 type  1   force =     0.00000000    0.00000000   29.99901047
     atom    2 type  2   force =    -0.00000000    0.00000000  -17.51861425
     atom    3 type  2   force =    -0.00000000    0.00000000   44.05465024
     atom    4 type  3   force =    -0.00000000    0.00000000  -56.79447664
     The core correction contribution to forces
     atom    1 type  1   force =    -0.00000000   -0.00000000    0.00100479
     atom    2 type  2   force =     0.00000000   -0.00000000    0.00084608
     atom    3 type  2   force =     0.00000000   -0.00000000   -0.00218132
     atom    4 type  3   force =    -0.00000000    0.00000000   -0.00699849
     The Hubbard contrib.    to forces
     atom    1 type  1   force =     0.00000000    0.00000000    0.00000000
     atom    2 type  2   force =     0.00000000    0.00000000    0.00000000
     atom    3 type  2   force =     0.00000000    0.00000000    0.00000000
     atom    4 type  3   force =     0.00000000    0.00000000    0.00000000
     The SCF correction term to forces
     atom    1 type  1   force =     0.00000000    0.00000000    0.00042686
     atom    2 type  2   force =    -0.00000000   -0.00000000    0.00014298
     atom    3 type  2   force =    -0.00000000   -0.00000000    0.00003813
     atom    4 type  3   force =    -0.00000000   -0.00000000    0.00008067

     Total force =     0.004277     Total SCF correction =     0.000459
     SCF correction compared to forces is large: reduce conv_thr to get better values


     Computing stress (Cartesian axis) and pressure


     negative rho (up, down):  2.093E-04 2.190E-04
          total   stress  (Ry/bohr**3)                   (kbar)     P=      -13.34
  -0.00013863   0.00000000   0.00000000          -20.39        0.00        0.00
   0.00000000  -0.00013863   0.00000000            0.00      -20.39        0.00
   0.00000000  -0.00000000   0.00000525            0.00       -0.00        0.77

     Energy error            =      1.2E-04 Ry
     Gradient error          =      3.1E-03 Ry/Bohr

     number of scf cycles    =   6
     number of bfgs steps    =   5

     energy             old  =    -658.5787700505 Ry
     energy             new  =    -658.5788904145 Ry

     CASE: energy            _new < energy            _old

     new trust radius        =       0.0055668784 bohr
     new conv_thr            =       0.0000000120 Ry


ATOMIC_POSITIONS (crystal)
Mo            0.0000000000        0.0000000000        0.4976188219
S             0.6666666667        0.3333333333        0.5848634593
S             0.6666666667        0.3333333333        0.4115328443
Co            0.6666666667        0.3333333333        0.7036209383



     Writing config-only to output data dir ./tmp/relax.save/
     NEW-OLD atomic charge density approx. for the potential

     negative rho (up, down):  2.092E-04 2.151E-04
     Generating pointlists ...

     total cpu time spent up to now is      135.1 secs

     Self-consistent Calculation

     iteration #  1     ecut=    80.00 Ry     beta= 0.70
     Davidson diagonalization with overlap
     ethr =  1.00E-06,  avg # of iterations =  3.3

     Threshold (ethr) on eigenvalues was too large:
     Diagonalizing with lowered threshold

     Davidson diagonalization with overlap
     ethr =  1.00E-08,  avg # of iterations =  4.4

     negative rho (up, down):  2.086E-04 2.183E-04

     total cpu time spent up to now is      138.3 secs

     total energy              =    -658.57890539 Ry
     estimated scf accuracy    <       0.00000462 Ry

     total magnetization       =     1.95 Bohr mag/cell
     absolute magnetization    =     2.14 Bohr mag/cell

     iteration #  2     ecut=    80.00 Ry     beta= 0.70
     Davidson diagonalization with overlap
     ethr =  1.32E-08,  avg # of iterations =  5.1

     negative rho (up, down):  2.086E-04 2.183E-04

     total cpu time spent up to now is      140.1 secs

     total energy              =    -658.57888837 Ry
     estimated scf accuracy    <       0.00033625 Ry

     total magnetization       =     1.96 Bohr mag/cell
     absolute magnetization    =     2.15 Bohr mag/cell

     iteration #  3     ecut=    80.00 Ry     beta= 0.70
     Davidson diagonalization with overlap
     ethr =  1.32E-08,  avg # of iterations =  5.2

     negative rho (up, down):  2.088E-04 2.185E-04

     total cpu time spent up to now is      141.9 secs

     total energy              =    -658.57890623 Ry
     estimated scf accuracy    <       0.00002050 Ry

     total magnetization       =     1.95 Bohr mag/cell
     absolute magnetization    =     2.14 Bohr mag/cell

     iteration #  4     ecut=    80.00 Ry     beta= 0.70
     Davidson diagonalization with overlap
     ethr =  1.32E-08,  avg # of iterations =  2.4

     negative rho (up, down):  2.089E-04 2.187E-04

     total cpu time spent up to now is      143.5 secs

     total energy              =    -658.57890778 Ry
     estimated scf accuracy    <       0.00000104 Ry

     total magnetization       =     1.95 Bohr mag/cell
     absolute magnetization    =     2.14 Bohr mag/cell

     iteration #  5     ecut=    80.00 Ry     beta= 0.70
     Davidson diagonalization with overlap
     ethr =  2.96E-09,  avg # of iterations =  2.8

     negative rho (up, down):  2.091E-04 2.188E-04

     total cpu time spent up to now is      145.0 secs

     total energy              =    -658.57890790 Ry
     estimated scf accuracy    <       0.00000102 Ry

     total magnetization       =     1.95 Bohr mag/cell
     absolute magnetization    =     2.14 Bohr mag/cell

     iteration #  6     ecut=    80.00 Ry     beta= 0.70
     Davidson diagonalization with overlap
     ethr =  2.91E-09,  avg # of iterations =  1.9

     negative rho (up, down):  2.091E-04 2.189E-04

     total cpu time spent up to now is      146.5 secs

     total energy              =    -658.57890802 Ry
     estimated scf accuracy    <       0.00000011 Ry

     total magnetization       =     1.95 Bohr mag/cell
     absolute magnetization    =     2.14 Bohr mag/cell

     iteration #  7     ecut=    80.00 Ry     beta= 0.70
     Davidson diagonalization with overlap
     ethr =  3.26E-10,  avg # of iterations =  2.4

     negative rho (up, down):  2.091E-04 2.189E-04

     total cpu time spent up to now is      148.0 secs

     total energy              =    -658.57890804 Ry
     estimated scf accuracy    <       0.00000002 Ry

     total magnetization       =     1.95 Bohr mag/cell
     absolute magnetization    =     2.14 Bohr mag/cell

     iteration #  8     ecut=    80.00 Ry     beta= 0.70
     Davidson diagonalization with overlap
     ethr =  6.36E-11,  avg # of iterations =  4.2

     negative rho (up, down):  2.091E-04 2.189E-04
 
     Magnetic moment per site  (integrated on atomic sphere of radius R)
     atom   1 (R=0.313)  charge= 10.7349  magn= -0.0180
     atom   2 (R=0.260)  charge=  2.9142  magn=  0.0234
     atom   3 (R=0.260)  charge=  2.8892  magn=  0.0028
     atom   4 (R=0.260)  charge=  6.5008  magn=  1.7822

     total cpu time spent up to now is      149.6 secs

     End of self-consistent calculation

 ------ SPIN UP ------------


          k = 0.0000 0.0000 0.0000 ( 12991 PWs)   bands (ev):

   -59.6679 -33.8199 -33.6014 -33.6014 -13.3423 -11.9977  -5.2359  -2.1894
    -1.5089  -1.5089  -1.3394  -0.4718  -0.4718  -0.0072  -0.0072   0.4596
     0.6632   0.6632   1.5670   3.7475   3.7475   4.0889

          k = 0.0000 0.1155 0.0000 ( 12953 PWs)   bands (ev):

   -59.6642 -33.8124 -33.6396 -33.6100 -13.2015 -11.9249  -5.0861  -2.2513
    -1.8706  -1.3737  -1.2412  -0.7205  -0.6874  -0.0345   0.0450   0.5616
     0.6286   0.6477   1.5833   3.5732   3.7807   3.7875

          k = 0.0000 0.2309 0.0000 ( 12929 PWs)   bands (ev):

   -59.6542 -33.7927 -33.7384 -33.6327 -12.8139 -11.7197  -4.7299  -2.7728
    -2.4375  -1.2628  -1.2043  -0.9164  -0.8410  -0.0603   0.1836   0.3977
     0.5544   0.6312   1.5192   3.3623   3.5364   3.7980

          k = 0.0000 0.3464 0.0000 ( 12915 PWs)   bands (ev):

   -59.6419 -33.8586 -33.7682 -33.6605 -12.2891 -11.4251  -4.4894  -3.5880
    -2.9486  -1.7062  -1.4887  -0.5965  -0.5446   0.0311   0.1876   0.3635
     0.4058   0.6669   1.6845   3.3436   3.5619   4.3404

          k = 0.0000 0.4619 0.0000 ( 12872 PWs)   bands (ev):

   -59.6319 -33.9542 -33.7483 -33.6829 -11.8230 -11.1264  -4.7367  -4.0800
    -3.3406  -2.0351  -1.7335  -0.5985  -0.3064   0.0418   0.2239   0.5158
     0.6954   0.7661   2.4531   3.3687   3.9534   4.8225

          k = 0.0000-0.5774 0.0000 ( 12854 PWs)   bands (ev):

   -59.6281 -33.9903 -33.7407 -33.6914 -11.6373 -10.9853  -4.9642  -4.2395
    -3.4683  -2.1513  -1.8437  -0.6197  -0.2459   0.1229   0.1962   0.5757
     0.8193   0.9509   3.2032   3.4421   4.1070   4.8814

          k = 0.1000 0.1732 0.0000 ( 12937 PWs)   bands (ev):

   -59.6573 -33.7988 -33.7053 -33.6285 -12.9369 -11.7855  -4.8282  -2.5163
    -2.3105  -1.3654  -1.1404  -0.9919  -0.7695  -0.0873   0.1582   0.4795
     0.5925   0.6718   1.5490   3.3628   3.6027   3.6150

          k = 0.1000 0.2887 0.0000 ( 12944 PWs)   bands (ev):

   -59.6462 -33.8081 -33.7767 -33.6604 -12.4778 -11.5327  -4.4963  -3.2262
    -2.6995  -2.0146  -1.1497  -0.7981  -0.5346  -0.0894   0.2149   0.3598
     0.4929   0.6628   1.5428   3.2250   3.5702   3.8863

          k = 0.1000 0.4041 0.0000 ( 12898 PWs)   bands (ev):

   -59.6350 -33.9089 -33.7545 -33.6925 -11.9741 -11.2256  -4.4833  -3.8325
    -3.2484  -2.2488  -1.4226  -0.7751  -0.4651   0.0579   0.1901   0.3768
     0.6533   0.7279   2.0025   3.4162   3.7805   4.4501

          k = 0.1000 0.5196 0.0000 ( 12858 PWs)   bands (ev):

   -59.6281 -33.9704 -33.7408 -33.7123 -11.6422 -10.9846  -4.7738  -4.1695
    -3.5175  -2.2564  -1.7667  -0.7961  -0.4831   0.1706   0.2895   0.4581
     0.7200   0.9317   2.9970   3.5722   4.1162   4.8446

          k = 0.2000 0.3464 0.0000 ( 12917 PWs)   bands (ev):

   -59.6362 -33.8789 -33.7569 -33.7092 -12.0327 -11.2599  -4.3403  -3.5788
    -3.2440  -2.4666  -1.4067  -0.9408  -0.2205  -0.1617   0.0731   0.4382
     0.6930   0.7057   1.8137   3.4144   3.7265   4.1403

          k = 0.2000 0.4619 0.0000 ( 12869 PWs)   bands (ev):

   -59.6281 -33.9283 -33.7559 -33.7408 -11.6505 -10.9831  -4.4169  -3.9879
    -3.5908  -2.4601  -1.8783  -1.2256  -0.2833   0.0799   0.1438   0.4797
     0.6868   0.8393   2.6680   3.6540   4.0775   4.4928

          k = 0.2000 0.5774 0.0000 ( 12850 PWs)   bands (ev):

   -59.6250 -33.9456 -33.7752 -33.7346 -11.5010 -10.8565  -4.5066  -4.1804
    -3.6804  -2.2843  -2.2103  -1.3801  -0.3121   0.1783   0.2510   0.4539
     0.6409   1.0247   3.1757   3.8804   4.1720   4.7180

          k = 0.3000 0.5196 0.0000 ( 12860 PWs)   bands (ev):

   -59.6238 -33.9106 -33.8250 -33.7323 -11.4480 -10.8050  -4.4322  -3.9742
    -3.6112  -2.8935  -2.1679  -1.5434  -0.1171   0.0488   0.1804   0.4922
     0.6161   1.0971   2.9799   3.7649   4.2437   5.1848

 ------ SPIN DOWN ----------


          k = 0.0000 0.0000 0.0000 ( 12991 PWs)   bands (ev):

   -59.6836 -33.8466 -33.6137 -33.6137 -13.3108 -11.9834  -5.1940  -2.1328
    -1.4885  -1.4885  -0.4300  -0.4300  -0.2748   0.7533   1.7862   1.7862
     2.0087   2.0087   2.7501   3.8681   3.8681   4.1143

          k = 0.0000 0.1155 0.0000 ( 12953 PWs)   bands (ev):

   -59.6798 -33.8391 -33.6518 -33.6224 -13.1692 -11.9109  -5.0401  -2.2037
    -1.8354  -1.3472  -0.6807  -0.6575  -0.1059   0.7511   1.6843   1.7774
     1.9608   2.0726   2.8567   3.7458   3.7894   3.9207

          k = 0.0000 0.2309 0.0000 ( 12929 PWs)   bands (ev):

   -59.6699 -33.8194 -33.7505 -33.6450 -12.7788 -11.7071  -4.6717  -2.7177
    -2.4174  -1.2133  -0.9831  -0.9091   0.1581   0.5045   1.5141   1.7590
     1.8537   2.2442   2.8583   3.5831   3.6381   3.9085

          k = 0.0000 0.3464 0.0000 ( 12915 PWs)   bands (ev):

   -59.6576 -33.8704 -33.7950 -33.6728 -12.2489 -11.4154  -4.4322  -3.5086
    -2.9277  -1.6769  -1.3085  -0.4871   0.0854   0.7342   1.3983   1.7774
     1.8583   2.4706   2.8665   3.4207   3.8246   4.4918

          k = 0.0000 0.4619 0.0000 ( 12872 PWs)   bands (ev):

   -59.6476 -33.9658 -33.7752 -33.6951 -11.7765 -11.1202  -4.7069  -3.9913
    -3.2908  -2.0105  -1.5712  -0.1855   0.0965   1.0723   1.3158   1.8495
     2.4441   2.6703   3.1301   3.4000   4.1141   4.9909

          k = 0.0000-0.5774 0.0000 ( 12854 PWs)   bands (ev):

   -59.6438 -34.0018 -33.7676 -33.7036 -11.5883 -10.9802  -4.9377  -4.1638
    -3.4074  -2.1278  -1.6745  -0.0941   0.2465   1.1042   1.2786   1.8896
     2.7505   3.0707   3.3407   3.4501   4.1715   5.1313

          k = 0.1000 0.1732 0.0000 ( 12937 PWs)   bands (ev):

   -59.6730 -33.8255 -33.7174 -33.6408 -12.9028 -11.7724  -4.7735  -2.4650
    -2.2826  -1.2983  -1.0806  -0.6854   0.0698   0.6367   1.5453   1.7625
     1.8819   2.1964   2.8974   3.5341   3.6788   3.7500

          k = 0.1000 0.2887 0.0000 ( 12944 PWs)   bands (ev):

   -59.6619 -33.8200 -33.8035 -33.6727 -12.4396 -11.5218  -4.4314  -3.1553
    -2.6810  -1.9789  -0.9644  -0.6746   0.2831   0.5158   1.4127   1.7431
     1.8009   2.4228   2.8087   3.4146   3.7151   4.0745

          k = 0.1000 0.4041 0.0000 ( 12898 PWs)   bands (ev):

   -59.6507 -33.9206 -33.7814 -33.7047 -11.9298 -11.2182  -4.4428  -3.7354
    -3.2079  -2.2204  -1.2509  -0.7043   0.1983   1.0753   1.3616   1.8006
     1.9149   2.7178   2.8694   3.5519   3.9636   4.6154

          k = 0.1000 0.5196 0.0000 ( 12858 PWs)   bands (ev):

   -59.6438 -33.9819 -33.7677 -33.7245 -11.5935 -10.9795  -4.7458  -4.0996
    -3.4419  -2.2283  -1.5959  -0.7096   0.4193   1.1980   1.3419   1.8325
     2.3818   2.9819   3.3151   3.6697   4.2434   4.9178

          k = 0.2000 0.3464 0.0000 ( 12917 PWs)   bands (ev):

   -59.6519 -33.8906 -33.7837 -33.7214 -11.9893 -11.2519  -4.2892  -3.4532
    -3.2328  -2.4423  -1.3343  -0.7366   0.2111   1.1074   1.3727   1.6615
     1.7945   2.6777   2.8292   3.6106   3.8361   4.3813

          k = 0.2000 0.4619 0.0000 ( 12869 PWs)   bands (ev):

   -59.6438 -33.9400 -33.7679 -33.7677 -11.6020 -10.9777  -4.3839  -3.9464
    -3.4640  -2.4201  -1.8229  -1.1053   0.4235   1.4206   1.4568   1.7473
     1.8726   2.7856   3.2775   3.7905   4.1619   4.7691

          k = 0.2000 0.5774 0.0000 ( 12850 PWs)   bands (ev):

   -59.6407 -33.9572 -33.7872 -33.7616 -11.4508 -10.8516  -4.4745  -4.1538
    -3.5495  -2.2256  -2.1312  -1.3120   0.6288   1.4380   1.4562   1.7313
     2.1043   2.9059   3.2943   4.1317   4.3366   4.9340

          k = 0.3000 0.5196 0.0000 ( 12860 PWs)   bands (ev):

   -59.6396 -33.9222 -33.8370 -33.7592 -11.3974 -10.8002  -4.4096  -3.9464
    -3.4381  -2.8538  -2.1393  -1.4549   0.7156   1.5472   1.6562   1.6866
     1.8518   2.8178   3.1172   4.0271   4.4297   5.4850

     the Fermi energy is     1.9970 ev

!    total energy              =    -658.57890804 Ry
     total all-electron energy =    -12481.752799 Ry
     estimated scf accuracy    <          1.9E-09 Ry
     smearing contrib. (-TS)   =      -0.00685603 Ry
     internal energy E=F+TS    =    -658.57205201 Ry

     The total energy is F=E-TS. E is the sum of the following terms:
     one-electron contribution =   -1195.23575758 Ry
     hartree contribution      =     611.35998124 Ry
     xc contribution           =     -62.28371689 Ry
     ewald contribution        =     393.74516898 Ry
     one-center paw contrib.   =    -406.15772776 Ry

     total magnetization       =     1.95 Bohr mag/cell
     absolute magnetization    =     2.14 Bohr mag/cell

     convergence has been achieved in   8 iterations

     negative rho (up, down):  2.091E-04 2.189E-04

     Forces acting on atoms (cartesian axes, Ry/au):

     atom    1 type  1   force =     0.00000000    0.00000000    0.00014926
     atom    2 type  2   force =     0.00000000    0.00000000    0.00115252
     atom    3 type  2   force =     0.00000000    0.00000000   -0.00055671
     atom    4 type  3   force =     0.00000000    0.00000000   -0.00074507
     The non-local contrib.  to forces
     atom    1 type  1   force =     0.00000000   -0.00000000   -0.00835456
     atom    2 type  2   force =     0.00000000   -0.00000000   -0.11748604
     atom    3 type  2   force =     0.00000000    0.00000000    0.26909554
     atom    4 type  3   force =     0.00000000    0.00000000    0.12349709
     The ionic contribution  to forces
     atom    1 type  1   force =     0.00000000   -0.00000000  -29.98740502
     atom    2 type  2   force =    -0.00000000    0.00000000   17.62238464
     atom    3 type  2   force =    -0.00000000    0.00000000  -44.31040943
     atom    4 type  3   force =    -0.00000000   -0.00000000   56.67542982
     The local contribution  to forces
     atom    1 type  1   force =     0.00000000    0.00000000   29.99486394
     atom    2 type  2   force =    -0.00000000    0.00000000  -17.50457877
     atom    3 type  2   force =    -0.00000000    0.00000000   44.04289508
     atom    4 type  3   force =    -0.00000000    0.00000000  -56.79259213
     The core correction contribution to forces
     atom    1 type  1   force =    -0.00000000    0.00000000    0.00100019
     atom    2 type  2   force =     0.00000000   -0.00000000    0.00089504
     atom    3 type  2   force =     0.00000000   -0.00000000   -0.00222425
     atom    4 type  3   force =    -0.00000000    0.00000000   -0.00706916
     The Hubbard contrib.    to forces
     atom    1 type  1   force =     0.00000000    0.00000000    0.00000000
     atom    2 type  2   force =     0.00000000    0.00000000    0.00000000
     atom    3 type  2   force =     0.00000000    0.00000000    0.00000000
     atom    4 type  3   force =     0.00000000    0.00000000    0.00000000
     The SCF correction term to forces
     atom    1 type  1   force =    -0.00000000   -0.00000000    0.00004524
     atom    2 type  2   force =    -0.00000000   -0.00000000   -0.00006183
     atom    3 type  2   force =    -0.00000000   -0.00000000    0.00008688
     atom    4 type  3   force =     0.00000000   -0.00000000   -0.00001017

     Total force =     0.001488     Total SCF correction =     0.000116


     Computing stress (Cartesian axis) and pressure


     negative rho (up, down):  2.091E-04 2.189E-04
          total   stress  (Ry/bohr**3)                   (kbar)     P=      -13.92
  -0.00014089   0.00000000   0.00000000          -20.73        0.00        0.00
   0.00000000  -0.00014089   0.00000000            0.00      -20.73        0.00
   0.00000000  -0.00000000  -0.00000213            0.00       -0.00       -0.31

     Energy error            =      1.8E-05 Ry
     Gradient error          =      1.2E-03 Ry/Bohr

     number of scf cycles    =   7
     number of bfgs steps    =   6

     energy             old  =    -658.5788904145 Ry
     energy             new  =    -658.5789080428 Ry

     CASE: energy            _new < energy            _old

     new trust radius        =       0.0026580646 bohr
     new conv_thr            =       0.0000000100 Ry


ATOMIC_POSITIONS (crystal)
Mo            0.0000000000        0.0000000000        0.4976489196
S             0.6666666667        0.3333333333        0.5849314969
S             0.6666666667        0.3333333333        0.4115120365
Co            0.6666666667        0.3333333333        0.7035436108



     Writing config-only to output data dir ./tmp/relax.save/
     NEW-OLD atomic charge density approx. for the potential

     negative rho (up, down):  2.099E-04 2.155E-04
     Generating pointlists ...

     total cpu time spent up to now is      153.3 secs

     Self-consistent Calculation

     iteration #  1     ecut=    80.00 Ry     beta= 0.70
     Davidson diagonalization with overlap
     ethr =  1.00E-06,  avg # of iterations =  3.0

     Threshold (ethr) on eigenvalues was too large:
     Diagonalizing with lowered threshold

     Davidson diagonalization with overlap
     ethr =  1.90E-08,  avg # of iterations =  4.0

     negative rho (up, down):  2.088E-04 2.186E-04

     total cpu time spent up to now is      156.3 secs

     total energy              =    -658.57890764 Ry
     estimated scf accuracy    <       0.00000661 Ry

     total magnetization       =     1.95 Bohr mag/cell
     absolute magnetization    =     2.14 Bohr mag/cell

     iteration #  2     ecut=    80.00 Ry     beta= 0.70
     Davidson diagonalization with overlap
     ethr =  1.89E-08,  avg # of iterations =  5.2

     negative rho (up, down):  2.089E-04 2.186E-04

     total cpu time spent up to now is      158.0 secs

     total energy              =    -658.57888816 Ry
     estimated scf accuracy    <       0.00040584 Ry

     total magnetization       =     1.94 Bohr mag/cell
     absolute magnetization    =     2.13 Bohr mag/cell

     iteration #  3     ecut=    80.00 Ry     beta= 0.70
     Davidson diagonalization with overlap
     ethr =  1.89E-08,  avg # of iterations =  4.9

     negative rho (up, down):  2.089E-04 2.187E-04

     total cpu time spent up to now is      159.7 secs

     total energy              =    -658.57890831 Ry
     estimated scf accuracy    <       0.00001909 Ry

     total magnetization       =     1.95 Bohr mag/cell
     absolute magnetization    =     2.14 Bohr mag/cell

     iteration #  4     ecut=    80.00 Ry     beta= 0.70
     Davidson diagonalization with overlap
     ethr =  1.89E-08,  avg # of iterations =  3.0

     negative rho (up, down):  2.090E-04 2.188E-04

     total cpu time spent up to now is      161.3 secs

     total energy              =    -658.57891010 Ry
     estimated scf accuracy    <       0.00000417 Ry

     total magnetization       =     1.95 Bohr mag/cell
     absolute magnetization    =     2.14 Bohr mag/cell

     iteration #  5     ecut=    80.00 Ry     beta= 0.70
     Davidson diagonalization with overlap
     ethr =  1.19E-08,  avg # of iterations =  2.6

     negative rho (up, down):  2.091E-04 2.190E-04

     total cpu time spent up to now is      162.8 secs

     total energy              =    -658.57891064 Ry
     estimated scf accuracy    <       0.00000178 Ry

     total magnetization       =     1.95 Bohr mag/cell
     absolute magnetization    =     2.14 Bohr mag/cell

     iteration #  6     ecut=    80.00 Ry     beta= 0.70
     Davidson diagonalization with overlap
     ethr =  5.07E-09,  avg # of iterations =  1.5

     negative rho (up, down):  2.092E-04 2.191E-04

     total cpu time spent up to now is      164.3 secs

     total energy              =    -658.57891084 Ry
     estimated scf accuracy    <       0.00000009 Ry

     total magnetization       =     1.95 Bohr mag/cell
     absolute magnetization    =     2.14 Bohr mag/cell

     iteration #  7     ecut=    80.00 Ry     beta= 0.70
     Davidson diagonalization with overlap
     ethr =  2.54E-10,  avg # of iterations =  4.5

     negative rho (up, down):  2.092E-04 2.191E-04

     total cpu time spent up to now is      166.0 secs

     total energy              =    -658.57891087 Ry
     estimated scf accuracy    <       0.00000003 Ry

     total magnetization       =     1.95 Bohr mag/cell
     absolute magnetization    =     2.14 Bohr mag/cell

     iteration #  8     ecut=    80.00 Ry     beta= 0.70
     Davidson diagonalization with overlap
     ethr =  8.32E-11,  avg # of iterations =  2.0

     negative rho (up, down):  2.092E-04 2.191E-04

     total cpu time spent up to now is      167.5 secs

     total energy              =    -658.57891087 Ry
     estimated scf accuracy    <       0.00000001 Ry

     total magnetization       =     1.95 Bohr mag/cell
     absolute magnetization    =     2.14 Bohr mag/cell

     iteration #  9     ecut=    80.00 Ry     beta= 0.70
     Davidson diagonalization with overlap
     ethr =  3.79E-11,  avg # of iterations =  2.1

     negative rho (up, down):  2.092E-04 2.191E-04
 
     Magnetic moment per site  (integrated on atomic sphere of radius R)
     atom   1 (R=0.313)  charge= 10.7344  magn= -0.0182
     atom   2 (R=0.260)  charge=  2.9144  magn=  0.0234
     atom   3 (R=0.260)  charge=  2.8889  magn=  0.0028
     atom   4 (R=0.260)  charge=  6.5013  magn=  1.7799

     total cpu time spent up to now is      168.9 secs

     End of self-consistent calculation

 ------ SPIN UP ------------


          k = 0.0000 0.0000 0.0000 ( 12991 PWs)   bands (ev):

   -59.6659 -33.8177 -33.5990 -33.5990 -13.3403 -11.9967  -5.2349  -2.1892
    -1.5032  -1.5032  -1.3413  -0.4679  -0.4679  -0.0071  -0.0071   0.4593
     0.6628   0.6628   1.5687   3.7489   3.7489   4.0886

          k = 0.0000 0.1155 0.0000 ( 12953 PWs)   bands (ev):

   -59.6622 -33.8102 -33.6372 -33.6077 -13.1996 -11.9236  -5.0853  -2.2505
    -1.8660  -1.3685  -1.2424  -0.7178  -0.6830  -0.0344   0.0451   0.5614
     0.6285   0.6471   1.5854   3.5745   3.7808   3.7880

          k = 0.0000 0.2309 0.0000 ( 12929 PWs)   bands (ev):

   -59.6522 -33.7905 -33.7360 -33.6303 -12.8124 -11.7179  -4.7291  -2.7698
    -2.4350  -1.2599  -1.2050  -0.9101  -0.8405  -0.0601   0.1837   0.3978
     0.5546   0.6306   1.5221   3.3624   3.5370   3.7992

          k = 0.0000 0.3464 0.0000 ( 12915 PWs)   bands (ev):

   -59.6399 -33.8561 -33.7660 -33.6581 -12.2881 -11.4224  -4.4877  -3.5875
    -2.9458  -1.7023  -1.4896  -0.5966  -0.5408   0.0322   0.1879   0.3637
     0.4067   0.6674   1.6872   3.3449   3.5625   4.3412

          k = 0.0000 0.4619 0.0000 ( 12872 PWs)   bands (ev):

   -59.6299 -33.9516 -33.7462 -33.6805 -11.8224 -11.1227  -4.7343  -4.0809
    -3.3387  -2.0310  -1.7343  -0.5988  -0.3051   0.0430   0.2242   0.5160
     0.6980   0.7680   2.4542   3.3711   3.9548   4.8232

          k = 0.0000-0.5774 0.0000 ( 12854 PWs)   bands (ev):

   -59.6261 -33.9878 -33.7386 -33.6890 -11.6368 -10.9812  -4.9624  -4.2399
    -3.4667  -2.1471  -1.8447  -0.6200  -0.2455   0.1240   0.1963   0.5760
     0.8216   0.9545   3.2023   3.4450   4.1086   4.8831

          k = 0.1000 0.1732 0.0000 ( 12937 PWs)   bands (ev):

   -59.6553 -33.7966 -33.7029 -33.6261 -12.9353 -11.7838  -4.8274  -2.5129
    -2.3084  -1.3627  -1.1375  -0.9905  -0.7668  -0.0872   0.1583   0.4794
     0.5921   0.6719   1.5518   3.3631   3.6033   3.6160

          k = 0.1000 0.2887 0.0000 ( 12944 PWs)   bands (ev):

   -59.6442 -33.8056 -33.7745 -33.6580 -12.4766 -11.5303  -4.4953  -3.2242
    -2.6969  -2.0115  -1.1501  -0.7944  -0.5339  -0.0892   0.2151   0.3599
     0.4941   0.6632   1.5454   3.2257   3.5708   3.8878

          k = 0.1000 0.4041 0.0000 ( 12898 PWs)   bands (ev):

   -59.6330 -33.9064 -33.7523 -33.6901 -11.9733 -11.2223  -4.4809  -3.8333
    -3.2458  -2.2460  -1.4230  -0.7728  -0.4649   0.0584   0.1902   0.3778
     0.6549   0.7298   2.0039   3.4179   3.7818   4.4510

          k = 0.1000 0.5196 0.0000 ( 12858 PWs)   bands (ev):

   -59.6261 -33.9678 -33.7386 -33.7099 -11.6418 -10.9806  -4.7719  -4.1693
    -3.5160  -2.2534  -1.7675  -0.7951  -0.4828   0.1707   0.2902   0.4584
     0.7220   0.9351   2.9973   3.5745   4.1178   4.8440

          k = 0.2000 0.3464 0.0000 ( 12917 PWs)   bands (ev):

   -59.6342 -33.8764 -33.7547 -33.7068 -12.0318 -11.2567  -4.3383  -3.5797
    -3.2401  -2.4647  -1.4056  -0.9397  -0.2203  -0.1616   0.0731   0.4391
     0.6958   0.7070   1.8147   3.4154   3.7282   4.1417

          k = 0.2000 0.4619 0.0000 ( 12869 PWs)   bands (ev):

   -59.6261 -33.9258 -33.7534 -33.7386 -11.6500 -10.9792  -4.4150  -3.9856
    -3.5909  -2.4591  -1.8765  -1.2252  -0.2832   0.0800   0.1435   0.4806
     0.6891   0.8426   2.6681   3.6563   4.0784   4.4937

          k = 0.2000 0.5774 0.0000 ( 12850 PWs)   bands (ev):

   -59.6230 -33.9431 -33.7727 -33.7325 -11.5006 -10.8523  -4.5054  -4.1773
    -3.6808  -2.2848  -2.2080  -1.3794  -0.3120   0.1779   0.2510   0.4549
     0.6435   1.0281   3.1784   3.8798   4.1724   4.7182

          k = 0.3000 0.5196 0.0000 ( 12860 PWs)   bands (ev):

   -59.6218 -33.9081 -33.8226 -33.7301 -11.4476 -10.8008  -4.4292  -3.9720
    -3.6131  -2.8919  -2.1668  -1.5430  -0.1170   0.0488   0.1796   0.4930
     0.6193   1.1004   2.9833   3.7639   4.2436   5.1852

 ------ SPIN DOWN ----------


          k = 0.0000 0.0000 0.0000 ( 12991 PWs)   bands (ev):

   -59.6818 -33.8446 -33.6116 -33.6116 -13.3086 -11.9823  -5.1928  -2.1327
    -1.4827  -1.4827  -0.4255  -0.4255  -0.2768   0.7512   1.7820   1.7820
     2.0067   2.0067   2.7482   3.8701   3.8701   4.1141

          k = 0.0000 0.1155 0.0000 ( 12953 PWs)   bands (ev):

   -59.6780 -33.8371 -33.6496 -33.6202 -13.1671 -11.9096  -5.0389  -2.2029
    -1.8302  -1.3417  -0.6774  -0.6528  -0.1082   0.7498   1.6806   1.7732
     1.9588   2.0707   2.8550   3.7479   3.7891   3.9216

          k = 0.0000 0.2309 0.0000 ( 12929 PWs)   bands (ev):

   -59.6681 -33.8175 -33.7483 -33.6428 -12.7771 -11.7053  -4.6706  -2.7144
    -2.4147  -1.2097  -0.9824  -0.9029   0.1561   0.5045   1.5111   1.7551
     1.8517   2.2422   2.8574   3.5827   3.6390   3.9101

          k = 0.0000 0.3464 0.0000 ( 12915 PWs)   bands (ev):

   -59.6558 -33.8681 -33.7931 -33.6706 -12.2476 -11.4127  -4.4301  -3.5077
    -2.9249  -1.6727  -1.3093  -0.4827   0.0864   0.7326   1.3959   1.7743
     1.8565   2.4687   2.8658   3.4222   3.8247   4.4929

          k = 0.0000 0.4619 0.0000 ( 12872 PWs)   bands (ev):

   -59.6458 -33.9634 -33.7733 -33.6929 -11.7757 -11.1165  -4.7042  -3.9916
    -3.2889  -2.0061  -1.5723  -0.1828   0.0978   1.0702   1.3136   1.8473
     2.4424   2.6684   3.1300   3.4023   4.1152   4.9919

          k = 0.0000-0.5774 0.0000 ( 12854 PWs)   bands (ev):

   -59.6420 -33.9995 -33.7657 -33.7014 -11.5877 -10.9761  -4.9357  -4.1637
    -3.4056  -2.1234  -1.6759  -0.0922   0.2474   1.1020   1.2765   1.8879
     2.7486   3.0693   3.3400   3.4528   4.1732   5.1324

          k = 0.1000 0.1732 0.0000 ( 12937 PWs)   bands (ev):

   -59.6712 -33.8236 -33.7152 -33.6386 -12.9010 -11.7707  -4.7724  -2.4613
    -2.2804  -1.2948  -1.0752  -0.6829   0.0673   0.6364   1.5420   1.7588
     1.8798   2.1944   2.8963   3.5338   3.6803   3.7511

          k = 0.1000 0.2887 0.0000 ( 12944 PWs)   bands (ev):

   -59.6601 -33.8177 -33.8016 -33.6705 -12.4382 -11.5194  -4.4300  -3.1529
    -2.6784  -1.9755  -0.9631  -0.6712   0.2840   0.5144   1.4099   1.7407
     1.7982   2.4209   2.8078   3.4156   3.7153   4.0761

          k = 0.1000 0.4041 0.0000 ( 12898 PWs)   bands (ev):

   -59.6489 -33.9182 -33.7795 -33.7025 -11.9289 -11.2149  -4.4400  -3.7355
    -3.2055  -2.2174  -1.2512  -0.7016   0.2000   1.0736   1.3595   1.7982
     1.9133   2.7163   2.8684   3.5538   3.9642   4.6167

          k = 0.1000 0.5196 0.0000 ( 12858 PWs)   bands (ev):

   -59.6420 -33.9795 -33.7658 -33.7223 -11.5928 -10.9755  -4.7437  -4.0987
    -3.4404  -2.2251  -1.5969  -0.7078   0.4207   1.1961   1.3400   1.8306
     2.3802   2.9811   3.3145   3.6716   4.2445   4.9175

          k = 0.2000 0.3464 0.0000 ( 12917 PWs)   bands (ev):

   -59.6501 -33.8883 -33.7818 -33.7191 -11.9883 -11.2488  -4.2867  -3.4537
    -3.2289  -2.4402  -1.3324  -0.7361   0.2127   1.1064   1.3705   1.6598
     1.7921   2.6766   2.8273   3.6122   3.8367   4.3830

          k = 0.2000 0.4619 0.0000 ( 12869 PWs)   bands (ev):

   -59.6420 -33.9376 -33.7658 -33.7657 -11.6013 -10.9738  -4.3818  -3.9432
    -3.4645  -2.4189  -1.8209  -1.1053   0.4248   1.4189   1.4553   1.7453
     1.8712   2.7845   3.2763   3.7927   4.1620   4.7701

          k = 0.2000 0.5774 0.0000 ( 12850 PWs)   bands (ev):

   -59.6390 -33.9549 -33.7850 -33.7597 -11.4502 -10.8474  -4.4731  -4.1502
    -3.5496  -2.2244  -2.1303  -1.3115   0.6296   1.4363   1.4548   1.7296
     2.1028   2.9051   3.2964   4.1310   4.3366   4.9339

          k = 0.3000 0.5196 0.0000 ( 12860 PWs)   bands (ev):

   -59.6378 -33.9199 -33.8347 -33.7574 -11.3968 -10.7959  -4.4065  -3.9440
    -3.4394  -2.8520  -2.1381  -1.4548   0.7157   1.5460   1.6541   1.6856
     1.8505   2.8177   3.1189   4.0261   4.4297   5.4847

     the Fermi energy is     1.9954 ev

!    total energy              =    -658.57891087 Ry
     total all-electron energy =    -12481.752802 Ry
     estimated scf accuracy    <          1.9E-09 Ry
     smearing contrib. (-TS)   =      -0.00684666 Ry
     internal energy E=F+TS    =    -658.57206421 Ry

     The total energy is F=E-TS. E is the sum of the following terms:
     one-electron contribution =   -1195.45700026 Ry
     hartree contribution      =     611.47209616 Ry
     xc contribution           =     -62.28349822 Ry
     ewald contribution        =     393.85398912 Ry
     one-center paw contrib.   =    -406.15765101 Ry

     total magnetization       =     1.95 Bohr mag/cell
     absolute magnetization    =     2.14 Bohr mag/cell

     convergence has been achieved in   9 iterations

     negative rho (up, down):  2.092E-04 2.191E-04

     Forces acting on atoms (cartesian axes, Ry/au):

     atom    1 type  1   force =     0.00000000    0.00000000   -0.00004634
     atom    2 type  2   force =     0.00000000    0.00000000    0.00010138
     atom    3 type  2   force =     0.00000000    0.00000000    0.00008627
     atom    4 type  3   force =     0.00000000    0.00000000   -0.00014131
     The non-local contrib.  to forces
     atom    1 type  1   force =     0.00000000    0.00000000   -0.00825533
     atom    2 type  2   force =     0.00000000    0.00000000   -0.11785808
     atom    3 type  2   force =     0.00000000    0.00000000    0.26935325
     atom    4 type  3   force =     0.00000000    0.00000000    0.12408904
     The ionic contribution  to forces
     atom    1 type  1   force =     0.00000000   -0.00000000  -29.99772629
     atom    2 type  2   force =    -0.00000000    0.00000000   17.60809426
     atom    3 type  2   force =    -0.00000000    0.00000000  -44.31146781
     atom    4 type  3   force =    -0.00000000   -0.00000000   56.70109985
     The local contribution  to forces
     atom    1 type  1   force =     0.00000000   -0.00000000   30.00494581
     atom    2 type  2   force =    -0.00000000    0.00000000  -17.49099642
     atom    3 type  2   force =    -0.00000000    0.00000000   44.04439526
     atom    4 type  3   force =    -0.00000000    0.00000000  -56.81811769
     The core correction contribution to forces
     atom    1 type  1   force =    -0.00000000    0.00000000    0.00099665
     atom    2 type  2   force =     0.00000000   -0.00000000    0.00092908
     atom    3 type  2   force =     0.00000000   -0.00000000   -0.00223673
     atom    4 type  3   force =    -0.00000000    0.00000000   -0.00715259
     The Hubbard contrib.    to forces
     atom    1 type  1   force =     0.00000000    0.00000000    0.00000000
     atom    2 type  2   force =     0.00000000    0.00000000    0.00000000
     atom    3 type  2   force =     0.00000000    0.00000000    0.00000000
     atom    4 type  3   force =     0.00000000    0.00000000    0.00000000
     The SCF correction term to forces
     atom    1 type  1   force =     0.00000000    0.00000000   -0.00000523
     atom    2 type  2   force =     0.00000000    0.00000000   -0.00006551
     atom    3 type  2   force =    -0.00000000   -0.00000000    0.00004426
     atom    4 type  3   force =    -0.00000000   -0.00000000   -0.00005795

     Total force =     0.000200     Total SCF correction =     0.000098
     SCF correction compared to forces is large: reduce conv_thr to get better values


     Computing stress (Cartesian axis) and pressure


     negative rho (up, down):  2.092E-04 2.191E-04
          total   stress  (Ry/bohr**3)                   (kbar)     P=      -14.00
  -0.00014152   0.00000000   0.00000000          -20.82        0.00        0.00
   0.00000000  -0.00014152  -0.00000000            0.00      -20.82       -0.00
   0.00000000  -0.00000000  -0.00000254            0.00       -0.00       -0.37

     Energy error            =      2.8E-06 Ry
     Gradient error          =      1.4E-04 Ry/Bohr

     bfgs converged in   8 scf cycles and   7 bfgs steps
     (criteria: energy <  1.0E-04 Ry, force <  1.0E-03 Ry/Bohr)

     End of BFGS Geometry Optimization

     Final energy             =    -658.5789108675 Ry

     File ./tmp/relax.bfgs deleted, as requested
Begin final coordinates

ATOMIC_POSITIONS (crystal)
Mo            0.0000000000        0.0000000000        0.4976489196
S             0.6666666667        0.3333333333        0.5849314969
S             0.6666666667        0.3333333333        0.4115120365
Co            0.6666666667        0.3333333333        0.7035436108
End final coordinates



     Writing all to output data dir ./tmp/relax.save/
 
     init_run     :      1.05s CPU      1.15s WALL (       1 calls)
     electrons    :    129.72s CPU    140.60s WALL (       8 calls)
     update_pot   :      3.35s CPU      4.07s WALL (       7 calls)
     forces       :      3.47s CPU      3.56s WALL (       8 calls)
     stress       :     19.63s CPU     20.07s WALL (       8 calls)

     Called by init_run:
     wfcinit      :      0.30s CPU      0.34s WALL (       1 calls)
     potinit      :      0.29s CPU      0.30s WALL (       1 calls)
     hinit0       :      0.32s CPU      0.34s WALL (       1 calls)

     Called by electrons:
     c_bands      :     87.43s CPU     94.64s WALL (      84 calls)
     sum_band     :     20.32s CPU     23.23s WALL (      84 calls)
     v_of_rho     :      1.41s CPU      1.70s WALL (      90 calls)
     newd         :      6.77s CPU      6.94s WALL (      90 calls)
     PAW_pot      :     16.41s CPU     16.77s WALL (      97 calls)
     mix_rho      :      0.43s CPU      0.44s WALL (      84 calls)

     Called by c_bands:
     init_us_2    :      1.82s CPU      1.97s WALL (    5376 calls)
     init_us_2:cp :      1.81s CPU      1.96s WALL (    5376 calls)
     cegterg      :     61.93s CPU     68.82s WALL (    2352 calls)

     Called by *egterg:
     cdiaghg      :      4.85s CPU      5.16s WALL (   11186 calls)
     h_psi        :     43.52s CPU     49.11s WALL (   11466 calls)
     s_psi        :      1.57s CPU      1.73s WALL (   11466 calls)
     g_psi        :      0.19s CPU      0.20s WALL (    9086 calls)

     Called by h_psi:
     h_psi:calbec :      4.79s CPU      5.40s WALL (   11466 calls)
     vloc_psi     :     36.10s CPU     40.82s WALL (   11466 calls)
     add_vuspsi   :      2.19s CPU      2.43s WALL (   11466 calls)

     General routines
     calbec       :     13.04s CPU     14.11s WALL (   15134 calls)
     fft          :      2.15s CPU      3.14s WALL (    2237 calls)
     ffts         :      0.04s CPU      0.04s WALL (     168 calls)
     fftw         :     38.19s CPU     43.44s WALL (  337146 calls)
 
     Parallel routines
 
     PWSCF        :   2m39.58s CPU   2m52.00s WALL

 
   This run was terminated on:  13:42: 3  12Jun2025            

=------------------------------------------------------------------------------=
   JOB DONE.
=------------------------------------------------------------------------------=
