
     Program PWSCF v.7.2 starts on 16Jul2025 at 13: 9: 3 

     This program is part of the open-source Quantum ESPRESSO suite
     for quantum simulation of materials; please cite
         "P. Giannozzi et al., J. Phys.:Condens. Matter 21 395502 (2009);
         "P. Giannozzi et al., J. Phys.:Condens. Matter 29 465901 (2017);
         "P. Giannozzi et al., J. Chem. Phys. 152 154105 (2020);
          URL http://www.quantum-espresso.org", 
     in publications or presentations arising from this work. More details at
     http://www.quantum-espresso.org/quote

     Parallel version (MPI), running on    16 processors

     MPI processes distributed on     1 nodes
     23134 MiB available memory on the printing compute node when the environment starts
 
     Waiting for input...
     Reading input from standard input

     Current dimensions of program PWSCF are:
     Max number of different atomic species (ntypx) = 10
     Max number of k-points (npk) =  40000
     Max angular momentum in pseudopotentials (lmaxx) =  4
     file Mo.pbe-spn-kjpaw_psl.1.0.0.UPF: wavefunction(s)  4S 4D renormalized
     file S.pbe-n-kjpaw_psl.1.0.0.UPF: wavefunction(s)  3S 3P renormalized
     file Co.pbe-n-kjpaw_psl.1.0.0.UPF: wavefunction(s)  4S 3D renormalized
     Message from routine setup:
     using ibrav=0 with symmetry is DISCOURAGED, use correct ibrav instead
 
     R & G space division:  proc/nbgrp/npool/nimage =      16
     Subspace diagonalization in iterative solution of the eigenvalue problem:
     a serial algorithm will be used

 
     Parallelization info
     --------------------
     sticks:   dense  smooth     PW     G-vecs:    dense   smooth      PW
     Min         108      42     12                21751     5486     866
     Max         110      43     13                21762     5513     891
     Sum        1735     685    199               348105    87947   14017
 
     Using Slab Decomposition
 


     bravais-lattice index     =            0
     lattice parameter (alat)  =       5.9812  a.u.
     unit-cell volume          =    1112.3952 (a.u.)^3
     number of atoms/cell      =            4
     number of atomic types    =            3
     number of electrons       =        35.00
     number of Kohn-Sham states=           22
     kinetic-energy cutoff     =      70.0000  Ry
     charge density cutoff     =     700.0000  Ry
     scf convergence threshold =      1.0E-06
     mixing beta               =       0.7000
     number of iterations used =            8  plain     mixing
     Exchange-correlation= SLA  PW   PBX  PBC
                           (   1   4   3   4   0   0   0)

     celldm(1)=   5.981197  celldm(2)=   0.000000  celldm(3)=   0.000000
     celldm(4)=   0.000000  celldm(5)=   0.000000  celldm(6)=   0.000000

     crystal axes: (cart. coord. in units of alat)
               a(1) = (   1.000000   0.000000   0.000000 )  
               a(2) = (  -0.500000   0.866025   0.000000 )  
               a(3) = (   0.000000   0.000000   6.002945 )  

     reciprocal axes: (cart. coord. in units 2 pi/alat)
               b(1) = (  1.000000  0.577351  0.000000 )  
               b(2) = (  0.000000  1.154701  0.000000 )  
               b(3) = (  0.000000  0.000000  0.166585 )  


     PseudoPot. # 1 for Mo read from file:
     /shared/ESPRESSO/PSLIBRARY/1.0.0/pbe/PSEUDOPOTENTIALS/Mo.pbe-spn-kjpaw_psl.1.0.0.UPF
     MD5 check sum: 4396e0c640fcce5c25f020efccf1ab12
     Pseudo is Projector augmented-wave + core cor, Zval = 14.0
     Generated using &quot;atomic&quot; code by A. Dal Corso  v.6.3
     Shape of augmentation charge: PSQ
     Using radial grid of 1229 points,  6 beta functions with: 
                l(1) =   0
                l(2) =   0
                l(3) =   1
                l(4) =   1
                l(5) =   2
                l(6) =   2
     Q(r) pseudized with 0 coefficients 


     PseudoPot. # 2 for S  read from file:
     /shared/ESPRESSO/PSLIBRARY/1.0.0/pbe/PSEUDOPOTENTIALS/S.pbe-n-kjpaw_psl.1.0.0.UPF
     MD5 check sum: c08f931834bcc19553f8bde8f1a3adc5
     Pseudo is Projector augmented-wave + core cor, Zval =  6.0
     Generated using "atomic" code by A. Dal Corso  (Quantum ESPRESSO distribution)
     Shape of augmentation charge: PSQ
     Using radial grid of 1151 points,  6 beta functions with: 
                l(1) =   0
                l(2) =   0
                l(3) =   1
                l(4) =   1
                l(5) =   2
                l(6) =   2
     Q(r) pseudized with 0 coefficients 


     PseudoPot. # 3 for Co read from file:
     /shared/ESPRESSO/PSLIBRARY/1.0.0/pbe/PSEUDOPOTENTIALS/Co.pbe-n-kjpaw_psl.1.0.0.UPF
     MD5 check sum: 17e7ab8db721b244d1352252ea6cb8e7
     Pseudo is Projector augmented-wave + core cor, Zval =  9.0
     Generated using "atomic" code by A. Dal Corso  (Quantum ESPRESSO distribution)
     Shape of augmentation charge: PSQ
     Using radial grid of 1193 points,  6 beta functions with: 
                l(1) =   0
                l(2) =   0
                l(3) =   1
                l(4) =   1
                l(5) =   2
                l(6) =   2
     Q(r) pseudized with 0 coefficients 


     atomic species   valence    mass     pseudopotential
        Mo            14.00    95.94000     Mo( 1.00)
        S              6.00    32.06500     S ( 1.00)
        Co             9.00    58.93320     Co( 1.00)

     Starting magnetic structure 
     atomic species   magnetization
        Mo           0.000
        S            0.000
        Co           0.800

      6 Sym. Ops. (no inversion) found



   Cartesian axes

     site n.     atom                  positions (alat units)
         1           Mo  tau(   1) = (   0.0000000   0.0000000   3.0014725  )
         2           S   tau(   2) = (   0.5000000   0.2886750   3.4964188  )
         3           S   tau(   3) = (   0.5000000   0.2886750   2.5065262  )
         4           Co  tau(   4) = (   0.0000000   0.0000000   4.1283077  )

     --------------------------------------------
     DFT-D3 Dispersion Correction (3-body terms):
     --------------------------------------------
       Reference C6 values for interpolation: 

         atom   Coordination number   C6
         S          0.000           268.01
         S          0.995           261.99
         S          1.990           251.62
         Co         0.000          1065.56
         Co         1.715           373.09
         Co         2.926           296.13
         Co         7.779           236.57
         Mo         0.000          1691.79
         Mo         1.942          1004.01
         Mo        11.056           674.22

       Values used:

         atom   Coordination number  R0_AB[au]  C6      C8
         Mo        10.170            3.547    674.21  77634.20
         S          5.160            3.128    251.62  12327.25
         S          3.718            3.128    251.62  12327.25
         Co         1.982            3.243    370.12  32543.38

         Molecular C6 ( Ry / a.u.^6 ) =      5896.60


     number of k points=    12  Gaussian smearing, width (Ry)=  0.0073
                       cart. coord. in units 2pi/alat
        k(    1) = (   0.0000000   0.0000000   0.0000000), wk =   0.0123457
        k(    2) = (   0.0000000   0.1283001   0.0000000), wk =   0.0740741
        k(    3) = (   0.0000000   0.2566002   0.0000000), wk =   0.0740741
        k(    4) = (   0.0000000   0.3849004   0.0000000), wk =   0.0740741
        k(    5) = (   0.0000000   0.5132005   0.0000000), wk =   0.0740741
        k(    6) = (   0.1111111   0.1924502   0.0000000), wk =   0.0740741
        k(    7) = (   0.1111111   0.3207503   0.0000000), wk =   0.1481481
        k(    8) = (   0.1111111   0.4490504   0.0000000), wk =   0.1481481
        k(    9) = (   0.1111111   0.5773505   0.0000000), wk =   0.0740741
        k(   10) = (   0.2222222   0.3849004   0.0000000), wk =   0.0740741
        k(   11) = (   0.2222222   0.5132005   0.0000000), wk =   0.1481481
        k(   12) = (   0.3333333   0.5773505   0.0000000), wk =   0.0246914

     Dense  grid:   348105 G-vectors     FFT dimensions: (  54,  54, 320)

     Smooth grid:    87947 G-vectors     FFT dimensions: (  32,  32, 192)

     Estimated max dynamical RAM per process >     103.24 MB

     Estimated total dynamical RAM >       1.61 GB
     Generating pointlists ...
     new r_m :   0.3137 (alat units)  1.8762 (a.u.) for type    1
     new r_m :   0.3137 (alat units)  1.8762 (a.u.) for type    2
     new r_m :   0.3531 (alat units)  2.1118 (a.u.) for type    3

     Initial potential from superposition of free atoms

     starting charge      34.9988, renormalised to      35.0000

     negative rho (up, down):  2.107E-05 2.044E-05
     Starting wfcs are   27 randomized atomic wfcs
     Checking if some PAW data can be deallocated... 

     total cpu time spent up to now is        2.5 secs

     Self-consistent Calculation

     iteration #  1     ecut=    70.00 Ry     beta= 0.70
     Davidson diagonalization with overlap
     ethr =  1.00E-02,  avg # of iterations =  2.2

     negative rho (up, down):  1.734E-07 2.658E-07

     total cpu time spent up to now is        4.9 secs

     total energy              =    -657.31394169 Ry
     estimated scf accuracy    <       1.55410776 Ry

     total magnetization       =     3.10 Bohr mag/cell
     absolute magnetization    =     3.71 Bohr mag/cell

     iteration #  2     ecut=    70.00 Ry     beta= 0.70
     Davidson diagonalization with overlap
     ethr =  4.44E-03,  avg # of iterations =  7.9

     negative rho (up, down):  9.847E-08 1.561E-07

     total cpu time spent up to now is        8.0 secs

     total energy              =    -648.80669729 Ry
     estimated scf accuracy    <     309.86523666 Ry

     total magnetization       =     0.89 Bohr mag/cell
     absolute magnetization    =     0.89 Bohr mag/cell

     iteration #  3     ecut=    70.00 Ry     beta= 0.70
     Davidson diagonalization with overlap
     ethr =  4.44E-03,  avg # of iterations =  8.2

     negative rho (up, down):  1.003E-07 2.390E-07

     total cpu time spent up to now is       11.3 secs

     total energy              =    -658.41441741 Ry
     estimated scf accuracy    <      11.80672933 Ry

     total magnetization       =     0.35 Bohr mag/cell
     absolute magnetization    =     0.49 Bohr mag/cell

     iteration #  4     ecut=    70.00 Ry     beta= 0.70
     Davidson diagonalization with overlap
     ethr =  4.44E-03,  avg # of iterations =  1.7

     negative rho (up, down):  2.927E-07 4.525E-07

     total cpu time spent up to now is       13.5 secs

     total energy              =    -658.50049231 Ry
     estimated scf accuracy    <       1.13888777 Ry

     total magnetization       =     2.17 Bohr mag/cell
     absolute magnetization    =     2.23 Bohr mag/cell

     iteration #  5     ecut=    70.00 Ry     beta= 0.70
     Davidson diagonalization with overlap
     ethr =  3.25E-03,  avg # of iterations =  2.8

     negative rho (up, down):  3.182E-06 4.203E-06

     total cpu time spent up to now is       15.8 secs

     total energy              =    -658.45802222 Ry
     estimated scf accuracy    <       5.60494715 Ry

     total magnetization       =     0.42 Bohr mag/cell
     absolute magnetization    =     0.71 Bohr mag/cell

     iteration #  6     ecut=    70.00 Ry     beta= 0.70
     Davidson diagonalization with overlap
     ethr =  3.25E-03,  avg # of iterations =  1.5

     negative rho (up, down):  5.754E-04 4.798E-04

     total cpu time spent up to now is       18.1 secs

     total energy              =    -658.57194165 Ry
     estimated scf accuracy    <       0.24843809 Ry

     total magnetization       =     1.96 Bohr mag/cell
     absolute magnetization    =     2.12 Bohr mag/cell

     iteration #  7     ecut=    70.00 Ry     beta= 0.70
     Davidson diagonalization with overlap
     ethr =  7.10E-04,  avg # of iterations =  5.1

     negative rho (up, down):  2.664E-03 2.255E-03

     total cpu time spent up to now is       20.6 secs

     total energy              =    -658.60486381 Ry
     estimated scf accuracy    <       0.14586147 Ry

     total magnetization       =     2.07 Bohr mag/cell
     absolute magnetization    =     2.31 Bohr mag/cell

     iteration #  8     ecut=    70.00 Ry     beta= 0.70
     Davidson diagonalization with overlap
     ethr =  4.17E-04,  avg # of iterations =  1.2

     negative rho (up, down):  5.424E-03 4.392E-03

     total cpu time spent up to now is       22.9 secs

     total energy              =    -658.60705894 Ry
     estimated scf accuracy    <       0.03846247 Ry

     total magnetization       =     2.07 Bohr mag/cell
     absolute magnetization    =     2.28 Bohr mag/cell

     iteration #  9     ecut=    70.00 Ry     beta= 0.70
     Davidson diagonalization with overlap
     ethr =  1.10E-04,  avg # of iterations =  3.8

     negative rho (up, down):  2.951E-03 2.423E-03

     total cpu time spent up to now is       25.2 secs

     total energy              =    -658.61176554 Ry
     estimated scf accuracy    <       0.01536112 Ry

     total magnetization       =     2.15 Bohr mag/cell
     absolute magnetization    =     2.33 Bohr mag/cell

     iteration # 10     ecut=    70.00 Ry     beta= 0.70
     Davidson diagonalization with overlap
     ethr =  4.39E-05,  avg # of iterations =  2.0

     negative rho (up, down):  3.483E-04 3.119E-04

     total cpu time spent up to now is       27.4 secs

     total energy              =    -658.61152486 Ry
     estimated scf accuracy    <       0.01065090 Ry

     total magnetization       =     2.15 Bohr mag/cell
     absolute magnetization    =     2.32 Bohr mag/cell

     iteration # 11     ecut=    70.00 Ry     beta= 0.70
     Davidson diagonalization with overlap
     ethr =  3.04E-05,  avg # of iterations =  1.5

     negative rho (up, down):  5.484E-05 5.927E-05

     total cpu time spent up to now is       29.6 secs

     total energy              =    -658.61223303 Ry
     estimated scf accuracy    <       0.00130747 Ry

     total magnetization       =     2.12 Bohr mag/cell
     absolute magnetization    =     2.27 Bohr mag/cell

     iteration # 12     ecut=    70.00 Ry     beta= 0.70
     Davidson diagonalization with overlap
     ethr =  3.74E-06,  avg # of iterations =  6.2

     negative rho (up, down):  3.466E-05 3.771E-05

     total cpu time spent up to now is       32.2 secs

     total energy              =    -658.61248590 Ry
     estimated scf accuracy    <       0.00100012 Ry

     total magnetization       =     2.12 Bohr mag/cell
     absolute magnetization    =     2.27 Bohr mag/cell

     iteration # 13     ecut=    70.00 Ry     beta= 0.70
     Davidson diagonalization with overlap
     ethr =  2.86E-06,  avg # of iterations =  1.4

     negative rho (up, down):  1.985E-05 2.107E-05

     total cpu time spent up to now is       34.4 secs

     total energy              =    -658.61261709 Ry
     estimated scf accuracy    <       0.00013442 Ry

     total magnetization       =     2.12 Bohr mag/cell
     absolute magnetization    =     2.27 Bohr mag/cell

     iteration # 14     ecut=    70.00 Ry     beta= 0.70
     Davidson diagonalization with overlap
     ethr =  3.84E-07,  avg # of iterations =  4.1

     negative rho (up, down):  1.982E-05 2.098E-05

     total cpu time spent up to now is       36.8 secs

     total energy              =    -658.61270473 Ry
     estimated scf accuracy    <       0.00023662 Ry

     total magnetization       =     2.12 Bohr mag/cell
     absolute magnetization    =     2.26 Bohr mag/cell

     iteration # 15     ecut=    70.00 Ry     beta= 0.70
     Davidson diagonalization with overlap
     ethr =  3.84E-07,  avg # of iterations =  1.8

     negative rho (up, down):  2.127E-05 2.281E-05

     total cpu time spent up to now is       39.0 secs

     total energy              =    -658.61270508 Ry
     estimated scf accuracy    <       0.00011415 Ry

     total magnetization       =     2.12 Bohr mag/cell
     absolute magnetization    =     2.26 Bohr mag/cell

     iteration # 16     ecut=    70.00 Ry     beta= 0.70
     Davidson diagonalization with overlap
     ethr =  3.26E-07,  avg # of iterations =  1.9

     negative rho (up, down):  2.299E-05 2.518E-05

     total cpu time spent up to now is       41.3 secs

     total energy              =    -658.61272616 Ry
     estimated scf accuracy    <       0.00000389 Ry

     total magnetization       =     2.12 Bohr mag/cell
     absolute magnetization    =     2.26 Bohr mag/cell

     iteration # 17     ecut=    70.00 Ry     beta= 0.70
     Davidson diagonalization with overlap
     ethr =  1.11E-08,  avg # of iterations =  6.6

     negative rho (up, down):  2.270E-05 2.485E-05

     total cpu time spent up to now is       44.0 secs

     total energy              =    -658.61273435 Ry
     estimated scf accuracy    <       0.00002145 Ry

     total magnetization       =     2.12 Bohr mag/cell
     absolute magnetization    =     2.26 Bohr mag/cell

     iteration # 18     ecut=    70.00 Ry     beta= 0.70
     Davidson diagonalization with overlap
     ethr =  1.11E-08,  avg # of iterations =  2.2

     negative rho (up, down):  2.278E-05 2.500E-05

     total cpu time spent up to now is       46.4 secs

     total energy              =    -658.61273302 Ry
     estimated scf accuracy    <       0.00001007 Ry

     total magnetization       =     2.12 Bohr mag/cell
     absolute magnetization    =     2.26 Bohr mag/cell

     iteration # 19     ecut=    70.00 Ry     beta= 0.70
     Davidson diagonalization with overlap
     ethr =  1.11E-08,  avg # of iterations =  2.7

     negative rho (up, down):  2.206E-05 2.399E-05
 
     Magnetic moment per site  (integrated on atomic sphere of radius R)
     atom   1 (R=0.314)  charge= 10.7652  magn=  0.0145
     atom   2 (R=0.314)  charge=  4.1747  magn=  0.0405
     atom   3 (R=0.314)  charge=  4.1379  magn=  0.0031
     atom   4 (R=0.353)  charge=  7.5723  magn=  2.0518

     total cpu time spent up to now is       48.7 secs

     End of self-consistent calculation

 ------ SPIN UP ------------


          k = 0.0000 0.0000 0.0000 ( 10889 PWs)   bands (ev):

   -60.0469 -34.2561 -33.9657 -33.9657 -13.8330 -12.3877  -5.6296  -2.6369
    -1.9711  -1.9711  -1.0634  -0.9376  -0.9376  -0.2241  -0.2240   0.1704
     0.3793   0.3793   1.1411   3.3037   3.3037   3.6989

          k = 0.0000 0.1283 0.0000 ( 10908 PWs)   bands (ev):

   -60.0422 -34.2467 -34.0133 -33.9765 -13.6559 -12.2952  -5.4387  -2.6732
    -2.4050  -1.8253  -1.4506  -1.1733  -0.7626  -0.2572  -0.1798   0.1491
     0.3138   0.3687   1.3033   3.0292   3.3379   3.3533

          k = 0.0000 0.2566 0.0000 ( 10974 PWs)   bands (ev):

   -60.0302 -34.2228 -34.1324 -34.0037 -13.1769 -12.0395  -5.0323  -3.3781
    -2.9766  -1.8863  -1.6515  -1.2371  -0.8352  -0.3214  -0.0312  -0.0256
     0.1376   0.3639   1.3761   2.9332   3.0784   3.4571

          k = 0.0000 0.3849 0.0000 ( 11018 PWs)   bands (ev):

   -60.0165 -34.2652 -34.1955 -34.0345 -12.5638 -11.6926  -5.0410  -4.1424
    -3.4871  -2.3505  -1.8434  -0.8581  -0.8429  -0.4400  -0.2393   0.1588
     0.1941   0.4332   1.8102   2.9414   3.3348   4.1120

          k = 0.0000 0.5132 0.0000 ( 11016 PWs)   bands (ev):

   -60.0075 -34.3504 -34.1776 -34.0545 -12.1162 -11.4028  -5.5183  -4.5356
    -3.7465  -2.6280  -2.0445  -0.8479  -0.6833  -0.2900  -0.1971   0.2996
     0.3390   0.5325   2.8087   3.0376   3.7378   4.4700

          k = 0.1111 0.1925 0.0000 ( 10978 PWs)   bands (ev):

   -60.0338 -34.2300 -34.0924 -33.9997 -13.3272 -12.1204  -5.1286  -3.0352
    -2.8472  -1.9915  -1.6053  -1.3317  -0.7180  -0.2515  -0.0962   0.0690
     0.2115   0.3397   1.3578   2.8927   3.1297   3.1751

          k = 0.1111 0.3208 0.0000 ( 10999 PWs)   bands (ev):

   -60.0210 -34.2087 -34.2042 -34.0386 -12.7752 -11.8134  -4.8761  -3.7521
    -3.3041  -2.6486  -1.6694  -1.1251  -0.7341  -0.3455  -0.1446   0.0162
     0.2698   0.3444   1.4439   2.9219   3.1930   3.6476

          k = 0.1111 0.4491 0.0000 ( 11020 PWs)   bands (ev):

   -60.0096 -34.3083 -34.1818 -34.0730 -12.2301 -11.4756  -5.1990  -4.2996
    -3.7268  -2.7914  -1.9249  -1.2325  -0.6937  -0.3156  -0.1819   0.1251
     0.3697   0.4942   2.1627   3.2118   3.5755   4.3468

          k = 0.1111 0.5774 0.0000 ( 11012 PWs)   bands (ev):

   -60.0052 -34.3473 -34.1729 -34.0866 -11.9993 -11.3089  -5.4633  -4.5540
    -3.8701  -2.7513  -2.1248  -1.2818  -0.6777  -0.2558  -0.1325   0.2417
     0.4006   0.5958   2.9309   3.3228   3.8788   4.2295

          k = 0.2222 0.3849 0.0000 ( 11026 PWs)   bands (ev):

   -60.0105 -34.2726 -34.1835 -34.1000 -12.2779 -11.5010  -4.9493  -4.0589
    -3.6963  -3.0651  -2.1178  -1.3546  -0.5713  -0.3959  -0.1484   0.0598
     0.3444   0.4866   1.8475   3.2868   3.4110   4.0837

          k = 0.2222 0.5132 0.0000 ( 11025 PWs)   bands (ev):

   -60.0036 -34.3034 -34.1698 -34.1507 -11.9304 -11.2438  -5.1098  -4.5289
    -3.8339  -3.0177  -2.5218  -1.7114  -0.4895  -0.2645  -0.1664   0.0918
     0.4314   0.6231   2.6310   3.2733   3.8546   4.4783

          k = 0.3333 0.5774 0.0000 ( 11052 PWs)   bands (ev):

   -60.0012 -34.2647 -34.2184 -34.1651 -11.8108 -11.1400  -5.0378  -4.5162
    -3.6594  -3.6165  -2.6256  -1.9204  -0.3474  -0.2621  -0.1436  -0.0241
     0.4586   0.8392   2.4242   3.3801   4.0876   5.0137

 ------ SPIN DOWN ----------


          k = 0.0000 0.0000 0.0000 ( 10889 PWs)   bands (ev):

   -60.0353 -34.2268 -33.9611 -33.9611 -13.7971 -12.3721  -5.5860  -2.5059
    -1.9408  -1.9408  -0.8735  -0.8735  -0.1455   1.1061   1.6596   1.6596
     1.7575   1.7575   2.2671   3.4365   3.4365   3.7369

          k = 0.0000 0.1283 0.0000 ( 10908 PWs)   bands (ev):

   -60.0305 -34.2174 -34.0087 -33.9719 -13.6191 -12.2803  -5.3934  -2.5967
    -2.3656  -1.7843  -1.1529  -1.1377   0.0514   0.8139   1.5856   1.6561
     1.8199   1.9277   2.4271   3.1868   3.3475   3.5124

          k = 0.0000 0.2566 0.0000 ( 10974 PWs)   bands (ev):

   -60.0186 -34.1935 -34.1277 -33.9991 -13.1373 -12.0270  -4.9827  -3.3241
    -2.9539  -1.8313  -1.4218  -1.2194  -0.0254   0.3987   1.4531   1.6062
     2.0424   2.1452   2.4209   3.1160   3.2201   3.5362

          k = 0.0000 0.3849 0.0000 ( 11018 PWs)   bands (ev):

   -60.0049 -34.2603 -34.1661 -34.0299 -12.5195 -11.6839  -4.9941  -4.0751
    -3.4594  -2.3117  -1.7051  -0.7860  -0.3806   0.6367   1.4354   1.6166
     2.3355   2.3631   2.4707   3.0455   3.5220   4.2517

          k = 0.0000 0.5132 0.0000 ( 11016 PWs)   bands (ev):

   -59.9959 -34.3454 -34.1482 -34.0499 -12.0683 -11.3972  -5.4704  -4.4819
    -3.7046  -2.5936  -1.9117  -0.5523  -0.1969   0.7524   1.5802   1.6872
     2.4652   2.5542   3.0754   3.1555   3.9743   4.6513

          k = 0.1111 0.1925 0.0000 ( 10978 PWs)   bands (ev):

   -60.0222 -34.2007 -34.0878 -33.9952 -13.2885 -12.1070  -5.0798  -2.9886
    -2.8133  -1.9421  -1.4699  -1.0963   0.1262   0.4803   1.3785   1.6706
     1.9620   2.1237   2.4591   3.0487   3.2287   3.2915

          k = 0.1111 0.3208 0.0000 ( 10999 PWs)   bands (ev):

   -60.0093 -34.2037 -34.1750 -34.0340 -12.7327 -11.8032  -4.8249  -3.6878
    -3.2816  -2.6114  -1.4894  -1.0064  -0.1856   0.5857   1.2610   1.6113
     2.1586   2.2996   2.4016   3.0897   3.2986   3.8488

          k = 0.1111 0.4491 0.0000 ( 11020 PWs)   bands (ev):

   -59.9980 -34.3034 -34.1524 -34.0684 -12.1832 -11.4692  -5.1488  -4.2531
    -3.6751  -2.7464  -1.7721  -1.1748  -0.1007   0.8461   1.4348   1.6211
     2.3175   2.4865   2.7125   3.3058   3.7222   4.5498

          k = 0.1111 0.5774 0.0000 ( 11012 PWs)   bands (ev):

   -59.9935 -34.3424 -34.1434 -34.0820 -11.9507 -11.3037  -5.4110  -4.5204
    -3.8092  -2.7067  -1.9731  -1.2177   0.1036   0.8789   1.5726   1.6468
     2.4767   2.5364   3.0473   3.4434   4.2477   4.3905

          k = 0.2222 0.3849 0.0000 ( 11026 PWs)   bands (ev):

   -59.9989 -34.2677 -34.1541 -34.0953 -12.2314 -11.4942  -4.8963  -4.0329
    -3.6233  -2.9981  -2.0600  -1.1999  -0.1252   1.0745   1.1781   1.5578
     2.0940   2.4839   2.7017   3.3855   3.4709   4.3876

          k = 0.2222 0.5132 0.0000 ( 11025 PWs)   bands (ev):

   -59.9920 -34.2985 -34.1461 -34.1404 -11.8815 -11.2387  -5.0562  -4.5084
    -3.7439  -2.9259  -2.4893  -1.6260   0.1934   1.1473   1.4497   1.5657
     2.1810   2.6055   2.8644   3.5248   3.9459   4.8189

          k = 0.3333 0.5774 0.0000 ( 11052 PWs)   bands (ev):

   -59.9896 -34.2597 -34.2138 -34.1356 -11.7614 -11.1351  -5.0157  -4.4266
    -3.6018  -3.5539  -2.5645  -1.8589   0.4062   1.3546   1.3730   1.6002
     2.1614   2.4702   2.6524   3.6183   4.2692   5.4880

     the Fermi energy is     2.0993 ev

!    total energy              =    -658.61273422 Ry
     total all-electron energy =    -12481.786625 Ry
     estimated scf accuracy    <       0.00000064 Ry
     smearing contrib. (-TS)   =      -0.00118960 Ry
     internal energy E=F+TS    =    -658.61154462 Ry

     The total energy is F=E-TS. E is the sum of the following terms:
     one-electron contribution =   -1346.49632704 Ry
     hartree contribution      =     686.54929963 Ry
     xc contribution           =     -62.30657371 Ry
     ewald contribution        =     469.86029902 Ry
     DFT-D3 Dispersion         =      -0.06413167 Ry
     one-center paw contrib.   =    -406.15411086 Ry

     total magnetization       =     2.12 Bohr mag/cell
     absolute magnetization    =     2.26 Bohr mag/cell

     convergence has been achieved in  19 iterations

     negative rho (up, down):  2.206E-05 2.399E-05

     Forces acting on atoms (cartesian axes, Ry/au):

     atom    1 type  1   force =     0.00000000   -0.00000000   -0.01491158
     atom    2 type  2   force =     0.00000000   -0.00000000    0.05378087
     atom    3 type  2   force =     0.00000000    0.00000000   -0.00256223
     atom    4 type  3   force =     0.00000000   -0.00000000   -0.03630705
     The non-local contrib.  to forces
     atom    1 type  1   force =     0.00000000    0.00000000   -0.02919394
     atom    2 type  2   force =     0.00000000   -0.00000000   -0.08062468
     atom    3 type  2   force =     0.00000000    0.00000000    0.26956935
     atom    4 type  3   force =     0.00000000    0.00000000   -0.04389313
     The ionic contribution  to forces
     atom    1 type  1   force =     0.00000000    0.00000500  -32.00609916
     atom    2 type  2   force =    -0.00000000   -0.00000324   19.14551092
     atom    3 type  2   force =    -0.00000000   -0.00000250  -45.87316648
     atom    4 type  3   force =     0.00000000    0.00000074   58.73375472
     The local contribution  to forces
     atom    1 type  1   force =     0.00000000   -0.00000301   32.01225590
     atom    2 type  2   force =    -0.00000000    0.00000228  -19.00565805
     atom    3 type  2   force =    -0.00000000    0.00000174   45.59976971
     atom    4 type  3   force =    -0.00000000   -0.00000044  -58.70905418
     The core correction contribution to forces
     atom    1 type  1   force =     0.00000000    0.00000000    0.00198447
     atom    2 type  2   force =     0.00000000    0.00000000   -0.00162771
     atom    3 type  2   force =     0.00000000    0.00000000   -0.00224440
     atom    4 type  3   force =     0.00000000    0.00000000   -0.01289768
     The Hubbard contrib.    to forces
     atom    1 type  1   force =     0.00000000    0.00000000    0.00000000
     atom    2 type  2   force =     0.00000000    0.00000000    0.00000000
     atom    3 type  2   force =     0.00000000    0.00000000    0.00000000
     atom    4 type  3   force =     0.00000000    0.00000000    0.00000000
     The SCF correction term to forces
     atom    1 type  1   force =    -0.00000000    0.00000000    0.00163245
     atom    2 type  2   force =     0.00000000    0.00000000   -0.00074215
     atom    3 type  2   force =     0.00000000    0.00000000    0.00078395
     atom    4 type  3   force =    -0.00000000    0.00000000   -0.00092172

     DFT-D3 dispersion contribution to forces:
     atom    1 type  1   force =     0.00000000   -0.00000001    0.00429326
     atom    2 type  2   force =     0.00000000    0.00000000   -0.00329292
     atom    3 type  2   force =    -0.00000000    0.00000000    0.00251019
     atom    4 type  3   force =    -0.00000000    0.00000000   -0.00351052

     Total force =     0.066630     Total SCF correction =     0.002163


     Computing stress (Cartesian axis) and pressure


     negative rho (up, down):  2.206E-05 2.399E-05
          total   stress  (Ry/bohr**3)                   (kbar)     P=      -18.75
  -0.00015735   0.00000000   0.00000000          -23.15        0.00        0.00
   0.00000000  -0.00015735  -0.00000000            0.00      -23.15       -0.00
   0.00000000   0.00000000  -0.00006776            0.00        0.00       -9.97


     Writing all to output data dir ./tmp/scf.save/
 
     init_run     :      1.86s CPU      2.14s WALL (       1 calls)
     electrons    :     39.83s CPU     46.20s WALL (       1 calls)
     forces       :      1.33s CPU      1.49s WALL (       1 calls)
     force_dftd3  :      0.04s CPU      0.04s WALL (       1 calls)
     stress       :      4.06s CPU      4.64s WALL (       1 calls)
     stres_dftd3  :      0.03s CPU      0.04s WALL (       1 calls)

     Called by init_run:
     wfcinit      :      0.26s CPU      0.29s WALL (       1 calls)
     potinit      :      0.52s CPU      0.57s WALL (       1 calls)
     hinit0       :      0.70s CPU      0.75s WALL (       1 calls)

     Called by electrons:
     c_bands      :     16.97s CPU     17.88s WALL (      19 calls)
     sum_band     :     12.29s CPU     14.95s WALL (      19 calls)
     v_of_rho     :      1.60s CPU      1.79s WALL (      20 calls)
     newd         :      5.41s CPU      8.14s WALL (      20 calls)
     PAW_pot      :      3.61s CPU      3.65s WALL (      20 calls)
     mix_rho      :      0.24s CPU      0.25s WALL (      19 calls)
     energy_dftd3 :      0.03s CPU      0.03s WALL (       1 calls)

     Called by c_bands:
     init_us_2    :      0.49s CPU      0.51s WALL (     984 calls)
     init_us_2:cp :      0.48s CPU      0.50s WALL (     984 calls)
     cegterg      :     13.48s CPU     14.35s WALL (     456 calls)

     Called by *egterg:
     cdiaghg      :      1.11s CPU      1.14s WALL (    2013 calls)
     h_psi        :     10.13s CPU     10.94s WALL (    2037 calls)
     s_psi        :      0.44s CPU      0.46s WALL (    2037 calls)
     g_psi        :      0.04s CPU      0.04s WALL (    1557 calls)

     Called by h_psi:
     h_psi:calbec :      0.95s CPU      1.00s WALL (    2037 calls)
     vloc_psi     :      8.44s CPU      9.18s WALL (    2037 calls)
     add_vuspsi   :      0.64s CPU      0.67s WALL (    2037 calls)

     General routines
     calbec       :      1.95s CPU      2.02s WALL (    2613 calls)
     fft          :      0.98s CPU      1.23s WALL (     538 calls)
     ffts         :      0.02s CPU      0.02s WALL (      78 calls)
     fftw         :      6.53s CPU      7.21s WALL (   64152 calls)
     interpolate  :      0.08s CPU      0.08s WALL (      40 calls)
 
     Parallel routines
 
     PWSCF        :     47.51s CPU     55.02s WALL

 
   This run was terminated on:  13: 9:58  16Jul2025            

=------------------------------------------------------------------------------=
   JOB DONE.
=------------------------------------------------------------------------------=
