
     Program PWSCF v.7.2 starts on 16Jul2025 at 13:10: 2 

     This program is part of the open-source Quantum ESPRESSO suite
     for quantum simulation of materials; please cite
         "P. Giannozzi et al., J. Phys.:Condens. Matter 21 395502 (2009);
         "P. Giannozzi et al., J. Phys.:Condens. Matter 29 465901 (2017);
         "P. Giannozzi et al., J. Chem. Phys. 152 154105 (2020);
          URL http://www.quantum-espresso.org", 
     in publications or presentations arising from this work. More details at
     http://www.quantum-espresso.org/quote

     Parallel version (MPI), running on    16 processors

     MPI processes distributed on     1 nodes
     22362 MiB available memory on the printing compute node when the environment starts
 
     Waiting for input...
     Reading input from standard input

     Current dimensions of program PWSCF are:
     Max number of different atomic species (ntypx) = 10
     Max number of k-points (npk) =  40000
     Max angular momentum in pseudopotentials (lmaxx) =  4
     file Mo.pbe-spn-kjpaw_psl.1.0.0.UPF: wavefunction(s)  4S 4D renormalized
     file S.pbe-n-kjpaw_psl.1.0.0.UPF: wavefunction(s)  3S 3P renormalized
     file Co.pbe-n-kjpaw_psl.1.0.0.UPF: wavefunction(s)  4S 3D renormalized
     Message from routine setup:
     using ibrav=0 with symmetry is DISCOURAGED, use correct ibrav instead
 
     R & G space division:  proc/nbgrp/npool/nimage =      16
     Subspace diagonalization in iterative solution of the eigenvalue problem:
     a serial algorithm will be used

 
     Parallelization info
     --------------------
     sticks:   dense  smooth     PW     G-vecs:    dense   smooth      PW
     Min         108      42     12                21751     5486     866
     Max         110      43     13                21762     5513     891
     Sum        1735     685    199               348105    87947   14017
 
     Using Slab Decomposition
 


     bravais-lattice index     =            0
     lattice parameter (alat)  =       5.9812  a.u.
     unit-cell volume          =    1112.3952 (a.u.)^3
     number of atoms/cell      =            4
     number of atomic types    =            3
     number of electrons       =        35.00
     number of Kohn-Sham states=           22
     kinetic-energy cutoff     =      70.0000  Ry
     charge density cutoff     =     700.0000  Ry
     scf convergence threshold =      1.0E-06
     mixing beta               =       0.7000
     number of iterations used =            8  plain     mixing
     Exchange-correlation= SLA  PW   PBX  PBC
                           (   1   4   3   4   0   0   0)

     celldm(1)=   5.981197  celldm(2)=   0.000000  celldm(3)=   0.000000
     celldm(4)=   0.000000  celldm(5)=   0.000000  celldm(6)=   0.000000

     crystal axes: (cart. coord. in units of alat)
               a(1) = (   1.000000   0.000000   0.000000 )  
               a(2) = (  -0.500000   0.866025   0.000000 )  
               a(3) = (   0.000000   0.000000   6.002945 )  

     reciprocal axes: (cart. coord. in units 2 pi/alat)
               b(1) = (  1.000000  0.577351  0.000000 )  
               b(2) = (  0.000000  1.154701  0.000000 )  
               b(3) = (  0.000000  0.000000  0.166585 )  


     PseudoPot. # 1 for Mo read from file:
     /shared/ESPRESSO/PSLIBRARY/1.0.0/pbe/PSEUDOPOTENTIALS/Mo.pbe-spn-kjpaw_psl.1.0.0.UPF
     MD5 check sum: 4396e0c640fcce5c25f020efccf1ab12
     Pseudo is Projector augmented-wave + core cor, Zval = 14.0
     Generated using &quot;atomic&quot; code by A. Dal Corso  v.6.3
     Shape of augmentation charge: PSQ
     Using radial grid of 1229 points,  6 beta functions with: 
                l(1) =   0
                l(2) =   0
                l(3) =   1
                l(4) =   1
                l(5) =   2
                l(6) =   2
     Q(r) pseudized with 0 coefficients 


     PseudoPot. # 2 for S  read from file:
     /shared/ESPRESSO/PSLIBRARY/1.0.0/pbe/PSEUDOPOTENTIALS/S.pbe-n-kjpaw_psl.1.0.0.UPF
     MD5 check sum: c08f931834bcc19553f8bde8f1a3adc5
     Pseudo is Projector augmented-wave + core cor, Zval =  6.0
     Generated using "atomic" code by A. Dal Corso  (Quantum ESPRESSO distribution)
     Shape of augmentation charge: PSQ
     Using radial grid of 1151 points,  6 beta functions with: 
                l(1) =   0
                l(2) =   0
                l(3) =   1
                l(4) =   1
                l(5) =   2
                l(6) =   2
     Q(r) pseudized with 0 coefficients 


     PseudoPot. # 3 for Co read from file:
     /shared/ESPRESSO/PSLIBRARY/1.0.0/pbe/PSEUDOPOTENTIALS/Co.pbe-n-kjpaw_psl.1.0.0.UPF
     MD5 check sum: 17e7ab8db721b244d1352252ea6cb8e7
     Pseudo is Projector augmented-wave + core cor, Zval =  9.0
     Generated using "atomic" code by A. Dal Corso  (Quantum ESPRESSO distribution)
     Shape of augmentation charge: PSQ
     Using radial grid of 1193 points,  6 beta functions with: 
                l(1) =   0
                l(2) =   0
                l(3) =   1
                l(4) =   1
                l(5) =   2
                l(6) =   2
     Q(r) pseudized with 0 coefficients 


     atomic species   valence    mass     pseudopotential
        Mo            14.00    95.94000     Mo( 1.00)
        S              6.00    32.06500     S ( 1.00)
        Co             9.00    58.93320     Co( 1.00)

     Starting magnetic structure 
     atomic species   magnetization
        Mo           0.000
        S            0.000
        Co           0.800

      6 Sym. Ops. (no inversion) found



   Cartesian axes

     site n.     atom                  positions (alat units)
         1           Mo  tau(   1) = (   0.0000000   0.0000000   3.0014725  )
         2           S   tau(   2) = (   0.5000000   0.2886750   3.4964188  )
         3           S   tau(   3) = (   0.5000000   0.2886750   2.5065262  )
         4           Co  tau(   4) = (   0.0000000   0.0000000   4.1283077  )

     --------------------------------------------
     DFT-D3 Dispersion Correction (3-body terms):
     --------------------------------------------
       Reference C6 values for interpolation: 

         atom   Coordination number   C6
         S          0.000           268.01
         S          0.995           261.99
         S          1.990           251.62
         Co         0.000          1065.56
         Co         1.715           373.09
         Co         2.926           296.13
         Co         7.779           236.57
         Mo         0.000          1691.79
         Mo         1.942          1004.01
         Mo        11.056           674.22

       Values used:

         atom   Coordination number  R0_AB[au]  C6      C8
         Mo        10.170            3.547    674.21  77634.20
         S          5.160            3.128    251.62  12327.25
         S          3.718            3.128    251.62  12327.25
         Co         1.982            3.243    370.12  32543.38

         Molecular C6 ( Ry / a.u.^6 ) =      5896.60


     number of k points=    27  Gaussian smearing, width (Ry)=  0.0073
                       cart. coord. in units 2pi/alat
        k(    1) = (   0.0000000   0.0000000   0.0000000), wk =   0.0044444
        k(    2) = (   0.0000000   0.0769801   0.0000000), wk =   0.0266667
        k(    3) = (   0.0000000   0.1539601   0.0000000), wk =   0.0266667
        k(    4) = (   0.0000000   0.2309402   0.0000000), wk =   0.0266667
        k(    5) = (   0.0000000   0.3079203   0.0000000), wk =   0.0266667
        k(    6) = (   0.0000000   0.3849004   0.0000000), wk =   0.0266667
        k(    7) = (   0.0000000   0.4618804   0.0000000), wk =   0.0266667
        k(    8) = (   0.0000000   0.5388605   0.0000000), wk =   0.0266667
        k(    9) = (   0.0666667   0.1154701   0.0000000), wk =   0.0266667
        k(   10) = (   0.0666667   0.1924502   0.0000000), wk =   0.0533333
        k(   11) = (   0.0666667   0.2694303   0.0000000), wk =   0.0533333
        k(   12) = (   0.0666667   0.3464103   0.0000000), wk =   0.0533333
        k(   13) = (   0.0666667   0.4233904   0.0000000), wk =   0.0533333
        k(   14) = (   0.0666667   0.5003705   0.0000000), wk =   0.0533333
        k(   15) = (   0.0666667   0.5773505   0.0000000), wk =   0.0266667
        k(   16) = (   0.1333333   0.2309402   0.0000000), wk =   0.0266667
        k(   17) = (   0.1333333   0.3079203   0.0000000), wk =   0.0533333
        k(   18) = (   0.1333333   0.3849004   0.0000000), wk =   0.0533333
        k(   19) = (   0.1333333   0.4618804   0.0000000), wk =   0.0533333
        k(   20) = (   0.1333333   0.5388605   0.0000000), wk =   0.0533333
        k(   21) = (   0.2000000   0.3464103   0.0000000), wk =   0.0266667
        k(   22) = (   0.2000000   0.4233904   0.0000000), wk =   0.0533333
        k(   23) = (   0.2000000   0.5003705   0.0000000), wk =   0.0533333
        k(   24) = (   0.2000000   0.5773505   0.0000000), wk =   0.0266667
        k(   25) = (   0.2666667   0.4618804   0.0000000), wk =   0.0266667
        k(   26) = (   0.2666667   0.5388605   0.0000000), wk =   0.0533333
        k(   27) = (   0.3333333   0.5773505   0.0000000), wk =   0.0088889

     Dense  grid:   348105 G-vectors     FFT dimensions: (  54,  54, 320)

     Smooth grid:    87947 G-vectors     FFT dimensions: (  32,  32, 192)

     Estimated max dynamical RAM per process >     110.16 MB

     Estimated total dynamical RAM >       1.72 GB
     Generating pointlists ...
     new r_m :   0.3137 (alat units)  1.8762 (a.u.) for type    1
     new r_m :   0.3137 (alat units)  1.8762 (a.u.) for type    2
     new r_m :   0.3531 (alat units)  2.1118 (a.u.) for type    3

     Initial potential from superposition of free atoms

     starting charge      34.9988, renormalised to      35.0000

     negative rho (up, down):  2.107E-05 2.044E-05
     Starting wfcs are   27 randomized atomic wfcs
     Checking if some PAW data can be deallocated... 

     total cpu time spent up to now is        2.7 secs

     Self-consistent Calculation

     iteration #  1     ecut=    70.00 Ry     beta= 0.70
     Davidson diagonalization with overlap
     ethr =  1.00E-02,  avg # of iterations =  2.1

     negative rho (up, down):  1.547E-07 2.215E-07

     total cpu time spent up to now is        6.0 secs

     total energy              =    -657.35131570 Ry
     estimated scf accuracy    <       1.51308749 Ry

     total magnetization       =     3.10 Bohr mag/cell
     absolute magnetization    =     3.72 Bohr mag/cell

     iteration #  2     ecut=    70.00 Ry     beta= 0.70
     Davidson diagonalization with overlap
     ethr =  4.32E-03,  avg # of iterations =  8.0

     negative rho (up, down):  1.105E-07 1.423E-07

     total cpu time spent up to now is        9.8 secs

     total energy              =    -649.24421799 Ry
     estimated scf accuracy    <     297.42499053 Ry

     total magnetization       =     0.67 Bohr mag/cell
     absolute magnetization    =     0.73 Bohr mag/cell

     iteration #  3     ecut=    70.00 Ry     beta= 0.70
     Davidson diagonalization with overlap
     ethr =  4.32E-03,  avg # of iterations =  8.3

     negative rho (up, down):  1.084E-07 1.970E-07

     total cpu time spent up to now is       14.1 secs

     total energy              =    -658.41925785 Ry
     estimated scf accuracy    <      11.45271921 Ry

     total magnetization       =     0.35 Bohr mag/cell
     absolute magnetization    =     0.52 Bohr mag/cell

     iteration #  4     ecut=    70.00 Ry     beta= 0.70
     Davidson diagonalization with overlap
     ethr =  4.32E-03,  avg # of iterations =  1.7

     negative rho (up, down):  3.480E-07 3.648E-07

     total cpu time spent up to now is       17.3 secs

     total energy              =    -658.50529654 Ry
     estimated scf accuracy    <       1.14305803 Ry

     total magnetization       =     2.15 Bohr mag/cell
     absolute magnetization    =     2.19 Bohr mag/cell

     iteration #  5     ecut=    70.00 Ry     beta= 0.70
     Davidson diagonalization with overlap
     ethr =  3.27E-03,  avg # of iterations =  2.6

     negative rho (up, down):  3.622E-06 3.969E-06

     total cpu time spent up to now is       20.8 secs

     total energy              =    -658.46566770 Ry
     estimated scf accuracy    <       5.19787024 Ry

     total magnetization       =     0.52 Bohr mag/cell
     absolute magnetization    =     0.75 Bohr mag/cell

     iteration #  6     ecut=    70.00 Ry     beta= 0.70
     Davidson diagonalization with overlap
     ethr =  3.27E-03,  avg # of iterations =  1.5

     negative rho (up, down):  5.623E-04 4.884E-04

     total cpu time spent up to now is       24.0 secs

     total energy              =    -658.57432701 Ry
     estimated scf accuracy    <       0.24101305 Ry

     total magnetization       =     1.96 Bohr mag/cell
     absolute magnetization    =     2.10 Bohr mag/cell

     iteration #  7     ecut=    70.00 Ry     beta= 0.70
     Davidson diagonalization with overlap
     ethr =  6.89E-04,  avg # of iterations =  5.1

     negative rho (up, down):  2.732E-03 2.416E-03

     total cpu time spent up to now is       27.9 secs

     total energy              =    -658.60503272 Ry
     estimated scf accuracy    <       0.14389598 Ry

     total magnetization       =     2.06 Bohr mag/cell
     absolute magnetization    =     2.25 Bohr mag/cell

     iteration #  8     ecut=    70.00 Ry     beta= 0.70
     Davidson diagonalization with overlap
     ethr =  4.11E-04,  avg # of iterations =  1.6

     negative rho (up, down):  5.330E-03 4.708E-03

     total cpu time spent up to now is       31.1 secs

     total energy              =    -658.60704530 Ry
     estimated scf accuracy    <       0.03731759 Ry

     total magnetization       =     2.08 Bohr mag/cell
     absolute magnetization    =     2.25 Bohr mag/cell

     iteration #  9     ecut=    70.00 Ry     beta= 0.70
     Davidson diagonalization with overlap
     ethr =  1.07E-04,  avg # of iterations =  4.9

     negative rho (up, down):  2.668E-03 2.389E-03

     total cpu time spent up to now is       34.8 secs

     total energy              =    -658.61208834 Ry
     estimated scf accuracy    <       0.01771149 Ry

     total magnetization       =     2.17 Bohr mag/cell
     absolute magnetization    =     2.34 Bohr mag/cell

     iteration # 10     ecut=    70.00 Ry     beta= 0.70
     Davidson diagonalization with overlap
     ethr =  5.06E-05,  avg # of iterations =  1.8

     negative rho (up, down):  3.416E-04 3.380E-04

     total cpu time spent up to now is       38.0 secs

     total energy              =    -658.61174013 Ry
     estimated scf accuracy    <       0.01113093 Ry

     total magnetization       =     2.16 Bohr mag/cell
     absolute magnetization    =     2.32 Bohr mag/cell

     iteration # 11     ecut=    70.00 Ry     beta= 0.70
     Davidson diagonalization with overlap
     ethr =  3.18E-05,  avg # of iterations =  1.5

     negative rho (up, down):  4.964E-05 5.682E-05

     total cpu time spent up to now is       41.3 secs

     total energy              =    -658.61242628 Ry
     estimated scf accuracy    <       0.00170981 Ry

     total magnetization       =     2.14 Bohr mag/cell
     absolute magnetization    =     2.29 Bohr mag/cell

     iteration # 12     ecut=    70.00 Ry     beta= 0.70
     Davidson diagonalization with overlap
     ethr =  4.89E-06,  avg # of iterations =  4.7

     negative rho (up, down):  2.519E-05 2.852E-05

     total cpu time spent up to now is       45.0 secs

     total energy              =    -658.61265984 Ry
     estimated scf accuracy    <       0.00093732 Ry

     total magnetization       =     2.14 Bohr mag/cell
     absolute magnetization    =     2.29 Bohr mag/cell

     iteration # 13     ecut=    70.00 Ry     beta= 0.70
     Davidson diagonalization with overlap
     ethr =  2.68E-06,  avg # of iterations =  1.9

     negative rho (up, down):  2.004E-05 2.137E-05

     total cpu time spent up to now is       48.2 secs

     total energy              =    -658.61281220 Ry
     estimated scf accuracy    <       0.00008408 Ry

     total magnetization       =     2.15 Bohr mag/cell
     absolute magnetization    =     2.28 Bohr mag/cell

     iteration # 14     ecut=    70.00 Ry     beta= 0.70
     Davidson diagonalization with overlap
     ethr =  2.40E-07,  avg # of iterations =  4.4

     negative rho (up, down):  2.001E-05 2.129E-05

     total cpu time spent up to now is       51.9 secs

     total energy              =    -658.61287333 Ry
     estimated scf accuracy    <       0.00016506 Ry

     total magnetization       =     2.15 Bohr mag/cell
     absolute magnetization    =     2.28 Bohr mag/cell

     iteration # 15     ecut=    70.00 Ry     beta= 0.70
     Davidson diagonalization with overlap
     ethr =  2.40E-07,  avg # of iterations =  2.0

     negative rho (up, down):  2.194E-05 2.384E-05

     total cpu time spent up to now is       55.3 secs

     total energy              =    -658.61288872 Ry
     estimated scf accuracy    <       0.00004428 Ry

     total magnetization       =     2.15 Bohr mag/cell
     absolute magnetization    =     2.28 Bohr mag/cell

     iteration # 16     ecut=    70.00 Ry     beta= 0.70
     Davidson diagonalization with overlap
     ethr =  1.27E-07,  avg # of iterations =  2.3

     negative rho (up, down):  2.305E-05 2.528E-05

     total cpu time spent up to now is       58.6 secs

     total energy              =    -658.61289917 Ry
     estimated scf accuracy    <       0.00000765 Ry

     total magnetization       =     2.15 Bohr mag/cell
     absolute magnetization    =     2.28 Bohr mag/cell

     iteration # 17     ecut=    70.00 Ry     beta= 0.70
     Davidson diagonalization with overlap
     ethr =  2.19E-08,  avg # of iterations =  3.8

     negative rho (up, down):  2.241E-05 2.446E-05

     total cpu time spent up to now is       62.1 secs

     total energy              =    -658.61290435 Ry
     estimated scf accuracy    <       0.00000622 Ry

     total magnetization       =     2.15 Bohr mag/cell
     absolute magnetization    =     2.28 Bohr mag/cell

     iteration # 18     ecut=    70.00 Ry     beta= 0.70
     Davidson diagonalization with overlap
     ethr =  1.78E-08,  avg # of iterations =  2.3

     negative rho (up, down):  2.207E-05 2.401E-05
 
     Magnetic moment per site  (integrated on atomic sphere of radius R)
     atom   1 (R=0.314)  charge= 10.7656  magn=  0.0200
     atom   2 (R=0.314)  charge=  4.1747  magn=  0.0425
     atom   3 (R=0.314)  charge=  4.1376  magn=  0.0035
     atom   4 (R=0.353)  charge=  7.5713  magn=  2.0642

     total cpu time spent up to now is       65.4 secs

     End of self-consistent calculation

 ------ SPIN UP ------------


          k = 0.0000 0.0000 0.0000 ( 10889 PWs)   bands (ev):

   -60.0468 -34.2550 -33.9664 -33.9663 -13.8340 -12.3866  -5.6317  -2.6426
    -1.9721  -1.9720  -1.0778  -0.9395  -0.9395  -0.2497  -0.2497   0.1657
     0.3578   0.3578   1.1356   3.3014   3.3014   3.6996

          k = 0.0000 0.0770 0.0000 ( 10905 PWs)   bands (ev):

   -60.0451 -34.2516 -33.9840 -33.9703 -13.7692 -12.3529  -5.5603  -2.6438
    -2.1424  -1.9152  -1.2925  -1.0322  -0.8127  -0.2637  -0.2362   0.1671
     0.3311   0.3536   1.2095   3.1749   3.3590   3.5262

          k = 0.0000 0.1540 0.0000 ( 10922 PWs)   bands (ev):

   -60.0401 -34.2417 -34.0336 -33.9816 -13.5818 -12.2544  -5.3647  -2.7292
    -2.5537  -1.7800  -1.5240  -1.2491  -0.7794  -0.2883  -0.1848   0.1055
     0.2871   0.3439   1.3251   2.9626   3.2801   3.3087

          k = 0.0000 0.2309 0.0000 ( 10968 PWs)   bands (ev):

   -60.0328 -34.2272 -34.1061 -33.9982 -13.2919 -12.0997  -5.1106  -3.1908
    -2.8703  -1.8058  -1.6350  -1.2993  -0.8361  -0.3210  -0.0947   0.0121
     0.1605   0.3397   1.3534   2.8994   3.1326   3.3573

          k = 0.0000 0.3079 0.0000 ( 11000 PWs)   bands (ev):

   -60.0244 -34.2105 -34.1882 -34.0171 -12.9351 -11.9040  -4.9401  -3.7356
    -3.1991  -2.0809  -1.7162  -1.0767  -0.8649  -0.3964  -0.1637   0.0177
     0.1230   0.3585   1.4489   2.9880   3.0555   3.7121

          k = 0.0000 0.3849 0.0000 ( 11018 PWs)   bands (ev):

   -60.0164 -34.2658 -34.1944 -34.0352 -12.5654 -11.6906  -5.0426  -4.1444
    -3.4866  -2.3512  -1.8472  -0.8615  -0.8597  -0.4488  -0.2557   0.1325
     0.1758   0.4116   1.8003   2.9397   3.3322   4.1102

          k = 0.0000 0.4619 0.0000 ( 10996 PWs)   bands (ev):

   -60.0101 -34.3258 -34.1819 -34.0492 -12.2548 -11.4951  -5.3469  -4.4166
    -3.6712  -2.5487  -1.9855  -0.8638  -0.7291  -0.3542  -0.2561   0.2304
     0.2575   0.4782   2.3789   2.9867   3.6237   4.3793

          k = 0.0000 0.5389 0.0000 ( 11018 PWs)   bands (ev):

   -60.0067 -34.3584 -34.1750 -34.0569 -12.0773 -11.3709  -5.5746  -4.5734
    -3.7696  -2.6516  -2.0664  -0.8696  -0.6764  -0.3045  -0.1745   0.2882
     0.3479   0.5209   2.9835   3.0548   3.7305   4.4883

          k = 0.0667 0.1155 0.0000 ( 10922 PWs)   bands (ev):

   -60.0417 -34.2449 -34.0171 -33.9786 -13.6431 -12.2867  -5.4262  -2.6744
    -2.4394  -1.8222  -1.4598  -1.2331  -0.7475  -0.2779  -0.2046   0.1298
     0.3115   0.3431   1.3017   3.0079   3.3092   3.3363

          k = 0.0667 0.1925 0.0000 ( 10971 PWs)   bands (ev):

   -60.0356 -34.2327 -34.0765 -33.9940 -13.4042 -12.1599  -5.1971  -2.9411
    -2.7834  -1.8421  -1.6085  -1.3533  -0.7534  -0.2846  -0.1376   0.0594
     0.2309   0.3291   1.3492   2.8964   3.1723   3.2067

          k = 0.0667 0.2694 0.0000 ( 10992 PWs)   bands (ev):

   -60.0278 -34.2171 -34.1517 -34.0138 -13.0800 -11.9838  -4.9714  -3.4715
    -3.0488  -2.1903  -1.6128  -1.2011  -0.7995  -0.3228  -0.0683  -0.0453
     0.1463   0.3288   1.3634   2.9121   3.0801   3.4294

          k = 0.0667 0.3464 0.0000 ( 10980 PWs)   bands (ev):

   -60.0195 -34.2295 -34.2007 -34.0345 -12.7145 -11.7771  -4.9288  -3.9276
    -3.3722  -2.4611  -1.7011  -1.0482  -0.8107  -0.4031  -0.2050   0.0308
     0.2169   0.3645   1.5558   2.9484   3.2167   3.8433

          k = 0.0667 0.4234 0.0000 ( 11013 PWs)   bands (ev):

   -60.0124 -34.2964 -34.1864 -34.0524 -12.3708 -11.5684  -5.1577  -4.2567
    -3.6177  -2.6188  -1.8618  -1.0125  -0.7766  -0.3726  -0.2338   0.1126
     0.2966   0.4391   2.0100   3.0465   3.4797   4.2615

          k = 0.0667 0.5004 0.0000 ( 11005 PWs)   bands (ev):

   -60.0075 -34.3414 -34.1767 -34.0645 -12.1238 -11.4020  -5.4373  -4.4889
    -3.7640  -2.6899  -2.0182  -1.0065  -0.7424  -0.3038  -0.1841   0.2088
     0.3523   0.5130   2.6196   3.1453   3.7436   4.5332

          k = 0.0667 0.5774 0.0000 ( 11026 PWs)   bands (ev):

   -60.0058 -34.3573 -34.1733 -34.0688 -12.0342 -11.3360  -5.5540  -4.5768
    -3.8176  -2.7064  -2.0827  -1.0055  -0.7308  -0.2906  -0.1425   0.2627
     0.3772   0.5475   2.9899   3.2248   3.7596   4.4168

          k = 0.1333 0.2309 0.0000 ( 10994 PWs)   bands (ev):

   -60.0289 -34.2195 -34.1361 -34.0155 -13.1303 -12.0109  -4.9858  -3.3196
    -2.9823  -2.3309  -1.6093  -1.2431  -0.7368  -0.2688  -0.0840   0.0009
     0.1678   0.3059   1.3346   2.8696   3.1007   3.2568

          k = 0.1333 0.3079 0.0000 ( 11005 PWs)   bands (ev):

   -60.0213 -34.2046 -34.2019 -34.0415 -12.7949 -11.8215  -4.8632  -3.6828
    -3.2768  -2.7305  -1.6860  -1.1421  -0.7306  -0.3400  -0.1430  -0.0109
     0.2624   0.3070   1.3952   2.9025   3.1863   3.5794

          k = 0.1333 0.3849 0.0000 ( 11007 PWs)   bands (ev):

   -60.0139 -34.2644 -34.1895 -34.0669 -12.4503 -11.6141  -4.9663  -4.0054
    -3.6030  -2.8561  -1.8341  -1.2153  -0.7025  -0.3887  -0.1862   0.0395
     0.3212   0.4047   1.6973   3.1287   3.3323   3.9974

          k = 0.1333 0.4619 0.0000 ( 11014 PWs)   bands (ev):

   -60.0082 -34.3123 -34.1780 -34.0869 -12.1639 -11.4241  -5.2054  -4.3286
    -3.7804  -2.8494  -2.0056  -1.3517  -0.6780  -0.3204  -0.1808   0.1032
     0.3583   0.5004   2.2502   3.2648   3.6432   4.3400

          k = 0.1333 0.5389 0.0000 ( 11040 PWs)   bands (ev):

   -60.0050 -34.3383 -34.1717 -34.0979 -12.0014 -11.3044  -5.3823  -4.5207
    -3.8848  -2.7853  -2.1589  -1.4206  -0.6687  -0.2753  -0.1550   0.1830
     0.3790   0.5818   2.8071   3.3080   3.9300   4.2101

          k = 0.2000 0.3464 0.0000 ( 11004 PWs)   bands (ev):

   -60.0145 -34.2492 -34.1906 -34.0761 -12.4785 -11.6295  -4.8844  -3.8130
    -3.6408  -2.9972  -1.9177  -1.2278  -0.6512  -0.4094  -0.1616   0.0265
     0.3033   0.4119   1.5770   3.1279   3.2845   3.8834

          k = 0.2000 0.4234 0.0000 ( 11009 PWs)   bands (ev):

   -60.0085 -34.2861 -34.1788 -34.1097 -12.1872 -11.4351  -5.0114  -4.2030
    -3.7257  -3.0485  -2.1858  -1.4344  -0.5828  -0.3798  -0.1717   0.0496
     0.3468   0.4884   2.0294   3.2847   3.5490   4.1811

          k = 0.2000 0.5004 0.0000 ( 11021 PWs)   bands (ev):

   -60.0045 -34.3093 -34.1707 -34.1342 -11.9816 -11.2824  -5.1476  -4.4768
    -3.8465  -2.9583  -2.3979  -1.6391  -0.5544  -0.2944  -0.1771   0.0873
     0.3942   0.5763   2.5771   3.2559   3.8456   4.3715

          k = 0.2000 0.5774 0.0000 ( 11034 PWs)   bands (ev):

   -60.0031 -34.3172 -34.1679 -34.1432 -11.9076 -11.2230  -5.2081  -4.5570
    -3.9287  -2.8547  -2.5157  -1.7237  -0.5482  -0.2601  -0.1805   0.1111
     0.4041   0.6561   2.7428   3.4329   3.8855   4.3238

          k = 0.2667 0.4619 0.0000 ( 11028 PWs)   bands (ev):

   -60.0043 -34.2923 -34.1704 -34.1539 -11.9751 -11.2745  -5.0247  -4.4921
    -3.6857  -3.1999  -2.5120  -1.6606  -0.4796  -0.3292  -0.1848   0.0426
     0.4142   0.5562   2.4804   3.2016   3.7924   4.4619

          k = 0.2667 0.5389 0.0000 ( 11052 PWs)   bands (ev):

   -60.0020 -34.2881 -34.1856 -34.1658 -11.8570 -11.1768  -5.0526  -4.5697
    -3.7931  -3.2620  -2.6262  -1.8347  -0.4312  -0.2753  -0.1904   0.0183
     0.4314   0.7209   2.5613   3.3497   3.9180   4.7216

          k = 0.3333 0.5774 0.0000 ( 11052 PWs)   bands (ev):

   -60.0011 -34.2653 -34.2191 -34.1640 -11.8127 -11.1377  -5.0386  -4.5178
    -3.6634  -3.6160  -2.6251  -1.9206  -0.3664  -0.2896  -0.1597  -0.0486
     0.4366   0.8346   2.4243   3.3756   4.0843   5.0035

 ------ SPIN DOWN ----------


          k = 0.0000 0.0000 0.0000 ( 10889 PWs)   bands (ev):

   -60.0307 -34.2217 -33.9565 -33.9565 -13.7959 -12.3699  -5.5846  -2.5054
    -1.9375  -1.9375  -0.8705  -0.8705  -0.1445   1.1069   1.6452   1.6452
     1.7485   1.7485   2.2582   3.4380   3.4380   3.7393

          k = 0.0000 0.0770 0.0000 ( 10905 PWs)   bands (ev):

   -60.0290 -34.2183 -33.9741 -33.9605 -13.7309 -12.3364  -5.5126  -2.5286
    -2.1039  -1.8774  -1.0075  -0.9760  -0.0356   0.9871   1.6147   1.6499
     1.7656   1.8259   2.3236   3.3279   3.5230   3.5507

          k = 0.0000 0.1540 0.0000 ( 10922 PWs)   bands (ev):

   -60.0240 -34.2084 -34.0237 -33.9718 -13.5424 -12.2388  -5.3151  -2.6657
    -2.5081  -1.7271  -1.2213  -1.2148   0.0767   0.7112   1.5465   1.6352
     1.8425   1.9676   2.4611   3.1138   3.2989   3.4625

          k = 0.0000 0.2309 0.0000 ( 10968 PWs)   bands (ev):

   -60.0167 -34.1939 -34.0961 -33.9883 -13.2508 -12.0856  -5.0581  -3.1366
    -2.8413  -1.7401  -1.3707  -1.2874   0.0439   0.4283   1.4648   1.6038
     1.9770   2.0990   2.4464   3.0675   3.2788   3.4229

          k = 0.0000 0.3079 0.0000 ( 11000 PWs)   bands (ev):

   -60.0084 -34.1787 -34.1766 -34.0072 -12.8915 -11.8920  -4.8866  -3.6710
    -3.1764  -2.0315  -1.5291  -1.0370  -0.2097   0.4522   1.4078   1.5869
     2.1453   2.2036   2.3884   3.1256   3.2579   3.8209

          k = 0.0000 0.3849 0.0000 ( 11018 PWs)   bands (ev):

   -60.0003 -34.2557 -34.1610 -34.0253 -12.5187 -11.6812  -4.9925  -4.0740
    -3.4569  -2.3092  -1.7038  -0.7835  -0.3771   0.6299   1.4251   1.6058
     2.3230   2.3527   2.4673   3.0476   3.5229   4.2527

          k = 0.0000 0.4619 0.0000 ( 10996 PWs)   bands (ev):

   -59.9940 -34.3157 -34.1484 -34.0393 -12.2054 -11.4880  -5.2971  -4.3545
    -3.6304  -2.5101  -1.8504  -0.6123  -0.2988   0.7248   1.5123   1.6502
     2.4386   2.4747   2.8355   3.0515   3.8074   4.5578

          k = 0.0000 0.5389 0.0000 ( 11018 PWs)   bands (ev):

   -59.9906 -34.3482 -34.1415 -34.0470 -12.0265 -11.3648  -5.5239  -4.5182
    -3.7244  -2.6145  -1.9276  -0.5337  -0.1541   0.7452   1.5920   1.6842
     2.4580   2.5602   3.0915   3.2844   4.0303   4.6660

          k = 0.0667 0.1155 0.0000 ( 10922 PWs)   bands (ev):

   -60.0256 -34.2116 -34.0072 -33.9687 -13.6041 -12.2708  -5.3773  -2.5952
    -2.3970  -1.7737  -1.2324  -1.0951   0.0731   0.7977   1.5306   1.6783
     1.8075   1.9311   2.4281   3.1712   3.3203   3.4942

          k = 0.0667 0.1925 0.0000 ( 10971 PWs)   bands (ev):

   -60.0195 -34.1994 -34.0666 -33.9842 -13.3638 -12.1451  -5.1456  -2.8906
    -2.7444  -1.7787  -1.4618  -1.1449   0.1188   0.5253   1.4258   1.6549
     1.9189   2.0694   2.4750   3.0518   3.2468   3.3281

          k = 0.0667 0.2694 0.0000 ( 10992 PWs)   bands (ev):

   -60.0117 -34.1838 -34.1417 -34.0040 -13.0374 -11.9708  -4.9172  -3.4128
    -3.0236  -2.1423  -1.3960  -1.1060  -0.0489   0.4245   1.3473   1.6151
     2.0632   2.1930   2.3836   3.1043   3.2075   3.5544

          k = 0.0667 0.3464 0.0000 ( 10980 PWs)   bands (ev):

   -60.0035 -34.2194 -34.1673 -34.0246 -12.6691 -11.7666  -4.8760  -3.8584
    -3.3467  -2.4193  -1.5121  -0.9899  -0.2615   0.5816   1.3402   1.5978
     2.1951   2.3238   2.3930   3.0977   3.3780   4.0006

          k = 0.0667 0.4234 0.0000 ( 11013 PWs)   bands (ev):

   -59.9963 -34.2862 -34.1530 -34.0425 -12.3224 -11.5604  -5.1068  -4.1931
    -3.5783  -2.5771  -1.7053  -0.9311  -0.2301   0.7333   1.4275   1.6191
     2.3406   2.4544   2.5668   3.1575   3.6468   4.4333

          k = 0.0667 0.5004 0.0000 ( 11005 PWs)   bands (ev):

   -59.9914 -34.3312 -34.1432 -34.0546 -12.0734 -11.3956  -5.3855  -4.4370
    -3.7143  -2.6486  -1.8696  -0.8801  -0.0716   0.7847   1.5361   1.6558
     2.4564   2.5106   2.9219   3.2654   3.9598   4.7106

          k = 0.0667 0.5774 0.0000 ( 11026 PWs)   bands (ev):

   -59.9897 -34.3471 -34.1398 -34.0589 -11.9832 -11.3301  -5.5017  -4.5289
    -3.7655  -2.6659  -1.9338  -0.8572   0.0146   0.7921   1.5867   1.6699
     2.4831   2.5408   3.0804   3.3900   4.1471   4.5515

          k = 0.1333 0.2309 0.0000 ( 10994 PWs)   bands (ev):

   -60.0129 -34.1861 -34.1261 -34.0056 -13.0881 -11.9977  -4.9313  -3.2654
    -2.9514  -2.2893  -1.4335  -1.0276   0.0395   0.4443   1.2826   1.6366
     2.0351   2.2038   2.3816   3.0383   3.2092   3.4237

          k = 0.1333 0.3079 0.0000 ( 11005 PWs)   bands (ev):

   -60.0052 -34.1923 -34.1707 -34.0316 -12.7502 -11.8104  -4.8077  -3.6157
    -3.2527  -2.6910  -1.5140  -0.9752  -0.1566   0.5872   1.2146   1.6008
     2.1393   2.2793   2.3951   3.0707   3.2818   3.8044

          k = 0.1333 0.3849 0.0000 ( 11007 PWs)   bands (ev):

   -59.9978 -34.2543 -34.1561 -34.0570 -12.4027 -11.6054  -4.9126  -3.9441
    -3.5634  -2.8078  -1.6906  -1.1101  -0.1820   0.7979   1.2742   1.5838
     2.1721   2.4028   2.5415   3.2543   3.4448   4.2348

          k = 0.1333 0.4619 0.0000 ( 11014 PWs)   bands (ev):

   -59.9921 -34.3021 -34.1446 -34.0770 -12.1138 -11.4174  -5.1508  -4.2896
    -3.7150  -2.7960  -1.8628  -1.2886  -0.0402   0.8978   1.4284   1.5990
     2.2799   2.5012   2.7851   3.3596   3.7750   4.5765

          k = 0.1333 0.5389 0.0000 ( 11040 PWs)   bands (ev):

   -59.9890 -34.3281 -34.1383 -34.0880 -11.9502 -11.2985  -5.3262  -4.4907
    -3.8130  -2.7318  -2.0089  -1.3705   0.1162   0.9158   1.5342   1.6142
     2.4013   2.5407   3.0021   3.4473   4.1201   4.5034

          k = 0.2000 0.3464 0.0000 ( 11004 PWs)   bands (ev):

   -59.9984 -34.2390 -34.1572 -34.0661 -12.4311 -11.6205  -4.8290  -3.7488
    -3.6070  -2.9417  -1.8166  -1.0508  -0.1791   0.8640   1.1632   1.5676
     2.1122   2.3869   2.5519   3.2491   3.3681   4.1630

          k = 0.2000 0.4234 0.0000 ( 11009 PWs)   bands (ev):

   -59.9925 -34.2759 -34.1453 -34.0997 -12.1374 -11.4282  -4.9548  -4.1779
    -3.6424  -2.9759  -2.1287  -1.2975  -0.0674   1.0685   1.2676   1.5466
     2.1041   2.5102   2.7698   3.3875   3.6095   4.4933

          k = 0.2000 0.5004 0.0000 ( 11021 PWs)   bands (ev):

   -59.9884 -34.2991 -34.1373 -34.1242 -11.9304 -11.2765  -5.0896  -4.4578
    -3.7546  -2.8740  -2.3410  -1.5510   0.1323   1.0819   1.4419   1.5596
     2.1952   2.5765   2.9150   3.4571   3.9152   4.7124

          k = 0.2000 0.5774 0.0000 ( 11034 PWs)   bands (ev):

   -59.9870 -34.3070 -34.1344 -34.1332 -11.8560 -11.2173  -5.1500  -4.5391
    -3.8374  -2.7598  -2.4558  -1.6580   0.2393   1.0824   1.4968   1.5687
     2.2721   2.5959   2.8557   3.6409   4.0212   4.7450

          k = 0.2667 0.4619 0.0000 ( 11028 PWs)   bands (ev):

   -59.9883 -34.2821 -34.1439 -34.1369 -11.9239 -11.2686  -4.9695  -4.4656
    -3.5853  -3.1144  -2.4934  -1.5479   0.1273   1.2022   1.3619   1.5338
     2.0890   2.5878   2.8874   3.4238   3.8644   4.7837

          k = 0.2667 0.5389 0.0000 ( 11052 PWs)   bands (ev):

   -59.9860 -34.2779 -34.1756 -34.1323 -11.8052 -11.1712  -5.0107  -4.5194
    -3.7033  -3.1846  -2.5857  -1.7563   0.3166   1.2377   1.4153   1.5704
     2.1488   2.6153   2.6832   3.6103   4.0870   5.0836

          k = 0.3333 0.5774 0.0000 ( 11052 PWs)   bands (ev):

   -59.9851 -34.2551 -34.2092 -34.1305 -11.7607 -11.1321  -5.0140  -4.4255
    -3.5995  -3.5530  -2.5624  -1.8565   0.4063   1.3417   1.3666   1.5904
     2.1534   2.4751   2.6405   3.6170   4.2707   5.4905

     the Fermi energy is     2.0839 ev

!    total energy              =    -658.61290588 Ry
     total all-electron energy =    -12481.786797 Ry
     estimated scf accuracy    <       0.00000086 Ry
     smearing contrib. (-TS)   =      -0.00110815 Ry
     internal energy E=F+TS    =    -658.61179773 Ry

     The total energy is F=E-TS. E is the sum of the following terms:
     one-electron contribution =   -1346.49230854 Ry
     hartree contribution      =     686.54529139 Ry
     xc contribution           =     -62.30642558 Ry
     ewald contribution        =     469.86029902 Ry
     DFT-D3 Dispersion         =      -0.06413167 Ry
     one-center paw contrib.   =    -406.15452236 Ry

     total magnetization       =     2.14 Bohr mag/cell
     absolute magnetization    =     2.28 Bohr mag/cell

     convergence has been achieved in  18 iterations

     negative rho (up, down):  2.207E-05 2.401E-05

     Forces acting on atoms (cartesian axes, Ry/au):

     atom    1 type  1   force =     0.00000000    0.00000000   -0.01480997
     atom    2 type  2   force =     0.00000000    0.00000000    0.05335907
     atom    3 type  2   force =     0.00000000   -0.00000000   -0.00259060
     atom    4 type  3   force =     0.00000000   -0.00000000   -0.03595850
     The non-local contrib.  to forces
     atom    1 type  1   force =     0.00000000    0.00000000   -0.02842199
     atom    2 type  2   force =     0.00000000    0.00000000   -0.08070717
     atom    3 type  2   force =     0.00000000    0.00000000    0.26979311
     atom    4 type  3   force =     0.00000000    0.00000000   -0.04411788
     The ionic contribution  to forces
     atom    1 type  1   force =     0.00000000    0.00000500  -32.00609916
     atom    2 type  2   force =    -0.00000000   -0.00000324   19.14551092
     atom    3 type  2   force =    -0.00000000   -0.00000250  -45.87316648
     atom    4 type  3   force =     0.00000000    0.00000074   58.73375472
     The local contribution  to forces
     atom    1 type  1   force =     0.00000000   -0.00000301   32.01458708
     atom    2 type  2   force =    -0.00000000    0.00000228  -19.00486529
     atom    3 type  2   force =    -0.00000000    0.00000174   45.59996209
     atom    4 type  3   force =    -0.00000000   -0.00000044  -58.70822463
     The core correction contribution to forces
     atom    1 type  1   force =     0.00000000    0.00000000    0.00197464
     atom    2 type  2   force =     0.00000000    0.00000000   -0.00162061
     atom    3 type  2   force =     0.00000000    0.00000000   -0.00225237
     atom    4 type  3   force =     0.00000000    0.00000000   -0.01282625
     The Hubbard contrib.    to forces
     atom    1 type  1   force =     0.00000000    0.00000000    0.00000000
     atom    2 type  2   force =     0.00000000    0.00000000    0.00000000
     atom    3 type  2   force =     0.00000000    0.00000000    0.00000000
     atom    4 type  3   force =     0.00000000    0.00000000    0.00000000
     The SCF correction term to forces
     atom    1 type  1   force =    -0.00000000   -0.00000000   -0.00125258
     atom    2 type  2   force =     0.00000000   -0.00000000   -0.00177465
     atom    3 type  2   force =     0.00000000    0.00000000    0.00045407
     atom    4 type  3   force =    -0.00000000    0.00000000   -0.00114274

     DFT-D3 dispersion contribution to forces:
     atom    1 type  1   force =     0.00000000   -0.00000001    0.00429326
     atom    2 type  2   force =     0.00000000    0.00000000   -0.00329292
     atom    3 type  2   force =    -0.00000000    0.00000000    0.00251019
     atom    4 type  3   force =    -0.00000000    0.00000000   -0.00351052

     Total force =     0.066078     Total SCF correction =     0.002496


     Computing stress (Cartesian axis) and pressure


     negative rho (up, down):  2.207E-05 2.401E-05
          total   stress  (Ry/bohr**3)                   (kbar)     P=      -17.81
  -0.00015136   0.00000000   0.00000000          -22.27        0.00        0.00
   0.00000000  -0.00015136   0.00000000            0.00      -22.27        0.00
   0.00000000  -0.00000000  -0.00006039            0.00       -0.00       -8.88


     Writing all to output data dir ./tmp/scf.save/
 
     init_run     :      1.90s CPU      2.19s WALL (       1 calls)
     electrons    :     54.75s CPU     62.82s WALL (       1 calls)
     forces       :      1.37s CPU      1.52s WALL (       1 calls)
     force_dftd3  :      0.03s CPU      0.03s WALL (       1 calls)
     stress       :      5.67s CPU      6.19s WALL (       1 calls)
     stres_dftd3  :      0.03s CPU      0.03s WALL (       1 calls)

     Called by init_run:
     wfcinit      :      0.42s CPU      0.49s WALL (       1 calls)
     potinit      :      0.52s CPU      0.56s WALL (       1 calls)
     hinit0       :      0.65s CPU      0.73s WALL (       1 calls)

     Called by electrons:
     c_bands      :     31.87s CPU     34.18s WALL (      18 calls)
     sum_band     :     13.02s CPU     16.33s WALL (      18 calls)
     v_of_rho     :      1.40s CPU      1.61s WALL (      19 calls)
     newd         :      5.15s CPU      7.40s WALL (      19 calls)
     PAW_pot      :      3.33s CPU      3.39s WALL (      19 calls)
     mix_rho      :      0.21s CPU      0.21s WALL (      18 calls)
     energy_dftd3 :      0.03s CPU      0.03s WALL (       1 calls)

     Called by c_bands:
     init_us_2    :      0.83s CPU      0.86s WALL (    2106 calls)
     init_us_2:cp :      0.82s CPU      0.86s WALL (    2106 calls)
     cegterg      :     24.06s CPU     26.32s WALL (     972 calls)

     Called by *egterg:
     cdiaghg      :      1.92s CPU      2.00s WALL (    4233 calls)
     h_psi        :     17.95s CPU     19.99s WALL (    4287 calls)
     s_psi        :      0.61s CPU      0.65s WALL (    4287 calls)
     g_psi        :      0.07s CPU      0.07s WALL (    3261 calls)

     Called by h_psi:
     h_psi:calbec :      1.72s CPU      1.85s WALL (    4287 calls)
     vloc_psi     :     15.18s CPU     17.02s WALL (    4287 calls)
     add_vuspsi   :      0.89s CPU      0.95s WALL (    4287 calls)

     General routines
     calbec       :      2.96s CPU      3.15s WALL (    5529 calls)
     fft          :      1.01s CPU      1.35s WALL (     513 calls)
     ffts         :      0.02s CPU      0.02s WALL (      74 calls)
     fftw         :     13.16s CPU     14.94s WALL (  135142 calls)
     interpolate  :      0.07s CPU      0.09s WALL (      38 calls)
 
     Parallel routines
 
     PWSCF        :   1m 4.25s CPU   1m13.64s WALL

 
   This run was terminated on:  13:11:16  16Jul2025            

=------------------------------------------------------------------------------=
   JOB DONE.
=------------------------------------------------------------------------------=
