
     Program PWSCF v.7.2 starts on 16Jul2025 at 13: 9: 3 

     This program is part of the open-source Quantum ESPRESSO suite
     for quantum simulation of materials; please cite
         "P. Giannozzi et al., J. Phys.:Condens. Matter 21 395502 (2009);
         "P. Giannozzi et al., J. Phys.:Condens. Matter 29 465901 (2017);
         "P. Giannozzi et al., J. Chem. Phys. 152 154105 (2020);
          URL http://www.quantum-espresso.org", 
     in publications or presentations arising from this work. More details at
     http://www.quantum-espresso.org/quote

     Parallel version (MPI), running on    16 processors

     MPI processes distributed on     1 nodes
     23178 MiB available memory on the printing compute node when the environment starts
 
     Waiting for input...
     Reading input from standard input

     Current dimensions of program PWSCF are:
     Max number of different atomic species (ntypx) = 10
     Max number of k-points (npk) =  40000
     Max angular momentum in pseudopotentials (lmaxx) =  4
     file Mo.pbe-spn-kjpaw_psl.1.0.0.UPF: wavefunction(s)  4S 4D renormalized
     file S.pbe-n-kjpaw_psl.1.0.0.UPF: wavefunction(s)  3S 3P renormalized
     file Co.pbe-n-kjpaw_psl.1.0.0.UPF: wavefunction(s)  4S 3D renormalized
     Message from routine setup:
     using ibrav=0 with symmetry is DISCOURAGED, use correct ibrav instead
 
     R & G space division:  proc/nbgrp/npool/nimage =      16
     Subspace diagonalization in iterative solution of the eigenvalue problem:
     a serial algorithm will be used

 
     Parallelization info
     --------------------
     sticks:   dense  smooth     PW     G-vecs:    dense   smooth      PW
     Min         108      42     12                21751     5486     866
     Max         110      43     13                21762     5513     891
     Sum        1735     685    199               348105    87947   14017
 
     Using Slab Decomposition
 


     bravais-lattice index     =            0
     lattice parameter (alat)  =       5.9812  a.u.
     unit-cell volume          =    1112.3952 (a.u.)^3
     number of atoms/cell      =            4
     number of atomic types    =            3
     number of electrons       =        35.00
     number of Kohn-Sham states=           22
     kinetic-energy cutoff     =      70.0000  Ry
     charge density cutoff     =     700.0000  Ry
     scf convergence threshold =      1.0E-06
     mixing beta               =       0.7000
     number of iterations used =            8  plain     mixing
     Exchange-correlation= SLA  PW   PBX  PBC
                           (   1   4   3   4   0   0   0)

     celldm(1)=   5.981197  celldm(2)=   0.000000  celldm(3)=   0.000000
     celldm(4)=   0.000000  celldm(5)=   0.000000  celldm(6)=   0.000000

     crystal axes: (cart. coord. in units of alat)
               a(1) = (   1.000000   0.000000   0.000000 )  
               a(2) = (  -0.500000   0.866025   0.000000 )  
               a(3) = (   0.000000   0.000000   6.002945 )  

     reciprocal axes: (cart. coord. in units 2 pi/alat)
               b(1) = (  1.000000  0.577351  0.000000 )  
               b(2) = (  0.000000  1.154701  0.000000 )  
               b(3) = (  0.000000  0.000000  0.166585 )  


     PseudoPot. # 1 for Mo read from file:
     /shared/ESPRESSO/PSLIBRARY/1.0.0/pbe/PSEUDOPOTENTIALS/Mo.pbe-spn-kjpaw_psl.1.0.0.UPF
     MD5 check sum: 4396e0c640fcce5c25f020efccf1ab12
     Pseudo is Projector augmented-wave + core cor, Zval = 14.0
     Generated using &quot;atomic&quot; code by A. Dal Corso  v.6.3
     Shape of augmentation charge: PSQ
     Using radial grid of 1229 points,  6 beta functions with: 
                l(1) =   0
                l(2) =   0
                l(3) =   1
                l(4) =   1
                l(5) =   2
                l(6) =   2
     Q(r) pseudized with 0 coefficients 


     PseudoPot. # 2 for S  read from file:
     /shared/ESPRESSO/PSLIBRARY/1.0.0/pbe/PSEUDOPOTENTIALS/S.pbe-n-kjpaw_psl.1.0.0.UPF
     MD5 check sum: c08f931834bcc19553f8bde8f1a3adc5
     Pseudo is Projector augmented-wave + core cor, Zval =  6.0
     Generated using "atomic" code by A. Dal Corso  (Quantum ESPRESSO distribution)
     Shape of augmentation charge: PSQ
     Using radial grid of 1151 points,  6 beta functions with: 
                l(1) =   0
                l(2) =   0
                l(3) =   1
                l(4) =   1
                l(5) =   2
                l(6) =   2
     Q(r) pseudized with 0 coefficients 


     PseudoPot. # 3 for Co read from file:
     /shared/ESPRESSO/PSLIBRARY/1.0.0/pbe/PSEUDOPOTENTIALS/Co.pbe-n-kjpaw_psl.1.0.0.UPF
     MD5 check sum: 17e7ab8db721b244d1352252ea6cb8e7
     Pseudo is Projector augmented-wave + core cor, Zval =  9.0
     Generated using "atomic" code by A. Dal Corso  (Quantum ESPRESSO distribution)
     Shape of augmentation charge: PSQ
     Using radial grid of 1193 points,  6 beta functions with: 
                l(1) =   0
                l(2) =   0
                l(3) =   1
                l(4) =   1
                l(5) =   2
                l(6) =   2
     Q(r) pseudized with 0 coefficients 


     atomic species   valence    mass     pseudopotential
        Mo            14.00    95.94000     Mo( 1.00)
        S              6.00    32.06500     S ( 1.00)
        Co             9.00    58.93320     Co( 1.00)

     Starting magnetic structure 
     atomic species   magnetization
        Mo           0.000
        S            0.000
        Co           0.800

      6 Sym. Ops. (no inversion) found



   Cartesian axes

     site n.     atom                  positions (alat units)
         1           Mo  tau(   1) = (   0.0000000   0.0000000   3.0014725  )
         2           S   tau(   2) = (   0.5000000   0.2886750   3.4964188  )
         3           S   tau(   3) = (   0.5000000   0.2886750   2.5065262  )
         4           Co  tau(   4) = (   0.0000000   0.0000000   4.1283077  )

     --------------------------------------------
     DFT-D3 Dispersion Correction (3-body terms):
     --------------------------------------------
       Reference C6 values for interpolation: 

         atom   Coordination number   C6
         S          0.000           268.01
         S          0.995           261.99
         S          1.990           251.62
         Co         0.000          1065.56
         Co         1.715           373.09
         Co         2.926           296.13
         Co         7.779           236.57
         Mo         0.000          1691.79
         Mo         1.942          1004.01
         Mo        11.056           674.22

       Values used:

         atom   Coordination number  R0_AB[au]  C6      C8
         Mo        10.170            3.547    674.21  77634.20
         S          5.160            3.128    251.62  12327.25
         S          3.718            3.128    251.62  12327.25
         Co         1.982            3.243    370.12  32543.38

         Molecular C6 ( Ry / a.u.^6 ) =      5896.60


     number of k points=    19  Gaussian smearing, width (Ry)=  0.0073
                       cart. coord. in units 2pi/alat
        k(    1) = (   0.0000000   0.0000000   0.0000000), wk =   0.0069444
        k(    2) = (   0.0000000   0.0962251   0.0000000), wk =   0.0416667
        k(    3) = (   0.0000000   0.1924502   0.0000000), wk =   0.0416667
        k(    4) = (   0.0000000   0.2886753   0.0000000), wk =   0.0416667
        k(    5) = (   0.0000000   0.3849004   0.0000000), wk =   0.0416667
        k(    6) = (   0.0000000   0.4811254   0.0000000), wk =   0.0416667
        k(    7) = (   0.0000000  -0.5773505   0.0000000), wk =   0.0208333
        k(    8) = (   0.0833333   0.1443376   0.0000000), wk =   0.0416667
        k(    9) = (   0.0833333   0.2405627   0.0000000), wk =   0.0833333
        k(   10) = (   0.0833333   0.3367878   0.0000000), wk =   0.0833333
        k(   11) = (   0.0833333   0.4330129   0.0000000), wk =   0.0833333
        k(   12) = (   0.0833333   0.5292380   0.0000000), wk =   0.0833333
        k(   13) = (   0.1666667   0.2886753   0.0000000), wk =   0.0416667
        k(   14) = (   0.1666667   0.3849004   0.0000000), wk =   0.0833333
        k(   15) = (   0.1666667   0.4811254   0.0000000), wk =   0.0833333
        k(   16) = (   0.1666667   0.5773505   0.0000000), wk =   0.0416667
        k(   17) = (   0.2500000   0.4330129   0.0000000), wk =   0.0416667
        k(   18) = (   0.2500000   0.5292380   0.0000000), wk =   0.0833333
        k(   19) = (   0.3333333   0.5773505   0.0000000), wk =   0.0138889

     Dense  grid:   348105 G-vectors     FFT dimensions: (  54,  54, 320)

     Smooth grid:    87947 G-vectors     FFT dimensions: (  32,  32, 192)

     Estimated max dynamical RAM per process >     106.47 MB

     Estimated total dynamical RAM >       1.66 GB
     Generating pointlists ...
     new r_m :   0.3137 (alat units)  1.8762 (a.u.) for type    1
     new r_m :   0.3137 (alat units)  1.8762 (a.u.) for type    2
     new r_m :   0.3531 (alat units)  2.1118 (a.u.) for type    3

     Initial potential from superposition of free atoms

     starting charge      34.9988, renormalised to      35.0000

     negative rho (up, down):  2.107E-05 2.044E-05
     Starting wfcs are   27 randomized atomic wfcs
     Checking if some PAW data can be deallocated... 

     total cpu time spent up to now is        2.7 secs

     Self-consistent Calculation

     iteration #  1     ecut=    70.00 Ry     beta= 0.70
     Davidson diagonalization with overlap
     ethr =  1.00E-02,  avg # of iterations =  2.1

     negative rho (up, down):  9.889E-08 2.736E-07

     total cpu time spent up to now is        5.7 secs

     total energy              =    -657.33972605 Ry
     estimated scf accuracy    <       1.52558225 Ry

     total magnetization       =     3.10 Bohr mag/cell
     absolute magnetization    =     3.72 Bohr mag/cell

     iteration #  2     ecut=    70.00 Ry     beta= 0.70
     Davidson diagonalization with overlap
     ethr =  4.36E-03,  avg # of iterations =  8.0

     negative rho (up, down):  7.169E-08 1.888E-07

     total cpu time spent up to now is        9.9 secs

     total energy              =    -649.08514728 Ry
     estimated scf accuracy    <     301.83918244 Ry

     total magnetization       =     0.71 Bohr mag/cell
     absolute magnetization    =     0.77 Bohr mag/cell

     iteration #  3     ecut=    70.00 Ry     beta= 0.70
     Davidson diagonalization with overlap
     ethr =  4.36E-03,  avg # of iterations =  8.3

     negative rho (up, down):  7.572E-08 2.690E-07

     total cpu time spent up to now is       14.3 secs

     total energy              =    -658.41799835 Ry
     estimated scf accuracy    <      11.56524058 Ry

     total magnetization       =     0.35 Bohr mag/cell
     absolute magnetization    =     0.51 Bohr mag/cell

     iteration #  4     ecut=    70.00 Ry     beta= 0.70
     Davidson diagonalization with overlap
     ethr =  4.36E-03,  avg # of iterations =  1.7

     negative rho (up, down):  1.948E-07 5.415E-07

     total cpu time spent up to now is       17.1 secs

     total energy              =    -658.50701730 Ry
     estimated scf accuracy    <       1.13720337 Ry

     total magnetization       =     2.15 Bohr mag/cell
     absolute magnetization    =     2.19 Bohr mag/cell

     iteration #  5     ecut=    70.00 Ry     beta= 0.70
     Davidson diagonalization with overlap
     ethr =  3.25E-03,  avg # of iterations =  2.6

     negative rho (up, down):  2.026E-06 4.498E-06

     total cpu time spent up to now is       20.1 secs

     total energy              =    -658.46504752 Ry
     estimated scf accuracy    <       5.24496238 Ry

     total magnetization       =     0.52 Bohr mag/cell
     absolute magnetization    =     0.76 Bohr mag/cell

     iteration #  6     ecut=    70.00 Ry     beta= 0.70
     Davidson diagonalization with overlap
     ethr =  3.25E-03,  avg # of iterations =  1.4

     negative rho (up, down):  5.576E-04 4.561E-04

     total cpu time spent up to now is       22.8 secs

     total energy              =    -658.57530507 Ry
     estimated scf accuracy    <       0.23012563 Ry

     total magnetization       =     2.00 Bohr mag/cell
     absolute magnetization    =     2.13 Bohr mag/cell

     iteration #  7     ecut=    70.00 Ry     beta= 0.70
     Davidson diagonalization with overlap
     ethr =  6.58E-04,  avg # of iterations =  5.5

     negative rho (up, down):  2.746E-03 2.348E-03

     total cpu time spent up to now is       25.9 secs

     total energy              =    -658.60544891 Ry
     estimated scf accuracy    <       0.15452041 Ry

     total magnetization       =     2.06 Bohr mag/cell
     absolute magnetization    =     2.25 Bohr mag/cell

     iteration #  8     ecut=    70.00 Ry     beta= 0.70
     Davidson diagonalization with overlap
     ethr =  4.41E-04,  avg # of iterations =  1.8

     negative rho (up, down):  5.543E-03 4.728E-03

     total cpu time spent up to now is       28.7 secs

     total energy              =    -658.60704524 Ry
     estimated scf accuracy    <       0.04041097 Ry

     total magnetization       =     2.07 Bohr mag/cell
     absolute magnetization    =     2.24 Bohr mag/cell

     iteration #  9     ecut=    70.00 Ry     beta= 0.70
     Davidson diagonalization with overlap
     ethr =  1.15E-04,  avg # of iterations =  4.1

     negative rho (up, down):  2.882E-03 2.466E-03

     total cpu time spent up to now is       31.7 secs

     total energy              =    -658.61204654 Ry
     estimated scf accuracy    <       0.01710373 Ry

     total magnetization       =     2.16 Bohr mag/cell
     absolute magnetization    =     2.33 Bohr mag/cell

     iteration # 10     ecut=    70.00 Ry     beta= 0.70
     Davidson diagonalization with overlap
     ethr =  4.89E-05,  avg # of iterations =  2.5

     negative rho (up, down):  3.169E-04 2.912E-04

     total cpu time spent up to now is       34.6 secs

     total energy              =    -658.61171595 Ry
     estimated scf accuracy    <       0.01162840 Ry

     total magnetization       =     2.15 Bohr mag/cell
     absolute magnetization    =     2.31 Bohr mag/cell

     iteration # 11     ecut=    70.00 Ry     beta= 0.70
     Davidson diagonalization with overlap
     ethr =  3.32E-05,  avg # of iterations =  1.6

     negative rho (up, down):  5.570E-05 5.772E-05

     total cpu time spent up to now is       37.3 secs

     total energy              =    -658.61248578 Ry
     estimated scf accuracy    <       0.00150858 Ry

     total magnetization       =     2.12 Bohr mag/cell
     absolute magnetization    =     2.28 Bohr mag/cell

     iteration # 12     ecut=    70.00 Ry     beta= 0.70
     Davidson diagonalization with overlap
     ethr =  4.31E-06,  avg # of iterations =  5.0

     negative rho (up, down):  2.630E-05 2.955E-05

     total cpu time spent up to now is       40.5 secs

     total energy              =    -658.61271487 Ry
     estimated scf accuracy    <       0.00096092 Ry

     total magnetization       =     2.12 Bohr mag/cell
     absolute magnetization    =     2.27 Bohr mag/cell

     iteration # 13     ecut=    70.00 Ry     beta= 0.70
     Davidson diagonalization with overlap
     ethr =  2.75E-06,  avg # of iterations =  2.1

     negative rho (up, down):  1.927E-05 2.083E-05

     total cpu time spent up to now is       43.4 secs

     total energy              =    -658.61286194 Ry
     estimated scf accuracy    <       0.00010059 Ry

     total magnetization       =     2.13 Bohr mag/cell
     absolute magnetization    =     2.27 Bohr mag/cell

     iteration # 14     ecut=    70.00 Ry     beta= 0.70
     Davidson diagonalization with overlap
     ethr =  2.87E-07,  avg # of iterations =  3.9

     negative rho (up, down):  1.964E-05 2.124E-05

     total cpu time spent up to now is       46.5 secs

     total energy              =    -658.61293645 Ry
     estimated scf accuracy    <       0.00012618 Ry

     total magnetization       =     2.13 Bohr mag/cell
     absolute magnetization    =     2.27 Bohr mag/cell

     iteration # 15     ecut=    70.00 Ry     beta= 0.70
     Davidson diagonalization with overlap
     ethr =  2.87E-07,  avg # of iterations =  1.9

     negative rho (up, down):  2.220E-05 2.410E-05

     total cpu time spent up to now is       49.3 secs

     total energy              =    -658.61294654 Ry
     estimated scf accuracy    <       0.00005772 Ry

     total magnetization       =     2.13 Bohr mag/cell
     absolute magnetization    =     2.27 Bohr mag/cell

     iteration # 16     ecut=    70.00 Ry     beta= 0.70
     Davidson diagonalization with overlap
     ethr =  1.65E-07,  avg # of iterations =  2.3

     negative rho (up, down):  2.342E-05 2.546E-05

     total cpu time spent up to now is       51.6 secs

     total energy              =    -658.61295874 Ry
     estimated scf accuracy    <       0.00000787 Ry

     total magnetization       =     2.13 Bohr mag/cell
     absolute magnetization    =     2.27 Bohr mag/cell

     iteration # 17     ecut=    70.00 Ry     beta= 0.70
     Davidson diagonalization with overlap
     ethr =  2.25E-08,  avg # of iterations =  4.1

     negative rho (up, down):  2.266E-05 2.463E-05

     total cpu time spent up to now is       54.4 secs

     total energy              =    -658.61296462 Ry
     estimated scf accuracy    <       0.00000865 Ry

     total magnetization       =     2.13 Bohr mag/cell
     absolute magnetization    =     2.26 Bohr mag/cell

     iteration # 18     ecut=    70.00 Ry     beta= 0.70
     Davidson diagonalization with overlap
     ethr =  2.25E-08,  avg # of iterations =  1.9

     negative rho (up, down):  2.247E-05 2.448E-05

     total cpu time spent up to now is       56.5 secs

     total energy              =    -658.61296608 Ry
     estimated scf accuracy    <       0.00000103 Ry

     total magnetization       =     2.12 Bohr mag/cell
     absolute magnetization    =     2.26 Bohr mag/cell

     iteration # 19     ecut=    70.00 Ry     beta= 0.70
     Davidson diagonalization with overlap
     ethr =  2.94E-09,  avg # of iterations =  4.6

     negative rho (up, down):  2.206E-05 2.400E-05
 
     Magnetic moment per site  (integrated on atomic sphere of radius R)
     atom   1 (R=0.314)  charge= 10.7659  magn=  0.0147
     atom   2 (R=0.314)  charge=  4.1746  magn=  0.0416
     atom   3 (R=0.314)  charge=  4.1374  magn=  0.0031
     atom   4 (R=0.353)  charge=  7.5719  magn=  2.0559

     total cpu time spent up to now is       58.9 secs

     End of self-consistent calculation

 ------ SPIN UP ------------


          k = 0.0000 0.0000 0.0000 ( 10889 PWs)   bands (ev):

   -60.0470 -34.2554 -33.9660 -33.9660 -13.8328 -12.3873  -5.6297  -2.6384
    -1.9710  -1.9710  -1.0665  -0.9381  -0.9381  -0.2333  -0.2333   0.1696
     0.3720   0.3720   1.1399   3.3034   3.3042   3.6990

          k = 0.0000 0.0962 0.0000 ( 10909 PWs)   bands (ev):

   -60.0443 -34.2501 -33.9934 -33.9722 -13.7321 -12.3348  -5.5194  -2.6463
    -2.2301  -1.8839  -1.3524  -1.0799  -0.7828  -0.2543  -0.2103   0.1673
     0.3305   0.3655   1.2481   3.1213   3.3718   3.4504

          k = 0.0000 0.1925 0.0000 ( 10956 PWs)   bands (ev):

   -60.0369 -34.2353 -34.0674 -33.9891 -13.4464 -12.1842  -5.2361  -2.9169
    -2.7248  -1.7429  -1.5866  -1.3261  -0.7930  -0.2873  -0.1258   0.0749
     0.2334   0.3540   1.3559   2.9042   3.2252   3.2704

          k = 0.0000 0.2887 0.0000 ( 11000 PWs)   bands (ev):

   -60.0268 -34.2151 -34.1672 -34.0120 -13.0264 -11.9568  -4.9613  -3.6061
    -3.1161  -2.0062  -1.6871  -1.1383  -0.8501  -0.3620  -0.1117   0.0069
     0.1280   0.3641   1.4127   3.0027   3.0181   3.6114

          k = 0.0000 0.3849 0.0000 ( 11018 PWs)   bands (ev):

   -60.0166 -34.2655 -34.1948 -34.0349 -12.5636 -11.6920  -5.0409  -4.1425
    -3.4869  -2.3504  -1.8441  -0.8584  -0.8484  -0.4429  -0.2443   0.1505
     0.1884   0.4247   1.8071   2.9410   3.3343   4.1117

          k = 0.0000 0.4811 0.0000 ( 11000 PWs)   bands (ev):

   -60.0092 -34.3365 -34.1800 -34.0515 -12.1935 -11.4566  -5.4181  -4.4669
    -3.7036  -2.5831  -2.0099  -0.8519  -0.7072  -0.3193  -0.2343   0.2667
     0.2944   0.5052   2.5457   3.0070   3.6826   4.4217

          k = 0.0000-0.5774 0.0000 ( 11026 PWs)   bands (ev):

   -60.0064 -34.3623 -34.1745 -34.0576 -12.0520 -11.3553  -5.6050  -4.5934
    -3.7823  -2.6640  -2.0738  -0.8571  -0.6675  -0.2872  -0.1543   0.3129
     0.3767   0.5393   3.0672   3.1234   3.7011   4.5103

          k = 0.0833 0.1443 0.0000 ( 10950 PWs)   bands (ev):

   -60.0393 -34.2400 -34.0427 -33.9851 -13.5388 -12.2331  -5.3206  -2.7229
    -2.6505  -1.7805  -1.5447  -1.3405  -0.7235  -0.2658  -0.1592   0.1084
     0.2906   0.3486   1.3452   2.9376   3.2144   3.2654

          k = 0.0833 0.2406 0.0000 ( 10994 PWs)   bands (ev):

   -60.0305 -34.2225 -34.1260 -34.0086 -13.1850 -12.0431  -5.0255  -3.2840
    -2.9505  -2.1458  -1.5981  -1.2621  -0.7532  -0.2774  -0.0679   0.0122
     0.1648   0.3328   1.3526   2.8925   3.0946   3.2858

          k = 0.0833 0.3368 0.0000 ( 10995 PWs)   bands (ev):

   -60.0203 -34.2208 -34.2022 -34.0357 -12.7400 -11.7936  -4.9048  -3.8599
    -3.3454  -2.5295  -1.6749  -1.0864  -0.7758  -0.3776  -0.1771   0.0280
     0.2442   0.3622   1.5107   2.9424   3.2052   3.7642

          k = 0.0833 0.4330 0.0000 ( 11002 PWs)   bands (ev):

   -60.0115 -34.3017 -34.1847 -34.0592 -12.3168 -11.5352  -5.1767  -4.2720
    -3.6570  -2.6913  -1.8723  -1.0876  -0.7414  -0.3444  -0.2094   0.1225
     0.3372   0.4619   2.0649   3.1083   3.5143   4.3022

          k = 0.0833 0.5292 0.0000 ( 11028 PWs)   bands (ev):

   -60.0064 -34.3479 -34.1745 -34.0727 -12.0564 -11.3545  -5.4781  -4.5316
    -3.8133  -2.7239  -2.0595  -1.0970  -0.7152  -0.2760  -0.1488   0.2382
     0.3859   0.5531   2.8095   3.2161   3.8113   4.4334

          k = 0.1667 0.2887 0.0000 ( 10978 PWs)   bands (ev):

   -60.0217 -34.2051 -34.1977 -34.0427 -12.8035 -11.8284  -4.8525  -3.6333
    -3.2591  -2.7858  -1.6940  -1.1446  -0.7031  -0.3207  -0.1238   0.0010
     0.2856   0.3066   1.3807   2.8921   3.1845   3.5434

          k = 0.1667 0.3849 0.0000 ( 11010 PWs)   bands (ev):

   -60.0129 -34.2653 -34.1874 -34.0803 -12.3897 -11.5762  -4.9440  -3.9684
    -3.6679  -2.9664  -1.9401  -1.2720  -0.6389  -0.3912  -0.1607   0.0503
     0.3325   0.4459   1.7187   3.2162   3.3264   4.0072

          k = 0.1667 0.4811 0.0000 ( 11023 PWs)   bands (ev):

   -60.0064 -34.3129 -34.1746 -34.1091 -12.0654 -11.3526  -5.1873  -4.3929
    -3.8315  -2.9058  -2.1805  -1.5099  -0.6034  -0.2942  -0.1610   0.1127
     0.3858   0.5469   2.4249   3.2789   3.7741   4.3171

          k = 0.1667 0.5774 0.0000 ( 11024 PWs)   bands (ev):

   -60.0041 -34.3301 -34.1698 -34.1198 -11.9428 -11.2580  -5.3078  -4.5444
    -3.9267  -2.7971  -2.3298  -1.6067  -0.5964  -0.2490  -0.1541   0.1694
     0.4037   0.6323   2.8299   3.4143   3.9471   4.1546

          k = 0.2500 0.4330 0.0000 ( 11000 PWs)   bands (ev):

   -60.0064 -34.2895 -34.1746 -34.1332 -12.0699 -11.3514  -5.0102  -4.3644
    -3.6831  -3.1398  -2.3823  -1.5460  -0.5042  -0.3533  -0.1627   0.0595
     0.3923   0.5217   2.2624   3.2395   3.7035   4.2994

          k = 0.2500 0.5292 0.0000 ( 11044 PWs)   bands (ev):

   -60.0027 -34.2945 -34.1727 -34.1671 -11.8792 -11.1997  -5.0682  -4.5665
    -3.8100  -3.1545  -2.6083  -1.7923  -0.4440  -0.2620  -0.1785   0.0531
     0.4415   0.6815   2.6069   3.3245   3.8794   4.6308

          k = 0.3333 0.5774 0.0000 ( 11052 PWs)   bands (ev):

   -60.0014 -34.2650 -34.2188 -34.1644 -11.8106 -11.1394  -5.0377  -4.5160
    -3.6599  -3.6163  -2.6255  -1.9203  -0.3516  -0.2712  -0.1495  -0.0341
     0.4524   0.8376   2.4253   3.3784   4.0869   5.0107

 ------ SPIN DOWN ----------


          k = 0.0000 0.0000 0.0000 ( 10889 PWs)   bands (ev):

   -60.0354 -34.2278 -33.9606 -33.9606 -13.7961 -12.3715  -5.5856  -2.5065
    -1.9398  -1.9398  -0.8729  -0.8729  -0.1461   1.1053   1.6550   1.6551
     1.7533   1.7533   2.2640   3.4367   3.4367   3.7375

          k = 0.0000 0.0962 0.0000 ( 10909 PWs)   bands (ev):

   -60.0327 -34.2224 -33.9879 -33.9668 -13.6949 -12.3194  -5.4744  -2.5475
    -2.1931  -1.8475  -1.0642  -1.0325   0.0006   0.9273   1.6095   1.6587
     1.7833   1.8641   2.3627   3.2771   3.4674   3.5400

          k = 0.0000 0.1925 0.0000 ( 10956 PWs)   bands (ev):

   -60.0253 -34.2076 -34.0619 -33.9836 -13.4077 -12.1700  -5.1882  -2.8678
    -2.6883  -1.6796  -1.3176  -1.2982   0.0809   0.5539   1.5142   1.6281
     1.9101   2.0419   2.4872   3.0460   3.3097   3.3704

          k = 0.0000 0.2887 0.0000 ( 11000 PWs)   bands (ev):

   -60.0151 -34.1874 -34.1616 -34.0066 -12.9850 -11.9449  -4.9107  -3.5467
    -3.0952  -1.9567  -1.4883  -1.1084  -0.1419   0.4194   1.4250   1.5960
     2.1077   2.1833   2.3939   3.1568   3.1990   3.7084

          k = 0.0000 0.3849 0.0000 ( 11018 PWs)   bands (ev):

   -60.0050 -34.2598 -34.1671 -34.0294 -12.5184 -11.6833  -4.9934  -4.0745
    -3.4590  -2.3110  -1.7051  -0.7852  -0.3806   0.6339   1.4319   1.6136
     2.3296   2.3590   2.4685   3.0457   3.5215   4.2516

          k = 0.0000 0.4811 0.0000 ( 11000 PWs)   bands (ev):

   -59.9975 -34.3307 -34.1522 -34.0460 -12.1451 -11.4505  -5.3701  -4.4096
    -3.6632  -2.5475  -1.8782  -0.5856  -0.2619   0.7400   1.5418   1.6690
     2.4532   2.5105   2.9574   3.0583   3.8739   4.6031

          k = 0.0000-0.5774 0.0000 ( 11026 PWs)   bands (ev):

   -59.9948 -34.3565 -34.1467 -34.0521 -12.0026 -11.3500  -5.5561  -4.5416
    -3.7389  -2.6295  -1.9384  -0.5254  -0.1330   0.7531   1.6100   1.6971
     2.4657   2.5783   3.0959   3.3658   4.0619   4.6694

          k = 0.0833 0.1443 0.0000 ( 10950 PWs)   bands (ev):

   -60.0276 -34.2123 -34.0372 -33.9797 -13.5006 -12.2186  -5.2736  -2.6661
    -2.6103  -1.7247  -1.4036  -1.1240   0.1139   0.6682   1.4821   1.6856
     1.8597   2.0032   2.4810   3.0919   3.2315   3.4116

          k = 0.0833 0.2406 0.0000 ( 10994 PWs)   bands (ev):

   -60.0188 -34.1948 -34.1204 -34.0032 -13.1446 -12.0303  -4.9749  -3.2320
    -2.9237  -2.1000  -1.4162  -1.0982   0.0432   0.4277   1.3483   1.6422
     2.0210   2.1730   2.4086   3.0678   3.2147   3.4066

          k = 0.0833 0.3368 0.0000 ( 10995 PWs)   bands (ev):

   -60.0087 -34.2151 -34.1745 -34.0303 -12.6963 -11.7836  -4.8542  -3.7937
    -3.3221  -2.4910  -1.4838  -1.0174  -0.2316   0.5816   1.3135   1.6061
     2.1781   2.3165   2.3948   3.1008   3.3423   3.9348

          k = 0.0833 0.4330 0.0000 ( 11002 PWs)   bands (ev):

   -59.9999 -34.2959 -34.1569 -34.0537 -12.2695 -11.5282  -5.1275  -4.2151
    -3.6152  -2.6504  -1.7162  -1.0199  -0.1803   0.7741   1.4320   1.6255
     2.3397   2.4649   2.6169   3.2137   3.6719   4.4823

          k = 0.0833 0.5292 0.0000 ( 11028 PWs)   bands (ev):

   -59.9948 -34.3421 -34.1467 -34.0672 -12.0071 -11.3491  -5.4271  -4.4881
    -3.7608  -2.6833  -1.9107  -0.9969   0.0140   0.8212   1.5616   1.6628
     2.4813   2.5216   3.0086   3.3456   4.0822   4.5939

          k = 0.1667 0.2887 0.0000 ( 10978 PWs)   bands (ev):

   -60.0100 -34.1923 -34.1772 -34.0372 -12.7604 -11.8179  -4.7996  -3.5690
    -3.2366  -2.7493  -1.5367  -0.9544  -0.1452   0.5942   1.1994   1.6089
     2.1400   2.2768   2.4040   3.0516   3.2700   3.7801

          k = 0.1667 0.3849 0.0000 ( 11010 PWs)   bands (ev):

   -60.0013 -34.2596 -34.1597 -34.0748 -12.3431 -11.5686  -4.8917  -3.9216
    -3.6179  -2.9123  -1.8401  -1.1324  -0.1630   0.8979   1.2314   1.5749
     2.1317   2.4296   2.6035   3.3239   3.4151   4.2771

          k = 0.1667 0.4811 0.0000 ( 11023 PWs)   bands (ev):

   -59.9948 -34.3071 -34.1468 -34.1036 -12.0162 -11.3470  -5.1325  -4.3705
    -3.7526  -2.8422  -2.0815  -1.4347   0.0410   0.9984   1.4418   1.5849
     2.2383   2.5465   2.8932   3.3948   3.8560   4.6129

          k = 0.1667 0.5774 0.0000 ( 11024 PWs)   bands (ev):

   -59.9924 -34.3243 -34.1420 -34.1143 -11.8928 -11.2529  -5.2515  -4.5269
    -3.8458  -2.7321  -2.2156  -1.5584   0.1878   1.0040   1.5355   1.5909
     2.3500   2.5787   2.9488   3.5736   4.0804   4.5695

          k = 0.2500 0.4330 0.0000 ( 11000 PWs)   bands (ev):

   -59.9948 -34.2838 -34.1468 -34.1276 -12.0208 -11.3458  -4.9551  -4.3442
    -3.5918  -3.0571  -2.3587  -1.4181   0.0167   1.1881   1.2931   1.5359
     2.0823   2.5616   2.8761   3.3718   3.7441   4.6266

          k = 0.2500 0.5292 0.0000 ( 11044 PWs)   bands (ev):

   -59.9911 -34.2887 -34.1671 -34.1393 -11.8290 -11.1947  -5.0213  -4.5316
    -3.7204  -3.0686  -2.5774  -1.7118   0.2724   1.2083   1.4340   1.5678
     2.1581   2.6177   2.7528   3.5915   4.0198   4.9783

          k = 0.3333 0.5774 0.0000 ( 11052 PWs)   bands (ev):

   -59.9897 -34.2592 -34.2133 -34.1366 -11.7602 -11.1345  -5.0151  -4.4261
    -3.6014  -3.5533  -2.5640  -1.8588   0.4062   1.3510   1.3711   1.5952
     2.1570   2.4697   2.6481   3.6174   4.2688   5.4878

     the Fermi energy is     2.0925 ev

!    total energy              =    -658.61296623 Ry
     total all-electron energy =    -12481.786857 Ry
     estimated scf accuracy    <       0.00000032 Ry
     smearing contrib. (-TS)   =      -0.00113454 Ry
     internal energy E=F+TS    =    -658.61183170 Ry

     The total energy is F=E-TS. E is the sum of the following terms:
     one-electron contribution =   -1346.50123215 Ry
     hartree contribution      =     686.55374919 Ry
     xc contribution           =     -62.30626511 Ry
     ewald contribution        =     469.86029902 Ry
     DFT-D3 Dispersion         =      -0.06413167 Ry
     one-center paw contrib.   =    -406.15425097 Ry

     total magnetization       =     2.12 Bohr mag/cell
     absolute magnetization    =     2.26 Bohr mag/cell

     convergence has been achieved in  19 iterations

     negative rho (up, down):  2.206E-05 2.400E-05

     Forces acting on atoms (cartesian axes, Ry/au):

     atom    1 type  1   force =     0.00000000    0.00000000   -0.01461929
     atom    2 type  2   force =     0.00000000   -0.00000000    0.05301726
     atom    3 type  2   force =     0.00000000    0.00000000   -0.00246792
     atom    4 type  3   force =     0.00000000    0.00000000   -0.03593005
     The non-local contrib.  to forces
     atom    1 type  1   force =     0.00000000   -0.00000000   -0.02836501
     atom    2 type  2   force =     0.00000000    0.00000000   -0.08200897
     atom    3 type  2   force =     0.00000000    0.00000000    0.26967490
     atom    4 type  3   force =     0.00000000    0.00000000   -0.04440437
     The ionic contribution  to forces
     atom    1 type  1   force =     0.00000000    0.00000500  -32.00609916
     atom    2 type  2   force =    -0.00000000   -0.00000324   19.14551092
     atom    3 type  2   force =    -0.00000000   -0.00000250  -45.87316648
     atom    4 type  3   force =     0.00000000    0.00000074   58.73375472
     The local contribution  to forces
     atom    1 type  1   force =    -0.00000000   -0.00000301   32.01389164
     atom    2 type  2   force =    -0.00000000    0.00000228  -19.00493480
     atom    3 type  2   force =    -0.00000000    0.00000174   45.60074119
     atom    4 type  3   force =    -0.00000000   -0.00000044  -58.70799536
     The core correction contribution to forces
     atom    1 type  1   force =    -0.00000000    0.00000000    0.00196636
     atom    2 type  2   force =     0.00000000    0.00000000   -0.00158992
     atom    3 type  2   force =     0.00000000    0.00000000   -0.00224630
     atom    4 type  3   force =     0.00000000    0.00000000   -0.01272548
     The Hubbard contrib.    to forces
     atom    1 type  1   force =     0.00000000    0.00000000    0.00000000
     atom    2 type  2   force =     0.00000000    0.00000000    0.00000000
     atom    3 type  2   force =     0.00000000    0.00000000    0.00000000
     atom    4 type  3   force =     0.00000000    0.00000000    0.00000000
     The SCF correction term to forces
     atom    1 type  1   force =    -0.00000000   -0.00000000   -0.00041468
     atom    2 type  2   force =    -0.00000000   -0.00000000   -0.00077533
     atom    3 type  2   force =    -0.00000000   -0.00000000   -0.00008971
     atom    4 type  3   force =    -0.00000000    0.00000000   -0.00115734

     DFT-D3 dispersion contribution to forces:
     atom    1 type  1   force =     0.00000000   -0.00000001    0.00429326
     atom    2 type  2   force =     0.00000000    0.00000000   -0.00329292
     atom    3 type  2   force =    -0.00000000    0.00000000    0.00251019
     atom    4 type  3   force =    -0.00000000    0.00000000   -0.00351052

     Total force =     0.065739     Total SCF correction =     0.001456


     Computing stress (Cartesian axis) and pressure


     negative rho (up, down):  2.206E-05 2.400E-05
          total   stress  (Ry/bohr**3)                   (kbar)     P=      -18.54
  -0.00015666   0.00000000   0.00000000          -23.04        0.00        0.00
   0.00000000  -0.00015666  -0.00000000            0.00      -23.04       -0.00
   0.00000000   0.00000000  -0.00006486            0.00        0.00       -9.54


     Writing all to output data dir ./tmp/scf.save/
 
     init_run     :      2.02s CPU      2.30s WALL (       1 calls)
     electrons    :     49.12s CPU     56.23s WALL (       1 calls)
     forces       :      1.14s CPU      1.26s WALL (       1 calls)
     force_dftd3  :      0.03s CPU      0.03s WALL (       1 calls)
     stress       :      4.73s CPU      5.20s WALL (       1 calls)
     stres_dftd3  :      0.04s CPU      0.04s WALL (       1 calls)

     Called by init_run:
     wfcinit      :      0.41s CPU      0.43s WALL (       1 calls)
     potinit      :      0.55s CPU      0.59s WALL (       1 calls)
     hinit0       :      0.70s CPU      0.74s WALL (       1 calls)

     Called by electrons:
     c_bands      :     25.72s CPU     27.18s WALL (      19 calls)
     sum_band     :     13.07s CPU     15.86s WALL (      19 calls)
     v_of_rho     :      1.58s CPU      1.78s WALL (      20 calls)
     newd         :      5.38s CPU      8.14s WALL (      20 calls)
     PAW_pot      :      3.42s CPU      3.47s WALL (      20 calls)
     mix_rho      :      0.24s CPU      0.25s WALL (      19 calls)
     energy_dftd3 :      0.03s CPU      0.03s WALL (       1 calls)

     Called by c_bands:
     init_us_2    :      0.74s CPU      0.77s WALL (    1558 calls)
     init_us_2:cp :      0.74s CPU      0.77s WALL (    1558 calls)
     cegterg      :     20.27s CPU     21.67s WALL (     722 calls)

     Called by *egterg:
     cdiaghg      :      1.71s CPU      1.75s WALL (    3198 calls)
     h_psi        :     15.22s CPU     16.51s WALL (    3236 calls)
     s_psi        :      0.66s CPU      0.68s WALL (    3236 calls)
     g_psi        :      0.06s CPU      0.06s WALL (    2476 calls)

     Called by h_psi:
     h_psi:calbec :      1.41s CPU      1.47s WALL (    3236 calls)
     vloc_psi     :     12.71s CPU     13.90s WALL (    3236 calls)
     add_vuspsi   :      0.95s CPU      0.99s WALL (    3236 calls)

     General routines
     calbec       :      2.92s CPU      3.01s WALL (    4148 calls)
     fft          :      0.96s CPU      1.19s WALL (     538 calls)
     ffts         :      0.02s CPU      0.02s WALL (      78 calls)
     fftw         :      9.94s CPU     11.04s WALL (  100034 calls)
     interpolate  :      0.07s CPU      0.08s WALL (      40 calls)
 
     Parallel routines
 
     PWSCF        :     57.46s CPU   1m 5.66s WALL

 
   This run was terminated on:  13:10: 8  16Jul2025            

=------------------------------------------------------------------------------=
   JOB DONE.
=------------------------------------------------------------------------------=
