
     Program PWSCF v.7.2 starts on 16Jul2025 at 13:11:50 

     This program is part of the open-source Quantum ESPRESSO suite
     for quantum simulation of materials; please cite
         "P. Giannozzi et al., J. Phys.:Condens. Matter 21 395502 (2009);
         "P. Giannozzi et al., J. Phys.:Condens. Matter 29 465901 (2017);
         "P. Giannozzi et al., J. Chem. Phys. 152 154105 (2020);
          URL http://www.quantum-espresso.org", 
     in publications or presentations arising from this work. More details at
     http://www.quantum-espresso.org/quote

     Parallel version (MPI), running on    16 processors

     MPI processes distributed on     1 nodes
     24945 MiB available memory on the printing compute node when the environment starts
 
     Waiting for input...
     Reading input from standard input

     Current dimensions of program PWSCF are:
     Max number of different atomic species (ntypx) = 10
     Max number of k-points (npk) =  40000
     Max angular momentum in pseudopotentials (lmaxx) =  4
     file Mo.pbe-spn-kjpaw_psl.1.0.0.UPF: wavefunction(s)  4S 4D renormalized
     file S.pbe-n-kjpaw_psl.1.0.0.UPF: wavefunction(s)  3S 3P renormalized
     file Co.pbe-n-kjpaw_psl.1.0.0.UPF: wavefunction(s)  4S 3D renormalized
     Message from routine setup:
     using ibrav=0 with symmetry is DISCOURAGED, use correct ibrav instead
 
     R & G space division:  proc/nbgrp/npool/nimage =      16
     Subspace diagonalization in iterative solution of the eigenvalue problem:
     a serial algorithm will be used

 
     Parallelization info
     --------------------
     sticks:   dense  smooth     PW     G-vecs:    dense   smooth      PW
     Min         108      42     12                21751     5486     866
     Max         110      43     13                21762     5513     891
     Sum        1735     685    199               348105    87947   14017
 
     Using Slab Decomposition
 


     bravais-lattice index     =            0
     lattice parameter (alat)  =       5.9812  a.u.
     unit-cell volume          =    1112.3952 (a.u.)^3
     number of atoms/cell      =            4
     number of atomic types    =            3
     number of electrons       =        35.00
     number of Kohn-Sham states=           22
     kinetic-energy cutoff     =      70.0000  Ry
     charge density cutoff     =     700.0000  Ry
     scf convergence threshold =      1.0E-06
     mixing beta               =       0.7000
     number of iterations used =            8  plain     mixing
     Exchange-correlation= SLA  PW   PBX  PBC
                           (   1   4   3   4   0   0   0)

     celldm(1)=   5.981197  celldm(2)=   0.000000  celldm(3)=   0.000000
     celldm(4)=   0.000000  celldm(5)=   0.000000  celldm(6)=   0.000000

     crystal axes: (cart. coord. in units of alat)
               a(1) = (   1.000000   0.000000   0.000000 )  
               a(2) = (  -0.500000   0.866025   0.000000 )  
               a(3) = (   0.000000   0.000000   6.002945 )  

     reciprocal axes: (cart. coord. in units 2 pi/alat)
               b(1) = (  1.000000  0.577351  0.000000 )  
               b(2) = (  0.000000  1.154701  0.000000 )  
               b(3) = (  0.000000  0.000000  0.166585 )  


     PseudoPot. # 1 for Mo read from file:
     /shared/ESPRESSO/PSLIBRARY/1.0.0/pbe/PSEUDOPOTENTIALS/Mo.pbe-spn-kjpaw_psl.1.0.0.UPF
     MD5 check sum: 4396e0c640fcce5c25f020efccf1ab12
     Pseudo is Projector augmented-wave + core cor, Zval = 14.0
     Generated using &quot;atomic&quot; code by A. Dal Corso  v.6.3
     Shape of augmentation charge: PSQ
     Using radial grid of 1229 points,  6 beta functions with: 
                l(1) =   0
                l(2) =   0
                l(3) =   1
                l(4) =   1
                l(5) =   2
                l(6) =   2
     Q(r) pseudized with 0 coefficients 


     PseudoPot. # 2 for S  read from file:
     /shared/ESPRESSO/PSLIBRARY/1.0.0/pbe/PSEUDOPOTENTIALS/S.pbe-n-kjpaw_psl.1.0.0.UPF
     MD5 check sum: c08f931834bcc19553f8bde8f1a3adc5
     Pseudo is Projector augmented-wave + core cor, Zval =  6.0
     Generated using "atomic" code by A. Dal Corso  (Quantum ESPRESSO distribution)
     Shape of augmentation charge: PSQ
     Using radial grid of 1151 points,  6 beta functions with: 
                l(1) =   0
                l(2) =   0
                l(3) =   1
                l(4) =   1
                l(5) =   2
                l(6) =   2
     Q(r) pseudized with 0 coefficients 


     PseudoPot. # 3 for Co read from file:
     /shared/ESPRESSO/PSLIBRARY/1.0.0/pbe/PSEUDOPOTENTIALS/Co.pbe-n-kjpaw_psl.1.0.0.UPF
     MD5 check sum: 17e7ab8db721b244d1352252ea6cb8e7
     Pseudo is Projector augmented-wave + core cor, Zval =  9.0
     Generated using "atomic" code by A. Dal Corso  (Quantum ESPRESSO distribution)
     Shape of augmentation charge: PSQ
     Using radial grid of 1193 points,  6 beta functions with: 
                l(1) =   0
                l(2) =   0
                l(3) =   1
                l(4) =   1
                l(5) =   2
                l(6) =   2
     Q(r) pseudized with 0 coefficients 


     atomic species   valence    mass     pseudopotential
        Mo            14.00    95.94000     Mo( 1.00)
        S              6.00    32.06500     S ( 1.00)
        Co             9.00    58.93320     Co( 1.00)

     Starting magnetic structure 
     atomic species   magnetization
        Mo           0.000
        S            0.000
        Co           0.800

      6 Sym. Ops. (no inversion) found



   Cartesian axes

     site n.     atom                  positions (alat units)
         1           Mo  tau(   1) = (   0.0000000   0.0000000   3.0014725  )
         2           S   tau(   2) = (   0.5000000   0.2886750   3.4964188  )
         3           S   tau(   3) = (   0.5000000   0.2886750   2.5065262  )
         4           Co  tau(   4) = (   0.0000000   0.0000000   4.1283077  )

     --------------------------------------------
     DFT-D3 Dispersion Correction (3-body terms):
     --------------------------------------------
       Reference C6 values for interpolation: 

         atom   Coordination number   C6
         S          0.000           268.01
         S          0.995           261.99
         S          1.990           251.62
         Co         0.000          1065.56
         Co         1.715           373.09
         Co         2.926           296.13
         Co         7.779           236.57
         Mo         0.000          1691.79
         Mo         1.942          1004.01
         Mo        11.056           674.22

       Values used:

         atom   Coordination number  R0_AB[au]  C6      C8
         Mo        10.170            3.547    674.21  77634.20
         S          5.160            3.128    251.62  12327.25
         S          3.718            3.128    251.62  12327.25
         Co         1.982            3.243    370.12  32543.38

         Molecular C6 ( Ry / a.u.^6 ) =      5896.60


     number of k points=    61  Gaussian smearing, width (Ry)=  0.0073
                       cart. coord. in units 2pi/alat
        k(    1) = (   0.0000000   0.0000000   0.0000000), wk =   0.0017361
        k(    2) = (   0.0000000   0.0481125   0.0000000), wk =   0.0104167
        k(    3) = (   0.0000000   0.0962251   0.0000000), wk =   0.0104167
        k(    4) = (   0.0000000   0.1443376   0.0000000), wk =   0.0104167
        k(    5) = (   0.0000000   0.1924502   0.0000000), wk =   0.0104167
        k(    6) = (   0.0000000   0.2405627   0.0000000), wk =   0.0104167
        k(    7) = (   0.0000000   0.2886753   0.0000000), wk =   0.0104167
        k(    8) = (   0.0000000   0.3367878   0.0000000), wk =   0.0104167
        k(    9) = (   0.0000000   0.3849004   0.0000000), wk =   0.0104167
        k(   10) = (   0.0000000   0.4330129   0.0000000), wk =   0.0104167
        k(   11) = (   0.0000000   0.4811254   0.0000000), wk =   0.0104167
        k(   12) = (   0.0000000   0.5292380   0.0000000), wk =   0.0104167
        k(   13) = (   0.0000000  -0.5773505   0.0000000), wk =   0.0052083
        k(   14) = (   0.0416667   0.0721688   0.0000000), wk =   0.0104167
        k(   15) = (   0.0416667   0.1202814   0.0000000), wk =   0.0208333
        k(   16) = (   0.0416667   0.1683939   0.0000000), wk =   0.0208333
        k(   17) = (   0.0416667   0.2165065   0.0000000), wk =   0.0208333
        k(   18) = (   0.0416667   0.2646190   0.0000000), wk =   0.0208333
        k(   19) = (   0.0416667   0.3127315   0.0000000), wk =   0.0208333
        k(   20) = (   0.0416667   0.3608441   0.0000000), wk =   0.0208333
        k(   21) = (   0.0416667   0.4089566   0.0000000), wk =   0.0208333
        k(   22) = (   0.0416667   0.4570692   0.0000000), wk =   0.0208333
        k(   23) = (   0.0416667   0.5051817   0.0000000), wk =   0.0208333
        k(   24) = (   0.0416667   0.5532943   0.0000000), wk =   0.0208333
        k(   25) = (   0.0833333   0.1443376   0.0000000), wk =   0.0104167
        k(   26) = (   0.0833333   0.1924502   0.0000000), wk =   0.0208333
        k(   27) = (   0.0833333   0.2405627   0.0000000), wk =   0.0208333
        k(   28) = (   0.0833333   0.2886753   0.0000000), wk =   0.0208333
        k(   29) = (   0.0833333   0.3367878   0.0000000), wk =   0.0208333
        k(   30) = (   0.0833333   0.3849004   0.0000000), wk =   0.0208333
        k(   31) = (   0.0833333   0.4330129   0.0000000), wk =   0.0208333
        k(   32) = (   0.0833333   0.4811254   0.0000000), wk =   0.0208333
        k(   33) = (   0.0833333   0.5292380   0.0000000), wk =   0.0208333
        k(   34) = (   0.0833333   0.5773505   0.0000000), wk =   0.0104167
        k(   35) = (   0.1250000   0.2165065   0.0000000), wk =   0.0104167
        k(   36) = (   0.1250000   0.2646190   0.0000000), wk =   0.0208333
        k(   37) = (   0.1250000   0.3127315   0.0000000), wk =   0.0208333
        k(   38) = (   0.1250000   0.3608441   0.0000000), wk =   0.0208333
        k(   39) = (   0.1250000   0.4089566   0.0000000), wk =   0.0208333
        k(   40) = (   0.1250000   0.4570692   0.0000000), wk =   0.0208333
        k(   41) = (   0.1250000   0.5051817   0.0000000), wk =   0.0208333
        k(   42) = (   0.1250000   0.5532943   0.0000000), wk =   0.0208333
        k(   43) = (   0.1666667   0.2886753   0.0000000), wk =   0.0104167
        k(   44) = (   0.1666667   0.3367878   0.0000000), wk =   0.0208333
        k(   45) = (   0.1666667   0.3849004   0.0000000), wk =   0.0208333
        k(   46) = (   0.1666667   0.4330129   0.0000000), wk =   0.0208333
        k(   47) = (   0.1666667   0.4811254   0.0000000), wk =   0.0208333
        k(   48) = (   0.1666667   0.5292380   0.0000000), wk =   0.0208333
        k(   49) = (   0.1666667   0.5773505   0.0000000), wk =   0.0104167
        k(   50) = (   0.2083333   0.3608441   0.0000000), wk =   0.0104167
        k(   51) = (   0.2083333   0.4089566   0.0000000), wk =   0.0208333
        k(   52) = (   0.2083333   0.4570692   0.0000000), wk =   0.0208333
        k(   53) = (   0.2083333   0.5051817   0.0000000), wk =   0.0208333
        k(   54) = (   0.2083333   0.5532943   0.0000000), wk =   0.0208333
        k(   55) = (   0.2500000   0.4330129   0.0000000), wk =   0.0104167
        k(   56) = (   0.2500000   0.4811254   0.0000000), wk =   0.0208333
        k(   57) = (   0.2500000   0.5292380   0.0000000), wk =   0.0208333
        k(   58) = (   0.2500000   0.5773505   0.0000000), wk =   0.0104167
        k(   59) = (   0.2916667   0.5051817   0.0000000), wk =   0.0104167
        k(   60) = (   0.2916667   0.5532943   0.0000000), wk =   0.0208333
        k(   61) = (   0.3333333   0.5773505   0.0000000), wk =   0.0034722

     Dense  grid:   348105 G-vectors     FFT dimensions: (  54,  54, 320)

     Smooth grid:    87947 G-vectors     FFT dimensions: (  32,  32, 192)

     Estimated max dynamical RAM per process >     125.84 MB

     Estimated total dynamical RAM >       1.97 GB
     Generating pointlists ...
     new r_m :   0.3137 (alat units)  1.8762 (a.u.) for type    1
     new r_m :   0.3137 (alat units)  1.8762 (a.u.) for type    2
     new r_m :   0.3531 (alat units)  2.1118 (a.u.) for type    3

     Initial potential from superposition of free atoms

     starting charge      34.9988, renormalised to      35.0000

     negative rho (up, down):  2.107E-05 2.044E-05
     Starting wfcs are   27 randomized atomic wfcs
     Checking if some PAW data can be deallocated... 

     total cpu time spent up to now is        3.6 secs

     Self-consistent Calculation

     iteration #  1     ecut=    70.00 Ry     beta= 0.70
     Davidson diagonalization with overlap
     ethr =  1.00E-02,  avg # of iterations =  2.2

     negative rho (up, down):  1.138E-07 1.832E-07

     total cpu time spent up to now is        9.9 secs

     total energy              =    -657.34805110 Ry
     estimated scf accuracy    <       1.51585133 Ry

     total magnetization       =     3.10 Bohr mag/cell
     absolute magnetization    =     3.72 Bohr mag/cell

     iteration #  2     ecut=    70.00 Ry     beta= 0.70
     Davidson diagonalization with overlap
     ethr =  4.33E-03,  avg # of iterations =  7.9

     negative rho (up, down):  8.562E-08 1.008E-07

     total cpu time spent up to now is       19.7 secs

     total energy              =    -649.23020653 Ry
     estimated scf accuracy    <     297.87981720 Ry

     total magnetization       =     0.70 Bohr mag/cell
     absolute magnetization    =     0.74 Bohr mag/cell

     iteration #  3     ecut=    70.00 Ry     beta= 0.70
     Davidson diagonalization with overlap
     ethr =  4.33E-03,  avg # of iterations =  8.3

     negative rho (up, down):  8.834E-08 1.610E-07

     total cpu time spent up to now is       30.2 secs

     total energy              =    -658.42011873 Ry
     estimated scf accuracy    <      11.47710279 Ry

     total magnetization       =     0.34 Bohr mag/cell
     absolute magnetization    =     0.51 Bohr mag/cell

     iteration #  4     ecut=    70.00 Ry     beta= 0.70
     Davidson diagonalization with overlap
     ethr =  4.33E-03,  avg # of iterations =  1.6

     negative rho (up, down):  2.882E-07 3.442E-07

     total cpu time spent up to now is       35.9 secs

     total energy              =    -658.50582161 Ry
     estimated scf accuracy    <       1.11455295 Ry

     total magnetization       =     2.16 Bohr mag/cell
     absolute magnetization    =     2.21 Bohr mag/cell

     iteration #  5     ecut=    70.00 Ry     beta= 0.70
     Davidson diagonalization with overlap
     ethr =  3.18E-03,  avg # of iterations =  2.5

     negative rho (up, down):  3.026E-06 4.081E-06

     total cpu time spent up to now is       42.0 secs

     total energy              =    -658.46387301 Ry
     estimated scf accuracy    <       5.45406878 Ry

     total magnetization       =     0.48 Bohr mag/cell
     absolute magnetization    =     0.72 Bohr mag/cell

     iteration #  6     ecut=    70.00 Ry     beta= 0.70
     Davidson diagonalization with overlap
     ethr =  3.18E-03,  avg # of iterations =  1.5

     negative rho (up, down):  4.506E-04 3.998E-04

     total cpu time spent up to now is       47.5 secs

     total energy              =    -658.57423316 Ry
     estimated scf accuracy    <       0.25618887 Ry

     total magnetization       =     1.94 Bohr mag/cell
     absolute magnetization    =     2.09 Bohr mag/cell

     iteration #  7     ecut=    70.00 Ry     beta= 0.70
     Davidson diagonalization with overlap
     ethr =  7.32E-04,  avg # of iterations =  5.3

     negative rho (up, down):  2.548E-03 2.289E-03

     total cpu time spent up to now is       54.2 secs

     total energy              =    -658.60553090 Ry
     estimated scf accuracy    <       0.14331378 Ry

     total magnetization       =     2.07 Bohr mag/cell
     absolute magnetization    =     2.26 Bohr mag/cell

     iteration #  8     ecut=    70.00 Ry     beta= 0.70
     Davidson diagonalization with overlap
     ethr =  4.09E-04,  avg # of iterations =  1.4

     negative rho (up, down):  5.330E-03 4.709E-03

     total cpu time spent up to now is       59.7 secs

     total energy              =    -658.60733162 Ry
     estimated scf accuracy    <       0.03913495 Ry

     total magnetization       =     2.08 Bohr mag/cell
     absolute magnetization    =     2.25 Bohr mag/cell

     iteration #  9     ecut=    70.00 Ry     beta= 0.70
     Davidson diagonalization with overlap
     ethr =  1.12E-04,  avg # of iterations =  4.3

     negative rho (up, down):  2.910E-03 2.585E-03

     total cpu time spent up to now is       66.2 secs

     total energy              =    -658.61206220 Ry
     estimated scf accuracy    <       0.01470875 Ry

     total magnetization       =     2.15 Bohr mag/cell
     absolute magnetization    =     2.32 Bohr mag/cell

     iteration # 10     ecut=    70.00 Ry     beta= 0.70
     Davidson diagonalization with overlap
     ethr =  4.20E-05,  avg # of iterations =  2.4

     negative rho (up, down):  3.553E-04 3.426E-04

     total cpu time spent up to now is       72.1 secs

     total energy              =    -658.61180533 Ry
     estimated scf accuracy    <       0.01120057 Ry

     total magnetization       =     2.15 Bohr mag/cell
     absolute magnetization    =     2.31 Bohr mag/cell

     iteration # 11     ecut=    70.00 Ry     beta= 0.70
     Davidson diagonalization with overlap
     ethr =  3.20E-05,  avg # of iterations =  1.4

     negative rho (up, down):  5.633E-05 6.216E-05

     total cpu time spent up to now is       76.7 secs

     total energy              =    -658.61246352 Ry
     estimated scf accuracy    <       0.00161205 Ry

     total magnetization       =     2.13 Bohr mag/cell
     absolute magnetization    =     2.28 Bohr mag/cell

     iteration # 12     ecut=    70.00 Ry     beta= 0.70
     Davidson diagonalization with overlap
     ethr =  4.61E-06,  avg # of iterations =  5.1

     negative rho (up, down):  2.648E-05 3.016E-05

     total cpu time spent up to now is       82.7 secs

     total energy              =    -658.61272708 Ry
     estimated scf accuracy    <       0.00107125 Ry

     total magnetization       =     2.13 Bohr mag/cell
     absolute magnetization    =     2.28 Bohr mag/cell

     iteration # 13     ecut=    70.00 Ry     beta= 0.70
     Davidson diagonalization with overlap
     ethr =  3.06E-06,  avg # of iterations =  1.5

     negative rho (up, down):  1.998E-05 2.144E-05

     total cpu time spent up to now is       86.2 secs

     total energy              =    -658.61287126 Ry
     estimated scf accuracy    <       0.00008268 Ry

     total magnetization       =     2.13 Bohr mag/cell
     absolute magnetization    =     2.27 Bohr mag/cell

     iteration # 14     ecut=    70.00 Ry     beta= 0.70
     Davidson diagonalization with overlap
     ethr =  2.36E-07,  avg # of iterations =  4.3

     negative rho (up, down):  2.007E-05 2.154E-05

     total cpu time spent up to now is       90.4 secs

     total energy              =    -658.61293122 Ry
     estimated scf accuracy    <       0.00016367 Ry

     total magnetization       =     2.13 Bohr mag/cell
     absolute magnetization    =     2.27 Bohr mag/cell

     iteration # 15     ecut=    70.00 Ry     beta= 0.70
     Davidson diagonalization with overlap
     ethr =  2.36E-07,  avg # of iterations =  2.1

     negative rho (up, down):  2.154E-05 2.328E-05

     total cpu time spent up to now is       94.0 secs

     total energy              =    -658.61294721 Ry
     estimated scf accuracy    <       0.00004904 Ry

     total magnetization       =     2.13 Bohr mag/cell
     absolute magnetization    =     2.27 Bohr mag/cell

     iteration # 16     ecut=    70.00 Ry     beta= 0.70
     Davidson diagonalization with overlap
     ethr =  1.40E-07,  avg # of iterations =  2.2

     negative rho (up, down):  2.292E-05 2.504E-05

     total cpu time spent up to now is       97.6 secs

     total energy              =    -658.61295783 Ry
     estimated scf accuracy    <       0.00000403 Ry

     total magnetization       =     2.13 Bohr mag/cell
     absolute magnetization    =     2.27 Bohr mag/cell

     iteration # 17     ecut=    70.00 Ry     beta= 0.70
     Davidson diagonalization with overlap
     ethr =  1.15E-08,  avg # of iterations =  5.6

     negative rho (up, down):  2.265E-05 2.471E-05

     total cpu time spent up to now is      102.1 secs

     total energy              =    -658.61296413 Ry
     estimated scf accuracy    <       0.00000768 Ry

     total magnetization       =     2.13 Bohr mag/cell
     absolute magnetization    =     2.27 Bohr mag/cell

     iteration # 18     ecut=    70.00 Ry     beta= 0.70
     Davidson diagonalization with overlap
     ethr =  1.15E-08,  avg # of iterations =  2.3

     negative rho (up, down):  2.250E-05 2.457E-05

     total cpu time spent up to now is      105.8 secs

     total energy              =    -658.61296543 Ry
     estimated scf accuracy    <       0.00000120 Ry

     total magnetization       =     2.13 Bohr mag/cell
     absolute magnetization    =     2.27 Bohr mag/cell

     iteration # 19     ecut=    70.00 Ry     beta= 0.70
     Davidson diagonalization with overlap
     ethr =  3.43E-09,  avg # of iterations =  3.0

     negative rho (up, down):  2.206E-05 2.400E-05
 
     Magnetic moment per site  (integrated on atomic sphere of radius R)
     atom   1 (R=0.314)  charge= 10.7659  magn=  0.0158
     atom   2 (R=0.314)  charge=  4.1747  magn=  0.0416
     atom   3 (R=0.314)  charge=  4.1374  magn=  0.0034
     atom   4 (R=0.353)  charge=  7.5715  magn=  2.0578

     total cpu time spent up to now is      109.7 secs

     End of self-consistent calculation

     Number of k-points >= 100: set verbosity='high' to print the bands.

     the Fermi energy is     2.0903 ev

!    total energy              =    -658.61296571 Ry
     total all-electron energy =    -12481.786857 Ry
     estimated scf accuracy    <       0.00000013 Ry
     smearing contrib. (-TS)   =      -0.00108761 Ry
     internal energy E=F+TS    =    -658.61187810 Ry

     The total energy is F=E-TS. E is the sum of the following terms:
     one-electron contribution =   -1346.50341785 Ry
     hartree contribution      =     686.55565717 Ry
     xc contribution           =     -62.30602299 Ry
     ewald contribution        =     469.86029902 Ry
     DFT-D3 Dispersion         =      -0.06413167 Ry
     one-center paw contrib.   =    -406.15426178 Ry

     total magnetization       =     2.13 Bohr mag/cell
     absolute magnetization    =     2.27 Bohr mag/cell

     convergence has been achieved in  19 iterations

     negative rho (up, down):  2.206E-05 2.400E-05

     Forces acting on atoms (cartesian axes, Ry/au):

     atom    1 type  1   force =     0.00000000   -0.00000000   -0.01474795
     atom    2 type  2   force =     0.00000000    0.00000000    0.05324611
     atom    3 type  2   force =     0.00000000   -0.00000000   -0.00258004
     atom    4 type  3   force =     0.00000000    0.00000000   -0.03591813
     The non-local contrib.  to forces
     atom    1 type  1   force =     0.00000000    0.00000000   -0.02901929
     atom    2 type  2   force =     0.00000000    0.00000000   -0.08099882
     atom    3 type  2   force =     0.00000000    0.00000000    0.26982205
     atom    4 type  3   force =     0.00000000    0.00000000   -0.04387441
     The ionic contribution  to forces
     atom    1 type  1   force =     0.00000000    0.00000500  -32.00609916
     atom    2 type  2   force =    -0.00000000   -0.00000324   19.14551092
     atom    3 type  2   force =    -0.00000000   -0.00000250  -45.87316648
     atom    4 type  3   force =     0.00000000    0.00000074   58.73375472
     The local contribution  to forces
     atom    1 type  1   force =     0.00000000   -0.00000301   32.01433487
     atom    2 type  2   force =    -0.00000000    0.00000228  -19.00600765
     atom    3 type  2   force =    -0.00000000    0.00000174   45.60058235
     atom    4 type  3   force =     0.00000000   -0.00000044  -58.70897567
     The core correction contribution to forces
     atom    1 type  1   force =     0.00000000    0.00000000    0.00199060
     atom    2 type  2   force =     0.00000000    0.00000000   -0.00161616
     atom    3 type  2   force =     0.00000000    0.00000000   -0.00225072
     atom    4 type  3   force =     0.00000000    0.00000000   -0.01280570
     The Hubbard contrib.    to forces
     atom    1 type  1   force =     0.00000000    0.00000000    0.00000000
     atom    2 type  2   force =     0.00000000    0.00000000    0.00000000
     atom    3 type  2   force =     0.00000000    0.00000000    0.00000000
     atom    4 type  3   force =     0.00000000    0.00000000    0.00000000
     The SCF correction term to forces
     atom    1 type  1   force =    -0.00000000   -0.00000000   -0.00030013
     atom    2 type  2   force =    -0.00000000   -0.00000000   -0.00040116
     atom    3 type  2   force =    -0.00000000   -0.00000000   -0.00012933
     atom    4 type  3   force =    -0.00000000    0.00000000   -0.00055845

     DFT-D3 dispersion contribution to forces:
     atom    1 type  1   force =     0.00000000   -0.00000001    0.00429326
     atom    2 type  2   force =     0.00000000    0.00000000   -0.00329292
     atom    3 type  2   force =    -0.00000000    0.00000000    0.00251019
     atom    4 type  3   force =    -0.00000000    0.00000000   -0.00351052

     Total force =     0.065950     Total SCF correction =     0.000761


     Computing stress (Cartesian axis) and pressure


     negative rho (up, down):  2.206E-05 2.400E-05
          total   stress  (Ry/bohr**3)                   (kbar)     P=      -18.96
  -0.00015953   0.00000000   0.00000000          -23.47        0.00        0.00
   0.00000000  -0.00015953  -0.00000000            0.00      -23.47       -0.00
   0.00000000  -0.00000000  -0.00006752            0.00       -0.00       -9.93


     Writing all to output data dir ./tmp/scf.save/
 
     init_run     :      2.82s CPU      3.27s WALL (       1 calls)
     electrons    :     94.23s CPU    106.10s WALL (       1 calls)
     forces       :      0.91s CPU      1.01s WALL (       1 calls)
     force_dftd3  :      0.02s CPU      0.03s WALL (       1 calls)
     stress       :      4.43s CPU      4.80s WALL (       1 calls)
     stres_dftd3  :      0.03s CPU      0.03s WALL (       1 calls)

     Called by init_run:
     wfcinit      :      1.17s CPU      1.37s WALL (       1 calls)
     potinit      :      0.57s CPU      0.62s WALL (       1 calls)
     hinit0       :      0.69s CPU      0.78s WALL (       1 calls)

     Called by electrons:
     c_bands      :     69.86s CPU     75.42s WALL (      19 calls)
     sum_band     :     15.54s CPU     19.65s WALL (      19 calls)
     v_of_rho     :      1.30s CPU      1.48s WALL (      20 calls)
     newd         :      4.78s CPU      6.85s WALL (      20 calls)
     PAW_pot      :      2.94s CPU      3.02s WALL (      20 calls)
     mix_rho      :      0.18s CPU      0.19s WALL (      19 calls)
     energy_dftd3 :      0.02s CPU      0.02s WALL (       1 calls)

     Called by c_bands:
     init_us_2    :      1.34s CPU      1.44s WALL (    5002 calls)
     init_us_2:cp :      1.33s CPU      1.43s WALL (    5002 calls)
     cegterg      :     49.32s CPU     54.71s WALL (    2318 calls)

     Called by *egterg:
     cdiaghg      :      4.01s CPU      4.25s WALL (   10234 calls)
     h_psi        :     36.23s CPU     40.78s WALL (   10356 calls)
     s_psi        :      1.04s CPU      1.13s WALL (   10356 calls)
     g_psi        :      0.14s CPU      0.15s WALL (    7916 calls)

     Called by h_psi:
     h_psi:calbec :      3.60s CPU      4.02s WALL (   10356 calls)
     vloc_psi     :     30.78s CPU     34.73s WALL (   10356 calls)
     add_vuspsi   :      1.51s CPU      1.67s WALL (   10356 calls)

     General routines
     calbec       :      4.71s CPU      5.28s WALL (   13284 calls)
     fft          :      0.86s CPU      1.10s WALL (     538 calls)
     ffts         :      0.01s CPU      0.02s WALL (      78 calls)
     fftw         :     27.77s CPU     31.76s WALL (  324808 calls)
     interpolate  :      0.05s CPU      0.06s WALL (      40 calls)
 
     Parallel routines
 
     PWSCF        :   1m42.91s CPU   1m56.06s WALL

 
   This run was terminated on:  13:13:46  16Jul2025            

=------------------------------------------------------------------------------=
   JOB DONE.
=------------------------------------------------------------------------------=
