
     Program PWSCF v.7.2 starts on 16Jul2025 at 13:10:13 

     This program is part of the open-source Quantum ESPRESSO suite
     for quantum simulation of materials; please cite
         "P. Giannozzi et al., J. Phys.:Condens. Matter 21 395502 (2009);
         "P. Giannozzi et al., J. Phys.:Condens. Matter 29 465901 (2017);
         "P. Giannozzi et al., J. Chem. Phys. 152 154105 (2020);
          URL http://www.quantum-espresso.org", 
     in publications or presentations arising from this work. More details at
     http://www.quantum-espresso.org/quote

     Parallel version (MPI), running on    16 processors

     MPI processes distributed on     1 nodes
     23710 MiB available memory on the printing compute node when the environment starts
 
     Waiting for input...
     Reading input from standard input

     Current dimensions of program PWSCF are:
     Max number of different atomic species (ntypx) = 10
     Max number of k-points (npk) =  40000
     Max angular momentum in pseudopotentials (lmaxx) =  4
     file Mo.pbe-spn-kjpaw_psl.1.0.0.UPF: wavefunction(s)  4S 4D renormalized
     file S.pbe-n-kjpaw_psl.1.0.0.UPF: wavefunction(s)  3S 3P renormalized
     file Co.pbe-n-kjpaw_psl.1.0.0.UPF: wavefunction(s)  4S 3D renormalized
     Message from routine setup:
     using ibrav=0 with symmetry is DISCOURAGED, use correct ibrav instead
 
     R & G space division:  proc/nbgrp/npool/nimage =      16
     Subspace diagonalization in iterative solution of the eigenvalue problem:
     a serial algorithm will be used

 
     Parallelization info
     --------------------
     sticks:   dense  smooth     PW     G-vecs:    dense   smooth      PW
     Min         108      42     12                21751     5486     866
     Max         110      43     13                21762     5513     891
     Sum        1735     685    199               348105    87947   14017
 
     Using Slab Decomposition
 


     bravais-lattice index     =            0
     lattice parameter (alat)  =       5.9812  a.u.
     unit-cell volume          =    1112.3952 (a.u.)^3
     number of atoms/cell      =            4
     number of atomic types    =            3
     number of electrons       =        35.00
     number of Kohn-Sham states=           22
     kinetic-energy cutoff     =      70.0000  Ry
     charge density cutoff     =     700.0000  Ry
     scf convergence threshold =      1.0E-06
     mixing beta               =       0.7000
     number of iterations used =            8  plain     mixing
     Exchange-correlation= SLA  PW   PBX  PBC
                           (   1   4   3   4   0   0   0)

     celldm(1)=   5.981197  celldm(2)=   0.000000  celldm(3)=   0.000000
     celldm(4)=   0.000000  celldm(5)=   0.000000  celldm(6)=   0.000000

     crystal axes: (cart. coord. in units of alat)
               a(1) = (   1.000000   0.000000   0.000000 )  
               a(2) = (  -0.500000   0.866025   0.000000 )  
               a(3) = (   0.000000   0.000000   6.002945 )  

     reciprocal axes: (cart. coord. in units 2 pi/alat)
               b(1) = (  1.000000  0.577351  0.000000 )  
               b(2) = (  0.000000  1.154701  0.000000 )  
               b(3) = (  0.000000  0.000000  0.166585 )  


     PseudoPot. # 1 for Mo read from file:
     /shared/ESPRESSO/PSLIBRARY/1.0.0/pbe/PSEUDOPOTENTIALS/Mo.pbe-spn-kjpaw_psl.1.0.0.UPF
     MD5 check sum: 4396e0c640fcce5c25f020efccf1ab12
     Pseudo is Projector augmented-wave + core cor, Zval = 14.0
     Generated using &quot;atomic&quot; code by A. Dal Corso  v.6.3
     Shape of augmentation charge: PSQ
     Using radial grid of 1229 points,  6 beta functions with: 
                l(1) =   0
                l(2) =   0
                l(3) =   1
                l(4) =   1
                l(5) =   2
                l(6) =   2
     Q(r) pseudized with 0 coefficients 


     PseudoPot. # 2 for S  read from file:
     /shared/ESPRESSO/PSLIBRARY/1.0.0/pbe/PSEUDOPOTENTIALS/S.pbe-n-kjpaw_psl.1.0.0.UPF
     MD5 check sum: c08f931834bcc19553f8bde8f1a3adc5
     Pseudo is Projector augmented-wave + core cor, Zval =  6.0
     Generated using "atomic" code by A. Dal Corso  (Quantum ESPRESSO distribution)
     Shape of augmentation charge: PSQ
     Using radial grid of 1151 points,  6 beta functions with: 
                l(1) =   0
                l(2) =   0
                l(3) =   1
                l(4) =   1
                l(5) =   2
                l(6) =   2
     Q(r) pseudized with 0 coefficients 


     PseudoPot. # 3 for Co read from file:
     /shared/ESPRESSO/PSLIBRARY/1.0.0/pbe/PSEUDOPOTENTIALS/Co.pbe-n-kjpaw_psl.1.0.0.UPF
     MD5 check sum: 17e7ab8db721b244d1352252ea6cb8e7
     Pseudo is Projector augmented-wave + core cor, Zval =  9.0
     Generated using "atomic" code by A. Dal Corso  (Quantum ESPRESSO distribution)
     Shape of augmentation charge: PSQ
     Using radial grid of 1193 points,  6 beta functions with: 
                l(1) =   0
                l(2) =   0
                l(3) =   1
                l(4) =   1
                l(5) =   2
                l(6) =   2
     Q(r) pseudized with 0 coefficients 


     atomic species   valence    mass     pseudopotential
        Mo            14.00    95.94000     Mo( 1.00)
        S              6.00    32.06500     S ( 1.00)
        Co             9.00    58.93320     Co( 1.00)

     Starting magnetic structure 
     atomic species   magnetization
        Mo           0.000
        S            0.000
        Co           0.800

      6 Sym. Ops. (no inversion) found



   Cartesian axes

     site n.     atom                  positions (alat units)
         1           Mo  tau(   1) = (   0.0000000   0.0000000   3.0014725  )
         2           S   tau(   2) = (   0.5000000   0.2886750   3.4964188  )
         3           S   tau(   3) = (   0.5000000   0.2886750   2.5065262  )
         4           Co  tau(   4) = (   0.0000000   0.0000000   4.1283077  )

     --------------------------------------------
     DFT-D3 Dispersion Correction (3-body terms):
     --------------------------------------------
       Reference C6 values for interpolation: 

         atom   Coordination number   C6
         S          0.000           268.01
         S          0.995           261.99
         S          1.990           251.62
         Co         0.000          1065.56
         Co         1.715           373.09
         Co         2.926           296.13
         Co         7.779           236.57
         Mo         0.000          1691.79
         Mo         1.942          1004.01
         Mo        11.056           674.22

       Values used:

         atom   Coordination number  R0_AB[au]  C6      C8
         Mo        10.170            3.547    674.21  77634.20
         S          5.160            3.128    251.62  12327.25
         S          3.718            3.128    251.62  12327.25
         Co         1.982            3.243    370.12  32543.38

         Molecular C6 ( Ry / a.u.^6 ) =      5896.60


     number of k points=    37  Gaussian smearing, width (Ry)=  0.0073
                       cart. coord. in units 2pi/alat
        k(    1) = (   0.0000000   0.0000000   0.0000000), wk =   0.0030864
        k(    2) = (   0.0000000   0.0641501   0.0000000), wk =   0.0185185
        k(    3) = (   0.0000000   0.1283001   0.0000000), wk =   0.0185185
        k(    4) = (   0.0000000   0.1924502   0.0000000), wk =   0.0185185
        k(    5) = (   0.0000000   0.2566002   0.0000000), wk =   0.0185185
        k(    6) = (   0.0000000   0.3207503   0.0000000), wk =   0.0185185
        k(    7) = (   0.0000000   0.3849004   0.0000000), wk =   0.0185185
        k(    8) = (   0.0000000   0.4490504   0.0000000), wk =   0.0185185
        k(    9) = (   0.0000000   0.5132005   0.0000000), wk =   0.0185185
        k(   10) = (   0.0000000  -0.5773505   0.0000000), wk =   0.0092593
        k(   11) = (   0.0555556   0.0962251   0.0000000), wk =   0.0185185
        k(   12) = (   0.0555556   0.1603751   0.0000000), wk =   0.0370370
        k(   13) = (   0.0555556   0.2245252   0.0000000), wk =   0.0370370
        k(   14) = (   0.0555556   0.2886753   0.0000000), wk =   0.0370370
        k(   15) = (   0.0555556   0.3528253   0.0000000), wk =   0.0370370
        k(   16) = (   0.0555556   0.4169754   0.0000000), wk =   0.0370370
        k(   17) = (   0.0555556   0.4811254   0.0000000), wk =   0.0370370
        k(   18) = (   0.0555556   0.5452755   0.0000000), wk =   0.0370370
        k(   19) = (   0.1111111   0.1924502   0.0000000), wk =   0.0185185
        k(   20) = (   0.1111111   0.2566002   0.0000000), wk =   0.0370370
        k(   21) = (   0.1111111   0.3207503   0.0000000), wk =   0.0370370
        k(   22) = (   0.1111111   0.3849004   0.0000000), wk =   0.0370370
        k(   23) = (   0.1111111   0.4490504   0.0000000), wk =   0.0370370
        k(   24) = (   0.1111111   0.5132005   0.0000000), wk =   0.0370370
        k(   25) = (   0.1111111   0.5773505   0.0000000), wk =   0.0185185
        k(   26) = (   0.1666667   0.2886753   0.0000000), wk =   0.0185185
        k(   27) = (   0.1666667   0.3528253   0.0000000), wk =   0.0370370
        k(   28) = (   0.1666667   0.4169754   0.0000000), wk =   0.0370370
        k(   29) = (   0.1666667   0.4811254   0.0000000), wk =   0.0370370
        k(   30) = (   0.1666667   0.5452755   0.0000000), wk =   0.0370370
        k(   31) = (   0.2222222   0.3849004   0.0000000), wk =   0.0185185
        k(   32) = (   0.2222222   0.4490504   0.0000000), wk =   0.0370370
        k(   33) = (   0.2222222   0.5132005   0.0000000), wk =   0.0370370
        k(   34) = (   0.2222222   0.5773505   0.0000000), wk =   0.0185185
        k(   35) = (   0.2777778   0.4811254   0.0000000), wk =   0.0185185
        k(   36) = (   0.2777778   0.5452755   0.0000000), wk =   0.0370370
        k(   37) = (   0.3333333   0.5773505   0.0000000), wk =   0.0061728

     Dense  grid:   348105 G-vectors     FFT dimensions: (  54,  54, 320)

     Smooth grid:    87947 G-vectors     FFT dimensions: (  32,  32, 192)

     Estimated max dynamical RAM per process >     114.77 MB

     Estimated total dynamical RAM >       1.79 GB
     Generating pointlists ...
     new r_m :   0.3137 (alat units)  1.8762 (a.u.) for type    1
     new r_m :   0.3137 (alat units)  1.8762 (a.u.) for type    2
     new r_m :   0.3531 (alat units)  2.1118 (a.u.) for type    3

     Initial potential from superposition of free atoms

     starting charge      34.9988, renormalised to      35.0000

     negative rho (up, down):  2.107E-05 2.044E-05
     Starting wfcs are   27 randomized atomic wfcs
     Checking if some PAW data can be deallocated... 

     total cpu time spent up to now is        3.9 secs

     Self-consistent Calculation

     iteration #  1     ecut=    70.00 Ry     beta= 0.70
     Davidson diagonalization with overlap
     ethr =  1.00E-02,  avg # of iterations =  2.2

     negative rho (up, down):  1.063E-07 1.800E-07

     total cpu time spent up to now is        8.4 secs

     total energy              =    -657.35458321 Ry
     estimated scf accuracy    <       1.50868869 Ry

     total magnetization       =     3.10 Bohr mag/cell
     absolute magnetization    =     3.72 Bohr mag/cell

     iteration #  2     ecut=    70.00 Ry     beta= 0.70
     Davidson diagonalization with overlap
     ethr =  4.31E-03,  avg # of iterations =  8.0

     negative rho (up, down):  9.273E-08 1.662E-07

     total cpu time spent up to now is       15.1 secs

     total energy              =    -649.29083570 Ry
     estimated scf accuracy    <     296.08960010 Ry

     total magnetization       =     0.69 Bohr mag/cell
     absolute magnetization    =     0.73 Bohr mag/cell

     iteration #  3     ecut=    70.00 Ry     beta= 0.70
     Davidson diagonalization with overlap
     ethr =  4.31E-03,  avg # of iterations =  8.3

     negative rho (up, down):  9.141E-08 2.325E-07

     total cpu time spent up to now is       22.1 secs

     total energy              =    -658.42109653 Ry
     estimated scf accuracy    <      11.38425146 Ry

     total magnetization       =     0.33 Bohr mag/cell
     absolute magnetization    =     0.52 Bohr mag/cell

     iteration #  4     ecut=    70.00 Ry     beta= 0.70
     Davidson diagonalization with overlap
     ethr =  4.31E-03,  avg # of iterations =  1.6

     negative rho (up, down):  2.888E-07 3.723E-07

     total cpu time spent up to now is       26.1 secs

     total energy              =    -658.50727455 Ry
     estimated scf accuracy    <       1.08695395 Ry

     total magnetization       =     2.18 Bohr mag/cell
     absolute magnetization    =     2.21 Bohr mag/cell

     iteration #  5     ecut=    70.00 Ry     beta= 0.70
     Davidson diagonalization with overlap
     ethr =  3.11E-03,  avg # of iterations =  2.6

     negative rho (up, down):  3.110E-06 3.328E-06

     total cpu time spent up to now is       30.5 secs

     total energy              =    -658.46601632 Ry
     estimated scf accuracy    <       5.52954695 Ry

     total magnetization       =     0.46 Bohr mag/cell
     absolute magnetization    =     0.71 Bohr mag/cell

     iteration #  6     ecut=    70.00 Ry     beta= 0.70
     Davidson diagonalization with overlap
     ethr =  3.11E-03,  avg # of iterations =  1.5

     negative rho (up, down):  4.031E-04 3.578E-04

     total cpu time spent up to now is       34.4 secs

     total energy              =    -658.57506261 Ry
     estimated scf accuracy    <       0.26793635 Ry

     total magnetization       =     1.94 Bohr mag/cell
     absolute magnetization    =     2.09 Bohr mag/cell

     iteration #  7     ecut=    70.00 Ry     beta= 0.70
     Davidson diagonalization with overlap
     ethr =  7.66E-04,  avg # of iterations =  5.0

     negative rho (up, down):  2.433E-03 2.202E-03

     total cpu time spent up to now is       39.0 secs

     total energy              =    -658.60574693 Ry
     estimated scf accuracy    <       0.13537664 Ry

     total magnetization       =     2.08 Bohr mag/cell
     absolute magnetization    =     2.27 Bohr mag/cell

     iteration #  8     ecut=    70.00 Ry     beta= 0.70
     Davidson diagonalization with overlap
     ethr =  3.87E-04,  avg # of iterations =  1.6

     negative rho (up, down):  5.292E-03 4.748E-03

     total cpu time spent up to now is       43.0 secs

     total energy              =    -658.60732876 Ry
     estimated scf accuracy    <       0.04029963 Ry

     total magnetization       =     2.09 Bohr mag/cell
     absolute magnetization    =     2.26 Bohr mag/cell

     iteration #  9     ecut=    70.00 Ry     beta= 0.70
     Davidson diagonalization with overlap
     ethr =  1.15E-04,  avg # of iterations =  3.9

     negative rho (up, down):  2.911E-03 2.659E-03

     total cpu time spent up to now is       47.5 secs

     total energy              =    -658.61217943 Ry
     estimated scf accuracy    <       0.01255631 Ry

     total magnetization       =     2.15 Bohr mag/cell
     absolute magnetization    =     2.32 Bohr mag/cell

     iteration # 10     ecut=    70.00 Ry     beta= 0.70
     Davidson diagonalization with overlap
     ethr =  3.59E-05,  avg # of iterations =  3.1

     negative rho (up, down):  3.320E-04 3.339E-04

     total cpu time spent up to now is       51.7 secs

     total energy              =    -658.61189407 Ry
     estimated scf accuracy    <       0.01076988 Ry

     total magnetization       =     2.14 Bohr mag/cell
     absolute magnetization    =     2.31 Bohr mag/cell

     iteration # 11     ecut=    70.00 Ry     beta= 0.70
     Davidson diagonalization with overlap
     ethr =  3.08E-05,  avg # of iterations =  1.4

     negative rho (up, down):  5.727E-05 6.474E-05

     total cpu time spent up to now is       55.7 secs

     total energy              =    -658.61253342 Ry
     estimated scf accuracy    <       0.00156507 Ry

     total magnetization       =     2.13 Bohr mag/cell
     absolute magnetization    =     2.28 Bohr mag/cell

     iteration # 12     ecut=    70.00 Ry     beta= 0.70
     Davidson diagonalization with overlap
     ethr =  4.47E-06,  avg # of iterations =  4.7

     negative rho (up, down):  2.529E-05 2.860E-05

     total cpu time spent up to now is       59.5 secs

     total energy              =    -658.61275393 Ry
     estimated scf accuracy    <       0.00101786 Ry

     total magnetization       =     2.13 Bohr mag/cell
     absolute magnetization    =     2.27 Bohr mag/cell

     iteration # 13     ecut=    70.00 Ry     beta= 0.70
     Davidson diagonalization with overlap
     ethr =  2.91E-06,  avg # of iterations =  1.6

     negative rho (up, down):  2.021E-05 2.174E-05

     total cpu time spent up to now is       63.0 secs

     total energy              =    -658.61289868 Ry
     estimated scf accuracy    <       0.00006464 Ry

     total magnetization       =     2.13 Bohr mag/cell
     absolute magnetization    =     2.27 Bohr mag/cell

     iteration # 14     ecut=    70.00 Ry     beta= 0.70
     Davidson diagonalization with overlap
     ethr =  1.85E-07,  avg # of iterations =  5.0

     negative rho (up, down):  2.020E-05 2.168E-05

     total cpu time spent up to now is       66.7 secs

     total energy              =    -658.61295603 Ry
     estimated scf accuracy    <       0.00013988 Ry

     total magnetization       =     2.13 Bohr mag/cell
     absolute magnetization    =     2.27 Bohr mag/cell

     iteration # 15     ecut=    70.00 Ry     beta= 0.70
     Davidson diagonalization with overlap
     ethr =  1.85E-07,  avg # of iterations =  2.2

     negative rho (up, down):  2.161E-05 2.342E-05

     total cpu time spent up to now is       70.4 secs

     total energy              =    -658.61297644 Ry
     estimated scf accuracy    <       0.00003313 Ry

     total magnetization       =     2.13 Bohr mag/cell
     absolute magnetization    =     2.27 Bohr mag/cell

     iteration # 16     ecut=    70.00 Ry     beta= 0.70
     Davidson diagonalization with overlap
     ethr =  9.47E-08,  avg # of iterations =  2.1

     negative rho (up, down):  2.295E-05 2.509E-05

     total cpu time spent up to now is       74.4 secs

     total energy              =    -658.61298330 Ry
     estimated scf accuracy    <       0.00000441 Ry

     total magnetization       =     2.13 Bohr mag/cell
     absolute magnetization    =     2.27 Bohr mag/cell

     iteration # 17     ecut=    70.00 Ry     beta= 0.70
     Davidson diagonalization with overlap
     ethr =  1.26E-08,  avg # of iterations =  5.3

     negative rho (up, down):  2.254E-05 2.459E-05

     total cpu time spent up to now is       79.3 secs

     total energy              =    -658.61298985 Ry
     estimated scf accuracy    <       0.00000478 Ry

     total magnetization       =     2.13 Bohr mag/cell
     absolute magnetization    =     2.26 Bohr mag/cell

     iteration # 18     ecut=    70.00 Ry     beta= 0.70
     Davidson diagonalization with overlap
     ethr =  1.26E-08,  avg # of iterations =  2.0

     negative rho (up, down):  2.206E-05 2.400E-05
 
     Magnetic moment per site  (integrated on atomic sphere of radius R)
     atom   1 (R=0.314)  charge= 10.7656  magn=  0.0147
     atom   2 (R=0.314)  charge=  4.1747  magn=  0.0415
     atom   3 (R=0.314)  charge=  4.1378  magn=  0.0034
     atom   4 (R=0.353)  charge=  7.5716  magn=  2.0568

     total cpu time spent up to now is       83.5 secs

     End of self-consistent calculation

 ------ SPIN UP ------------


          k = 0.0000 0.0000 0.0000 ( 10889 PWs)   bands (ev):

   -60.0461 -34.2545 -33.9653 -33.9653 -13.8330 -12.3876  -5.6298  -2.6386
    -1.9708  -1.9708  -1.0668  -0.9380  -0.9380  -0.2342  -0.2342   0.1696
     0.3715   0.3716   1.1401   3.3033   3.3033   3.6991

          k = 0.0000 0.0642 0.0000 ( 10909 PWs)   bands (ev):

   -60.0449 -34.2521 -33.9776 -33.9680 -13.7879 -12.3641  -5.5799  -2.6385
    -2.0908  -1.9308  -1.2407  -1.0037  -0.8255  -0.2447  -0.2249   0.1751
     0.3478   0.3685   1.1947   3.2115   3.3493   3.5732

          k = 0.0000 0.1283 0.0000 ( 10908 PWs)   bands (ev):

   -60.0414 -34.2451 -34.0129 -33.9761 -13.6559 -12.2950  -5.4389  -2.6741
    -2.4048  -1.8252  -1.4525  -1.1731  -0.7661  -0.2660  -0.1903   0.1432
     0.3121   0.3608   1.3007   3.0287   3.3383   3.3528

          k = 0.0000 0.1925 0.0000 ( 10956 PWs)   bands (ev):

   -60.0360 -34.2344 -34.0667 -33.9883 -13.4467 -12.1844  -5.2362  -2.9169
    -2.7249  -1.7429  -1.5867  -1.3257  -0.7934  -0.2880  -0.1268   0.0745
     0.2335   0.3535   1.3558   2.9042   3.2252   3.2707

          k = 0.0000 0.2566 0.0000 ( 10974 PWs)   bands (ev):

   -60.0294 -34.2212 -34.1320 -34.0033 -13.1769 -12.0393  -5.0325  -3.3782
    -2.9764  -1.8864  -1.6532  -1.2367  -0.8403  -0.3283  -0.0414  -0.0308
     0.1351   0.3555   1.3724   2.9329   3.0780   3.4572

          k = 0.0000 0.3208 0.0000 ( 10992 PWs)   bands (ev):

   -60.0224 -34.2073 -34.2006 -34.0192 -12.8713 -11.8703  -4.9327  -3.8141
    -3.2538  -2.1282  -1.7310  -1.0358  -0.8521  -0.4038  -0.1799   0.0545
     0.1398   0.3778   1.4954   2.9740   3.0986   3.7825

          k = 0.0000 0.3849 0.0000 ( 11018 PWs)   bands (ev):

   -60.0158 -34.2647 -34.1939 -34.0341 -12.5638 -11.6922  -5.0410  -4.1427
    -3.4869  -2.3503  -1.8443  -0.8584  -0.8488  -0.4431  -0.2447   0.1497
     0.1882   0.4240   1.8071   2.9413   3.3346   4.1119

          k = 0.0000 0.4491 0.0000 ( 11002 PWs)   bands (ev):

   -60.0103 -34.3164 -34.1831 -34.0462 -12.2974 -11.5261  -5.2936  -4.3769
    -3.6465  -2.5212  -1.9625  -0.8502  -0.7425  -0.3670  -0.2520   0.2329
     0.2547   0.4802   2.2793   2.9763   3.5823   4.3498

          k = 0.0000 0.5132 0.0000 ( 11016 PWs)   bands (ev):

   -60.0068 -34.3499 -34.1760 -34.0541 -12.1163 -11.4023  -5.5184  -4.5357
    -3.7464  -2.6278  -2.0454  -0.8550  -0.6845  -0.2970  -0.1981   0.2910
     0.3337   0.5231   2.8067   3.0378   3.7374   4.4682

          k = 0.0000-0.5774 0.0000 ( 11026 PWs)   bands (ev):

   -60.0056 -34.3615 -34.1736 -34.0568 -12.0523 -11.3554  -5.6051  -4.5936
    -3.7823  -2.6639  -2.0741  -0.8578  -0.6677  -0.2878  -0.1544   0.3121
     0.3765   0.5386   3.0678   3.1236   3.7011   4.5105

          k = 0.0556 0.0962 0.0000 ( 10914 PWs)   bands (ev):

   -60.0426 -34.2474 -34.0011 -33.9737 -13.6994 -12.3178  -5.4842  -2.6530
    -2.3084  -1.8594  -1.3923  -1.1472  -0.7566  -0.2586  -0.2034   0.1588
     0.3254   0.3614   1.2740   3.0735   3.3652   3.3908

          k = 0.0556 0.1604 0.0000 ( 10951 PWs)   bands (ev):

   -60.0381 -34.2385 -34.0449 -33.9846 -13.5287 -12.2279  -5.3110  -2.7520
    -2.6536  -1.7730  -1.5522  -1.3312  -0.7375  -0.2704  -0.1558   0.1035
     0.2822   0.3499   1.3468   2.9334   3.2219   3.2651

          k = 0.0556 0.2245 0.0000 ( 10974 PWs)   bands (ev):

   -60.0321 -34.2266 -34.1033 -33.9993 -13.2889 -12.0997  -5.1030  -3.1536
    -2.8700  -1.9312  -1.6037  -1.3082  -0.7751  -0.2871  -0.0863   0.0367
     0.1779   0.3428   1.3572   2.8964   3.1248   3.2779

          k = 0.0556 0.2887 0.0000 ( 10996 PWs)   bands (ev):

   -60.0253 -34.2130 -34.1691 -34.0160 -13.0004 -11.9419  -4.9415  -3.5984
    -3.1256  -2.2041  -1.6286  -1.1499  -0.8088  -0.3406  -0.1049  -0.0096
     0.1572   0.3511   1.4003   2.9355   3.0814   3.5458

          k = 0.0556 0.3528 0.0000 ( 10991 PWs)   bands (ev):

   -60.0185 -34.2343 -34.1993 -34.0326 -12.6925 -11.7670  -4.9434  -3.9683
    -3.3914  -2.4188  -1.7200  -1.0159  -0.8104  -0.4075  -0.2071   0.0608
     0.2214   0.3865   1.6009   2.9521   3.2313   3.8990

          k = 0.0556 0.4170 0.0000 ( 11005 PWs)   bands (ev):

   -60.0124 -34.2911 -34.1873 -34.0472 -12.4035 -11.5925  -5.1398  -4.2424
    -3.5930  -2.5660  -1.8553  -0.9666  -0.7780  -0.3803  -0.2326   0.1314
     0.2905   0.4460   1.9848   3.0140   3.4595   4.2371

          k = 0.0556 0.4811 0.0000 ( 11018 PWs)   bands (ev):

   -60.0080 -34.3329 -34.1783 -34.0580 -12.1778 -11.4438  -5.3882  -4.4485
    -3.7253  -2.6528  -1.9869  -0.9528  -0.7407  -0.3056  -0.2044   0.2104
     0.3457   0.5066   2.4874   3.0967   3.6899   4.4932

          k = 0.0556 0.5453 0.0000 ( 11032 PWs)   bands (ev):

   -60.0056 -34.3550 -34.1736 -34.0637 -12.0543 -11.3551  -5.5470  -4.5657
    -3.7970  -2.6903  -2.0660  -0.9493  -0.7206  -0.2815  -0.1486   0.2759
     0.3827   0.5464   2.9369   3.1724   3.7653   4.4722

          k = 0.1111 0.1925 0.0000 ( 10978 PWs)   bands (ev):

   -60.0331 -34.2284 -34.0920 -33.9993 -13.3272 -12.1201  -5.1288  -3.0351
    -2.8472  -1.9916  -1.6065  -1.3325  -0.7229  -0.2590  -0.1059   0.0619
     0.2110   0.3318   1.3542   2.8922   3.1296   3.1753

          k = 0.1111 0.2566 0.0000 ( 10999 PWs)   bands (ev):

   -60.0269 -34.2161 -34.1486 -34.0180 -13.0679 -11.9785  -4.9510  -3.4128
    -3.0338  -2.3842  -1.6071  -1.2103  -0.7352  -0.2734  -0.0611  -0.0198
     0.1810   0.3208   1.3485   2.8742   3.1060   3.3283

          k = 0.1111 0.3208 0.0000 ( 10999 PWs)   bands (ev):

   -60.0202 -34.2082 -34.2027 -34.0382 -12.7753 -11.8130  -4.8762  -3.7524
    -3.3038  -2.6485  -1.6704  -1.1259  -0.7398  -0.3503  -0.1493   0.0083
     0.2634   0.3363   1.4403   2.9215   3.1932   3.6472

          k = 0.1111 0.3849 0.0000 ( 10995 PWs)   bands (ev):

   -60.0140 -34.2633 -34.1904 -34.0571 -12.4824 -11.6382  -4.9823  -4.0395
    -3.5620  -2.7623  -1.7836  -1.1608  -0.7224  -0.3792  -0.1887   0.0582
     0.3264   0.4053   1.7137   3.0771   3.3400   4.0114

          k = 0.1111 0.4491 0.0000 ( 11020 PWs)   bands (ev):

   -60.0089 -34.3079 -34.1802 -34.0726 -12.2302 -11.4751  -5.1990  -4.2997
    -3.7268  -2.7913  -1.9257  -1.2329  -0.7006  -0.3216  -0.1855   0.1173
     0.3624   0.4869   2.1602   3.2119   3.5753   4.3459

          k = 0.1111 0.5132 0.0000 ( 11018 PWs)   bands (ev):

   -60.0056 -34.3368 -34.1736 -34.0827 -12.0596 -11.3541  -5.3896  -4.4867
    -3.8312  -2.7707  -2.0640  -1.2715  -0.6883  -0.2746  -0.1529   0.1937
     0.3859   0.5558   2.6718   3.2553   3.8322   4.3849

          k = 0.1111 0.5774 0.0000 ( 11012 PWs)   bands (ev):

   -60.0044 -34.3469 -34.1713 -34.0862 -11.9994 -11.3084  -5.4634  -4.5540
    -3.8701  -2.7512  -2.1257  -1.2824  -0.6851  -0.2628  -0.1358   0.2335
     0.3942   0.5894   2.9313   3.3218   3.8768   4.2289

          k = 0.1667 0.2887 0.0000 ( 10978 PWs)   bands (ev):

   -60.0208 -34.2042 -34.1970 -34.0419 -12.8038 -11.8285  -4.8526  -3.6334
    -3.2591  -2.7859  -1.6941  -1.1446  -0.7036  -0.3212  -0.1241   0.0004
     0.2853   0.3061   1.3806   2.8925   3.1848   3.5437

          k = 0.1667 0.3528 0.0000 ( 11011 PWs)   bands (ev):

   -60.0148 -34.2436 -34.1920 -34.0674 -12.5244 -11.6613  -4.8823  -3.8228
    -3.5764  -2.9444  -1.8533  -1.2005  -0.6607  -0.3920  -0.1535   0.0355
     0.3167   0.4026   1.5551   3.0798   3.2778   3.8521

          k = 0.1667 0.4170 0.0000 ( 11005 PWs)   bands (ev):

   -60.0095 -34.2833 -34.1815 -34.0907 -12.2655 -11.4942  -5.0235  -4.1303
    -3.7248  -2.9658  -2.0239  -1.3562  -0.6231  -0.3664  -0.1649   0.0651
     0.3507   0.4795   1.9283   3.2864   3.4469   4.1488

          k = 0.1667 0.4811 0.0000 ( 11023 PWs)   bands (ev):

   -60.0056 -34.3122 -34.1736 -34.1083 -12.0657 -11.3527  -5.1875  -4.3929
    -3.8316  -2.9059  -2.1806  -1.5101  -0.6040  -0.2948  -0.1612   0.1121
     0.3854   0.5466   2.4249   3.2793   3.7746   4.3175

          k = 0.1667 0.5453 0.0000 ( 11015 PWs)   bands (ev):

   -60.0035 -34.3274 -34.1694 -34.1178 -11.9570 -11.2693  -5.2935  -4.5276
    -3.9146  -2.8152  -2.3077  -1.5960  -0.5976  -0.2544  -0.1550   0.1610
     0.4016   0.6188   2.7909   3.3566   3.9475   4.1993

          k = 0.2222 0.3849 0.0000 ( 11026 PWs)   bands (ev):

   -60.0097 -34.2722 -34.1819 -34.0996 -12.2780 -11.5006  -4.9493  -4.0588
    -3.6968  -3.0652  -2.1177  -1.3557  -0.5772  -0.4019  -0.1542   0.0516
     0.3373   0.4813   1.8444   3.2869   3.4113   4.0823

          k = 0.2222 0.4491 0.0000 ( 11010 PWs)   bands (ev):

   -60.0056 -34.2920 -34.1736 -34.1291 -12.0697 -11.3517  -5.0337  -4.3632
    -3.7203  -3.0935  -2.3558  -1.5469  -0.5208  -0.3422  -0.1628   0.0649
     0.3903   0.5258   2.2813   3.2475   3.7119   4.3007

          k = 0.2222 0.5132 0.0000 ( 11025 PWs)   bands (ev):

   -60.0029 -34.3030 -34.1682 -34.1503 -11.9305 -11.2433  -5.1099  -4.5285
    -3.8345  -3.0180  -2.5216  -1.7119  -0.4965  -0.2726  -0.1715   0.0823
     0.4252   0.6197   2.6312   3.2719   3.8546   4.4765

          k = 0.2222 0.5774 0.0000 ( 11024 PWs)   bands (ev):

   -60.0019 -34.3064 -34.1663 -34.1581 -11.8817 -11.2031  -5.1442  -4.5682
    -3.9062  -2.9495  -2.5982  -1.7786  -0.4903  -0.2456  -0.1759   0.0907
     0.4298   0.6893   2.6781   3.4310   3.8891   4.4616

          k = 0.2778 0.4811 0.0000 ( 11050 PWs)   bands (ev):

   -60.0027 -34.2898 -34.1678 -34.1664 -11.9215 -11.2342  -5.0251  -4.5452
    -3.6899  -3.2522  -2.5739  -1.7302  -0.4391  -0.2951  -0.1773   0.0461
     0.4420   0.6121   2.5647   3.2209   3.8275   4.5878

          k = 0.2778 0.5453 0.0000 ( 11048 PWs)   bands (ev):

   -60.0011 -34.2822 -34.1925 -34.1647 -11.8418 -11.1670  -5.0441  -4.5632
    -3.7752  -3.3341  -2.6311  -1.8589  -0.3991  -0.2603  -0.1758   0.0162
     0.4488   0.7539   2.5296   3.3657   3.9564   4.7901

          k = 0.3333 0.5774 0.0000 ( 11052 PWs)   bands (ev):

   -60.0005 -34.2642 -34.2180 -34.1635 -11.8109 -11.1395  -5.0377  -4.5161
    -3.6602  -3.6163  -2.6256  -1.9205  -0.3519  -0.2721  -0.1498  -0.0351
     0.4520   0.8379   2.4259   3.3784   4.0870   5.0105

 ------ SPIN DOWN ----------


          k = 0.0000 0.0000 0.0000 ( 10889 PWs)   bands (ev):

   -60.0347 -34.2269 -33.9601 -33.9601 -13.7962 -12.3713  -5.5856  -2.5064
    -1.9396  -1.9396  -0.8726  -0.8726  -0.1459   1.1054   1.6551   1.6551
     1.7532   1.7532   2.2641   3.4369   3.4369   3.7376

          k = 0.0000 0.0642 0.0000 ( 10909 PWs)   bands (ev):

   -60.0335 -34.2245 -33.9724 -33.9629 -13.7509 -12.3480  -5.5353  -2.5216
    -2.0567  -1.8975  -0.9741  -0.9472  -0.0634   1.0204   1.6324   1.6593
     1.7642   1.8100   2.3102   3.3571   3.5018   3.6001

          k = 0.0000 0.1283 0.0000 ( 10908 PWs)   bands (ev):

   -60.0300 -34.2175 -34.0077 -33.9709 -13.6183 -12.2795  -5.3930  -2.5967
    -2.3645  -1.7831  -1.1526  -1.1368   0.0512   0.8129   1.5812   1.6525
     1.8147   1.9238   2.4240   3.1870   3.3482   3.5127

          k = 0.0000 0.1925 0.0000 ( 10956 PWs)   bands (ev):

   -60.0246 -34.2068 -34.0614 -33.9831 -13.4079 -12.1699  -5.1883  -2.8677
    -2.6880  -1.6795  -1.3172  -1.2981   0.0812   0.5539   1.5142   1.6280
     1.9102   2.0419   2.4871   3.0461   3.3100   3.3704

          k = 0.0000 0.2566 0.0000 ( 10974 PWs)   bands (ev):

   -60.0180 -34.1936 -34.1267 -33.9981 -13.1364 -12.0262  -4.9823  -3.3234
    -2.9532  -1.8304  -1.4218  -1.2183  -0.0254   0.3972   1.4490   1.6030
     2.0368   2.1411   2.4182   3.1157   3.2203   3.5366

          k = 0.0000 0.3208 0.0000 ( 10992 PWs)   bands (ev):

   -60.0109 -34.1954 -34.1794 -34.0140 -12.8286 -11.8590  -4.8825  -3.7500
    -3.2322  -2.0832  -1.5591  -0.9931  -0.2567   0.4833   1.4121   1.5950
     2.1816   2.2278   2.3946   3.1055   3.2982   3.8948

          k = 0.0000 0.3849 0.0000 ( 11018 PWs)   bands (ev):

   -60.0043 -34.2593 -34.1662 -34.0289 -12.5187 -11.6830  -4.9934  -4.0746
    -3.4588  -2.3108  -1.7050  -0.7850  -0.3802   0.6339   1.4318   1.6135
     2.3297   2.3590   2.4686   3.0459   3.5217   4.2518

          k = 0.0000 0.4491 0.0000 ( 11002 PWs)   bands (ev):

   -59.9989 -34.3109 -34.1554 -34.0410 -12.2499 -11.5189  -5.2460  -4.3155
    -3.6090  -2.4846  -1.8313  -0.6353  -0.3266   0.7217   1.5018   1.6503
     2.4379   2.4600   2.7565   3.0440   3.7589   4.5194

          k = 0.0000 0.5132 0.0000 ( 11016 PWs)   bands (ev):

   -59.9954 -34.3444 -34.1483 -34.0489 -12.0673 -11.3962  -5.4698  -4.4813
    -3.7040  -2.5927  -1.9117  -0.5515  -0.1966   0.7487   1.5766   1.6840
     2.4614   2.5479   3.0764   3.1544   3.9738   4.6507

          k = 0.0000-0.5774 0.0000 ( 11026 PWs)   bands (ev):

   -59.9941 -34.3560 -34.1459 -34.0516 -12.0029 -11.3496  -5.5562  -4.5415
    -3.7388  -2.6293  -1.9383  -0.5253  -0.1325   0.7531   1.6098   1.6970
     2.4658   2.5784   3.0962   3.3661   4.0621   4.6693

          k = 0.0556 0.0962 0.0000 ( 10914 PWs)   bands (ev):

   -60.0311 -34.2198 -33.9959 -33.9686 -13.6619 -12.3021  -5.4388  -2.5631
    -2.2707  -1.8198  -1.1314  -1.0593   0.0334   0.8782   1.5725   1.6848
     1.7888   1.8927   2.3912   3.2325   3.4030   3.5315

          k = 0.0556 0.1604 0.0000 ( 10951 PWs)   bands (ev):

   -60.0267 -34.2109 -34.0397 -33.9795 -13.4903 -12.2129  -5.2639  -2.6985
    -2.6114  -1.7164  -1.3918  -1.1445   0.1068   0.6533   1.4916   1.6743
     1.8668   2.0071   2.4832   3.0834   3.2444   3.4101

          k = 0.0556 0.2245 0.0000 ( 10974 PWs)   bands (ev):

   -60.0207 -34.1990 -34.0980 -33.9942 -13.2491 -12.0860  -5.0534  -3.1031
    -2.8412  -1.8740  -1.4206  -1.1730   0.0734   0.4425   1.4155   1.6409
     1.9790   2.1198   2.4464   3.0625   3.2576   3.3583

          k = 0.0556 0.2887 0.0000 ( 10996 PWs)   bands (ev):

   -60.0139 -34.1854 -34.1638 -34.0108 -12.9587 -11.9298  -4.8904  -3.5392
    -3.1035  -2.1593  -1.4168  -1.0909  -0.1246   0.4425   1.3653   1.6120
     2.1046   2.2156   2.3812   3.1175   3.2218   3.6686

          k = 0.0556 0.3528 0.0000 ( 10991 PWs)   bands (ev):

   -60.0070 -34.2289 -34.1716 -34.0274 -12.6484 -11.7569  -4.8940  -3.9010
    -3.3668  -2.3790  -1.5451  -0.9617  -0.2882   0.5887   1.3683   1.6053
     2.2188   2.3357   2.4027   3.0894   3.4004   4.0460

          k = 0.0556 0.4170 0.0000 ( 11005 PWs)   bands (ev):

   -60.0010 -34.2856 -34.1596 -34.0420 -12.3569 -11.5844  -5.0917  -4.1791
    -3.5576  -2.5272  -1.7065  -0.8813  -0.2690   0.7167   1.4351   1.6263
     2.3476   2.4530   2.5445   3.1198   3.6270   4.4001

          k = 0.0556 0.4811 0.0000 ( 11018 PWs)   bands (ev):

   -59.9965 -34.3273 -34.1506 -34.0528 -12.1293 -11.4373  -5.3392  -4.3948
    -3.6810  -2.6147  -1.8451  -0.8188  -0.1422   0.7709   1.5243   1.6599
     2.4486   2.5065   2.8481   3.2001   3.8795   4.6791

          k = 0.0556 0.5453 0.0000 ( 11032 PWs)   bands (ev):

   -59.9941 -34.3495 -34.1459 -34.0585 -12.0050 -11.3492  -5.4971  -4.5173
    -3.7495  -2.6530  -1.9237  -0.7804  -0.0327   0.7841   1.5873   1.6814
     2.4802   2.5512   3.0611   3.3410   4.0881   4.6226

          k = 0.1111 0.1925 0.0000 ( 10978 PWs)   bands (ev):

   -60.0216 -34.2008 -34.0867 -33.9942 -13.2877 -12.1062  -5.0794  -2.9877
    -2.8129  -1.9412  -1.4690  -1.0961   0.1262   0.4792   1.3749   1.6667
     1.9567   2.1196   2.4560   3.0489   3.2290   3.2917

          k = 0.1111 0.2566 0.0000 ( 10999 PWs)   bands (ev):

   -60.0154 -34.1884 -34.1433 -34.0128 -13.0267 -11.9660  -4.8992  -3.3585
    -3.0070  -2.3456  -1.4258  -1.0281  -0.0140   0.4534   1.2851   1.6354
     2.0664   2.2266   2.3730   3.0483   3.2101   3.4986

          k = 0.1111 0.3208 0.0000 ( 10999 PWs)   bands (ev):

   -60.0088 -34.2027 -34.1752 -34.0330 -12.7319 -11.8024  -4.8243  -3.6873
    -3.2809  -2.6107  -1.4890  -1.0059  -0.1851   0.5838   1.2578   1.6074
     2.1539   2.2962   2.3975   3.0897   3.2988   3.8487

          k = 0.1111 0.3849 0.0000 ( 10995 PWs)   bands (ev):

   -60.0025 -34.2578 -34.1627 -34.0519 -12.4366 -11.6295  -4.9320  -3.9768
    -3.5280  -2.7199  -1.6216  -1.0852  -0.2068   0.7490   1.3154   1.6002
     2.2085   2.4014   2.5118   3.2047   3.4652   4.2198

          k = 0.1111 0.4491 0.0000 ( 11020 PWs)   bands (ev):

   -59.9975 -34.3024 -34.1525 -34.0674 -12.1823 -11.4682  -5.1481  -4.2525
    -3.6746  -2.7456  -1.7719  -1.1742  -0.1001   0.8428   1.4316   1.6175
     2.3130   2.4832   2.7091   3.3062   3.7221   4.5497

          k = 0.1111 0.5132 0.0000 ( 11018 PWs)   bands (ev):

   -59.9941 -34.3313 -34.1459 -34.0775 -12.0104 -11.3482  -5.3373  -4.4494
    -3.7712  -2.7246  -1.9115  -1.2101   0.0395   0.8707   1.5281   1.6389
     2.4248   2.5236   2.9544   3.3661   4.0302   4.5891

          k = 0.1111 0.5774 0.0000 ( 11012 PWs)   bands (ev):

   -59.9930 -34.3413 -34.1436 -34.0810 -11.9498 -11.3028  -5.4105  -4.5197
    -3.8086  -2.7059  -1.9730  -1.2171   0.1041   0.8751   1.5689   1.6435
     2.4714   2.5323   3.0474   3.4432   4.2475   4.3895

          k = 0.1667 0.2887 0.0000 ( 10978 PWs)   bands (ev):

   -60.0094 -34.1918 -34.1764 -34.0367 -12.7606 -11.8177  -4.7996  -3.5691
    -3.2364  -2.7490  -1.5366  -0.9542  -0.1449   0.5941   1.1995   1.6088
     2.1399   2.2769   2.4041   3.0516   3.2704   3.7803

          k = 0.1667 0.3528 0.0000 ( 11011 PWs)   bands (ev):

   -60.0034 -34.2381 -34.1644 -34.0622 -12.4790 -11.6524  -4.8299  -3.7561
    -3.5500  -2.8957  -1.7373  -1.0390  -0.1880   0.8034   1.1941   1.5825
     2.1321   2.3715   2.5270   3.2095   3.3610   4.1145

          k = 0.1667 0.4170 0.0000 ( 11005 PWs)   bands (ev):

   -59.9981 -34.2778 -34.1538 -34.0855 -12.2179 -11.4870  -4.9706  -4.0959
    -3.6587  -2.9072  -1.9313  -1.2388  -0.1108   0.9582   1.2987   1.5729
     2.1486   2.4797   2.6952   3.3746   3.5412   4.4244

          k = 0.1667 0.4811 0.0000 ( 11023 PWs)   bands (ev):

   -59.9941 -34.3067 -34.1459 -34.1031 -12.0165 -11.3467  -5.1326  -4.3702
    -3.7527  -2.8421  -2.0814  -1.4344   0.0413   0.9984   1.4418   1.5848
     2.2383   2.5466   2.8934   3.3952   3.8562   4.6130

          k = 0.1667 0.5453 0.0000 ( 11015 PWs)   bands (ev):

   -59.9920 -34.3218 -34.1417 -34.1125 -11.9072 -11.2637  -5.2373  -4.5093
    -3.8337  -2.7498  -2.1956  -1.5443   0.1689   1.0037   1.5226   1.5921
     2.3343   2.5756   2.9533   3.5315   4.0545   4.5915

          k = 0.2222 0.3849 0.0000 ( 11026 PWs)   bands (ev):

   -59.9983 -34.2667 -34.1542 -34.0943 -12.2305 -11.4932  -4.8957  -4.0321
    -3.6230  -2.9974  -2.0594  -1.1996  -0.1246   1.0721   1.1750   1.5535
     2.0906   2.4804   2.6969   3.3857   3.4713   4.3871

          k = 0.2222 0.4491 0.0000 ( 11010 PWs)   bands (ev):

   -59.9941 -34.2865 -34.1459 -34.1239 -12.0206 -11.3456  -4.9785  -4.3436
    -3.6305  -3.0123  -2.3236  -1.4246   0.0208   1.1448   1.3311   1.5424
     2.1012   2.5599   2.8776   3.3782   3.7551   4.6253

          k = 0.2222 0.5132 0.0000 ( 11025 PWs)   bands (ev):

   -59.9914 -34.2974 -34.1451 -34.1405 -11.8806 -11.2377  -5.0557  -4.5077
    -3.7435  -2.9254  -2.4887  -1.6257   0.1939   1.1441   1.4466   1.5613
     2.1770   2.6017   2.8631   3.5239   3.9462   4.8182

          k = 0.2222 0.5774 0.0000 ( 11024 PWs)   bands (ev):

   -59.9905 -34.3008 -34.1528 -34.1386 -11.8316 -11.1977  -5.0914  -4.5455
    -3.8176  -2.8460  -2.5654  -1.7087   0.2738   1.1455   1.4786   1.5727
     2.2328   2.6142   2.7777   3.6551   4.0326   4.8717

          k = 0.2778 0.4811 0.0000 ( 11050 PWs)   bands (ev):

   -59.9912 -34.2843 -34.1611 -34.1401 -11.8716 -11.2286  -4.9762  -4.5129
    -3.5916  -3.1741  -2.5525  -1.6319   0.1996   1.2286   1.3931   1.5493
     2.1025   2.6090   2.8312   3.4934   3.9315   4.8990

          k = 0.2778 0.5453 0.0000 ( 11048 PWs)   bands (ev):

   -59.9897 -34.2767 -34.1873 -34.1370 -11.7915 -11.1615  -5.0090  -4.5051
    -3.6916  -3.2653  -2.5858  -1.7861   0.3416   1.2676   1.4145   1.5804
     2.1502   2.6018   2.6544   3.6167   4.1316   5.1557

          k = 0.3333 0.5774 0.0000 ( 11052 PWs)   bands (ev):

   -59.9891 -34.2587 -34.2128 -34.1358 -11.7605 -11.1341  -5.0150  -4.4262
    -3.6011  -3.5535  -2.5639  -1.8585   0.4063   1.3510   1.3712   1.5950
     2.1570   2.4703   2.6481   3.6177   4.2691   5.5394

     the Fermi energy is     2.0922 ev

!    total energy              =    -658.61299116 Ry
     total all-electron energy =    -12481.786882 Ry
     estimated scf accuracy    <       0.00000023 Ry
     smearing contrib. (-TS)   =      -0.00105809 Ry
     internal energy E=F+TS    =    -658.61193307 Ry

     The total energy is F=E-TS. E is the sum of the following terms:
     one-electron contribution =   -1346.49707383 Ry
     hartree contribution      =     686.54912843 Ry
     xc contribution           =     -62.30590633 Ry
     ewald contribution        =     469.86029902 Ry
     DFT-D3 Dispersion         =      -0.06413167 Ry
     one-center paw contrib.   =    -406.15424869 Ry

     total magnetization       =     2.12 Bohr mag/cell
     absolute magnetization    =     2.26 Bohr mag/cell

     convergence has been achieved in  18 iterations

     negative rho (up, down):  2.206E-05 2.400E-05

     Forces acting on atoms (cartesian axes, Ry/au):

     atom    1 type  1   force =     0.00000000    0.00000000   -0.01502164
     atom    2 type  2   force =     0.00000000   -0.00000000    0.05322394
     atom    3 type  2   force =     0.00000000    0.00000000   -0.00256195
     atom    4 type  3   force =     0.00000000    0.00000000   -0.03564035
     The non-local contrib.  to forces
     atom    1 type  1   force =     0.00000000    0.00000000   -0.02909577
     atom    2 type  2   force =     0.00000000    0.00000000   -0.08132685
     atom    3 type  2   force =     0.00000000    0.00000000    0.26969897
     atom    4 type  3   force =     0.00000000    0.00000000   -0.04398905
     The ionic contribution  to forces
     atom    1 type  1   force =     0.00000000    0.00000500  -32.00609916
     atom    2 type  2   force =    -0.00000000   -0.00000324   19.14551092
     atom    3 type  2   force =    -0.00000000   -0.00000250  -45.87316648
     atom    4 type  3   force =     0.00000000    0.00000074   58.73375472
     The local contribution  to forces
     atom    1 type  1   force =    -0.00000000   -0.00000301   32.01157963
     atom    2 type  2   force =    -0.00000000    0.00000228  -19.00610713
     atom    3 type  2   force =    -0.00000000    0.00000174   45.59956264
     atom    4 type  3   force =    -0.00000000   -0.00000044  -58.70896507
     The core correction contribution to forces
     atom    1 type  1   force =    -0.00000000    0.00000000    0.00198021
     atom    2 type  2   force =     0.00000000    0.00000000   -0.00161033
     atom    3 type  2   force =     0.00000000    0.00000000   -0.00225153
     atom    4 type  3   force =     0.00000000    0.00000000   -0.01277767
     The Hubbard contrib.    to forces
     atom    1 type  1   force =     0.00000000    0.00000000    0.00000000
     atom    2 type  2   force =     0.00000000    0.00000000    0.00000000
     atom    3 type  2   force =     0.00000000    0.00000000    0.00000000
     atom    4 type  3   force =     0.00000000    0.00000000    0.00000000
     The SCF correction term to forces
     atom    1 type  1   force =    -0.00000000   -0.00000000    0.00214653
     atom    2 type  2   force =     0.00000000    0.00000000   -0.00012340
     atom    3 type  2   force =     0.00000000    0.00000000    0.00091060
     atom    4 type  3   force =    -0.00000000    0.00000000   -0.00032643

     DFT-D3 dispersion contribution to forces:
     atom    1 type  1   force =     0.00000000   -0.00000001    0.00429326
     atom    2 type  2   force =     0.00000000    0.00000000   -0.00329292
     atom    3 type  2   force =    -0.00000000    0.00000000    0.00251019
     atom    4 type  3   force =    -0.00000000    0.00000000   -0.00351052

     Total force =     0.065843     Total SCF correction =     0.002358


     Computing stress (Cartesian axis) and pressure


     negative rho (up, down):  2.206E-05 2.400E-05
          total   stress  (Ry/bohr**3)                   (kbar)     P=      -19.37
  -0.00016226   0.00000000   0.00000000          -23.87        0.00        0.00
   0.00000000  -0.00016226  -0.00000000            0.00      -23.87       -0.00
   0.00000000   0.00000000  -0.00007048            0.00        0.00      -10.37


     Writing all to output data dir ./tmp/scf.save/
 
     init_run     :      2.97s CPU      3.30s WALL (       1 calls)
     electrons    :     69.72s CPU     79.68s WALL (       1 calls)
     forces       :      1.58s CPU      1.72s WALL (       1 calls)
     force_dftd3  :      0.04s CPU      0.04s WALL (       1 calls)
     stress       :      7.17s CPU      7.61s WALL (       1 calls)
     stres_dftd3  :      0.04s CPU      0.04s WALL (       1 calls)

     Called by init_run:
     wfcinit      :      0.76s CPU      0.88s WALL (       1 calls)
     potinit      :      1.04s CPU      1.10s WALL (       1 calls)
     hinit0       :      0.75s CPU      0.78s WALL (       1 calls)

     Called by electrons:
     c_bands      :     45.25s CPU     49.17s WALL (      18 calls)
     sum_band     :     14.75s CPU     18.30s WALL (      18 calls)
     v_of_rho     :      1.49s CPU      1.69s WALL (      19 calls)
     newd         :      5.06s CPU      7.38s WALL (      19 calls)
     PAW_pot      :      3.80s CPU      3.89s WALL (      19 calls)
     mix_rho      :      0.23s CPU      0.23s WALL (      18 calls)
     energy_dftd3 :      0.02s CPU      0.02s WALL (       1 calls)

     Called by c_bands:
     init_us_2    :      1.15s CPU      1.21s WALL (    2886 calls)
     init_us_2:cp :      1.15s CPU      1.21s WALL (    2886 calls)
     cegterg      :     34.70s CPU     38.52s WALL (    1332 calls)

     Called by *egterg:
     cdiaghg      :      2.72s CPU      2.85s WALL (    5940 calls)
     h_psi        :     25.88s CPU     29.26s WALL (    6014 calls)
     s_psi        :      0.85s CPU      0.92s WALL (    6014 calls)
     g_psi        :      0.09s CPU      0.10s WALL (    4608 calls)

     Called by h_psi:
     h_psi:calbec :      2.49s CPU      2.74s WALL (    6014 calls)
     vloc_psi     :     21.88s CPU     24.90s WALL (    6014 calls)
     add_vuspsi   :      1.28s CPU      1.38s WALL (    6014 calls)

     General routines
     calbec       :      5.86s CPU      6.21s WALL (    7716 calls)
     fft          :      1.01s CPU      1.28s WALL (     513 calls)
     ffts         :      0.02s CPU      0.02s WALL (      74 calls)
     fftw         :     19.15s CPU     22.11s WALL (  186728 calls)
     interpolate  :      0.07s CPU      0.07s WALL (      38 calls)
 
     Parallel routines
 
     PWSCF        :   1m22.13s CPU   1m33.35s WALL

 
   This run was terminated on:  13:11:46  16Jul2025            

=------------------------------------------------------------------------------=
   JOB DONE.
=------------------------------------------------------------------------------=
