
     Program PWSCF v.7.2 starts on  6Jun2025 at 13:33:18 

     This program is part of the open-source Quantum ESPRESSO suite
     for quantum simulation of materials; please cite
         "P. Giannozzi et al., J. Phys.:Condens. Matter 21 395502 (2009);
         "P. Giannozzi et al., J. Phys.:Condens. Matter 29 465901 (2017);
         "P. Giannozzi et al., J. Chem. Phys. 152 154105 (2020);
          URL http://www.quantum-espresso.org", 
     in publications or presentations arising from this work. More details at
     http://www.quantum-espresso.org/quote

     Parallel version (MPI), running on    16 processors

     MPI processes distributed on     1 nodes
     38608 MiB available memory on the printing compute node when the environment starts
 
     Waiting for input...
     Reading input from standard input

     Current dimensions of program PWSCF are:
     Max number of different atomic species (ntypx) = 10
     Max number of k-points (npk) =  40000
     Max angular momentum in pseudopotentials (lmaxx) =  4
     file Mo.pbe-spn-kjpaw_psl.1.0.0.UPF: wavefunction(s)  4S 4D renormalized
     file S.pbe-n-kjpaw_psl.1.0.0.UPF: wavefunction(s)  3S 3P renormalized
     Message from routine setup:
     using ibrav=0 with symmetry is DISCOURAGED, use correct ibrav instead
 
     R & G space division:  proc/nbgrp/npool/nimage =      16
     Subspace diagonalization in iterative solution of the eigenvalue problem:
     a serial algorithm will be used

 
     Parallelization info
     --------------------
     sticks:   dense  smooth     PW     G-vecs:    dense   smooth      PW
     Min          50      50     14                 5518     5518     847
     Max          51      51     16                 5527     5527     852
     Sum         805     805    235                88391    88391   13607
 
     Using Slab Decomposition
 


     bravais-lattice index     =            0
     lattice parameter (alat)  =       6.0093  a.u.
     unit-cell volume          =     915.4463 (a.u.)^3
     number of atoms/cell      =            3
     number of atomic types    =            2
     number of electrons       =        26.00
     number of Kohn-Sham states=           17
     kinetic-energy cutoff     =      80.0000  Ry
     charge density cutoff     =     320.0000  Ry
     scf convergence threshold =      1.0E-06
     mixing beta               =       0.7000
     number of iterations used =            8  plain     mixing
     Exchange-correlation= SLA  PW   PBX  PBC
                           (   1   4   3   4   0   0   0)

     celldm(1)=   6.009329  celldm(2)=   0.000000  celldm(3)=   0.000000
     celldm(4)=   0.000000  celldm(5)=   0.000000  celldm(6)=   0.000000

     crystal axes: (cart. coord. in units of alat)
               a(1) = (   1.000000   0.000000   0.000000 )  
               a(2) = (  -0.500000   0.866025   0.000000 )  
               a(3) = (   0.000000   0.000000   4.871069 )  

     reciprocal axes: (cart. coord. in units 2 pi/alat)
               b(1) = (  1.000000  0.577350  0.000000 )  
               b(2) = (  0.000000  1.154701  0.000000 )  
               b(3) = (  0.000000  0.000000  0.205294 )  


     PseudoPot. # 1 for Mo read from file:
     /shared/ESPRESSO/PSLIBRARY/1.0.0/pbe/PSEUDOPOTENTIALS/Mo.pbe-spn-kjpaw_psl.1.0.0.UPF
     MD5 check sum: 4396e0c640fcce5c25f020efccf1ab12
     Pseudo is Projector augmented-wave + core cor, Zval = 14.0
     Generated using &quot;atomic&quot; code by A. Dal Corso  v.6.3
     Shape of augmentation charge: PSQ
     Using radial grid of 1229 points,  6 beta functions with: 
                l(1) =   0
                l(2) =   0
                l(3) =   1
                l(4) =   1
                l(5) =   2
                l(6) =   2
     Q(r) pseudized with 0 coefficients 


     PseudoPot. # 2 for S  read from file:
     /shared/ESPRESSO/PSLIBRARY/1.0.0/pbe/PSEUDOPOTENTIALS/S.pbe-n-kjpaw_psl.1.0.0.UPF
     MD5 check sum: c08f931834bcc19553f8bde8f1a3adc5
     Pseudo is Projector augmented-wave + core cor, Zval =  6.0
     Generated using "atomic" code by A. Dal Corso  (Quantum ESPRESSO distribution)
     Shape of augmentation charge: PSQ
     Using radial grid of 1151 points,  6 beta functions with: 
                l(1) =   0
                l(2) =   0
                l(3) =   1
                l(4) =   1
                l(5) =   2
                l(6) =   2
     Q(r) pseudized with 0 coefficients 


     atomic species   valence    mass     pseudopotential
        Mo            14.00    95.94000     Mo( 1.00)
        S              6.00    32.06500     S ( 1.00)

     12 Sym. Ops. (no inversion) found



   Cartesian axes

     site n.     atom                  positions (alat units)
         1           Mo  tau(   1) = (   0.0000000   0.0000000   2.4355346  )
         2           S   tau(   2) = (   0.5000000   0.2886751   2.9371069  )
         3           S   tau(   3) = (   0.5000000   0.2886751   1.9339623  )

     number of k points=    21  Fermi-Dirac smearing, width (Ry)=  0.0070
                       cart. coord. in units 2pi/alat
        k(    1) = (   0.0000000   0.0000000   0.0000000), wk =   0.0118343
        k(    2) = (   0.0000000   0.0888231   0.0000000), wk =   0.0710059
        k(    3) = (   0.0000000   0.1776462   0.0000000), wk =   0.0710059
        k(    4) = (   0.0000000   0.2664694   0.0000000), wk =   0.0710059
        k(    5) = (   0.0000000   0.3552925   0.0000000), wk =   0.0710059
        k(    6) = (   0.0000000   0.4441156   0.0000000), wk =   0.0710059
        k(    7) = (   0.0000000   0.5329387   0.0000000), wk =   0.0710059
        k(    8) = (   0.0769231   0.1332347   0.0000000), wk =   0.0710059
        k(    9) = (   0.0769231   0.2220578   0.0000000), wk =   0.1420118
        k(   10) = (   0.0769231   0.3108809   0.0000000), wk =   0.1420118
        k(   11) = (   0.0769231   0.3997040   0.0000000), wk =   0.1420118
        k(   12) = (   0.0769231   0.4885272   0.0000000), wk =   0.1420118
        k(   13) = (   0.0769231   0.5773503   0.0000000), wk =   0.0710059
        k(   14) = (   0.1538462   0.2664694   0.0000000), wk =   0.0710059
        k(   15) = (   0.1538462   0.3552925   0.0000000), wk =   0.1420118
        k(   16) = (   0.1538462   0.4441156   0.0000000), wk =   0.1420118
        k(   17) = (   0.1538462   0.5329387   0.0000000), wk =   0.1420118
        k(   18) = (   0.2307692   0.3997040   0.0000000), wk =   0.0710059
        k(   19) = (   0.2307692   0.4885272   0.0000000), wk =   0.1420118
        k(   20) = (   0.2307692   0.5773503   0.0000000), wk =   0.0710059
        k(   21) = (   0.3076923   0.5329387   0.0000000), wk =   0.0710059

     Dense  grid:    88391 G-vectors     FFT dimensions: (  36,  36, 180)

     Estimated max dynamical RAM per process >      27.86 MB

     Estimated total dynamical RAM >     445.75 MB

     Initial potential from superposition of free atoms

     starting charge      25.9991, renormalised to      26.0000

     negative rho (up, down):  3.875E-04 0.000E+00
     Starting wfcs are   18 randomized atomic wfcs
     Checking if some PAW data can be deallocated... 

     total cpu time spent up to now is        1.2 secs

     Self-consistent Calculation

     iteration #  1     ecut=    80.00 Ry     beta= 0.70
     Davidson diagonalization with overlap
     ethr =  1.00E-02,  avg # of iterations =  2.2

     Threshold (ethr) on eigenvalues was too large:
     Diagonalizing with lowered threshold

     Davidson diagonalization with overlap
     ethr =  2.82E-04,  avg # of iterations =  3.6

     negative rho (up, down):  4.618E-04 0.000E+00

     total cpu time spent up to now is        2.6 secs

     total energy              =    -496.65403684 Ry
     estimated scf accuracy    <       0.11077596 Ry

     iteration #  2     ecut=    80.00 Ry     beta= 0.70
     Davidson diagonalization with overlap
     ethr =  4.26E-04,  avg # of iterations =  3.0

     negative rho (up, down):  4.402E-04 0.000E+00

     total cpu time spent up to now is        3.4 secs

     total energy              =    -496.62449815 Ry
     estimated scf accuracy    <       0.29655382 Ry

     iteration #  3     ecut=    80.00 Ry     beta= 0.70
     Davidson diagonalization with overlap
     ethr =  4.26E-04,  avg # of iterations =  2.4

     negative rho (up, down):  4.378E-04 0.000E+00

     total cpu time spent up to now is        4.1 secs

     total energy              =    -496.67721121 Ry
     estimated scf accuracy    <       0.14034127 Ry

     iteration #  4     ecut=    80.00 Ry     beta= 0.70
     Davidson diagonalization with overlap
     ethr =  4.26E-04,  avg # of iterations =  1.4

     negative rho (up, down):  4.561E-04 0.000E+00

     total cpu time spent up to now is        4.8 secs

     total energy              =    -496.69557753 Ry
     estimated scf accuracy    <       0.00060635 Ry

     iteration #  5     ecut=    80.00 Ry     beta= 0.70
     Davidson diagonalization with overlap
     ethr =  2.33E-06,  avg # of iterations =  3.3

     negative rho (up, down):  4.590E-04 0.000E+00

     total cpu time spent up to now is        5.6 secs

     total energy              =    -496.69586162 Ry
     estimated scf accuracy    <       0.00010894 Ry

     iteration #  6     ecut=    80.00 Ry     beta= 0.70
     Davidson diagonalization with overlap
     ethr =  4.19E-07,  avg # of iterations =  2.0

     negative rho (up, down):  4.610E-04 0.000E+00

     total cpu time spent up to now is        6.3 secs

     total energy              =    -496.69587082 Ry
     estimated scf accuracy    <       0.00001115 Ry

     iteration #  7     ecut=    80.00 Ry     beta= 0.70
     Davidson diagonalization with overlap
     ethr =  4.29E-08,  avg # of iterations =  2.2

     negative rho (up, down):  4.613E-04 0.000E+00

     total cpu time spent up to now is        6.8 secs

     End of self-consistent calculation

          k = 0.0000 0.0000 0.0000 ( 11105 PWs)   bands (ev):

   -60.4039 -34.5330 -34.3175 -34.3175 -13.4950 -12.2958  -5.0233  -1.9269
    -1.9269  -1.3590  -0.8601  -0.8601   0.3780   3.2518   3.2518   3.4193
     3.4193

          k = 0.0000 0.0888 0.0000 ( 11109 PWs)   bands (ev):

   -60.4018 -34.5289 -34.3389 -34.3224 -13.4083 -12.2571  -4.9209  -2.1292
    -1.8368  -1.7042  -1.0006  -0.6559   0.3443   3.1282   3.1723   3.3242
     3.3984

          k = 0.0000 0.1776 0.0000 ( 11091 PWs)   bands (ev):

   -60.3959 -34.5173 -34.3981 -34.3359 -13.1595 -12.1460  -4.6517  -2.6188
    -2.2610  -1.5838  -1.3418  -0.5868   0.1836   2.7463   3.0325   3.0961
     3.7431

          k = 0.0000 0.2665 0.0000 ( 11069 PWs)   bands (ev):

   -60.3876 -34.5011 -34.4805 -34.3550 -12.7828 -11.9787  -4.3816  -3.1267
    -2.8582  -1.7421  -1.2212  -0.8065  -0.1582   2.5579   2.8561   3.2533
     4.1156

          k = 0.0000 0.3553 0.0000 ( 11073 PWs)   bands (ev):

   -60.3788 -34.5669 -34.4837 -34.3752 -12.3389 -11.7845  -4.4825  -3.4469
    -3.3238  -2.1010  -1.1066  -0.8398  -0.4471   2.6712   2.7123   3.6740
     4.4051

          k = 0.0000 0.4441 0.0000 ( 11053 PWs)   bands (ev):

   -60.3714 -34.6377 -34.4693 -34.3918 -11.9226 -11.6076  -4.8688  -3.9378
    -3.3784  -2.3630  -1.3257  -0.5436  -0.3927   2.7049   2.9406   4.0571
     4.5815

          k = 0.0000 0.5329 0.0000 ( 11030 PWs)   bands (ev):

   -60.3673 -34.6773 -34.4612 -34.4012 -11.6602 -11.4998  -5.1491  -4.2205
    -3.4680  -2.4999  -1.4309  -0.3934  -0.1766   2.7616   3.1944   4.2570
     4.6603

          k = 0.0769 0.1332 0.0000 ( 11119 PWs)   bands (ev):

   -60.3978 -34.5210 -34.3783 -34.3325 -13.2405 -12.1821  -4.7331  -2.4693
    -2.0784  -1.6714  -1.3282  -0.4996   0.2472   2.8523   2.9853   3.1514
     3.6730

          k = 0.0769 0.2221 0.0000 ( 11097 PWs)   bands (ev):

   -60.3907 -34.5071 -34.4467 -34.3513 -12.9271 -12.0422  -4.4436  -2.9550
    -2.5633  -1.8316  -1.3972  -0.5160  -0.0101   2.5452   2.9388   3.0013
     4.0694

          k = 0.0769 0.3109 0.0000 ( 11094 PWs)   bands (ev):

   -60.3821 -34.5280 -34.4903 -34.3740 -12.5147 -11.8595  -4.3358  -3.2685
    -3.1441  -2.2259  -1.1468  -0.7720  -0.3026   2.4530   2.8566   3.3074
     4.4071

          k = 0.0769 0.3997 0.0000 ( 11070 PWs)   bands (ev):

   -60.3741 -34.6037 -34.4744 -34.3952 -12.0793 -11.6701  -4.6266  -3.7281
    -3.3034  -2.4409  -1.0929  -1.0406  -0.2849   2.5658   2.9378   3.7348
     4.5937

          k = 0.0769 0.4885 0.0000 ( 11031 PWs)   bands (ev):

   -60.3683 -34.6568 -34.4631 -34.4103 -11.7316 -11.5230  -4.9643  -4.1535
    -3.3903  -2.5334  -1.3359  -0.9210  -0.0660   2.7304   3.1348   4.1200
     4.5916

          k = 0.0769 0.5774 0.0000 ( 11016 PWs)   bands (ev):

   -60.3662 -34.6759 -34.4591 -34.4157 -11.5956 -11.4668  -5.1028  -4.3086
    -3.4527  -2.5566  -1.4256  -0.8582   0.0634   2.7791   3.2822   4.3688
     4.4611

          k = 0.1538 0.2665 0.0000 ( 11085 PWs)   bands (ev):

   -60.3833 -34.5095 -34.4927 -34.3780 -12.5765 -11.8855  -4.2755  -3.2233
    -2.9024  -2.4780  -1.3114  -0.5297  -0.2348   2.3569   2.9075   3.0653
     4.4521

          k = 0.1538 0.3553 0.0000 ( 11081 PWs)   bands (ev):

   -60.3755 -34.5732 -34.4773 -34.4087 -12.1667 -11.7027  -4.4044  -3.5180
    -3.2054  -2.6992  -1.5010  -0.7815  -0.2478   2.4061   3.0059   3.3376
     4.6998

          k = 0.1538 0.4441 0.0000 ( 11034 PWs)   bands (ev):

   -60.3690 -34.6246 -34.4646 -34.4350 -11.7874 -11.5351  -4.6633  -4.0912
    -3.2202  -2.6808  -1.6577  -1.1326  -0.0648   2.6449   3.1525   3.6726
     4.7779

          k = 0.1538 0.5329 0.0000 ( 11044 PWs)   bands (ev):

   -60.3653 -34.6531 -34.4573 -34.4501 -11.5522 -11.4325  -4.8333  -4.4139
    -3.3517  -2.6020  -1.6622  -1.3964   0.1635   2.7008   3.4064   3.9070
     4.7459

          k = 0.2308 0.3997 0.0000 ( 11057 PWs)   bands (ev):

   -60.3693 -34.6061 -34.4651 -34.4509 -11.8085 -11.5386  -4.5020  -4.0593
    -3.0651  -2.7661  -2.0706  -1.0220  -0.0873   2.5977   3.1721   3.4535
     4.8891

          k = 0.2308 0.4885 0.0000 ( 11048 PWs)   bands (ev):

   -60.3648 -34.6232 -34.4869 -34.4564 -11.5320 -11.4102  -4.5133  -4.4883
    -3.1499  -2.6250  -2.4326  -1.3612   0.1811   2.5888   3.5031   3.5494
     5.0193

          k = 0.2308 0.5774 0.0000 ( 11020 PWs)   bands (ev):

   -60.3632 -34.6277 -34.5016 -34.4532 -11.4268 -11.3609  -4.6458  -4.4821
    -3.3093  -2.5136  -2.4892  -1.5451   0.3532   2.4744   3.5792   3.7265
     5.0706

          k = 0.3077 0.5329 0.0000 ( 11006 PWs)   bands (ev):

   -60.3625 -34.6027 -34.5361 -34.4518 -11.3823 -11.3333  -4.7379  -4.1843
    -3.3204  -2.9343  -2.4372  -1.6374   0.4512   2.3286   3.4429   3.8645
     5.2242

     the Fermi energy is     1.3582 ev

!    total energy              =    -496.69587401 Ry
     total all-electron energy =     -9695.026089 Ry
     estimated scf accuracy    <       0.00000033 Ry
     smearing contrib. (-TS)   =      -0.00000191 Ry
     internal energy E=F+TS    =    -496.69587210 Ry

     The total energy is F=E-TS. E is the sum of the following terms:
     one-electron contribution =    -740.33038391 Ry
     hartree contribution      =     374.06005041 Ry
     xc contribution           =     -29.64910440 Ry
     ewald contribution        =     218.85262295 Ry
     one-center paw contrib.   =    -319.62905714 Ry

     convergence has been achieved in   7 iterations

     negative rho (up, down):  4.613E-04 0.000E+00

     Forces acting on atoms (cartesian axes, Ry/au):

     atom    1 type  1   force =     0.00000000   -0.00000000    0.00000000
     atom    2 type  2   force =    -0.00000000    0.00000000   -0.02083941
     atom    3 type  2   force =    -0.00000000    0.00000000    0.02083941
     The non-local contrib.  to forces
     atom    1 type  1   force =     0.00000000    0.00000000    0.00000000
     atom    2 type  2   force =     0.00000000   -0.00000000   -0.27773624
     atom    3 type  2   force =     0.00000000    0.00000000    0.27773624
     The ionic contribution  to forces
     atom    1 type  1   force =     0.00000000   -0.00000000    0.00000000
     atom    2 type  2   force =    -0.00000000    0.00000000   32.99976195
     atom    3 type  2   force =    -0.00000000    0.00000000  -32.99976195
     The local contribution  to forces
     atom    1 type  1   force =    -0.00000000   -0.00000000    0.00000000
     atom    2 type  2   force =    -0.00000000    0.00000000  -32.74520548
     atom    3 type  2   force =    -0.00000000    0.00000000   32.74520548
     The core correction contribution to forces
     atom    1 type  1   force =    -0.00000000    0.00000000   -0.00000000
     atom    2 type  2   force =     0.00000000   -0.00000000    0.00269005
     atom    3 type  2   force =     0.00000000   -0.00000000   -0.00269005
     The Hubbard contrib.    to forces
     atom    1 type  1   force =     0.00000000    0.00000000    0.00000000
     atom    2 type  2   force =     0.00000000    0.00000000    0.00000000
     atom    3 type  2   force =     0.00000000    0.00000000    0.00000000
     The SCF correction term to forces
     atom    1 type  1   force =     0.00000000    0.00000000    0.00000000
     atom    2 type  2   force =     0.00000000    0.00000000   -0.00034969
     atom    3 type  2   force =     0.00000000    0.00000000    0.00034969

     Total force =     0.029471     Total SCF correction =     0.000495


     Computing stress (Cartesian axis) and pressure


     negative rho (up, down):  4.613E-04 0.000E+00
          total   stress  (Ry/bohr**3)                   (kbar)     P=       -9.83
  -0.00003198   0.00000000  -0.00000000           -4.70        0.00       -0.00
   0.00000000  -0.00003198   0.00000000            0.00       -4.70        0.00
  -0.00000000   0.00000000  -0.00013646           -0.00        0.00      -20.07


     Writing all to output data dir ./tmp/scf.save/
 
     init_run     :      0.52s CPU      0.60s WALL (       1 calls)
     electrons    :      5.19s CPU      5.65s WALL (       1 calls)
     forces       :      0.12s CPU      0.13s WALL (       1 calls)
     stress       :      0.49s CPU      0.51s WALL (       1 calls)

     Called by init_run:
     wfcinit      :      0.15s CPU      0.16s WALL (       1 calls)
     potinit      :      0.12s CPU      0.13s WALL (       1 calls)
     hinit0       :      0.17s CPU      0.20s WALL (       1 calls)

     Called by electrons:
     c_bands      :      3.72s CPU      4.01s WALL (       8 calls)
     sum_band     :      0.71s CPU      0.87s WALL (       8 calls)
     v_of_rho     :      0.05s CPU      0.05s WALL (       8 calls)
     newd         :      0.28s CPU      0.31s WALL (       8 calls)
     PAW_pot      :      0.52s CPU      0.53s WALL (       8 calls)
     mix_rho      :      0.01s CPU      0.01s WALL (       8 calls)

     Called by c_bands:
     init_us_2    :      0.07s CPU      0.08s WALL (     399 calls)
     init_us_2:cp :      0.07s CPU      0.08s WALL (     399 calls)
     cegterg      :      2.59s CPU      2.87s WALL (     168 calls)

     Called by *egterg:
     cdiaghg      :      0.15s CPU      0.17s WALL (     569 calls)
     h_psi        :      2.11s CPU      2.35s WALL (     611 calls)
     s_psi        :      0.04s CPU      0.05s WALL (     611 calls)
     g_psi        :      0.01s CPU      0.01s WALL (     422 calls)

     Called by h_psi:
     h_psi:calbec :      0.17s CPU      0.19s WALL (     611 calls)
     vloc_psi     :      1.87s CPU      2.08s WALL (     611 calls)
     add_vuspsi   :      0.05s CPU      0.06s WALL (     611 calls)

     General routines
     calbec       :      0.24s CPU      0.27s WALL (     884 calls)
     fft          :      0.05s CPU      0.09s WALL (     114 calls)
     ffts         :      0.00s CPU      0.00s WALL (       8 calls)
     fftw         :      2.00s CPU      2.25s WALL (   18390 calls)
 
     Parallel routines
 
     PWSCF        :      6.85s CPU      7.58s WALL

 
   This run was terminated on:  13:33:25   6Jun2025            

=------------------------------------------------------------------------------=
   JOB DONE.
=------------------------------------------------------------------------------=
