
     Program PWSCF v.7.2 starts on  6Jun2025 at 13:32:53 

     This program is part of the open-source Quantum ESPRESSO suite
     for quantum simulation of materials; please cite
         "P. Giannozzi et al., J. Phys.:Condens. Matter 21 395502 (2009);
         "P. Giannozzi et al., J. Phys.:Condens. Matter 29 465901 (2017);
         "P. Giannozzi et al., J. Chem. Phys. 152 154105 (2020);
          URL http://www.quantum-espresso.org", 
     in publications or presentations arising from this work. More details at
     http://www.quantum-espresso.org/quote

     Parallel version (MPI), running on    16 processors

     MPI processes distributed on     1 nodes
     39158 MiB available memory on the printing compute node when the environment starts
 
     Waiting for input...
     Reading input from standard input

     Current dimensions of program PWSCF are:
     Max number of different atomic species (ntypx) = 10
     Max number of k-points (npk) =  40000
     Max angular momentum in pseudopotentials (lmaxx) =  4
     file Mo.pbe-spn-kjpaw_psl.1.0.0.UPF: wavefunction(s)  4S 4D renormalized
     file S.pbe-n-kjpaw_psl.1.0.0.UPF: wavefunction(s)  3S 3P renormalized
     Message from routine setup:
     using ibrav=0 with symmetry is DISCOURAGED, use correct ibrav instead
 
     R & G space division:  proc/nbgrp/npool/nimage =      16
     Subspace diagonalization in iterative solution of the eigenvalue problem:
     a serial algorithm will be used

 
     Parallelization info
     --------------------
     sticks:   dense  smooth     PW     G-vecs:    dense   smooth      PW
     Min          50      50     13                 5518     5518     831
     Max          51      51     14                 5527     5527     850
     Sum         805     805    223                88391    88391   13487
 
     Using Slab Decomposition
 


     bravais-lattice index     =            0
     lattice parameter (alat)  =       6.0093  a.u.
     unit-cell volume          =     915.4463 (a.u.)^3
     number of atoms/cell      =            3
     number of atomic types    =            2
     number of electrons       =        26.00
     number of Kohn-Sham states=           17
     kinetic-energy cutoff     =      80.0000  Ry
     charge density cutoff     =     320.0000  Ry
     scf convergence threshold =      1.0E-06
     mixing beta               =       0.7000
     number of iterations used =            8  plain     mixing
     Exchange-correlation= SLA  PW   PBX  PBC
                           (   1   4   3   4   0   0   0)

     celldm(1)=   6.009329  celldm(2)=   0.000000  celldm(3)=   0.000000
     celldm(4)=   0.000000  celldm(5)=   0.000000  celldm(6)=   0.000000

     crystal axes: (cart. coord. in units of alat)
               a(1) = (   1.000000   0.000000   0.000000 )  
               a(2) = (  -0.500000   0.866025   0.000000 )  
               a(3) = (   0.000000   0.000000   4.871069 )  

     reciprocal axes: (cart. coord. in units 2 pi/alat)
               b(1) = (  1.000000  0.577350  0.000000 )  
               b(2) = (  0.000000  1.154701  0.000000 )  
               b(3) = (  0.000000  0.000000  0.205294 )  


     PseudoPot. # 1 for Mo read from file:
     /shared/ESPRESSO/PSLIBRARY/1.0.0/pbe/PSEUDOPOTENTIALS/Mo.pbe-spn-kjpaw_psl.1.0.0.UPF
     MD5 check sum: 4396e0c640fcce5c25f020efccf1ab12
     Pseudo is Projector augmented-wave + core cor, Zval = 14.0
     Generated using &quot;atomic&quot; code by A. Dal Corso  v.6.3
     Shape of augmentation charge: PSQ
     Using radial grid of 1229 points,  6 beta functions with: 
                l(1) =   0
                l(2) =   0
                l(3) =   1
                l(4) =   1
                l(5) =   2
                l(6) =   2
     Q(r) pseudized with 0 coefficients 


     PseudoPot. # 2 for S  read from file:
     /shared/ESPRESSO/PSLIBRARY/1.0.0/pbe/PSEUDOPOTENTIALS/S.pbe-n-kjpaw_psl.1.0.0.UPF
     MD5 check sum: c08f931834bcc19553f8bde8f1a3adc5
     Pseudo is Projector augmented-wave + core cor, Zval =  6.0
     Generated using "atomic" code by A. Dal Corso  (Quantum ESPRESSO distribution)
     Shape of augmentation charge: PSQ
     Using radial grid of 1151 points,  6 beta functions with: 
                l(1) =   0
                l(2) =   0
                l(3) =   1
                l(4) =   1
                l(5) =   2
                l(6) =   2
     Q(r) pseudized with 0 coefficients 


     atomic species   valence    mass     pseudopotential
        Mo            14.00    95.94000     Mo( 1.00)
        S              6.00    32.06500     S ( 1.00)

     12 Sym. Ops. (no inversion) found



   Cartesian axes

     site n.     atom                  positions (alat units)
         1           Mo  tau(   1) = (   0.0000000   0.0000000   2.4355346  )
         2           S   tau(   2) = (   0.5000000   0.2886751   2.9371069  )
         3           S   tau(   3) = (   0.5000000   0.2886751   1.9339623  )

     number of k points=     8  Fermi-Dirac smearing, width (Ry)=  0.0070
                       cart. coord. in units 2pi/alat
        k(    1) = (   0.0000000   0.0000000   0.0000000), wk =   0.0408163
        k(    2) = (   0.0000000   0.1649572   0.0000000), wk =   0.2448980
        k(    3) = (   0.0000000   0.3299144   0.0000000), wk =   0.2448980
        k(    4) = (   0.0000000   0.4948717   0.0000000), wk =   0.2448980
        k(    5) = (   0.1428571   0.2474358   0.0000000), wk =   0.2448980
        k(    6) = (   0.1428571   0.4123930   0.0000000), wk =   0.4897959
        k(    7) = (   0.1428571   0.5773503   0.0000000), wk =   0.2448980
        k(    8) = (   0.2857143   0.4948717   0.0000000), wk =   0.2448980

     Dense  grid:    88391 G-vectors     FFT dimensions: (  36,  36, 180)

     Estimated max dynamical RAM per process >      25.53 MB

     Estimated total dynamical RAM >     408.47 MB

     Initial potential from superposition of free atoms

     starting charge      25.9991, renormalised to      26.0000

     negative rho (up, down):  3.875E-04 0.000E+00
     Starting wfcs are   18 randomized atomic wfcs
     Checking if some PAW data can be deallocated... 

     total cpu time spent up to now is        1.1 secs

     Self-consistent Calculation

     iteration #  1     ecut=    80.00 Ry     beta= 0.70
     Davidson diagonalization with overlap
     ethr =  1.00E-02,  avg # of iterations =  2.1

     Threshold (ethr) on eigenvalues was too large:
     Diagonalizing with lowered threshold

     Davidson diagonalization with overlap
     ethr =  2.83E-04,  avg # of iterations =  3.6

     negative rho (up, down):  4.623E-04 0.000E+00

     total cpu time spent up to now is        1.8 secs

     total energy              =    -496.65362693 Ry
     estimated scf accuracy    <       0.11143493 Ry

     iteration #  2     ecut=    80.00 Ry     beta= 0.70
     Davidson diagonalization with overlap
     ethr =  4.29E-04,  avg # of iterations =  3.0

     negative rho (up, down):  4.406E-04 0.000E+00

     total cpu time spent up to now is        2.2 secs

     total energy              =    -496.62403063 Ry
     estimated scf accuracy    <       0.29879883 Ry

     iteration #  3     ecut=    80.00 Ry     beta= 0.70
     Davidson diagonalization with overlap
     ethr =  4.29E-04,  avg # of iterations =  2.5

     negative rho (up, down):  4.378E-04 0.000E+00

     total cpu time spent up to now is        2.8 secs

     total energy              =    -496.67701889 Ry
     estimated scf accuracy    <       0.14168131 Ry

     iteration #  4     ecut=    80.00 Ry     beta= 0.70
     Davidson diagonalization with overlap
     ethr =  4.29E-04,  avg # of iterations =  1.5

     negative rho (up, down):  4.558E-04 0.000E+00

     total cpu time spent up to now is        3.1 secs

     total energy              =    -496.69558942 Ry
     estimated scf accuracy    <       0.00058996 Ry

     iteration #  5     ecut=    80.00 Ry     beta= 0.70
     Davidson diagonalization with overlap
     ethr =  2.27E-06,  avg # of iterations =  3.6

     negative rho (up, down):  4.588E-04 0.000E+00

     total cpu time spent up to now is        3.5 secs

     total energy              =    -496.69587645 Ry
     estimated scf accuracy    <       0.00011535 Ry

     iteration #  6     ecut=    80.00 Ry     beta= 0.70
     Davidson diagonalization with overlap
     ethr =  4.44E-07,  avg # of iterations =  2.0

     negative rho (up, down):  4.609E-04 0.000E+00

     total cpu time spent up to now is        3.9 secs

     total energy              =    -496.69588495 Ry
     estimated scf accuracy    <       0.00001256 Ry

     iteration #  7     ecut=    80.00 Ry     beta= 0.70
     Davidson diagonalization with overlap
     ethr =  4.83E-08,  avg # of iterations =  2.1

     negative rho (up, down):  4.613E-04 0.000E+00

     total cpu time spent up to now is        4.2 secs

     End of self-consistent calculation

          k = 0.0000 0.0000 0.0000 ( 11105 PWs)   bands (ev):

   -60.4044 -34.5329 -34.3182 -34.3182 -13.4948 -12.2957  -5.0232  -1.9271
    -1.9271  -1.3589  -0.8600  -0.8600   0.3780   3.2518   3.2518   3.4192
     3.4192

          k = 0.0000 0.1650 0.0000 ( 11089 PWs)   bands (ev):

   -60.3975 -34.5192 -34.3885 -34.3343 -13.2038 -12.1656  -4.6962  -2.5405
    -2.1778  -1.6285  -1.2864  -0.5763   0.2185   2.7991   3.0287   3.1322
     3.6885

          k = 0.0000 0.3299 0.0000 ( 11069 PWs)   bands (ev):

   -60.3818 -34.5438 -34.4884 -34.3703 -12.4676 -11.8402  -4.4036  -3.3033
    -3.2838  -2.0065  -1.0250  -0.9444  -0.3929   2.6158   2.7391   3.5480
     4.3338

          k = 0.0000 0.4949 0.0000 ( 11026 PWs)   bands (ev):

   -60.3691 -34.6656 -34.4636 -34.3990 -11.7452 -11.5342  -5.0569  -4.1309
    -3.4338  -2.4575  -1.3992  -0.4388  -0.2607   2.7376   3.1018   4.1969
     4.6370

          k = 0.1429 0.2474 0.0000 ( 11087 PWs)   bands (ev):

   -60.3861 -34.4970 -34.4912 -34.3704 -12.6871 -11.9347  -4.3001  -3.1719
    -2.7766  -2.3285  -1.3122  -0.4936  -0.1815   2.3942   2.8981   3.0179
     4.3531

          k = 0.1429 0.4124 0.0000 ( 11063 PWs)   bands (ev):

   -60.3719 -34.6097 -34.4691 -34.4227 -11.9313 -11.5994  -4.5892  -3.8857
    -3.2116  -2.6762  -1.5375  -1.0153  -0.1574   2.5591   3.0725   3.5857
     4.7431

          k = 0.1429 0.5774 0.0000 ( 11016 PWs)   bands (ev):

   -60.3656 -34.6610 -34.4567 -34.4465 -11.5326 -11.4265  -4.9004  -4.4301
    -3.3884  -2.5872  -1.5369  -1.4292   0.1864   2.7146   3.4264   4.0071
     4.6844

          k = 0.2857 0.4949 0.0000 ( 11024 PWs)   bands (ev):

   -60.3640 -34.6143 -34.5133 -34.4537 -11.4493 -11.3674  -4.6271  -4.3624
    -3.1304  -2.7977  -2.5439  -1.4900   0.3095   2.4682   3.4802   3.6889
     5.1377

     the Fermi energy is     1.3519 ev

!    total energy              =    -496.69588862 Ry
     total all-electron energy =     -9695.026103 Ry
     estimated scf accuracy    <       0.00000033 Ry
     smearing contrib. (-TS)   =      -0.00000153 Ry
     internal energy E=F+TS    =    -496.69588708 Ry

     The total energy is F=E-TS. E is the sum of the following terms:
     one-electron contribution =    -740.32901032 Ry
     hartree contribution      =     374.05859010 Ry
     xc contribution           =     -29.64904226 Ry
     ewald contribution        =     218.85262295 Ry
     one-center paw contrib.   =    -319.62904756 Ry

     convergence has been achieved in   7 iterations

     negative rho (up, down):  4.613E-04 0.000E+00

     Forces acting on atoms (cartesian axes, Ry/au):

     atom    1 type  1   force =     0.00000000    0.00000000    0.00000000
     atom    2 type  2   force =     0.00000000    0.00000000   -0.02088633
     atom    3 type  2   force =     0.00000000    0.00000000    0.02088633
     The non-local contrib.  to forces
     atom    1 type  1   force =     0.00000000    0.00000000    0.00000000
     atom    2 type  2   force =    -0.00000000   -0.00000000   -0.27776990
     atom    3 type  2   force =     0.00000000    0.00000000    0.27776990
     The ionic contribution  to forces
     atom    1 type  1   force =     0.00000000   -0.00000000    0.00000000
     atom    2 type  2   force =    -0.00000000    0.00000000   32.99976195
     atom    3 type  2   force =    -0.00000000    0.00000000  -32.99976195
     The local contribution  to forces
     atom    1 type  1   force =     0.00000000   -0.00000000    0.00000000
     atom    2 type  2   force =    -0.00000000    0.00000000  -32.74510402
     atom    3 type  2   force =    -0.00000000    0.00000000   32.74510402
     The core correction contribution to forces
     atom    1 type  1   force =     0.00000000   -0.00000000   -0.00000000
     atom    2 type  2   force =     0.00000000   -0.00000000    0.00269062
     atom    3 type  2   force =     0.00000000   -0.00000000   -0.00269062
     The Hubbard contrib.    to forces
     atom    1 type  1   force =     0.00000000    0.00000000    0.00000000
     atom    2 type  2   force =     0.00000000    0.00000000    0.00000000
     atom    3 type  2   force =     0.00000000    0.00000000    0.00000000
     The SCF correction term to forces
     atom    1 type  1   force =    -0.00000000   -0.00000000    0.00000000
     atom    2 type  2   force =    -0.00000000    0.00000000   -0.00046498
     atom    3 type  2   force =    -0.00000000   -0.00000000    0.00046498

     Total force =     0.029538     Total SCF correction =     0.000658


     Computing stress (Cartesian axis) and pressure


     negative rho (up, down):  4.613E-04 0.000E+00
          total   stress  (Ry/bohr**3)                   (kbar)     P=       -9.83
  -0.00003198   0.00000000   0.00000000           -4.70        0.00        0.00
   0.00000000  -0.00003198   0.00000000            0.00       -4.70        0.00
   0.00000000   0.00000000  -0.00013661            0.00        0.00      -20.10


     Writing all to output data dir ./tmp/scf.save/
 
     init_run     :      0.41s CPU      0.48s WALL (       1 calls)
     electrons    :      3.00s CPU      3.13s WALL (       1 calls)
     forces       :      0.18s CPU      0.19s WALL (       1 calls)
     stress       :      0.36s CPU      0.37s WALL (       1 calls)

     Called by init_run:
     wfcinit      :      0.05s CPU      0.06s WALL (       1 calls)
     potinit      :      0.12s CPU      0.14s WALL (       1 calls)
     hinit0       :      0.16s CPU      0.19s WALL (       1 calls)

     Called by electrons:
     c_bands      :      1.53s CPU      1.56s WALL (       8 calls)
     sum_band     :      0.56s CPU      0.58s WALL (       8 calls)
     v_of_rho     :      0.05s CPU      0.05s WALL (       8 calls)
     newd         :      0.30s CPU      0.33s WALL (       8 calls)
     PAW_pot      :      0.65s CPU      0.72s WALL (       8 calls)
     mix_rho      :      0.01s CPU      0.01s WALL (       8 calls)

     Called by c_bands:
     init_us_2    :      0.05s CPU      0.05s WALL (     152 calls)
     init_us_2:cp :      0.05s CPU      0.05s WALL (     152 calls)
     cegterg      :      1.04s CPU      1.07s WALL (      64 calls)

     Called by *egterg:
     cdiaghg      :      0.08s CPU      0.08s WALL (     220 calls)
     h_psi        :      0.83s CPU      0.86s WALL (     236 calls)
     s_psi        :      0.03s CPU      0.03s WALL (     236 calls)
     g_psi        :      0.00s CPU      0.00s WALL (     164 calls)

     Called by h_psi:
     h_psi:calbec :      0.07s CPU      0.07s WALL (     236 calls)
     vloc_psi     :      0.71s CPU      0.74s WALL (     236 calls)
     add_vuspsi   :      0.04s CPU      0.04s WALL (     236 calls)

     General routines
     calbec       :      0.10s CPU      0.10s WALL (     340 calls)
     fft          :      0.04s CPU      0.07s WALL (     114 calls)
     ffts         :      0.00s CPU      0.00s WALL (       8 calls)
     fftw         :      0.71s CPU      0.73s WALL (    6998 calls)
 
     Parallel routines
 
     PWSCF        :      4.54s CPU      4.86s WALL

 
   This run was terminated on:  13:32:58   6Jun2025            

=------------------------------------------------------------------------------=
   JOB DONE.
=------------------------------------------------------------------------------=
