
     Program PWSCF v.7.2 starts on  6Jun2025 at 13:33: 0 

     This program is part of the open-source Quantum ESPRESSO suite
     for quantum simulation of materials; please cite
         "P. Giannozzi et al., J. Phys.:Condens. Matter 21 395502 (2009);
         "P. Giannozzi et al., J. Phys.:Condens. Matter 29 465901 (2017);
         "P. Giannozzi et al., J. Chem. Phys. 152 154105 (2020);
          URL http://www.quantum-espresso.org", 
     in publications or presentations arising from this work. More details at
     http://www.quantum-espresso.org/quote

     Parallel version (MPI), running on    16 processors

     MPI processes distributed on     1 nodes
     39101 MiB available memory on the printing compute node when the environment starts
 
     Waiting for input...
     Reading input from standard input

     Current dimensions of program PWSCF are:
     Max number of different atomic species (ntypx) = 10
     Max number of k-points (npk) =  40000
     Max angular momentum in pseudopotentials (lmaxx) =  4
     file Mo.pbe-spn-kjpaw_psl.1.0.0.UPF: wavefunction(s)  4S 4D renormalized
     file S.pbe-n-kjpaw_psl.1.0.0.UPF: wavefunction(s)  3S 3P renormalized
     Message from routine setup:
     using ibrav=0 with symmetry is DISCOURAGED, use correct ibrav instead
 
     R & G space division:  proc/nbgrp/npool/nimage =      16
     Subspace diagonalization in iterative solution of the eigenvalue problem:
     a serial algorithm will be used

 
     Parallelization info
     --------------------
     sticks:   dense  smooth     PW     G-vecs:    dense   smooth      PW
     Min          50      50     14                 5518     5518     862
     Max          51      51     16                 5527     5527     871
     Sum         805     805    235                88391    88391   13835
 
     Using Slab Decomposition
 


     bravais-lattice index     =            0
     lattice parameter (alat)  =       6.0093  a.u.
     unit-cell volume          =     915.4463 (a.u.)^3
     number of atoms/cell      =            3
     number of atomic types    =            2
     number of electrons       =        26.00
     number of Kohn-Sham states=           17
     kinetic-energy cutoff     =      80.0000  Ry
     charge density cutoff     =     320.0000  Ry
     scf convergence threshold =      1.0E-06
     mixing beta               =       0.7000
     number of iterations used =            8  plain     mixing
     Exchange-correlation= SLA  PW   PBX  PBC
                           (   1   4   3   4   0   0   0)

     celldm(1)=   6.009329  celldm(2)=   0.000000  celldm(3)=   0.000000
     celldm(4)=   0.000000  celldm(5)=   0.000000  celldm(6)=   0.000000

     crystal axes: (cart. coord. in units of alat)
               a(1) = (   1.000000   0.000000   0.000000 )  
               a(2) = (  -0.500000   0.866025   0.000000 )  
               a(3) = (   0.000000   0.000000   4.871069 )  

     reciprocal axes: (cart. coord. in units 2 pi/alat)
               b(1) = (  1.000000  0.577350  0.000000 )  
               b(2) = (  0.000000  1.154701  0.000000 )  
               b(3) = (  0.000000  0.000000  0.205294 )  


     PseudoPot. # 1 for Mo read from file:
     /shared/ESPRESSO/PSLIBRARY/1.0.0/pbe/PSEUDOPOTENTIALS/Mo.pbe-spn-kjpaw_psl.1.0.0.UPF
     MD5 check sum: 4396e0c640fcce5c25f020efccf1ab12
     Pseudo is Projector augmented-wave + core cor, Zval = 14.0
     Generated using &quot;atomic&quot; code by A. Dal Corso  v.6.3
     Shape of augmentation charge: PSQ
     Using radial grid of 1229 points,  6 beta functions with: 
                l(1) =   0
                l(2) =   0
                l(3) =   1
                l(4) =   1
                l(5) =   2
                l(6) =   2
     Q(r) pseudized with 0 coefficients 


     PseudoPot. # 2 for S  read from file:
     /shared/ESPRESSO/PSLIBRARY/1.0.0/pbe/PSEUDOPOTENTIALS/S.pbe-n-kjpaw_psl.1.0.0.UPF
     MD5 check sum: c08f931834bcc19553f8bde8f1a3adc5
     Pseudo is Projector augmented-wave + core cor, Zval =  6.0
     Generated using "atomic" code by A. Dal Corso  (Quantum ESPRESSO distribution)
     Shape of augmentation charge: PSQ
     Using radial grid of 1151 points,  6 beta functions with: 
                l(1) =   0
                l(2) =   0
                l(3) =   1
                l(4) =   1
                l(5) =   2
                l(6) =   2
     Q(r) pseudized with 0 coefficients 


     atomic species   valence    mass     pseudopotential
        Mo            14.00    95.94000     Mo( 1.00)
        S              6.00    32.06500     S ( 1.00)

     12 Sym. Ops. (no inversion) found



   Cartesian axes

     site n.     atom                  positions (alat units)
         1           Mo  tau(   1) = (   0.0000000   0.0000000   2.4355346  )
         2           S   tau(   2) = (   0.5000000   0.2886751   2.9371069  )
         3           S   tau(   3) = (   0.5000000   0.2886751   1.9339623  )

     number of k points=    12  Fermi-Dirac smearing, width (Ry)=  0.0070
                       cart. coord. in units 2pi/alat
        k(    1) = (   0.0000000   0.0000000   0.0000000), wk =   0.0246914
        k(    2) = (   0.0000000   0.1283001   0.0000000), wk =   0.1481481
        k(    3) = (   0.0000000   0.2566001   0.0000000), wk =   0.1481481
        k(    4) = (   0.0000000   0.3849002   0.0000000), wk =   0.1481481
        k(    5) = (   0.0000000   0.5132002   0.0000000), wk =   0.1481481
        k(    6) = (   0.1111111   0.1924501   0.0000000), wk =   0.1481481
        k(    7) = (   0.1111111   0.3207501   0.0000000), wk =   0.2962963
        k(    8) = (   0.1111111   0.4490502   0.0000000), wk =   0.2962963
        k(    9) = (   0.1111111   0.5773503   0.0000000), wk =   0.1481481
        k(   10) = (   0.2222222   0.3849002   0.0000000), wk =   0.1481481
        k(   11) = (   0.2222222   0.5132002   0.0000000), wk =   0.2962963
        k(   12) = (   0.3333333   0.5773503   0.0000000), wk =   0.0493827

     Dense  grid:    88391 G-vectors     FFT dimensions: (  36,  36, 180)

     Estimated max dynamical RAM per process >      26.25 MB

     Estimated total dynamical RAM >     419.94 MB

     Initial potential from superposition of free atoms

     starting charge      25.9991, renormalised to      26.0000

     negative rho (up, down):  3.875E-04 0.000E+00
     Starting wfcs are   18 randomized atomic wfcs
     Checking if some PAW data can be deallocated... 

     total cpu time spent up to now is        1.2 secs

     Self-consistent Calculation

     iteration #  1     ecut=    80.00 Ry     beta= 0.70
     Davidson diagonalization with overlap
     ethr =  1.00E-02,  avg # of iterations =  2.4

     Threshold (ethr) on eigenvalues was too large:
     Diagonalizing with lowered threshold

     Davidson diagonalization with overlap
     ethr =  2.84E-04,  avg # of iterations =  3.8

     negative rho (up, down):  4.623E-04 0.000E+00

     total cpu time spent up to now is        2.1 secs

     total energy              =    -496.65364910 Ry
     estimated scf accuracy    <       0.11130298 Ry

     iteration #  2     ecut=    80.00 Ry     beta= 0.70
     Davidson diagonalization with overlap
     ethr =  4.28E-04,  avg # of iterations =  3.0

     negative rho (up, down):  4.423E-04 0.000E+00

     total cpu time spent up to now is        2.6 secs

     total energy              =    -496.62374095 Ry
     estimated scf accuracy    <       0.30047912 Ry

     iteration #  3     ecut=    80.00 Ry     beta= 0.70
     Davidson diagonalization with overlap
     ethr =  4.28E-04,  avg # of iterations =  2.5

     negative rho (up, down):  4.397E-04 0.000E+00

     total cpu time spent up to now is        3.1 secs

     total energy              =    -496.67712889 Ry
     estimated scf accuracy    <       0.14086421 Ry

     iteration #  4     ecut=    80.00 Ry     beta= 0.70
     Davidson diagonalization with overlap
     ethr =  4.28E-04,  avg # of iterations =  1.5

     negative rho (up, down):  4.568E-04 0.000E+00

     total cpu time spent up to now is        3.5 secs

     total energy              =    -496.69557540 Ry
     estimated scf accuracy    <       0.00061353 Ry

     iteration #  5     ecut=    80.00 Ry     beta= 0.70
     Davidson diagonalization with overlap
     ethr =  2.36E-06,  avg # of iterations =  3.8

     negative rho (up, down):  4.591E-04 0.000E+00

     total cpu time spent up to now is        4.1 secs

     total energy              =    -496.69585774 Ry
     estimated scf accuracy    <       0.00011231 Ry

     iteration #  6     ecut=    80.00 Ry     beta= 0.70
     Davidson diagonalization with overlap
     ethr =  4.32E-07,  avg # of iterations =  1.9

     negative rho (up, down):  4.609E-04 0.000E+00

     total cpu time spent up to now is        4.5 secs

     total energy              =    -496.69586673 Ry
     estimated scf accuracy    <       0.00001096 Ry

     iteration #  7     ecut=    80.00 Ry     beta= 0.70
     Davidson diagonalization with overlap
     ethr =  4.21E-08,  avg # of iterations =  2.2

     negative rho (up, down):  4.612E-04 0.000E+00

     total cpu time spent up to now is        5.0 secs

     End of self-consistent calculation

          k = 0.0000 0.0000 0.0000 ( 11105 PWs)   bands (ev):

   -60.4039 -34.5331 -34.3174 -34.3174 -13.4949 -12.2957  -5.0232  -1.9267
    -1.9267  -1.3590  -0.8600  -0.8600   0.3780   3.2519   3.2519   3.4195
     3.4195

          k = 0.0000 0.1283 0.0000 ( 11117 PWs)   bands (ev):

   -60.3996 -34.5246 -34.3612 -34.3274 -13.3161 -12.2159  -4.8163  -2.3249
    -1.9432  -1.7421  -1.1362  -0.5854   0.2954   2.9745   3.0557   3.2326
     3.5377

          k = 0.0000 0.2566 0.0000 ( 11077 PWs)   bands (ev):

   -60.3886 -34.5031 -34.4707 -34.3527 -12.8292 -11.9991  -4.4005  -3.0804
    -2.7910  -1.6982  -1.2642  -0.7735  -0.1157   2.5621   2.8797   3.2145
     4.0771

          k = 0.0000 0.3849 0.0000 ( 11073 PWs)   bands (ev):

   -60.3761 -34.5931 -34.4785 -34.3813 -12.1912 -11.7210  -4.6038  -3.6269
    -3.3362  -2.2008  -1.1920  -0.7270  -0.4697   2.6959   2.7514   3.8160
     4.4762

          k = 0.0000 0.5132 0.0000 ( 11028 PWs)   bands (ev):

   -60.3679 -34.6717 -34.4624 -34.3998 -11.6984 -11.5152  -5.1074  -4.1804
    -3.4520  -2.4810  -1.4169  -0.4134  -0.2159   2.7506   3.1513   4.2306
     4.6501

          k = 0.1111 0.1925 0.0000 ( 11119 PWs)   bands (ev):

   -60.3919 -34.5096 -34.4340 -34.3490 -12.9826 -12.0668  -4.4832  -2.8790
    -2.4528  -1.8213  -1.4518  -0.4479   0.0424   2.5712   2.9419   2.9651
     4.0293

          k = 0.1111 0.3208 0.0000 ( 11090 PWs)   bands (ev):

   -60.3802 -34.5408 -34.4865 -34.3849 -12.4144 -11.8141  -4.3302  -3.2647
    -3.2124  -2.4586  -1.2503  -0.7119  -0.2942   2.3905   2.9094   3.2658
     4.5258

          k = 0.1111 0.4491 0.0000 ( 11047 PWs)   bands (ev):

   -60.3698 -34.6329 -34.4662 -34.4168 -11.8300 -11.5595  -4.7685  -4.0343
    -3.2999  -2.5930  -1.2668  -1.1883  -0.1061   2.6559   3.0904   3.8441
     4.6728

          k = 0.1111 0.5774 0.0000 ( 11010 PWs)   bands (ev):

   -60.3657 -34.6688 -34.4581 -34.4294 -11.5664 -11.4480  -5.0117  -4.3635
    -3.4220  -2.5790  -1.4206  -1.1951   0.1330   2.7601   3.3434   4.2018
     4.5478

          k = 0.2222 0.3849 0.0000 ( 11053 PWs)   bands (ev):

   -60.3706 -34.5998 -34.4677 -34.4417 -11.8847 -11.5736  -4.4834  -3.9387
    -3.0849  -2.7789  -1.9515  -0.9513  -0.1328   2.5531   3.1287   3.4226
     4.8544

          k = 0.2222 0.5132 0.0000 ( 11037 PWs)   bands (ev):

   -60.3643 -34.6281 -34.4886 -34.4553 -11.4937 -11.3933  -4.5416  -4.5374
    -3.2260  -2.5882  -2.3830  -1.4268   0.2382   2.5656   3.5724   3.5887
     5.0155

          k = 0.3333 0.5774 0.0000 ( 11022 PWs)   bands (ev):

   -60.3621 -34.5911 -34.5524 -34.4511 -11.3569 -11.3197  -4.7812  -4.0274
    -3.4923  -2.9800  -2.3796  -1.7090   0.5173   2.2561   3.4189   3.9389
     5.2671

     the Fermi energy is     1.3592 ev

!    total energy              =    -496.69586997 Ry
     total all-electron energy =     -9695.026085 Ry
     estimated scf accuracy    <       0.00000037 Ry
     smearing contrib. (-TS)   =      -0.00000210 Ry
     internal energy E=F+TS    =    -496.69586787 Ry

     The total energy is F=E-TS. E is the sum of the following terms:
     one-electron contribution =    -740.33029929 Ry
     hartree contribution      =     374.05998375 Ry
     xc contribution           =     -29.64911322 Ry
     ewald contribution        =     218.85262295 Ry
     one-center paw contrib.   =    -319.62906206 Ry

     convergence has been achieved in   7 iterations

     negative rho (up, down):  4.612E-04 0.000E+00

     Forces acting on atoms (cartesian axes, Ry/au):

     atom    1 type  1   force =     0.00000000    0.00000000    0.00000000
     atom    2 type  2   force =     0.00000000    0.00000000   -0.02086802
     atom    3 type  2   force =     0.00000000    0.00000000    0.02086802
     The non-local contrib.  to forces
     atom    1 type  1   force =     0.00000000   -0.00000000    0.00000000
     atom    2 type  2   force =     0.00000000    0.00000000   -0.27775535
     atom    3 type  2   force =     0.00000000   -0.00000000    0.27775535
     The ionic contribution  to forces
     atom    1 type  1   force =     0.00000000   -0.00000000    0.00000000
     atom    2 type  2   force =    -0.00000000    0.00000000   32.99976195
     atom    3 type  2   force =    -0.00000000    0.00000000  -32.99976195
     The local contribution  to forces
     atom    1 type  1   force =    -0.00000000   -0.00000000    0.00000000
     atom    2 type  2   force =    -0.00000000    0.00000000  -32.74518345
     atom    3 type  2   force =    -0.00000000    0.00000000   32.74518345
     The core correction contribution to forces
     atom    1 type  1   force =    -0.00000000   -0.00000000   -0.00000000
     atom    2 type  2   force =     0.00000000   -0.00000000    0.00269032
     atom    3 type  2   force =     0.00000000   -0.00000000   -0.00269032
     The Hubbard contrib.    to forces
     atom    1 type  1   force =     0.00000000    0.00000000    0.00000000
     atom    2 type  2   force =     0.00000000    0.00000000    0.00000000
     atom    3 type  2   force =     0.00000000    0.00000000    0.00000000
     The SCF correction term to forces
     atom    1 type  1   force =     0.00000000   -0.00000000   -0.00000000
     atom    2 type  2   force =    -0.00000000   -0.00000000   -0.00038151
     atom    3 type  2   force =    -0.00000000   -0.00000000    0.00038151

     Total force =     0.029512     Total SCF correction =     0.000540


     Computing stress (Cartesian axis) and pressure


     negative rho (up, down):  4.612E-04 0.000E+00
          total   stress  (Ry/bohr**3)                   (kbar)     P=       -9.81
  -0.00003190  -0.00000000  -0.00000000           -4.69       -0.00       -0.00
  -0.00000000  -0.00003190   0.00000000           -0.00       -4.69        0.00
  -0.00000000   0.00000000  -0.00013630           -0.00        0.00      -20.05


     Writing all to output data dir ./tmp/scf.save/
 
     init_run     :      0.67s CPU      0.87s WALL (       1 calls)
     electrons    :      3.53s CPU      3.80s WALL (       1 calls)
     forces       :      0.12s CPU      0.12s WALL (       1 calls)
     stress       :      0.39s CPU      0.40s WALL (       1 calls)

     Called by init_run:
     wfcinit      :      0.07s CPU      0.08s WALL (       1 calls)
     potinit      :      0.37s CPU      0.50s WALL (       1 calls)
     hinit0       :      0.16s CPU      0.20s WALL (       1 calls)

     Called by electrons:
     c_bands      :      2.17s CPU      2.32s WALL (       8 calls)
     sum_band     :      0.56s CPU      0.66s WALL (       8 calls)
     v_of_rho     :      0.05s CPU      0.06s WALL (       8 calls)
     newd         :      0.29s CPU      0.32s WALL (       8 calls)
     PAW_pot      :      0.78s CPU      0.92s WALL (       8 calls)
     mix_rho      :      0.01s CPU      0.01s WALL (       8 calls)

     Called by c_bands:
     init_us_2    :      0.05s CPU      0.05s WALL (     228 calls)
     init_us_2:cp :      0.04s CPU      0.05s WALL (     228 calls)
     cegterg      :      1.51s CPU      1.65s WALL (      96 calls)

     Called by *egterg:
     cdiaghg      :      0.09s CPU      0.10s WALL (     337 calls)
     h_psi        :      1.22s CPU      1.33s WALL (     361 calls)
     s_psi        :      0.03s CPU      0.03s WALL (     361 calls)
     g_psi        :      0.00s CPU      0.00s WALL (     253 calls)

     Called by h_psi:
     h_psi:calbec :      0.10s CPU      0.12s WALL (     361 calls)
     vloc_psi     :      1.07s CPU      1.17s WALL (     361 calls)
     add_vuspsi   :      0.03s CPU      0.04s WALL (     361 calls)

     General routines
     calbec       :      0.14s CPU      0.16s WALL (     517 calls)
     fft          :      0.07s CPU      0.11s WALL (     114 calls)
     ffts         :      0.00s CPU      0.00s WALL (       8 calls)
     fftw         :      1.13s CPU      1.26s WALL (   10506 calls)
 
     Parallel routines
 
     PWSCF        :      5.00s CPU      5.56s WALL

 
   This run was terminated on:  13:33: 6   6Jun2025            

=------------------------------------------------------------------------------=
   JOB DONE.
=------------------------------------------------------------------------------=
