
     Program PWSCF v.7.2 starts on  6Jun2025 at 13:33:51 

     This program is part of the open-source Quantum ESPRESSO suite
     for quantum simulation of materials; please cite
         "P. Giannozzi et al., J. Phys.:Condens. Matter 21 395502 (2009);
         "P. Giannozzi et al., J. Phys.:Condens. Matter 29 465901 (2017);
         "P. Giannozzi et al., J. Chem. Phys. 152 154105 (2020);
          URL http://www.quantum-espresso.org", 
     in publications or presentations arising from this work. More details at
     http://www.quantum-espresso.org/quote

     Parallel version (MPI), running on    16 processors

     MPI processes distributed on     1 nodes
     39912 MiB available memory on the printing compute node when the environment starts
 
     Waiting for input...
     Reading input from standard input

     Current dimensions of program PWSCF are:
     Max number of different atomic species (ntypx) = 10
     Max number of k-points (npk) =  40000
     Max angular momentum in pseudopotentials (lmaxx) =  4
     file Mo.pbe-spn-kjpaw_psl.1.0.0.UPF: wavefunction(s)  4S 4D renormalized
     file S.pbe-n-kjpaw_psl.1.0.0.UPF: wavefunction(s)  3S 3P renormalized
     Message from routine setup:
     using ibrav=0 with symmetry is DISCOURAGED, use correct ibrav instead
 
     R & G space division:  proc/nbgrp/npool/nimage =      16
     Subspace diagonalization in iterative solution of the eigenvalue problem:
     a serial algorithm will be used

 
     Parallelization info
     --------------------
     sticks:   dense  smooth     PW     G-vecs:    dense   smooth      PW
     Min          50      50     14                 5518     5518     862
     Max          51      51     16                 5527     5527     871
     Sum         805     805    235                88391    88391   13835
 
     Using Slab Decomposition
 


     bravais-lattice index     =            0
     lattice parameter (alat)  =       6.0093  a.u.
     unit-cell volume          =     915.4463 (a.u.)^3
     number of atoms/cell      =            3
     number of atomic types    =            2
     number of electrons       =        26.00
     number of Kohn-Sham states=           17
     kinetic-energy cutoff     =      80.0000  Ry
     charge density cutoff     =     320.0000  Ry
     scf convergence threshold =      1.0E-06
     mixing beta               =       0.7000
     number of iterations used =            8  plain     mixing
     Exchange-correlation= SLA  PW   PBX  PBC
                           (   1   4   3   4   0   0   0)

     celldm(1)=   6.009329  celldm(2)=   0.000000  celldm(3)=   0.000000
     celldm(4)=   0.000000  celldm(5)=   0.000000  celldm(6)=   0.000000

     crystal axes: (cart. coord. in units of alat)
               a(1) = (   1.000000   0.000000   0.000000 )  
               a(2) = (  -0.500000   0.866025   0.000000 )  
               a(3) = (   0.000000   0.000000   4.871069 )  

     reciprocal axes: (cart. coord. in units 2 pi/alat)
               b(1) = (  1.000000  0.577350  0.000000 )  
               b(2) = (  0.000000  1.154701  0.000000 )  
               b(3) = (  0.000000  0.000000  0.205294 )  


     PseudoPot. # 1 for Mo read from file:
     /shared/ESPRESSO/PSLIBRARY/1.0.0/pbe/PSEUDOPOTENTIALS/Mo.pbe-spn-kjpaw_psl.1.0.0.UPF
     MD5 check sum: 4396e0c640fcce5c25f020efccf1ab12
     Pseudo is Projector augmented-wave + core cor, Zval = 14.0
     Generated using &quot;atomic&quot; code by A. Dal Corso  v.6.3
     Shape of augmentation charge: PSQ
     Using radial grid of 1229 points,  6 beta functions with: 
                l(1) =   0
                l(2) =   0
                l(3) =   1
                l(4) =   1
                l(5) =   2
                l(6) =   2
     Q(r) pseudized with 0 coefficients 


     PseudoPot. # 2 for S  read from file:
     /shared/ESPRESSO/PSLIBRARY/1.0.0/pbe/PSEUDOPOTENTIALS/S.pbe-n-kjpaw_psl.1.0.0.UPF
     MD5 check sum: c08f931834bcc19553f8bde8f1a3adc5
     Pseudo is Projector augmented-wave + core cor, Zval =  6.0
     Generated using "atomic" code by A. Dal Corso  (Quantum ESPRESSO distribution)
     Shape of augmentation charge: PSQ
     Using radial grid of 1151 points,  6 beta functions with: 
                l(1) =   0
                l(2) =   0
                l(3) =   1
                l(4) =   1
                l(5) =   2
                l(6) =   2
     Q(r) pseudized with 0 coefficients 


     atomic species   valence    mass     pseudopotential
        Mo            14.00    95.94000     Mo( 1.00)
        S              6.00    32.06500     S ( 1.00)

     12 Sym. Ops. (no inversion) found



   Cartesian axes

     site n.     atom                  positions (alat units)
         1           Mo  tau(   1) = (   0.0000000   0.0000000   2.4355346  )
         2           S   tau(   2) = (   0.5000000   0.2886751   2.9371069  )
         3           S   tau(   3) = (   0.5000000   0.2886751   1.9339623  )

     number of k points=    37  Fermi-Dirac smearing, width (Ry)=  0.0070
                       cart. coord. in units 2pi/alat
        k(    1) = (   0.0000000   0.0000000   0.0000000), wk =   0.0061728
        k(    2) = (   0.0000000   0.0641500   0.0000000), wk =   0.0370370
        k(    3) = (   0.0000000   0.1283001   0.0000000), wk =   0.0370370
        k(    4) = (   0.0000000   0.1924501   0.0000000), wk =   0.0370370
        k(    5) = (   0.0000000   0.2566001   0.0000000), wk =   0.0370370
        k(    6) = (   0.0000000   0.3207501   0.0000000), wk =   0.0370370
        k(    7) = (   0.0000000   0.3849002   0.0000000), wk =   0.0370370
        k(    8) = (   0.0000000   0.4490502   0.0000000), wk =   0.0370370
        k(    9) = (   0.0000000   0.5132002   0.0000000), wk =   0.0370370
        k(   10) = (   0.0000000  -0.5773503   0.0000000), wk =   0.0185185
        k(   11) = (   0.0555556   0.0962250   0.0000000), wk =   0.0370370
        k(   12) = (   0.0555556   0.1603751   0.0000000), wk =   0.0740741
        k(   13) = (   0.0555556   0.2245251   0.0000000), wk =   0.0740741
        k(   14) = (   0.0555556   0.2886751   0.0000000), wk =   0.0740741
        k(   15) = (   0.0555556   0.3528252   0.0000000), wk =   0.0740741
        k(   16) = (   0.0555556   0.4169752   0.0000000), wk =   0.0740741
        k(   17) = (   0.0555556   0.4811252   0.0000000), wk =   0.0740741
        k(   18) = (   0.0555556   0.5452753   0.0000000), wk =   0.0740741
        k(   19) = (   0.1111111   0.1924501   0.0000000), wk =   0.0370370
        k(   20) = (   0.1111111   0.2566001   0.0000000), wk =   0.0740741
        k(   21) = (   0.1111111   0.3207501   0.0000000), wk =   0.0740741
        k(   22) = (   0.1111111   0.3849002   0.0000000), wk =   0.0740741
        k(   23) = (   0.1111111   0.4490502   0.0000000), wk =   0.0740741
        k(   24) = (   0.1111111   0.5132002   0.0000000), wk =   0.0740741
        k(   25) = (   0.1111111   0.5773503   0.0000000), wk =   0.0370370
        k(   26) = (   0.1666667   0.2886751   0.0000000), wk =   0.0370370
        k(   27) = (   0.1666667   0.3528252   0.0000000), wk =   0.0740741
        k(   28) = (   0.1666667   0.4169752   0.0000000), wk =   0.0740741
        k(   29) = (   0.1666667   0.4811252   0.0000000), wk =   0.0740741
        k(   30) = (   0.1666667   0.5452753   0.0000000), wk =   0.0740741
        k(   31) = (   0.2222222   0.3849002   0.0000000), wk =   0.0370370
        k(   32) = (   0.2222222   0.4490502   0.0000000), wk =   0.0740741
        k(   33) = (   0.2222222   0.5132002   0.0000000), wk =   0.0740741
        k(   34) = (   0.2222222   0.5773503   0.0000000), wk =   0.0370370
        k(   35) = (   0.2777778   0.4811252   0.0000000), wk =   0.0370370
        k(   36) = (   0.2777778   0.5452753   0.0000000), wk =   0.0740741
        k(   37) = (   0.3333333   0.5773503   0.0000000), wk =   0.0123457

     Dense  grid:    88391 G-vectors     FFT dimensions: (  36,  36, 180)

     Estimated max dynamical RAM per process >      30.73 MB

     Estimated total dynamical RAM >     491.64 MB

     Initial potential from superposition of free atoms

     starting charge      25.9991, renormalised to      26.0000

     negative rho (up, down):  3.875E-04 0.000E+00
     Starting wfcs are   18 randomized atomic wfcs
     Checking if some PAW data can be deallocated... 

     total cpu time spent up to now is        0.6 secs

     Self-consistent Calculation

     iteration #  1     ecut=    80.00 Ry     beta= 0.70
     Davidson diagonalization with overlap
     ethr =  1.00E-02,  avg # of iterations =  2.3

     Threshold (ethr) on eigenvalues was too large:
     Diagonalizing with lowered threshold

     Davidson diagonalization with overlap
     ethr =  2.83E-04,  avg # of iterations =  3.6

     negative rho (up, down):  4.623E-04 0.000E+00

     total cpu time spent up to now is        2.1 secs

     total energy              =    -496.65367336 Ry
     estimated scf accuracy    <       0.11128493 Ry

     iteration #  2     ecut=    80.00 Ry     beta= 0.70
     Davidson diagonalization with overlap
     ethr =  4.28E-04,  avg # of iterations =  3.0

     negative rho (up, down):  4.409E-04 0.000E+00

     total cpu time spent up to now is        2.9 secs

     total energy              =    -496.62372476 Ry
     estimated scf accuracy    <       0.30056906 Ry

     iteration #  3     ecut=    80.00 Ry     beta= 0.70
     Davidson diagonalization with overlap
     ethr =  4.28E-04,  avg # of iterations =  2.5

     negative rho (up, down):  4.385E-04 0.000E+00

     total cpu time spent up to now is        3.7 secs

     total energy              =    -496.67715919 Ry
     estimated scf accuracy    <       0.14069097 Ry

     iteration #  4     ecut=    80.00 Ry     beta= 0.70
     Davidson diagonalization with overlap
     ethr =  4.28E-04,  avg # of iterations =  1.4

     negative rho (up, down):  4.566E-04 0.000E+00

     total cpu time spent up to now is        4.4 secs

     total energy              =    -496.69557549 Ry
     estimated scf accuracy    <       0.00060606 Ry

     iteration #  5     ecut=    80.00 Ry     beta= 0.70
     Davidson diagonalization with overlap
     ethr =  2.33E-06,  avg # of iterations =  3.5

     negative rho (up, down):  4.591E-04 0.000E+00

     total cpu time spent up to now is        5.3 secs

     total energy              =    -496.69586126 Ry
     estimated scf accuracy    <       0.00011545 Ry

     iteration #  6     ecut=    80.00 Ry     beta= 0.70
     Davidson diagonalization with overlap
     ethr =  4.44E-07,  avg # of iterations =  1.9

     negative rho (up, down):  4.610E-04 0.000E+00

     total cpu time spent up to now is        6.0 secs

     total energy              =    -496.69587048 Ry
     estimated scf accuracy    <       0.00001085 Ry

     iteration #  7     ecut=    80.00 Ry     beta= 0.70
     Davidson diagonalization with overlap
     ethr =  4.17E-08,  avg # of iterations =  2.2

     negative rho (up, down):  4.613E-04 0.000E+00

     total cpu time spent up to now is        6.7 secs

     End of self-consistent calculation

          k = 0.0000 0.0000 0.0000 ( 11105 PWs)   bands (ev):

   -60.4041 -34.5332 -34.3176 -34.3176 -13.4948 -12.2957  -5.0231  -1.9268
    -1.9268  -1.3589  -0.8600  -0.8600   0.3780   3.2519   3.2519   3.4195
     3.4195

          k = 0.0000 0.0642 0.0000 ( 11107 PWs)   bands (ev):

   -60.4030 -34.5310 -34.3289 -34.3202 -13.4493 -12.2753  -4.9691  -2.0351
    -1.8794  -1.5675  -0.9354  -0.7229   0.3619   3.1794   3.2812   3.3308
     3.3684

          k = 0.0000 0.1283 0.0000 ( 11117 PWs)   bands (ev):

   -60.3998 -34.5247 -34.3614 -34.3276 -13.3161 -12.2158  -4.8162  -2.3249
    -1.9432  -1.7421  -1.1362  -0.5853   0.2954   2.9745   3.0557   3.2326
     3.5377

          k = 0.0000 0.1925 0.0000 ( 11097 PWs)   bands (ev):

   -60.3949 -34.5150 -34.4108 -34.3390 -13.1041 -12.1212  -4.5988  -2.7108
    -2.3587  -1.5288  -1.4077  -0.6069   0.1374   2.6918   3.0463   3.0536
     3.8074

          k = 0.0000 0.2566 0.0000 ( 11077 PWs)   bands (ev):

   -60.3888 -34.5031 -34.4710 -34.3529 -12.8291 -11.9990  -4.4005  -3.0804
    -2.7910  -1.6982  -1.2642  -0.7735  -0.1157   2.5621   2.8797   3.2145
     4.0771

          k = 0.0000 0.3208 0.0000 ( 11077 PWs)   bands (ev):

   -60.3824 -34.5343 -34.4905 -34.3677 -12.5141 -11.8605  -4.3836  -3.2906
    -3.2235  -1.9705  -0.9941  -0.9833  -0.3661   2.5998   2.7521   3.5026
     4.3058

          k = 0.0000 0.3849 0.0000 ( 11073 PWs)   bands (ev):

   -60.3763 -34.5933 -34.4786 -34.3815 -12.1911 -11.7209  -4.6038  -3.6268
    -3.3362  -2.2008  -1.1919  -0.7270  -0.4697   2.6958   2.7514   3.8160
     4.4762

          k = 0.0000 0.4491 0.0000 ( 11045 PWs)   bands (ev):

   -60.3713 -34.6410 -34.4688 -34.3927 -11.9025 -11.5991  -4.8894  -3.9598
    -3.3833  -2.3739  -1.3343  -0.5311  -0.3809   2.7076   2.9570   4.0738
     4.5883

          k = 0.0000 0.5132 0.0000 ( 11028 PWs)   bands (ev):

   -60.3681 -34.6719 -34.4624 -34.4000 -11.6984 -11.5151  -5.1074  -4.1803
    -3.4520  -2.4810  -1.4168  -0.4133  -0.2159   2.7505   3.1513   4.2306
     4.6501

          k = 0.0000-0.5774 0.0000 ( 11030 PWs)   bands (ev):

   -60.3670 -34.6826 -34.4602 -34.4026 -11.6239 -11.4850  -5.1882  -4.2576
    -3.4836  -2.5171  -1.4435  -0.3748  -0.1371   2.7730   3.2377   4.2811
     4.6696

          k = 0.0556 0.0962 0.0000 ( 11115 PWs)   bands (ev):

   -60.4009 -34.5267 -34.3506 -34.3255 -13.3600 -12.2354  -4.8653  -2.2328
    -1.8295  -1.7884  -1.1013  -0.5858   0.3207   3.0650   3.0706   3.2702
     3.4836

          k = 0.0556 0.1604 0.0000 ( 11108 PWs)   bands (ev):

   -60.3968 -34.5188 -34.3908 -34.3356 -13.1873 -12.1582  -4.6778  -2.5659
    -2.1813  -1.6188  -1.3958  -0.5052   0.2081   2.7787   2.9820   3.1086
     3.7403

          k = 0.0556 0.2245 0.0000 ( 11099 PWs)   bands (ev):

   -60.3913 -34.5080 -34.4446 -34.3492 -12.9435 -12.0496  -4.4602  -2.9386
    -2.5740  -1.7255  -1.3956  -0.5754  -0.0005   2.5690   2.9457   3.0443
     4.0242

          k = 0.0556 0.2887 0.0000 ( 11083 PWs)   bands (ev):

   -60.3850 -34.5052 -34.4957 -34.3647 -12.6478 -11.9185  -4.3378  -3.2201
    -2.9989  -2.0179  -1.1632  -0.7649  -0.2481   2.4978   2.8404   3.2655
     4.2782

          k = 0.0556 0.3528 0.0000 ( 11068 PWs)   bands (ev):

   -60.3788 -34.5652 -34.4834 -34.3801 -12.3273 -11.7783  -4.4554  -3.4292
    -3.3078  -2.2408  -0.9934  -0.9875  -0.3759   2.5360   2.8328   3.5703
     4.4683

          k = 0.0556 0.4170 0.0000 ( 11068 PWs)   bands (ev):

   -60.3733 -34.6176 -34.4726 -34.3936 -12.0190 -11.6458  -4.7222  -3.8156
    -3.3328  -2.3946  -1.1982  -0.8726  -0.3010   2.6300   2.9269   3.8780
     4.5763

          k = 0.0556 0.4811 0.0000 ( 11035 PWs)   bands (ev):

   -60.3692 -34.6561 -34.4645 -34.4036 -11.7694 -11.5411  -4.9749  -4.1071
    -3.3990  -2.4896  -1.3461  -0.7577  -0.1387   2.7234   3.0908   4.1359
     4.5969

          k = 0.0556 0.5453 0.0000 ( 11021 PWs)   bands (ev):

   -60.3670 -34.6766 -34.4602 -34.4089 -11.6275 -11.4828  -5.1237  -4.2639
    -3.4583  -2.5348  -1.4225  -0.6825  -0.0107   2.7735   3.2361   4.3124
     4.5523

          k = 0.1111 0.1925 0.0000 ( 11119 PWs)   bands (ev):

   -60.3922 -34.5097 -34.4342 -34.3492 -12.9826 -12.0668  -4.4832  -2.8790
    -2.4528  -1.8213  -1.4518  -0.4479   0.0424   2.5711   2.9419   2.9651
     4.0293

          k = 0.1111 0.2566 0.0000 ( 11095 PWs)   bands (ev):

   -60.3865 -34.4985 -34.4863 -34.3665 -12.7173 -11.9484  -4.3176  -3.1554
    -2.7807  -2.2217  -1.3006  -0.5207  -0.1680   2.4220   2.8927   3.0382
     4.3094

          k = 0.1111 0.3208 0.0000 ( 11090 PWs)   bands (ev):

   -60.3804 -34.5410 -34.4866 -34.3851 -12.4143 -11.8140  -4.3302  -3.2646
    -3.2124  -2.4586  -1.2502  -0.7119  -0.2943   2.3904   2.9094   3.2658
     4.5258

          k = 0.1111 0.3849 0.0000 ( 11078 PWs)   bands (ev):

   -60.3747 -34.5919 -34.4754 -34.4027 -12.1048 -11.6782  -4.5305  -3.6612
    -3.2570  -2.5629  -1.2810  -0.9557  -0.2517   2.4920   2.9809   3.5563
     4.6505

          k = 0.1111 0.4491 0.0000 ( 11047 PWs)   bands (ev):

   -60.3700 -34.6331 -34.4662 -34.4171 -11.8299 -11.5595  -4.7684  -4.0342
    -3.2999  -2.5929  -1.2668  -1.1883  -0.1061   2.6559   3.0903   3.8441
     4.6728

          k = 0.1111 0.5132 0.0000 ( 11024 PWs)   bands (ev):

   -60.3670 -34.6598 -34.4603 -34.4264 -11.6365 -11.4774  -4.9461  -4.2785
    -3.3828  -2.5868  -1.3576  -1.2176   0.0575   2.7465   3.2513   4.0846
     4.6096

          k = 0.1111 0.5774 0.0000 ( 11010 PWs)   bands (ev):

   -60.3659 -34.6690 -34.4582 -34.4296 -11.5663 -11.4479  -5.0116  -4.3635
    -3.4220  -2.5790  -1.4206  -1.1951   0.1330   2.7600   3.3433   4.2018
     4.5478

          k = 0.1667 0.2887 0.0000 ( 11093 PWs)   bands (ev):

   -60.3810 -34.5309 -34.4877 -34.3886 -12.4441 -11.8261  -4.2807  -3.2426
    -3.0736  -2.6118  -1.3556  -0.5839  -0.2672   2.3359   2.9342   3.1298
     4.5552

          k = 0.1667 0.3528 0.0000 ( 11093 PWs)   bands (ev):

   -60.3754 -34.5737 -34.4769 -34.4122 -12.1502 -11.6947  -4.3973  -3.5310
    -3.1894  -2.7314  -1.5578  -0.7706  -0.2407   2.4043   3.0180   3.3191
     4.7197

          k = 0.1667 0.4170 0.0000 ( 11063 PWs)   bands (ev):

   -60.3706 -34.6103 -34.4674 -34.4337 -11.8704 -11.5701  -4.5687  -3.9680
    -3.1672  -2.7211  -1.7363  -1.0221  -0.1211   2.5825   3.1164   3.5437
     4.7997

          k = 0.1667 0.4811 0.0000 ( 11020 PWs)   bands (ev):

   -60.3670 -34.6370 -34.4603 -34.4500 -11.6466 -11.4712  -4.7122  -4.2928
    -3.2544  -2.6555  -1.7984  -1.2661   0.0562   2.6870   3.2868   3.7385
     4.8129

          k = 0.1667 0.5453 0.0000 ( 11019 PWs)   bands (ev):

   -60.3651 -34.6510 -34.4588 -34.4565 -11.5209 -11.4159  -4.7913  -4.4650
    -3.3478  -2.5917  -1.8022  -1.4246   0.2039   2.6705   3.4724   3.8535
     4.7980

          k = 0.2222 0.3849 0.0000 ( 11053 PWs)   bands (ev):

   -60.3708 -34.6001 -34.4678 -34.4419 -11.8846 -11.5735  -4.4833  -3.9386
    -3.0848  -2.7788  -1.9515  -0.9512  -0.1328   2.5530   3.1286   3.4226
     4.8544

          k = 0.2222 0.4491 0.0000 ( 11049 PWs)   bands (ev):

   -60.3670 -34.6183 -34.4693 -34.4603 -11.6532 -11.4671  -4.5338  -4.3007
    -3.0857  -2.7043  -2.2614  -1.1974   0.0393   2.6409   3.3134   3.5244
     4.9515

          k = 0.2222 0.5132 0.0000 ( 11037 PWs)   bands (ev):

   -60.3645 -34.6283 -34.4889 -34.4554 -11.4937 -11.3932  -4.5416  -4.5373
    -3.2260  -2.5882  -2.3830  -1.4267   0.2382   2.5656   3.5723   3.5887
     5.0155

          k = 0.2222 0.5774 0.0000 ( 11022 PWs)   bands (ev):

   -60.3636 -34.6315 -34.4961 -34.4537 -11.4365 -11.3667  -4.6256  -4.5281
    -3.3127  -2.5263  -2.4038  -1.5284   0.3346   2.5018   3.6095   3.6972
     5.0383

          k = 0.2778 0.4811 0.0000 ( 11036 PWs)   bands (ev):

   -60.3643 -34.6161 -34.5038 -34.4550 -11.4847 -11.3850  -4.5700  -4.4122
    -3.0906  -2.7140  -2.5852  -1.4264   0.2491   2.5206   3.4914   3.6085
     5.1008

          k = 0.2778 0.5453 0.0000 ( 11020 PWs)   bands (ev):

   -60.3629 -34.6088 -34.5282 -34.4522 -11.3923 -11.3391  -4.7179  -4.2549
    -3.2980  -2.8542  -2.4574  -1.6126   0.4266   2.3613   3.4654   3.8334
     5.1958

          k = 0.3333 0.5774 0.0000 ( 11022 PWs)   bands (ev):

   -60.3623 -34.5913 -34.5526 -34.4511 -11.3568 -11.3196  -4.7812  -4.0274
    -3.4922  -2.9800  -2.3795  -1.7090   0.5173   2.2561   3.4189   3.9388
     5.2671

     the Fermi energy is     1.3583 ev

!    total energy              =    -496.69587382 Ry
     total all-electron energy =     -9695.026088 Ry
     estimated scf accuracy    <       0.00000042 Ry
     smearing contrib. (-TS)   =      -0.00000193 Ry
     internal energy E=F+TS    =    -496.69587189 Ry

     The total energy is F=E-TS. E is the sum of the following terms:
     one-electron contribution =    -740.33102195 Ry
     hartree contribution      =     374.06074112 Ry
     xc contribution           =     -29.64913954 Ry
     ewald contribution        =     218.85262295 Ry
     one-center paw contrib.   =    -319.62907447 Ry

     convergence has been achieved in   7 iterations

     negative rho (up, down):  4.613E-04 0.000E+00

     Forces acting on atoms (cartesian axes, Ry/au):

     atom    1 type  1   force =     0.00000000    0.00000000    0.00000000
     atom    2 type  2   force =     0.00000000   -0.00000000   -0.02088896
     atom    3 type  2   force =    -0.00000000   -0.00000000    0.02088896
     The non-local contrib.  to forces
     atom    1 type  1   force =     0.00000000    0.00000000    0.00000000
     atom    2 type  2   force =     0.00000000    0.00000000   -0.27777799
     atom    3 type  2   force =     0.00000000   -0.00000000    0.27777799
     The ionic contribution  to forces
     atom    1 type  1   force =     0.00000000   -0.00000000    0.00000000
     atom    2 type  2   force =    -0.00000000    0.00000000   32.99976195
     atom    3 type  2   force =    -0.00000000    0.00000000  -32.99976195
     The local contribution  to forces
     atom    1 type  1   force =     0.00000000   -0.00000000    0.00000000
     atom    2 type  2   force =    -0.00000000    0.00000000  -32.74522244
     atom    3 type  2   force =    -0.00000000    0.00000000   32.74522244
     The core correction contribution to forces
     atom    1 type  1   force =     0.00000000    0.00000000   -0.00000000
     atom    2 type  2   force =     0.00000000   -0.00000000    0.00269087
     atom    3 type  2   force =     0.00000000   -0.00000000   -0.00269087
     The Hubbard contrib.    to forces
     atom    1 type  1   force =     0.00000000    0.00000000    0.00000000
     atom    2 type  2   force =     0.00000000    0.00000000    0.00000000
     atom    3 type  2   force =     0.00000000    0.00000000    0.00000000
     The SCF correction term to forces
     atom    1 type  1   force =     0.00000000    0.00000000    0.00000000
     atom    2 type  2   force =    -0.00000000   -0.00000000   -0.00034136
     atom    3 type  2   force =    -0.00000000   -0.00000000    0.00034136

     Total force =     0.029541     Total SCF correction =     0.000483


     Computing stress (Cartesian axis) and pressure


     negative rho (up, down):  4.613E-04 0.000E+00
          total   stress  (Ry/bohr**3)                   (kbar)     P=       -9.80
  -0.00003179  -0.00000000   0.00000000           -4.68       -0.00        0.00
  -0.00000000  -0.00003179   0.00000000           -0.00       -4.68        0.00
   0.00000000   0.00000000  -0.00013622            0.00        0.00      -20.04


     Writing all to output data dir ./tmp/scf.save/
 
     init_run     :      0.36s CPU      0.43s WALL (       1 calls)
     electrons    :      5.86s CPU      6.15s WALL (       1 calls)
     forces       :      0.14s CPU      0.14s WALL (       1 calls)
     stress       :      0.66s CPU      0.67s WALL (       1 calls)

     Called by init_run:
     wfcinit      :      0.14s CPU      0.16s WALL (       1 calls)
     potinit      :      0.07s CPU      0.08s WALL (       1 calls)
     hinit0       :      0.09s CPU      0.13s WALL (       1 calls)

     Called by electrons:
     c_bands      :      4.64s CPU      4.88s WALL (       8 calls)
     sum_band     :      0.73s CPU      0.75s WALL (       8 calls)
     v_of_rho     :      0.03s CPU      0.03s WALL (       8 calls)
     newd         :      0.21s CPU      0.22s WALL (       8 calls)
     PAW_pot      :      0.32s CPU      0.34s WALL (       8 calls)
     mix_rho      :      0.01s CPU      0.01s WALL (       8 calls)

     Called by c_bands:
     init_us_2    :      0.11s CPU      0.11s WALL (     703 calls)
     init_us_2:cp :      0.11s CPU      0.11s WALL (     703 calls)
     cegterg      :      3.22s CPU      3.45s WALL (     296 calls)

     Called by *egterg:
     cdiaghg      :      0.26s CPU      0.27s WALL (    1019 calls)
     h_psi        :      2.65s CPU      2.88s WALL (    1093 calls)
     s_psi        :      0.07s CPU      0.08s WALL (    1093 calls)
     g_psi        :      0.01s CPU      0.01s WALL (     760 calls)

     Called by h_psi:
     h_psi:calbec :      0.14s CPU      0.14s WALL (    1093 calls)
     vloc_psi     :      2.41s CPU      2.63s WALL (    1093 calls)
     add_vuspsi   :      0.08s CPU      0.08s WALL (    1093 calls)

     General routines
     calbec       :      0.20s CPU      0.21s WALL (    1574 calls)
     fft          :      0.03s CPU      0.07s WALL (     114 calls)
     ffts         :      0.00s CPU      0.00s WALL (       8 calls)
     fftw         :      2.46s CPU      2.68s WALL (   32438 calls)
 
     Parallel routines
 
     PWSCF        :      7.24s CPU      7.71s WALL

 
   This run was terminated on:  13:33:58   6Jun2025            

=------------------------------------------------------------------------------=
   JOB DONE.
=------------------------------------------------------------------------------=
