
     Program PWSCF v.7.2 starts on  6Jun2025 at 13:33: 0 

     This program is part of the open-source Quantum ESPRESSO suite
     for quantum simulation of materials; please cite
         "P. Giannozzi et al., J. Phys.:Condens. Matter 21 395502 (2009);
         "P. Giannozzi et al., J. Phys.:Condens. Matter 29 465901 (2017);
         "P. Giannozzi et al., J. Chem. Phys. 152 154105 (2020);
          URL http://www.quantum-espresso.org", 
     in publications or presentations arising from this work. More details at
     http://www.quantum-espresso.org/quote

     Parallel version (MPI), running on    16 processors

     MPI processes distributed on     1 nodes
     39654 MiB available memory on the printing compute node when the environment starts
 
     Waiting for input...
     Reading input from standard input

     Current dimensions of program PWSCF are:
     Max number of different atomic species (ntypx) = 10
     Max number of k-points (npk) =  40000
     Max angular momentum in pseudopotentials (lmaxx) =  4
     file Mo.pbe-spn-kjpaw_psl.1.0.0.UPF: wavefunction(s)  4S 4D renormalized
     file S.pbe-n-kjpaw_psl.1.0.0.UPF: wavefunction(s)  3S 3P renormalized
     Message from routine setup:
     using ibrav=0 with symmetry is DISCOURAGED, use correct ibrav instead
 
     R & G space division:  proc/nbgrp/npool/nimage =      16
     Subspace diagonalization in iterative solution of the eigenvalue problem:
     a serial algorithm will be used

 
     Parallelization info
     --------------------
     sticks:   dense  smooth     PW     G-vecs:    dense   smooth      PW
     Min          50      50     14                 5518     5518     849
     Max          51      51     16                 5527     5527     856
     Sum         805     805    235                88391    88391   13631
 
     Using Slab Decomposition
 


     bravais-lattice index     =            0
     lattice parameter (alat)  =       6.0093  a.u.
     unit-cell volume          =     915.4463 (a.u.)^3
     number of atoms/cell      =            3
     number of atomic types    =            2
     number of electrons       =        26.00
     number of Kohn-Sham states=           17
     kinetic-energy cutoff     =      80.0000  Ry
     charge density cutoff     =     320.0000  Ry
     scf convergence threshold =      1.0E-06
     mixing beta               =       0.7000
     number of iterations used =            8  plain     mixing
     Exchange-correlation= SLA  PW   PBX  PBC
                           (   1   4   3   4   0   0   0)

     celldm(1)=   6.009329  celldm(2)=   0.000000  celldm(3)=   0.000000
     celldm(4)=   0.000000  celldm(5)=   0.000000  celldm(6)=   0.000000

     crystal axes: (cart. coord. in units of alat)
               a(1) = (   1.000000   0.000000   0.000000 )  
               a(2) = (  -0.500000   0.866025   0.000000 )  
               a(3) = (   0.000000   0.000000   4.871069 )  

     reciprocal axes: (cart. coord. in units 2 pi/alat)
               b(1) = (  1.000000  0.577350  0.000000 )  
               b(2) = (  0.000000  1.154701  0.000000 )  
               b(3) = (  0.000000  0.000000  0.205294 )  


     PseudoPot. # 1 for Mo read from file:
     /shared/ESPRESSO/PSLIBRARY/1.0.0/pbe/PSEUDOPOTENTIALS/Mo.pbe-spn-kjpaw_psl.1.0.0.UPF
     MD5 check sum: 4396e0c640fcce5c25f020efccf1ab12
     Pseudo is Projector augmented-wave + core cor, Zval = 14.0
     Generated using &quot;atomic&quot; code by A. Dal Corso  v.6.3
     Shape of augmentation charge: PSQ
     Using radial grid of 1229 points,  6 beta functions with: 
                l(1) =   0
                l(2) =   0
                l(3) =   1
                l(4) =   1
                l(5) =   2
                l(6) =   2
     Q(r) pseudized with 0 coefficients 


     PseudoPot. # 2 for S  read from file:
     /shared/ESPRESSO/PSLIBRARY/1.0.0/pbe/PSEUDOPOTENTIALS/S.pbe-n-kjpaw_psl.1.0.0.UPF
     MD5 check sum: c08f931834bcc19553f8bde8f1a3adc5
     Pseudo is Projector augmented-wave + core cor, Zval =  6.0
     Generated using "atomic" code by A. Dal Corso  (Quantum ESPRESSO distribution)
     Shape of augmentation charge: PSQ
     Using radial grid of 1151 points,  6 beta functions with: 
                l(1) =   0
                l(2) =   0
                l(3) =   1
                l(4) =   1
                l(5) =   2
                l(6) =   2
     Q(r) pseudized with 0 coefficients 


     atomic species   valence    mass     pseudopotential
        Mo            14.00    95.94000     Mo( 1.00)
        S              6.00    32.06500     S ( 1.00)

     12 Sym. Ops. (no inversion) found



   Cartesian axes

     site n.     atom                  positions (alat units)
         1           Mo  tau(   1) = (   0.0000000   0.0000000   2.4355346  )
         2           S   tau(   2) = (   0.5000000   0.2886751   2.9371069  )
         3           S   tau(   3) = (   0.5000000   0.2886751   1.9339623  )

     number of k points=    10  Fermi-Dirac smearing, width (Ry)=  0.0070
                       cart. coord. in units 2pi/alat
        k(    1) = (   0.0000000   0.0000000   0.0000000), wk =   0.0312500
        k(    2) = (   0.0000000   0.1443376   0.0000000), wk =   0.1875000
        k(    3) = (   0.0000000   0.2886751   0.0000000), wk =   0.1875000
        k(    4) = (   0.0000000   0.4330127   0.0000000), wk =   0.1875000
        k(    5) = (   0.0000000  -0.5773503   0.0000000), wk =   0.0937500
        k(    6) = (   0.1250000   0.2165064   0.0000000), wk =   0.1875000
        k(    7) = (   0.1250000   0.3608439   0.0000000), wk =   0.3750000
        k(    8) = (   0.1250000   0.5051815   0.0000000), wk =   0.3750000
        k(    9) = (   0.2500000   0.4330127   0.0000000), wk =   0.1875000
        k(   10) = (   0.2500000   0.5773503   0.0000000), wk =   0.1875000

     Dense  grid:    88391 G-vectors     FFT dimensions: (  36,  36, 180)

     Estimated max dynamical RAM per process >      25.89 MB

     Estimated total dynamical RAM >     414.20 MB

     Initial potential from superposition of free atoms

     starting charge      25.9991, renormalised to      26.0000

     negative rho (up, down):  3.875E-04 0.000E+00
     Starting wfcs are   18 randomized atomic wfcs
     Checking if some PAW data can be deallocated... 

     total cpu time spent up to now is        0.8 secs

     Self-consistent Calculation

     iteration #  1     ecut=    80.00 Ry     beta= 0.70
     Davidson diagonalization with overlap
     ethr =  1.00E-02,  avg # of iterations =  2.3

     Threshold (ethr) on eigenvalues was too large:
     Diagonalizing with lowered threshold

     Davidson diagonalization with overlap
     ethr =  2.83E-04,  avg # of iterations =  3.6

     negative rho (up, down):  4.616E-04 0.000E+00

     total cpu time spent up to now is        1.5 secs

     total energy              =    -496.65383212 Ry
     estimated scf accuracy    <       0.11094687 Ry

     iteration #  2     ecut=    80.00 Ry     beta= 0.70
     Davidson diagonalization with overlap
     ethr =  4.27E-04,  avg # of iterations =  3.0

     negative rho (up, down):  4.402E-04 0.000E+00

     total cpu time spent up to now is        2.0 secs

     total energy              =    -496.62414148 Ry
     estimated scf accuracy    <       0.29910412 Ry

     iteration #  3     ecut=    80.00 Ry     beta= 0.70
     Davidson diagonalization with overlap
     ethr =  4.27E-04,  avg # of iterations =  2.7

     negative rho (up, down):  4.378E-04 0.000E+00

     total cpu time spent up to now is        2.4 secs

     total energy              =    -496.67720512 Ry
     estimated scf accuracy    <       0.14002055 Ry

     iteration #  4     ecut=    80.00 Ry     beta= 0.70
     Davidson diagonalization with overlap
     ethr =  4.27E-04,  avg # of iterations =  1.6

     negative rho (up, down):  4.561E-04 0.000E+00

     total cpu time spent up to now is        2.8 secs

     total energy              =    -496.69556748 Ry
     estimated scf accuracy    <       0.00061288 Ry

     iteration #  5     ecut=    80.00 Ry     beta= 0.70
     Davidson diagonalization with overlap
     ethr =  2.36E-06,  avg # of iterations =  3.7

     negative rho (up, down):  4.590E-04 0.000E+00

     total cpu time spent up to now is        3.3 secs

     total energy              =    -496.69584661 Ry
     estimated scf accuracy    <       0.00011019 Ry

     iteration #  6     ecut=    80.00 Ry     beta= 0.70
     Davidson diagonalization with overlap
     ethr =  4.24E-07,  avg # of iterations =  2.1

     negative rho (up, down):  4.609E-04 0.000E+00

     total cpu time spent up to now is        3.7 secs

     total energy              =    -496.69585617 Ry
     estimated scf accuracy    <       0.00001021 Ry

     iteration #  7     ecut=    80.00 Ry     beta= 0.70
     Davidson diagonalization with overlap
     ethr =  3.93E-08,  avg # of iterations =  2.1

     negative rho (up, down):  4.613E-04 0.000E+00

     total cpu time spent up to now is        4.2 secs

     End of self-consistent calculation

          k = 0.0000 0.0000 0.0000 ( 11105 PWs)   bands (ev):

   -60.4045 -34.5335 -34.3180 -34.3180 -13.4949 -12.2957  -5.0233  -1.9270
    -1.9270  -1.3589  -0.8602  -0.8602   0.3778   3.2517   3.2517   3.4193
     3.4193

          k = 0.0000 0.1443 0.0000 ( 11109 PWs)   bands (ev):

   -60.3991 -34.5229 -34.3727 -34.3305 -13.2701 -12.1953  -4.7660  -2.4165
    -2.0449  -1.6953  -1.1999  -0.5743   0.2657   2.8946   3.0374   3.1898
     3.6018

          k = 0.0000 0.2887 0.0000 ( 11067 PWs)   bands (ev):

   -60.3860 -34.5031 -34.4972 -34.3606 -12.6750 -11.9311  -4.3587  -3.2133
    -3.0088  -1.8386  -1.1235  -0.8829  -0.2510   2.5626   2.8079   3.3493
     4.1980

          k = 0.0000 0.4330 0.0000 ( 11047 PWs)   bands (ev):

   -60.3728 -34.6308 -34.4714 -34.3906 -11.9689 -11.6269  -4.8207  -3.8857
    -3.3677  -2.3368  -1.3045  -0.5732  -0.4172   2.6995   2.9035   4.0176
     4.5652

          k = 0.0000-0.5774 0.0000 ( 11030 PWs)   bands (ev):

   -60.3673 -34.6830 -34.4606 -34.4029 -11.6240 -11.4851  -5.1884  -4.2577
    -3.4838  -2.5174  -1.4436  -0.3750  -0.1373   2.7727   3.2374   4.2809
     4.6695

          k = 0.1250 0.2165 0.0000 ( 11101 PWs)   bands (ev):

   -60.3898 -34.5047 -34.4592 -34.3579 -12.8587 -12.0115  -4.3889  -3.0273
    -2.5939  -2.0473  -1.3734  -0.4571  -0.0607   2.4835   2.9181   2.9624
     4.1758

          k = 0.1250 0.3608 0.0000 ( 11082 PWs)   bands (ev):

   -60.3767 -34.5748 -34.4789 -34.4013 -12.1961 -11.7172  -4.4338  -3.5112
    -3.2424  -2.5976  -1.3506  -0.8347  -0.2685   2.4269   2.9722   3.4097
     4.6475

          k = 0.1250 0.5052 0.0000 ( 11034 PWs)   bands (ev):

   -60.3673 -34.6547 -34.4606 -34.4324 -11.6393 -11.4759  -4.8898  -4.2826
    -3.3561  -2.6038  -1.3639  -1.3358   0.0611   2.7329   3.2591   3.9935
     4.6595

          k = 0.2500 0.4330 0.0000 ( 11051 PWs)   bands (ev):

   -60.3673 -34.6157 -34.4726 -34.4607 -11.6542 -11.4666  -4.5075  -4.3019
    -3.0445  -2.7113  -2.3440  -1.1876   0.0361   2.6341   3.3168   3.4954
     4.9704

          k = 0.2500 0.5774 0.0000 ( 11024 PWs)   bands (ev):

   -60.3635 -34.6198 -34.5149 -34.4531 -11.4058 -11.3482  -4.6876  -4.3760
    -3.3105  -2.6656  -2.4821  -1.5849   0.3957   2.4133   3.5210   3.7888
     5.1357

     the Fermi energy is     1.3612 ev

!    total energy              =    -496.69585927 Ry
     total all-electron energy =     -9695.026074 Ry
     estimated scf accuracy    <       0.00000041 Ry
     smearing contrib. (-TS)   =      -0.00000187 Ry
     internal energy E=F+TS    =    -496.69585740 Ry

     The total energy is F=E-TS. E is the sum of the following terms:
     one-electron contribution =    -740.33113985 Ry
     hartree contribution      =     374.06089706 Ry
     xc contribution           =     -29.64915813 Ry
     ewald contribution        =     218.85262295 Ry
     one-center paw contrib.   =    -319.62907943 Ry

     convergence has been achieved in   7 iterations

     negative rho (up, down):  4.613E-04 0.000E+00

     Forces acting on atoms (cartesian axes, Ry/au):

     atom    1 type  1   force =     0.00000000    0.00000000    0.00000000
     atom    2 type  2   force =     0.00000000    0.00000000   -0.02084967
     atom    3 type  2   force =     0.00000000    0.00000000    0.02084967
     The non-local contrib.  to forces
     atom    1 type  1   force =     0.00000000   -0.00000000    0.00000000
     atom    2 type  2   force =    -0.00000000   -0.00000000   -0.27777810
     atom    3 type  2   force =     0.00000000    0.00000000    0.27777810
     The ionic contribution  to forces
     atom    1 type  1   force =     0.00000000   -0.00000000    0.00000000
     atom    2 type  2   force =    -0.00000000    0.00000000   32.99976195
     atom    3 type  2   force =    -0.00000000    0.00000000  -32.99976195
     The local contribution  to forces
     atom    1 type  1   force =    -0.00000000   -0.00000000    0.00000000
     atom    2 type  2   force =    -0.00000000    0.00000000  -32.74524711
     atom    3 type  2   force =    -0.00000000    0.00000000   32.74524711
     The core correction contribution to forces
     atom    1 type  1   force =     0.00000000    0.00000000   -0.00000000
     atom    2 type  2   force =     0.00000000   -0.00000000    0.00269095
     atom    3 type  2   force =     0.00000000   -0.00000000   -0.00269095
     The Hubbard contrib.    to forces
     atom    1 type  1   force =     0.00000000    0.00000000    0.00000000
     atom    2 type  2   force =     0.00000000    0.00000000    0.00000000
     atom    3 type  2   force =     0.00000000    0.00000000    0.00000000
     The SCF correction term to forces
     atom    1 type  1   force =     0.00000000    0.00000000   -0.00000000
     atom    2 type  2   force =    -0.00000000   -0.00000000   -0.00027737
     atom    3 type  2   force =    -0.00000000    0.00000000    0.00027737

     Total force =     0.029486     Total SCF correction =     0.000392


     Computing stress (Cartesian axis) and pressure


     negative rho (up, down):  4.613E-04 0.000E+00
          total   stress  (Ry/bohr**3)                   (kbar)     P=       -9.79
  -0.00003181  -0.00000000  -0.00000000           -4.68       -0.00       -0.00
  -0.00000000  -0.00003181  -0.00000000           -0.00       -4.68       -0.00
  -0.00000000   0.00000000  -0.00013613           -0.00        0.00      -20.03


     Writing all to output data dir ./tmp/scf.save/
 
     init_run     :      0.39s CPU      0.48s WALL (       1 calls)
     electrons    :      3.08s CPU      3.37s WALL (       1 calls)
     forces       :      0.18s CPU      0.19s WALL (       1 calls)
     stress       :      0.65s CPU      0.67s WALL (       1 calls)

     Called by init_run:
     wfcinit      :      0.06s CPU      0.07s WALL (       1 calls)
     potinit      :      0.11s CPU      0.11s WALL (       1 calls)
     hinit0       :      0.16s CPU      0.19s WALL (       1 calls)

     Called by electrons:
     c_bands      :      1.72s CPU      1.91s WALL (       8 calls)
     sum_band     :      0.54s CPU      0.61s WALL (       8 calls)
     v_of_rho     :      0.05s CPU      0.06s WALL (       8 calls)
     newd         :      0.29s CPU      0.31s WALL (       8 calls)
     PAW_pot      :      0.56s CPU      0.57s WALL (       8 calls)
     mix_rho      :      0.01s CPU      0.01s WALL (       8 calls)

     Called by c_bands:
     init_us_2    :      0.04s CPU      0.04s WALL (     190 calls)
     init_us_2:cp :      0.04s CPU      0.04s WALL (     190 calls)
     cegterg      :      1.22s CPU      1.40s WALL (      80 calls)

     Called by *egterg:
     cdiaghg      :      0.08s CPU      0.08s WALL (     281 calls)
     h_psi        :      0.98s CPU      1.14s WALL (     301 calls)
     s_psi        :      0.02s CPU      0.02s WALL (     301 calls)
     g_psi        :      0.00s CPU      0.00s WALL (     211 calls)

     Called by h_psi:
     h_psi:calbec :      0.08s CPU      0.09s WALL (     301 calls)
     vloc_psi     :      0.86s CPU      1.01s WALL (     301 calls)
     add_vuspsi   :      0.03s CPU      0.03s WALL (     301 calls)

     General routines
     calbec       :      0.23s CPU      0.25s WALL (     431 calls)
     fft          :      0.07s CPU      0.11s WALL (     114 calls)
     ffts         :      0.00s CPU      0.00s WALL (       8 calls)
     fftw         :      0.93s CPU      1.08s WALL (    8762 calls)
 
     Parallel routines
 
     PWSCF        :      4.59s CPU      5.09s WALL

 
   This run was terminated on:  13:33: 5   6Jun2025            

=------------------------------------------------------------------------------=
   JOB DONE.
=------------------------------------------------------------------------------=
