
     Program PWSCF v.7.2 starts on  6Jun2025 at 13:33:27 

     This program is part of the open-source Quantum ESPRESSO suite
     for quantum simulation of materials; please cite
         "P. Giannozzi et al., J. Phys.:Condens. Matter 21 395502 (2009);
         "P. Giannozzi et al., J. Phys.:Condens. Matter 29 465901 (2017);
         "P. Giannozzi et al., J. Chem. Phys. 152 154105 (2020);
          URL http://www.quantum-espresso.org", 
     in publications or presentations arising from this work. More details at
     http://www.quantum-espresso.org/quote

     Parallel version (MPI), running on    16 processors

     MPI processes distributed on     1 nodes
     39773 MiB available memory on the printing compute node when the environment starts
 
     Waiting for input...
     Reading input from standard input

     Current dimensions of program PWSCF are:
     Max number of different atomic species (ntypx) = 10
     Max number of k-points (npk) =  40000
     Max angular momentum in pseudopotentials (lmaxx) =  4
     file Mo.pbe-spn-kjpaw_psl.1.0.0.UPF: wavefunction(s)  4S 4D renormalized
     file S.pbe-n-kjpaw_psl.1.0.0.UPF: wavefunction(s)  3S 3P renormalized
     Message from routine setup:
     using ibrav=0 with symmetry is DISCOURAGED, use correct ibrav instead
 
     R & G space division:  proc/nbgrp/npool/nimage =      16
     Subspace diagonalization in iterative solution of the eigenvalue problem:
     a serial algorithm will be used

 
     Parallelization info
     --------------------
     sticks:   dense  smooth     PW     G-vecs:    dense   smooth      PW
     Min          50      50     14                 5518     5518     855
     Max          51      51     16                 5527     5527     861
     Sum         805     805    235                88391    88391   13715
 
     Using Slab Decomposition
 


     bravais-lattice index     =            0
     lattice parameter (alat)  =       6.0093  a.u.
     unit-cell volume          =     915.4463 (a.u.)^3
     number of atoms/cell      =            3
     number of atomic types    =            2
     number of electrons       =        26.00
     number of Kohn-Sham states=           17
     kinetic-energy cutoff     =      80.0000  Ry
     charge density cutoff     =     320.0000  Ry
     scf convergence threshold =      1.0E-06
     mixing beta               =       0.7000
     number of iterations used =            8  plain     mixing
     Exchange-correlation= SLA  PW   PBX  PBC
                           (   1   4   3   4   0   0   0)

     celldm(1)=   6.009329  celldm(2)=   0.000000  celldm(3)=   0.000000
     celldm(4)=   0.000000  celldm(5)=   0.000000  celldm(6)=   0.000000

     crystal axes: (cart. coord. in units of alat)
               a(1) = (   1.000000   0.000000   0.000000 )  
               a(2) = (  -0.500000   0.866025   0.000000 )  
               a(3) = (   0.000000   0.000000   4.871069 )  

     reciprocal axes: (cart. coord. in units 2 pi/alat)
               b(1) = (  1.000000  0.577350  0.000000 )  
               b(2) = (  0.000000  1.154701  0.000000 )  
               b(3) = (  0.000000  0.000000  0.205294 )  


     PseudoPot. # 1 for Mo read from file:
     /shared/ESPRESSO/PSLIBRARY/1.0.0/pbe/PSEUDOPOTENTIALS/Mo.pbe-spn-kjpaw_psl.1.0.0.UPF
     MD5 check sum: 4396e0c640fcce5c25f020efccf1ab12
     Pseudo is Projector augmented-wave + core cor, Zval = 14.0
     Generated using &quot;atomic&quot; code by A. Dal Corso  v.6.3
     Shape of augmentation charge: PSQ
     Using radial grid of 1229 points,  6 beta functions with: 
                l(1) =   0
                l(2) =   0
                l(3) =   1
                l(4) =   1
                l(5) =   2
                l(6) =   2
     Q(r) pseudized with 0 coefficients 


     PseudoPot. # 2 for S  read from file:
     /shared/ESPRESSO/PSLIBRARY/1.0.0/pbe/PSEUDOPOTENTIALS/S.pbe-n-kjpaw_psl.1.0.0.UPF
     MD5 check sum: c08f931834bcc19553f8bde8f1a3adc5
     Pseudo is Projector augmented-wave + core cor, Zval =  6.0
     Generated using "atomic" code by A. Dal Corso  (Quantum ESPRESSO distribution)
     Shape of augmentation charge: PSQ
     Using radial grid of 1151 points,  6 beta functions with: 
                l(1) =   0
                l(2) =   0
                l(3) =   1
                l(4) =   1
                l(5) =   2
                l(6) =   2
     Q(r) pseudized with 0 coefficients 


     atomic species   valence    mass     pseudopotential
        Mo            14.00    95.94000     Mo( 1.00)
        S              6.00    32.06500     S ( 1.00)

     12 Sym. Ops. (no inversion) found



   Cartesian axes

     site n.     atom                  positions (alat units)
         1           Mo  tau(   1) = (   0.0000000   0.0000000   2.4355346  )
         2           S   tau(   2) = (   0.5000000   0.2886751   2.9371069  )
         3           S   tau(   3) = (   0.5000000   0.2886751   1.9339623  )

     number of k points=    24  Fermi-Dirac smearing, width (Ry)=  0.0070
                       cart. coord. in units 2pi/alat
        k(    1) = (   0.0000000   0.0000000   0.0000000), wk =   0.0102041
        k(    2) = (   0.0000000   0.0824786   0.0000000), wk =   0.0612245
        k(    3) = (   0.0000000   0.1649572   0.0000000), wk =   0.0612245
        k(    4) = (   0.0000000   0.2474358   0.0000000), wk =   0.0612245
        k(    5) = (   0.0000000   0.3299144   0.0000000), wk =   0.0612245
        k(    6) = (   0.0000000   0.4123930   0.0000000), wk =   0.0612245
        k(    7) = (   0.0000000   0.4948717   0.0000000), wk =   0.0612245
        k(    8) = (   0.0000000  -0.5773503   0.0000000), wk =   0.0306122
        k(    9) = (   0.0714286   0.1237179   0.0000000), wk =   0.0612245
        k(   10) = (   0.0714286   0.2061965   0.0000000), wk =   0.1224490
        k(   11) = (   0.0714286   0.2886751   0.0000000), wk =   0.1224490
        k(   12) = (   0.0714286   0.3711537   0.0000000), wk =   0.1224490
        k(   13) = (   0.0714286   0.4536324   0.0000000), wk =   0.1224490
        k(   14) = (   0.0714286   0.5361110   0.0000000), wk =   0.1224490
        k(   15) = (   0.1428571   0.2474358   0.0000000), wk =   0.0612245
        k(   16) = (   0.1428571   0.3299144   0.0000000), wk =   0.1224490
        k(   17) = (   0.1428571   0.4123930   0.0000000), wk =   0.1224490
        k(   18) = (   0.1428571   0.4948717   0.0000000), wk =   0.1224490
        k(   19) = (   0.1428571   0.5773503   0.0000000), wk =   0.0612245
        k(   20) = (   0.2142857   0.3711537   0.0000000), wk =   0.0612245
        k(   21) = (   0.2142857   0.4536324   0.0000000), wk =   0.1224490
        k(   22) = (   0.2142857   0.5361110   0.0000000), wk =   0.1224490
        k(   23) = (   0.2857143   0.4948717   0.0000000), wk =   0.0612245
        k(   24) = (   0.2857143   0.5773503   0.0000000), wk =   0.0612245

     Dense  grid:    88391 G-vectors     FFT dimensions: (  36,  36, 180)

     Estimated max dynamical RAM per process >      28.40 MB

     Estimated total dynamical RAM >     454.35 MB

     Initial potential from superposition of free atoms

     starting charge      25.9991, renormalised to      26.0000

     negative rho (up, down):  3.875E-04 0.000E+00
     Starting wfcs are   18 randomized atomic wfcs
     Checking if some PAW data can be deallocated... 

     total cpu time spent up to now is        0.8 secs

     Self-consistent Calculation

     iteration #  1     ecut=    80.00 Ry     beta= 0.70
     Davidson diagonalization with overlap
     ethr =  1.00E-02,  avg # of iterations =  2.3

     Threshold (ethr) on eigenvalues was too large:
     Diagonalizing with lowered threshold

     Davidson diagonalization with overlap
     ethr =  2.83E-04,  avg # of iterations =  3.5

     negative rho (up, down):  4.615E-04 0.000E+00

     total cpu time spent up to now is        2.4 secs

     total energy              =    -496.65399946 Ry
     estimated scf accuracy    <       0.11076309 Ry

     iteration #  2     ecut=    80.00 Ry     beta= 0.70
     Davidson diagonalization with overlap
     ethr =  4.26E-04,  avg # of iterations =  3.0

     negative rho (up, down):  4.397E-04 0.000E+00

     total cpu time spent up to now is        3.2 secs

     total energy              =    -496.62399367 Ry
     estimated scf accuracy    <       0.29930607 Ry

     iteration #  3     ecut=    80.00 Ry     beta= 0.70
     Davidson diagonalization with overlap
     ethr =  4.26E-04,  avg # of iterations =  2.5

     negative rho (up, down):  4.376E-04 0.000E+00

     total cpu time spent up to now is        4.0 secs

     total energy              =    -496.67733023 Ry
     estimated scf accuracy    <       0.13934532 Ry

     iteration #  4     ecut=    80.00 Ry     beta= 0.70
     Davidson diagonalization with overlap
     ethr =  4.26E-04,  avg # of iterations =  1.4

     negative rho (up, down):  4.559E-04 0.000E+00

     total cpu time spent up to now is        4.7 secs

     total energy              =    -496.69557239 Ry
     estimated scf accuracy    <       0.00061271 Ry

     iteration #  5     ecut=    80.00 Ry     beta= 0.70
     Davidson diagonalization with overlap
     ethr =  2.36E-06,  avg # of iterations =  3.5

     negative rho (up, down):  4.588E-04 0.000E+00

     total cpu time spent up to now is        5.6 secs

     total energy              =    -496.69586101 Ry
     estimated scf accuracy    <       0.00011439 Ry

     iteration #  6     ecut=    80.00 Ry     beta= 0.70
     Davidson diagonalization with overlap
     ethr =  4.40E-07,  avg # of iterations =  2.0

     negative rho (up, down):  4.609E-04 0.000E+00

     total cpu time spent up to now is        6.3 secs

     total energy              =    -496.69587029 Ry
     estimated scf accuracy    <       0.00001056 Ry

     iteration #  7     ecut=    80.00 Ry     beta= 0.70
     Davidson diagonalization with overlap
     ethr =  4.06E-08,  avg # of iterations =  2.3

     negative rho (up, down):  4.613E-04 0.000E+00

     total cpu time spent up to now is        7.1 secs

     End of self-consistent calculation

          k = 0.0000 0.0000 0.0000 ( 11105 PWs)   bands (ev):

   -60.4042 -34.5332 -34.3177 -34.3177 -13.4948 -12.2957  -5.0232  -1.9268
    -1.9268  -1.3589  -0.8600  -0.8600   0.3780   3.2519   3.2519   3.4194
     3.4194

          k = 0.0000 0.0825 0.0000 ( 11117 PWs)   bands (ev):

   -60.4023 -34.5296 -34.3362 -34.3219 -13.4199 -12.2622  -4.9346  -2.1025
    -1.8490  -1.6677  -0.9822  -0.6719   0.3497   3.1416   3.2021   3.3367
     3.3794

          k = 0.0000 0.1650 0.0000 ( 11089 PWs)   bands (ev):

   -60.3972 -34.5195 -34.3880 -34.3338 -13.2037 -12.1656  -4.6962  -2.5402
    -2.1778  -1.6282  -1.2863  -0.5763   0.2185   2.7993   3.0288   3.1324
     3.6885

          k = 0.0000 0.2474 0.0000 ( 11073 PWs)   bands (ev):

   -60.3898 -34.5049 -34.4620 -34.3509 -12.8715 -12.0178  -4.4222  -3.0339
    -2.7287  -1.6571  -1.3039  -0.7441  -0.0764   2.5696   2.9025   3.1810
     4.0404

          k = 0.0000 0.3299 0.0000 ( 11069 PWs)   bands (ev):

   -60.3815 -34.5432 -34.4887 -34.3698 -12.4676 -11.8402  -4.4035  -3.3032
    -3.2838  -2.0064  -1.0249  -0.9442  -0.3927   2.6159   2.7394   3.5480
     4.3339

          k = 0.0000 0.4124 0.0000 ( 11055 PWs)   bands (ev):

   -60.3740 -34.6155 -34.4741 -34.3867 -12.0604 -11.6653  -4.7280  -3.7807
    -3.3511  -2.2826  -1.2604  -0.6341  -0.4515   2.6939   2.8363   3.9369
     4.5310

          k = 0.0000 0.4949 0.0000 ( 11026 PWs)   bands (ev):

   -60.3689 -34.6650 -34.4639 -34.3984 -11.7451 -11.5342  -5.0568  -4.1309
    -3.4337  -2.4575  -1.3992  -0.4387  -0.2606   2.7381   3.1019   4.1970
     4.6370

          k = 0.0000-0.5774 0.0000 ( 11030 PWs)   bands (ev):

   -60.3670 -34.6826 -34.4603 -34.4026 -11.6239 -11.4850  -5.1882  -4.2576
    -3.4836  -2.5171  -1.4435  -0.3748  -0.1371   2.7730   3.2377   4.2811
     4.6696

          k = 0.0714 0.1237 0.0000 ( 11127 PWs)   bands (ev):

   -60.3989 -34.5228 -34.3707 -34.3307 -13.2744 -12.1971  -4.7698  -2.4050
    -2.0147  -1.7040  -1.2629  -0.5178   0.2701   2.9057   3.0041   3.1836
     3.6207

          k = 0.0714 0.2062 0.0000 ( 11104 PWs)   bands (ev):

   -60.3926 -34.5104 -34.4317 -34.3470 -12.9998 -12.0745  -4.5012  -2.8598
    -2.4658  -1.7143  -1.4535  -0.5033   0.0532   2.5947   2.9756   2.9831
     3.9845

          k = 0.0714 0.2887 0.0000 ( 11088 PWs)   bands (ev):

   -60.3847 -34.5069 -34.4950 -34.3674 -12.6303 -11.9105  -4.3259  -3.2242
    -2.9938  -2.1112  -1.1869  -0.7121  -0.2477   2.4657   2.8552   3.2250
     4.3195

          k = 0.0714 0.3712 0.0000 ( 11068 PWs)   bands (ev):

   -60.3768 -34.5813 -34.4796 -34.3877 -12.2214 -11.7316  -4.5135  -3.5490
    -3.3009  -2.3623  -1.0372  -1.0093  -0.3387   2.5239   2.8857   3.6135
     4.5413

          k = 0.0714 0.4536 0.0000 ( 11054 PWs)   bands (ev):

   -60.3705 -34.6403 -34.4672 -34.4040 -11.8540 -11.5747  -4.8545  -4.0087
    -3.3536  -2.4937  -1.2648  -0.9262  -0.1694   2.6785   3.0382   3.9951
     4.6092

          k = 0.0714 0.5361 0.0000 ( 11014 PWs)   bands (ev):

   -60.3670 -34.6728 -34.4603 -34.4129 -11.6297 -11.4815  -5.0829  -4.2676
    -3.4419  -2.5464  -1.4083  -0.8231   0.0191   2.7703   3.2375   4.2919
     4.5264

          k = 0.1429 0.2474 0.0000 ( 11087 PWs)   bands (ev):

   -60.3859 -34.4973 -34.4907 -34.3699 -12.6870 -11.9347  -4.3001  -3.1717
    -2.7766  -2.3285  -1.3120  -0.4936  -0.1814   2.3945   2.8983   3.0180
     4.3532

          k = 0.1429 0.3299 0.0000 ( 11089 PWs)   bands (ev):

   -60.3784 -34.5536 -34.4827 -34.3970 -12.3089 -11.7662  -4.3395  -3.3081
    -3.2387  -2.6335  -1.3864  -0.6965  -0.2759   2.3647   2.9597   3.2530
     4.6239

          k = 0.1429 0.4124 0.0000 ( 11063 PWs)   bands (ev):

   -60.3717 -34.6091 -34.4695 -34.4222 -11.9312 -11.5994  -4.5891  -3.8857
    -3.2115  -2.6762  -1.5374  -1.0152  -0.1571   2.5594   3.0728   3.5857
     4.7432

          k = 0.1429 0.4949 0.0000 ( 11030 PWs)   bands (ev):

   -60.3670 -34.6470 -34.4603 -34.4397 -11.6425 -11.4737  -4.8135  -4.2872
    -3.3164  -2.6262  -1.5526  -1.3059   0.0615   2.7138   3.2709   3.8785
     4.7268

          k = 0.1429 0.5774 0.0000 ( 11016 PWs)   bands (ev):

   -60.3653 -34.6605 -34.4570 -34.4460 -11.5326 -11.4265  -4.9004  -4.4301
    -3.3883  -2.5872  -1.5368  -1.4292   0.1867   2.7147   3.4268   4.0071
     4.6845

          k = 0.2143 0.3712 0.0000 ( 11075 PWs)   bands (ev):

   -60.3721 -34.5931 -34.4703 -34.4336 -11.9590 -11.6075  -4.4589  -3.8209
    -3.1082  -2.7834  -1.8441  -0.8881  -0.1698   2.5045   3.0952   3.3882
     4.8216

          k = 0.2143 0.4536 0.0000 ( 11051 PWs)   bands (ev):

   -60.3670 -34.6201 -34.4674 -34.4603 -11.6526 -11.4674  -4.5505  -4.3001
    -3.1080  -2.6999  -2.2127  -1.2038   0.0411   2.6450   3.3110   3.5429
     4.9392

          k = 0.2143 0.5361 0.0000 ( 11020 PWs)   bands (ev):

   -60.3642 -34.6332 -34.4880 -34.4548 -11.4703 -11.3837  -4.5712  -4.5708
    -3.2820  -2.5636  -2.3156  -1.4704   0.2761   2.5538   3.6154   3.6293
     4.9989

          k = 0.2857 0.4949 0.0000 ( 11024 PWs)   bands (ev):

   -60.3638 -34.6138 -34.5127 -34.4540 -11.4492 -11.3674  -4.6271  -4.3623
    -3.1303  -2.7976  -2.5439  -1.4900   0.3098   2.4682   3.4803   3.6893
     5.1377

          k = 0.2857 0.5774 0.0000 ( 11020 PWs)   bands (ev):

   -60.3626 -34.6040 -34.5365 -34.4517 -11.3744 -11.3296  -4.7482  -4.1810
    -3.3701  -2.8985  -2.4221  -1.6580   0.4696   2.3150   3.4496   3.8842
     5.2243

     the Fermi energy is     1.3584 ev

!    total energy              =    -496.69587363 Ry
     total all-electron energy =     -9695.026088 Ry
     estimated scf accuracy    <       0.00000044 Ry
     smearing contrib. (-TS)   =      -0.00000193 Ry
     internal energy E=F+TS    =    -496.69587170 Ry

     The total energy is F=E-TS. E is the sum of the following terms:
     one-electron contribution =    -740.33102935 Ry
     hartree contribution      =     374.06075816 Ry
     xc contribution           =     -29.64914750 Ry
     ewald contribution        =     218.85262295 Ry
     one-center paw contrib.   =    -319.62907597 Ry

     convergence has been achieved in   7 iterations

     negative rho (up, down):  4.613E-04 0.000E+00

     Forces acting on atoms (cartesian axes, Ry/au):

     atom    1 type  1   force =     0.00000000    0.00000000    0.00000000
     atom    2 type  2   force =     0.00000000    0.00000000   -0.02090185
     atom    3 type  2   force =     0.00000000   -0.00000000    0.02090185
     The non-local contrib.  to forces
     atom    1 type  1   force =     0.00000000   -0.00000000    0.00000000
     atom    2 type  2   force =     0.00000000    0.00000000   -0.27783687
     atom    3 type  2   force =     0.00000000    0.00000000    0.27783687
     The ionic contribution  to forces
     atom    1 type  1   force =     0.00000000   -0.00000000    0.00000000
     atom    2 type  2   force =    -0.00000000    0.00000000   32.99976195
     atom    3 type  2   force =    -0.00000000    0.00000000  -32.99976195
     The local contribution  to forces
     atom    1 type  1   force =     0.00000000   -0.00000000    0.00000000
     atom    2 type  2   force =    -0.00000000    0.00000000  -32.74516940
     atom    3 type  2   force =    -0.00000000    0.00000000   32.74516940
     The core correction contribution to forces
     atom    1 type  1   force =    -0.00000000    0.00000000   -0.00000000
     atom    2 type  2   force =     0.00000000   -0.00000000    0.00269237
     atom    3 type  2   force =     0.00000000   -0.00000000   -0.00269237
     The Hubbard contrib.    to forces
     atom    1 type  1   force =     0.00000000    0.00000000    0.00000000
     atom    2 type  2   force =     0.00000000    0.00000000    0.00000000
     atom    3 type  2   force =     0.00000000    0.00000000    0.00000000
     The SCF correction term to forces
     atom    1 type  1   force =    -0.00000000   -0.00000000    0.00000000
     atom    2 type  2   force =     0.00000000    0.00000000   -0.00034991
     atom    3 type  2   force =     0.00000000    0.00000000    0.00034991

     Total force =     0.029560     Total SCF correction =     0.000495


     Computing stress (Cartesian axis) and pressure


     negative rho (up, down):  4.613E-04 0.000E+00
          total   stress  (Ry/bohr**3)                   (kbar)     P=       -9.79
  -0.00003177   0.00000000   0.00000000           -4.67        0.00        0.00
   0.00000000  -0.00003177   0.00000000            0.00       -4.67        0.00
   0.00000000   0.00000000  -0.00013616            0.00        0.00      -20.03


     Writing all to output data dir ./tmp/scf.save/
 
     init_run     :      0.46s CPU      0.54s WALL (       1 calls)
     electrons    :      5.86s CPU      6.35s WALL (       1 calls)
     forces       :      0.19s CPU      0.20s WALL (       1 calls)
     stress       :      0.94s CPU      0.96s WALL (       1 calls)

     Called by init_run:
     wfcinit      :      0.14s CPU      0.14s WALL (       1 calls)
     potinit      :      0.10s CPU      0.12s WALL (       1 calls)
     hinit0       :      0.15s CPU      0.19s WALL (       1 calls)

     Called by electrons:
     c_bands      :      4.04s CPU      4.40s WALL (       8 calls)
     sum_band     :      0.83s CPU      0.94s WALL (       8 calls)
     v_of_rho     :      0.05s CPU      0.05s WALL (       8 calls)
     newd         :      0.28s CPU      0.30s WALL (       8 calls)
     PAW_pot      :      0.74s CPU      0.76s WALL (       8 calls)
     mix_rho      :      0.01s CPU      0.01s WALL (       8 calls)

     Called by c_bands:
     init_us_2    :      0.09s CPU      0.10s WALL (     456 calls)
     init_us_2:cp :      0.09s CPU      0.10s WALL (     456 calls)
     cegterg      :      2.84s CPU      3.19s WALL (     192 calls)

     Called by *egterg:
     cdiaghg      :      0.19s CPU      0.20s WALL (     659 calls)
     h_psi        :      2.28s CPU      2.57s WALL (     707 calls)
     s_psi        :      0.05s CPU      0.05s WALL (     707 calls)
     g_psi        :      0.01s CPU      0.01s WALL (     491 calls)

     Called by h_psi:
     h_psi:calbec :      0.18s CPU      0.20s WALL (     707 calls)
     vloc_psi     :      2.02s CPU      2.29s WALL (     707 calls)
     add_vuspsi   :      0.06s CPU      0.07s WALL (     707 calls)

     General routines
     calbec       :      0.51s CPU      0.55s WALL (    1019 calls)
     fft          :      0.05s CPU      0.09s WALL (     114 calls)
     ffts         :      0.00s CPU      0.00s WALL (       8 calls)
     fftw         :      2.15s CPU      2.45s WALL (   21020 calls)
 
     Parallel routines
 
     PWSCF        :      7.76s CPU      8.46s WALL

 
   This run was terminated on:  13:33:35   6Jun2025            

=------------------------------------------------------------------------------=
   JOB DONE.
=------------------------------------------------------------------------------=
