
     Program PWSCF v.7.2 starts on  6Jun2025 at 13:33: 8 

     This program is part of the open-source Quantum ESPRESSO suite
     for quantum simulation of materials; please cite
         "P. Giannozzi et al., J. Phys.:Condens. Matter 21 395502 (2009);
         "P. Giannozzi et al., J. Phys.:Condens. Matter 29 465901 (2017);
         "P. Giannozzi et al., J. Chem. Phys. 152 154105 (2020);
          URL http://www.quantum-espresso.org", 
     in publications or presentations arising from this work. More details at
     http://www.quantum-espresso.org/quote

     Parallel version (MPI), running on    16 processors

     MPI processes distributed on     1 nodes
     38867 MiB available memory on the printing compute node when the environment starts
 
     Waiting for input...
     Reading input from standard input

     Current dimensions of program PWSCF are:
     Max number of different atomic species (ntypx) = 10
     Max number of k-points (npk) =  40000
     Max angular momentum in pseudopotentials (lmaxx) =  4
     file Mo.pbe-spn-kjpaw_psl.1.0.0.UPF: wavefunction(s)  4S 4D renormalized
     file S.pbe-n-kjpaw_psl.1.0.0.UPF: wavefunction(s)  3S 3P renormalized
     Message from routine setup:
     using ibrav=0 with symmetry is DISCOURAGED, use correct ibrav instead
 
     R & G space division:  proc/nbgrp/npool/nimage =      16
     Subspace diagonalization in iterative solution of the eigenvalue problem:
     a serial algorithm will be used

 
     Parallelization info
     --------------------
     sticks:   dense  smooth     PW     G-vecs:    dense   smooth      PW
     Min          50      50     14                 5518     5518     853
     Max          51      51     16                 5527     5527     860
     Sum         805     805    235                88391    88391   13691
 
     Using Slab Decomposition
 


     bravais-lattice index     =            0
     lattice parameter (alat)  =       6.0093  a.u.
     unit-cell volume          =     915.4463 (a.u.)^3
     number of atoms/cell      =            3
     number of atomic types    =            2
     number of electrons       =        26.00
     number of Kohn-Sham states=           17
     kinetic-energy cutoff     =      80.0000  Ry
     charge density cutoff     =     320.0000  Ry
     scf convergence threshold =      1.0E-06
     mixing beta               =       0.7000
     number of iterations used =            8  plain     mixing
     Exchange-correlation= SLA  PW   PBX  PBC
                           (   1   4   3   4   0   0   0)

     celldm(1)=   6.009329  celldm(2)=   0.000000  celldm(3)=   0.000000
     celldm(4)=   0.000000  celldm(5)=   0.000000  celldm(6)=   0.000000

     crystal axes: (cart. coord. in units of alat)
               a(1) = (   1.000000   0.000000   0.000000 )  
               a(2) = (  -0.500000   0.866025   0.000000 )  
               a(3) = (   0.000000   0.000000   4.871069 )  

     reciprocal axes: (cart. coord. in units 2 pi/alat)
               b(1) = (  1.000000  0.577350  0.000000 )  
               b(2) = (  0.000000  1.154701  0.000000 )  
               b(3) = (  0.000000  0.000000  0.205294 )  


     PseudoPot. # 1 for Mo read from file:
     /shared/ESPRESSO/PSLIBRARY/1.0.0/pbe/PSEUDOPOTENTIALS/Mo.pbe-spn-kjpaw_psl.1.0.0.UPF
     MD5 check sum: 4396e0c640fcce5c25f020efccf1ab12
     Pseudo is Projector augmented-wave + core cor, Zval = 14.0
     Generated using &quot;atomic&quot; code by A. Dal Corso  v.6.3
     Shape of augmentation charge: PSQ
     Using radial grid of 1229 points,  6 beta functions with: 
                l(1) =   0
                l(2) =   0
                l(3) =   1
                l(4) =   1
                l(5) =   2
                l(6) =   2
     Q(r) pseudized with 0 coefficients 


     PseudoPot. # 2 for S  read from file:
     /shared/ESPRESSO/PSLIBRARY/1.0.0/pbe/PSEUDOPOTENTIALS/S.pbe-n-kjpaw_psl.1.0.0.UPF
     MD5 check sum: c08f931834bcc19553f8bde8f1a3adc5
     Pseudo is Projector augmented-wave + core cor, Zval =  6.0
     Generated using "atomic" code by A. Dal Corso  (Quantum ESPRESSO distribution)
     Shape of augmentation charge: PSQ
     Using radial grid of 1151 points,  6 beta functions with: 
                l(1) =   0
                l(2) =   0
                l(3) =   1
                l(4) =   1
                l(5) =   2
                l(6) =   2
     Q(r) pseudized with 0 coefficients 


     atomic species   valence    mass     pseudopotential
        Mo            14.00    95.94000     Mo( 1.00)
        S              6.00    32.06500     S ( 1.00)

     12 Sym. Ops. (no inversion) found



   Cartesian axes

     site n.     atom                  positions (alat units)
         1           Mo  tau(   1) = (   0.0000000   0.0000000   2.4355346  )
         2           S   tau(   2) = (   0.5000000   0.2886751   2.9371069  )
         3           S   tau(   3) = (   0.5000000   0.2886751   1.9339623  )

     number of k points=    16  Fermi-Dirac smearing, width (Ry)=  0.0070
                       cart. coord. in units 2pi/alat
        k(    1) = (   0.0000000   0.0000000   0.0000000), wk =   0.0165289
        k(    2) = (   0.0000000   0.1049728   0.0000000), wk =   0.0991736
        k(    3) = (   0.0000000   0.2099456   0.0000000), wk =   0.0991736
        k(    4) = (   0.0000000   0.3149183   0.0000000), wk =   0.0991736
        k(    5) = (   0.0000000   0.4198911   0.0000000), wk =   0.0991736
        k(    6) = (   0.0000000   0.5248639   0.0000000), wk =   0.0991736
        k(    7) = (   0.0909091   0.1574592   0.0000000), wk =   0.0991736
        k(    8) = (   0.0909091   0.2624319   0.0000000), wk =   0.1983471
        k(    9) = (   0.0909091   0.3674047   0.0000000), wk =   0.1983471
        k(   10) = (   0.0909091   0.4723775   0.0000000), wk =   0.1983471
        k(   11) = (   0.0909091   0.5773503   0.0000000), wk =   0.0991736
        k(   12) = (   0.1818182   0.3149183   0.0000000), wk =   0.0991736
        k(   13) = (   0.1818182   0.4198911   0.0000000), wk =   0.1983471
        k(   14) = (   0.1818182   0.5248639   0.0000000), wk =   0.1983471
        k(   15) = (   0.2727273   0.4723775   0.0000000), wk =   0.0991736
        k(   16) = (   0.2727273   0.5773503   0.0000000), wk =   0.0991736

     Dense  grid:    88391 G-vectors     FFT dimensions: (  36,  36, 180)

     Estimated max dynamical RAM per process >      26.96 MB

     Estimated total dynamical RAM >     431.41 MB

     Initial potential from superposition of free atoms

     starting charge      25.9991, renormalised to      26.0000

     negative rho (up, down):  3.875E-04 0.000E+00
     Starting wfcs are   18 randomized atomic wfcs
     Checking if some PAW data can be deallocated... 

     total cpu time spent up to now is        1.2 secs

     Self-consistent Calculation

     iteration #  1     ecut=    80.00 Ry     beta= 0.70
     Davidson diagonalization with overlap
     ethr =  1.00E-02,  avg # of iterations =  2.2

     Threshold (ethr) on eigenvalues was too large:
     Diagonalizing with lowered threshold

     Davidson diagonalization with overlap
     ethr =  2.82E-04,  avg # of iterations =  3.8

     negative rho (up, down):  4.618E-04 0.000E+00

     total cpu time spent up to now is        2.4 secs

     total energy              =    -496.65396954 Ry
     estimated scf accuracy    <       0.11081420 Ry

     iteration #  2     ecut=    80.00 Ry     beta= 0.70
     Davidson diagonalization with overlap
     ethr =  4.26E-04,  avg # of iterations =  3.0

     negative rho (up, down):  4.407E-04 0.000E+00

     total cpu time spent up to now is        3.0 secs

     total energy              =    -496.62419108 Ry
     estimated scf accuracy    <       0.29849360 Ry

     iteration #  3     ecut=    80.00 Ry     beta= 0.70
     Davidson diagonalization with overlap
     ethr =  4.26E-04,  avg # of iterations =  2.4

     negative rho (up, down):  4.383E-04 0.000E+00

     total cpu time spent up to now is        3.6 secs

     total energy              =    -496.67726106 Ry
     estimated scf accuracy    <       0.13979435 Ry

     iteration #  4     ecut=    80.00 Ry     beta= 0.70
     Davidson diagonalization with overlap
     ethr =  4.26E-04,  avg # of iterations =  1.4

     negative rho (up, down):  4.563E-04 0.000E+00

     total cpu time spent up to now is        4.1 secs

     total energy              =    -496.69557411 Ry
     estimated scf accuracy    <       0.00060900 Ry

     iteration #  5     ecut=    80.00 Ry     beta= 0.70
     Davidson diagonalization with overlap
     ethr =  2.34E-06,  avg # of iterations =  3.6

     negative rho (up, down):  4.591E-04 0.000E+00

     total cpu time spent up to now is        4.8 secs

     total energy              =    -496.69586147 Ry
     estimated scf accuracy    <       0.00011589 Ry

     iteration #  6     ecut=    80.00 Ry     beta= 0.70
     Davidson diagonalization with overlap
     ethr =  4.46E-07,  avg # of iterations =  1.9

     negative rho (up, down):  4.610E-04 0.000E+00

     total cpu time spent up to now is        5.3 secs

     total energy              =    -496.69587024 Ry
     estimated scf accuracy    <       0.00001085 Ry

     iteration #  7     ecut=    80.00 Ry     beta= 0.70
     Davidson diagonalization with overlap
     ethr =  4.17E-08,  avg # of iterations =  2.2

     negative rho (up, down):  4.613E-04 0.000E+00

     total cpu time spent up to now is        5.8 secs

     End of self-consistent calculation

          k = 0.0000 0.0000 0.0000 ( 11105 PWs)   bands (ev):

   -60.4041 -34.5331 -34.3176 -34.3176 -13.4948 -12.2956  -5.0231  -1.9267
    -1.9267  -1.3589  -0.8600  -0.8600   0.3780   3.2519   3.2519   3.4195
     3.4195

          k = 0.0000 0.1050 0.0000 ( 11107 PWs)   bands (ev):

   -60.4012 -34.5274 -34.3474 -34.3244 -13.3742 -12.2418  -4.8818  -2.2032
    -1.8018  -1.7996  -1.0519  -0.6202   0.3279   3.0930   3.0954   3.2895
     3.4515

          k = 0.0000 0.2099 0.0000 ( 11107 PWs)   bands (ev):

   -60.3933 -34.5119 -34.4265 -34.3426 -13.0345 -12.0902  -4.5374  -2.8188
    -2.4755  -1.4869  -1.4604  -0.6412   0.0757   2.6386   3.0037   3.0754
     3.8831

          k = 0.0000 0.3149 0.0000 ( 11077 PWs)   bands (ev):

   -60.3829 -34.5286 -34.4916 -34.3663 -12.5436 -11.8734  -4.3738  -3.2805
    -3.1848  -1.9472  -1.0084  -0.9741  -0.3475   2.5907   2.7610   3.4740
     4.2873

          k = 0.0000 0.4199 0.0000 ( 11057 PWs)   bands (ev):

   -60.3734 -34.6211 -34.4729 -34.3880 -12.0263 -11.6509  -4.7620  -3.8200
    -3.3565  -2.3029  -1.2771  -0.6110  -0.4407   2.6954   2.8606   3.9674
     4.5442

          k = 0.0000 0.5249 0.0000 ( 11030 PWs)   bands (ev):

   -60.3677 -34.6754 -34.4617 -34.4009 -11.6741 -11.5052  -5.1336  -4.2056
    -3.4619  -2.4929  -1.4257  -0.4005  -0.1913   2.7574   3.1783   4.2475
     4.6567

          k = 0.0909 0.1575 0.0000 ( 11117 PWs)   bands (ev):

   -60.3958 -34.5168 -34.4000 -34.3387 -13.1439 -12.1388  -4.6329  -2.6380
    -2.2364  -1.5827  -1.5138  -0.4654   0.1759   2.7258   2.9515   3.0690
     3.8145

          k = 0.0909 0.2624 0.0000 ( 11092 PWs)   bands (ev):

   -60.3866 -34.4989 -34.4861 -34.3641 -12.7269 -11.9530  -4.3303  -3.1539
    -2.8143  -2.1234  -1.2776  -0.5741  -0.1697   2.4487   2.8840   3.0837
     4.2766

          k = 0.0909 0.3674 0.0000 ( 11078 PWs)   bands (ev):

   -60.3767 -34.5783 -34.4793 -34.3919 -12.2168 -11.7284  -4.4830  -3.5308
    -3.2821  -2.4481  -1.1519  -0.9389  -0.3070   2.4810   2.9211   3.5346
     4.5792

          k = 0.0909 0.4724 0.0000 ( 11037 PWs)   bands (ev):

   -60.3691 -34.6477 -34.4644 -34.4131 -11.7694 -11.5367  -4.8870  -4.1102
    -3.3556  -2.5524  -1.2829  -1.0638  -0.0784   2.7053   3.1128   4.0139
     4.6209

          k = 0.0909 0.5774 0.0000 ( 11012 PWs)   bands (ev):

   -60.3662 -34.6734 -34.4588 -34.4210 -11.5845 -11.4596  -5.0692  -4.3286
    -3.4410  -2.5667  -1.4222  -0.9908   0.0943   2.7746   3.3035   4.3184
     4.4777

          k = 0.1818 0.3149 0.0000 ( 11097 PWs)   bands (ev):

   -60.3779 -34.5540 -34.4818 -34.4019 -12.2863 -11.7554  -4.3252  -3.3057
    -3.2192  -2.7127  -1.4672  -0.6644  -0.2656   2.3491   2.9797   3.2139
     4.6584

          k = 0.1818 0.4199 0.0000 ( 11057 PWs)   bands (ev):

   -60.3699 -34.6110 -34.4660 -34.4412 -11.8306 -11.5509  -4.5553  -4.0260
    -3.1377  -2.7370  -1.8630  -1.0371  -0.0976   2.5993   3.1453   3.5230
     4.8352

          k = 0.1818 0.5249 0.0000 ( 11025 PWs)   bands (ev):

   -60.3651 -34.6432 -34.4660 -34.4566 -11.5283 -11.4159  -4.7122  -4.4665
    -3.3046  -2.6032  -1.9676  -1.4018   0.1930   2.6483   3.4743   3.7554
     4.8658

          k = 0.2727 0.4724 0.0000 ( 11039 PWs)   bands (ev):

   -60.3647 -34.6169 -34.4980 -34.4558 -11.5103 -11.3975  -4.5290  -4.4389
    -3.0731  -2.6532  -2.6108  -1.3843   0.2095   2.5513   3.4968   3.5545
     5.0768

          k = 0.2727 0.5774 0.0000 ( 11032 PWs)   bands (ev):

   -60.3627 -34.6095 -34.5289 -34.4520 -11.3844 -11.3354  -4.7291  -4.2500
    -3.3375  -2.8320  -2.4431  -1.6326   0.4448   2.3474   3.4704   3.8537
     5.1976

     the Fermi energy is     1.3588 ev

!    total energy              =    -496.69587363 Ry
     total all-electron energy =     -9695.026088 Ry
     estimated scf accuracy    <       0.00000041 Ry
     smearing contrib. (-TS)   =      -0.00000193 Ry
     internal energy E=F+TS    =    -496.69587170 Ry

     The total energy is F=E-TS. E is the sum of the following terms:
     one-electron contribution =    -740.33092363 Ry
     hartree contribution      =     374.06063084 Ry
     xc contribution           =     -29.64913086 Ry
     ewald contribution        =     218.85262295 Ry
     one-center paw contrib.   =    -319.62907100 Ry

     convergence has been achieved in   7 iterations

     negative rho (up, down):  4.613E-04 0.000E+00

     Forces acting on atoms (cartesian axes, Ry/au):

     atom    1 type  1   force =     0.00000000    0.00000000    0.00000000
     atom    2 type  2   force =     0.00000000   -0.00000000   -0.02089636
     atom    3 type  2   force =     0.00000000    0.00000000    0.02089636
     The non-local contrib.  to forces
     atom    1 type  1   force =     0.00000000    0.00000000    0.00000000
     atom    2 type  2   force =    -0.00000000   -0.00000000   -0.27777851
     atom    3 type  2   force =    -0.00000000   -0.00000000    0.27777851
     The ionic contribution  to forces
     atom    1 type  1   force =     0.00000000   -0.00000000    0.00000000
     atom    2 type  2   force =    -0.00000000    0.00000000   32.99976195
     atom    3 type  2   force =    -0.00000000    0.00000000  -32.99976195
     The local contribution  to forces
     atom    1 type  1   force =    -0.00000000   -0.00000000    0.00000000
     atom    2 type  2   force =    -0.00000000    0.00000000  -32.74522446
     atom    3 type  2   force =    -0.00000000    0.00000000   32.74522446
     The core correction contribution to forces
     atom    1 type  1   force =     0.00000000   -0.00000000   -0.00000000
     atom    2 type  2   force =     0.00000000   -0.00000000    0.00269063
     atom    3 type  2   force =     0.00000000   -0.00000000   -0.00269063
     The Hubbard contrib.    to forces
     atom    1 type  1   force =     0.00000000    0.00000000    0.00000000
     atom    2 type  2   force =     0.00000000    0.00000000    0.00000000
     atom    3 type  2   force =     0.00000000    0.00000000    0.00000000
     The SCF correction term to forces
     atom    1 type  1   force =     0.00000000    0.00000000    0.00000000
     atom    2 type  2   force =    -0.00000000   -0.00000000   -0.00034597
     atom    3 type  2   force =    -0.00000000   -0.00000000    0.00034597

     Total force =     0.029552     Total SCF correction =     0.000489


     Computing stress (Cartesian axis) and pressure


     negative rho (up, down):  4.613E-04 0.000E+00
          total   stress  (Ry/bohr**3)                   (kbar)     P=       -9.80
  -0.00003184  -0.00000000   0.00000000           -4.68       -0.00        0.00
  -0.00000000  -0.00003184   0.00000000           -0.00       -4.68        0.00
   0.00000000   0.00000000  -0.00013625            0.00        0.00      -20.04


     Writing all to output data dir ./tmp/scf.save/
 
     init_run     :      0.46s CPU      0.56s WALL (       1 calls)
     electrons    :      4.30s CPU      4.62s WALL (       1 calls)
     forces       :      0.12s CPU      0.12s WALL (       1 calls)
     stress       :      0.44s CPU      0.45s WALL (       1 calls)

     Called by init_run:
     wfcinit      :      0.09s CPU      0.12s WALL (       1 calls)
     potinit      :      0.12s CPU      0.13s WALL (       1 calls)
     hinit0       :      0.17s CPU      0.21s WALL (       1 calls)

     Called by electrons:
     c_bands      :      2.88s CPU      3.07s WALL (       8 calls)
     sum_band     :      0.66s CPU      0.78s WALL (       8 calls)
     v_of_rho     :      0.05s CPU      0.06s WALL (       8 calls)
     newd         :      0.29s CPU      0.31s WALL (       8 calls)
     PAW_pot      :      0.52s CPU      0.53s WALL (       8 calls)
     mix_rho      :      0.01s CPU      0.01s WALL (       8 calls)

     Called by c_bands:
     init_us_2    :      0.06s CPU      0.07s WALL (     304 calls)
     init_us_2:cp :      0.06s CPU      0.07s WALL (     304 calls)
     cegterg      :      2.05s CPU      2.24s WALL (     128 calls)

     Called by *egterg:
     cdiaghg      :      0.13s CPU      0.14s WALL (     443 calls)
     h_psi        :      1.64s CPU      1.83s WALL (     475 calls)
     s_psi        :      0.04s CPU      0.04s WALL (     475 calls)
     g_psi        :      0.01s CPU      0.01s WALL (     331 calls)

     Called by h_psi:
     h_psi:calbec :      0.13s CPU      0.15s WALL (     475 calls)
     vloc_psi     :      1.44s CPU      1.61s WALL (     475 calls)
     add_vuspsi   :      0.05s CPU      0.05s WALL (     475 calls)

     General routines
     calbec       :      0.19s CPU      0.20s WALL (     683 calls)
     fft          :      0.06s CPU      0.11s WALL (     114 calls)
     ffts         :      0.00s CPU      0.00s WALL (       8 calls)
     fftw         :      1.52s CPU      1.72s WALL (   14002 calls)
 
     Parallel routines
 
     PWSCF        :      5.83s CPU      6.50s WALL

 
   This run was terminated on:  13:33:15   6Jun2025            

=------------------------------------------------------------------------------=
   JOB DONE.
=------------------------------------------------------------------------------=
