
     Program PWSCF v.7.2 starts on  6Jun2025 at 13:33: 8 

     This program is part of the open-source Quantum ESPRESSO suite
     for quantum simulation of materials; please cite
         "P. Giannozzi et al., J. Phys.:Condens. Matter 21 395502 (2009);
         "P. Giannozzi et al., J. Phys.:Condens. Matter 29 465901 (2017);
         "P. Giannozzi et al., J. Chem. Phys. 152 154105 (2020);
          URL http://www.quantum-espresso.org", 
     in publications or presentations arising from this work. More details at
     http://www.quantum-espresso.org/quote

     Parallel version (MPI), running on    16 processors

     MPI processes distributed on     1 nodes
     39650 MiB available memory on the printing compute node when the environment starts
 
     Waiting for input...
     Reading input from standard input

     Current dimensions of program PWSCF are:
     Max number of different atomic species (ntypx) = 10
     Max number of k-points (npk) =  40000
     Max angular momentum in pseudopotentials (lmaxx) =  4
     file Mo.pbe-spn-kjpaw_psl.1.0.0.UPF: wavefunction(s)  4S 4D renormalized
     file S.pbe-n-kjpaw_psl.1.0.0.UPF: wavefunction(s)  3S 3P renormalized
     Message from routine setup:
     using ibrav=0 with symmetry is DISCOURAGED, use correct ibrav instead
 
     R & G space division:  proc/nbgrp/npool/nimage =      16
     Subspace diagonalization in iterative solution of the eigenvalue problem:
     a serial algorithm will be used

 
     Parallelization info
     --------------------
     sticks:   dense  smooth     PW     G-vecs:    dense   smooth      PW
     Min          50      50     14                 5518     5518     841
     Max          51      51     19                 5527     5527     852
     Sum         805     805    235                88391    88391   13535
 
     Using Slab Decomposition
 


     bravais-lattice index     =            0
     lattice parameter (alat)  =       6.0093  a.u.
     unit-cell volume          =     915.4463 (a.u.)^3
     number of atoms/cell      =            3
     number of atomic types    =            2
     number of electrons       =        26.00
     number of Kohn-Sham states=           17
     kinetic-energy cutoff     =      80.0000  Ry
     charge density cutoff     =     320.0000  Ry
     scf convergence threshold =      1.0E-06
     mixing beta               =       0.7000
     number of iterations used =            8  plain     mixing
     Exchange-correlation= SLA  PW   PBX  PBC
                           (   1   4   3   4   0   0   0)

     celldm(1)=   6.009329  celldm(2)=   0.000000  celldm(3)=   0.000000
     celldm(4)=   0.000000  celldm(5)=   0.000000  celldm(6)=   0.000000

     crystal axes: (cart. coord. in units of alat)
               a(1) = (   1.000000   0.000000   0.000000 )  
               a(2) = (  -0.500000   0.866025   0.000000 )  
               a(3) = (   0.000000   0.000000   4.871069 )  

     reciprocal axes: (cart. coord. in units 2 pi/alat)
               b(1) = (  1.000000  0.577350  0.000000 )  
               b(2) = (  0.000000  1.154701  0.000000 )  
               b(3) = (  0.000000  0.000000  0.205294 )  


     PseudoPot. # 1 for Mo read from file:
     /shared/ESPRESSO/PSLIBRARY/1.0.0/pbe/PSEUDOPOTENTIALS/Mo.pbe-spn-kjpaw_psl.1.0.0.UPF
     MD5 check sum: 4396e0c640fcce5c25f020efccf1ab12
     Pseudo is Projector augmented-wave + core cor, Zval = 14.0
     Generated using &quot;atomic&quot; code by A. Dal Corso  v.6.3
     Shape of augmentation charge: PSQ
     Using radial grid of 1229 points,  6 beta functions with: 
                l(1) =   0
                l(2) =   0
                l(3) =   1
                l(4) =   1
                l(5) =   2
                l(6) =   2
     Q(r) pseudized with 0 coefficients 


     PseudoPot. # 2 for S  read from file:
     /shared/ESPRESSO/PSLIBRARY/1.0.0/pbe/PSEUDOPOTENTIALS/S.pbe-n-kjpaw_psl.1.0.0.UPF
     MD5 check sum: c08f931834bcc19553f8bde8f1a3adc5
     Pseudo is Projector augmented-wave + core cor, Zval =  6.0
     Generated using "atomic" code by A. Dal Corso  (Quantum ESPRESSO distribution)
     Shape of augmentation charge: PSQ
     Using radial grid of 1151 points,  6 beta functions with: 
                l(1) =   0
                l(2) =   0
                l(3) =   1
                l(4) =   1
                l(5) =   2
                l(6) =   2
     Q(r) pseudized with 0 coefficients 


     atomic species   valence    mass     pseudopotential
        Mo            14.00    95.94000     Mo( 1.00)
        S              6.00    32.06500     S ( 1.00)

     12 Sym. Ops. (no inversion) found



   Cartesian axes

     site n.     atom                  positions (alat units)
         1           Mo  tau(   1) = (   0.0000000   0.0000000   2.4355346  )
         2           S   tau(   2) = (   0.5000000   0.2886751   2.9371069  )
         3           S   tau(   3) = (   0.5000000   0.2886751   1.9339623  )

     number of k points=    14  Fermi-Dirac smearing, width (Ry)=  0.0070
                       cart. coord. in units 2pi/alat
        k(    1) = (   0.0000000   0.0000000   0.0000000), wk =   0.0200000
        k(    2) = (   0.0000000   0.1154701   0.0000000), wk =   0.1200000
        k(    3) = (   0.0000000   0.2309401   0.0000000), wk =   0.1200000
        k(    4) = (   0.0000000   0.3464102   0.0000000), wk =   0.1200000
        k(    5) = (   0.0000000   0.4618802   0.0000000), wk =   0.1200000
        k(    6) = (   0.0000000  -0.5773503   0.0000000), wk =   0.0600000
        k(    7) = (   0.1000000   0.1732051   0.0000000), wk =   0.1200000
        k(    8) = (   0.1000000   0.2886751   0.0000000), wk =   0.2400000
        k(    9) = (   0.1000000   0.4041452   0.0000000), wk =   0.2400000
        k(   10) = (   0.1000000   0.5196152   0.0000000), wk =   0.2400000
        k(   11) = (   0.2000000   0.3464102   0.0000000), wk =   0.1200000
        k(   12) = (   0.2000000   0.4618802   0.0000000), wk =   0.2400000
        k(   13) = (   0.2000000   0.5773503   0.0000000), wk =   0.1200000
        k(   14) = (   0.3000000   0.5196152   0.0000000), wk =   0.1200000

     Dense  grid:    88391 G-vectors     FFT dimensions: (  36,  36, 180)

     Estimated max dynamical RAM per process >      26.60 MB

     Estimated total dynamical RAM >     425.67 MB

     Initial potential from superposition of free atoms

     starting charge      25.9991, renormalised to      26.0000

     negative rho (up, down):  3.875E-04 0.000E+00
     Starting wfcs are   18 randomized atomic wfcs
     Checking if some PAW data can be deallocated... 

     total cpu time spent up to now is        0.7 secs

     Self-consistent Calculation

     iteration #  1     ecut=    80.00 Ry     beta= 0.70
     Davidson diagonalization with overlap
     ethr =  1.00E-02,  avg # of iterations =  2.2

     Threshold (ethr) on eigenvalues was too large:
     Diagonalizing with lowered threshold

     Davidson diagonalization with overlap
     ethr =  2.82E-04,  avg # of iterations =  3.5

     negative rho (up, down):  4.622E-04 0.000E+00

     total cpu time spent up to now is        1.7 secs

     total energy              =    -496.65363746 Ry
     estimated scf accuracy    <       0.11132781 Ry

     iteration #  2     ecut=    80.00 Ry     beta= 0.70
     Davidson diagonalization with overlap
     ethr =  4.28E-04,  avg # of iterations =  3.0

     negative rho (up, down):  4.401E-04 0.000E+00

     total cpu time spent up to now is        2.3 secs

     total energy              =    -496.62372376 Ry
     estimated scf accuracy    <       0.30105852 Ry

     iteration #  3     ecut=    80.00 Ry     beta= 0.70
     Davidson diagonalization with overlap
     ethr =  4.28E-04,  avg # of iterations =  2.4

     negative rho (up, down):  4.374E-04 0.000E+00

     total cpu time spent up to now is        2.8 secs

     total energy              =    -496.67729929 Ry
     estimated scf accuracy    <       0.13961542 Ry

     iteration #  4     ecut=    80.00 Ry     beta= 0.70
     Davidson diagonalization with overlap
     ethr =  4.28E-04,  avg # of iterations =  1.4

     negative rho (up, down):  4.565E-04 0.000E+00

     total cpu time spent up to now is        3.3 secs

     total energy              =    -496.69557118 Ry
     estimated scf accuracy    <       0.00060007 Ry

     iteration #  5     ecut=    80.00 Ry     beta= 0.70
     Davidson diagonalization with overlap
     ethr =  2.31E-06,  avg # of iterations =  3.7

     negative rho (up, down):  4.590E-04 0.000E+00

     total cpu time spent up to now is        3.9 secs

     total energy              =    -496.69586322 Ry
     estimated scf accuracy    <       0.00011639 Ry

     iteration #  6     ecut=    80.00 Ry     beta= 0.70
     Davidson diagonalization with overlap
     ethr =  4.48E-07,  avg # of iterations =  2.0

     negative rho (up, down):  4.609E-04 0.000E+00

     total cpu time spent up to now is        4.4 secs

     total energy              =    -496.69587238 Ry
     estimated scf accuracy    <       0.00001035 Ry

     iteration #  7     ecut=    80.00 Ry     beta= 0.70
     Davidson diagonalization with overlap
     ethr =  3.98E-08,  avg # of iterations =  2.4

     negative rho (up, down):  4.613E-04 0.000E+00

     total cpu time spent up to now is        5.0 secs

     End of self-consistent calculation

          k = 0.0000 0.0000 0.0000 ( 11105 PWs)   bands (ev):

   -60.4040 -34.5330 -34.3175 -34.3175 -13.4946 -12.2955  -5.0230  -1.9266
    -1.9266  -1.3588  -0.8598  -0.8598   0.3781   3.2520   3.2520   3.4196
     3.4196

          k = 0.0000 0.1155 0.0000 ( 11121 PWs)   bands (ev):

   -60.4005 -34.5261 -34.3533 -34.3257 -13.3492 -12.2305  -4.8534  -2.2559
    -1.8634  -1.7761  -1.0883  -0.6018   0.3148   3.0399   3.0761   3.2648
     3.4892

          k = 0.0000 0.2309 0.0000 ( 11101 PWs)   bands (ev):

   -60.3912 -34.5079 -34.4460 -34.3471 -12.9452 -12.0504  -4.4685  -2.9431
    -2.6168  -1.5823  -1.3740  -0.6946  -0.0068   2.5924   2.9459   3.1280
     3.9725

          k = 0.0000 0.3464 0.0000 ( 11071 PWs)   bands (ev):

   -60.3797 -34.5587 -34.4854 -34.3733 -12.3836 -11.8037  -4.4511  -3.3903
    -3.3182  -2.0685  -1.0786  -0.8754  -0.4313   2.6504   2.7206   3.6302
     4.3814

          k = 0.0000 0.4619 0.0000 ( 11037 PWs)   bands (ev):

   -60.3704 -34.6485 -34.4671 -34.3944 -11.8531 -11.5785  -4.9411  -4.0139
    -3.3970  -2.4006  -1.3554  -0.5009  -0.3483   2.7154   2.9994   4.1140
     4.6045

          k = 0.0000-0.5774 0.0000 ( 11030 PWs)   bands (ev):

   -60.3669 -34.6825 -34.4601 -34.4025 -11.6238 -11.4848  -5.1881  -4.2575
    -3.4835  -2.5170  -1.4434  -0.3747  -0.1369   2.7731   3.2379   4.2813
     4.6698

          k = 0.1000 0.1732 0.0000 ( 11093 PWs)   bands (ev):

   -60.3941 -34.5135 -34.4149 -34.3431 -13.0742 -12.1076  -4.5651  -2.7482
    -2.3356  -1.6473  -1.5230  -0.4528   0.1197   2.6521   2.9413   3.0186
     3.9106

          k = 0.1000 0.2887 0.0000 ( 11092 PWs)   bands (ev):

   -60.3837 -34.5113 -34.4932 -34.3732 -12.5883 -11.8912  -4.3023  -3.2321
    -2.9865  -2.2919  -1.2376  -0.6291  -0.2493   2.4087   2.8819   3.1590
     4.3981

          k = 0.1000 0.4041 0.0000 ( 11064 PWs)   bands (ev):

   -60.3733 -34.6060 -34.4727 -34.4034 -12.0316 -11.6473  -4.6178  -3.7718
    -3.2773  -2.5367  -1.2008  -1.0523  -0.2320   2.5487   2.9894   3.6813
     4.6443

          k = 0.1000 0.5196 0.0000 ( 11032 PWs)   bands (ev):

   -60.3669 -34.6637 -34.4601 -34.4221 -11.6343 -11.4785  -4.9885  -4.2752
    -3.4018  -2.5739  -1.3737  -1.1026   0.0514   2.7557   3.2461   4.1550
     4.5738

          k = 0.2000 0.3464 0.0000 ( 11111 PWs)   bands (ev):

   -60.3744 -34.5778 -34.4749 -34.4191 -12.0994 -11.6711  -4.4024  -3.5979
    -3.1579  -2.7718  -1.6623  -0.7819  -0.2236   2.4201   3.0426   3.3160
     4.7577

          k = 0.2000 0.4619 0.0000 ( 11037 PWs)   bands (ev):

   -60.3669 -34.6242 -34.4630 -34.4601 -11.6511 -11.4681  -4.5893  -4.2983
    -3.1523  -2.6894  -2.1061  -1.2184   0.0454   2.6551   3.3056   3.5872
     4.9103

          k = 0.2000 0.5774 0.0000 ( 11004 PWs)   bands (ev):

   -60.3640 -34.6404 -34.4811 -34.4544 -11.4632 -11.3830  -4.6435  -4.5708
    -3.3283  -2.5547  -2.1698  -1.4895   0.2886   2.5714   3.6189   3.7010
     4.9463

          k = 0.3000 0.5196 0.0000 ( 11016 PWs)   bands (ev):

   -60.3629 -34.6072 -34.5283 -34.4523 -11.4003 -11.3425  -4.7067  -4.2511
    -3.2441  -2.9008  -2.4714  -1.5919   0.4084   2.3735   3.4560   3.8135
     5.1979

     the Fermi energy is     1.3580 ev

!    total energy              =    -496.69587577 Ry
     total all-electron energy =     -9695.026090 Ry
     estimated scf accuracy    <       0.00000043 Ry
     smearing contrib. (-TS)   =      -0.00000184 Ry
     internal energy E=F+TS    =    -496.69587394 Ry

     The total energy is F=E-TS. E is the sum of the following terms:
     one-electron contribution =    -740.33039730 Ry
     hartree contribution      =     374.06009816 Ry
     xc contribution           =     -29.64912310 Ry
     ewald contribution        =     218.85262295 Ry
     one-center paw contrib.   =    -319.62907465 Ry

     convergence has been achieved in   7 iterations

     negative rho (up, down):  4.613E-04 0.000E+00

     Forces acting on atoms (cartesian axes, Ry/au):

     atom    1 type  1   force =     0.00000000    0.00000000    0.00000000
     atom    2 type  2   force =     0.00000000    0.00000000   -0.02092705
     atom    3 type  2   force =     0.00000000    0.00000000    0.02092705
     The non-local contrib.  to forces
     atom    1 type  1   force =    -0.00000000    0.00000000    0.00000000
     atom    2 type  2   force =     0.00000000    0.00000000   -0.27782066
     atom    3 type  2   force =     0.00000000    0.00000000    0.27782066
     The ionic contribution  to forces
     atom    1 type  1   force =     0.00000000   -0.00000000    0.00000000
     atom    2 type  2   force =    -0.00000000    0.00000000   32.99976195
     atom    3 type  2   force =    -0.00000000    0.00000000  -32.99976195
     The local contribution  to forces
     atom    1 type  1   force =    -0.00000000   -0.00000000    0.00000000
     atom    2 type  2   force =    -0.00000000    0.00000000  -32.74513046
     atom    3 type  2   force =    -0.00000000    0.00000000   32.74513046
     The core correction contribution to forces
     atom    1 type  1   force =     0.00000000    0.00000000   -0.00000000
     atom    2 type  2   force =     0.00000000   -0.00000000    0.00269191
     atom    3 type  2   force =     0.00000000   -0.00000000   -0.00269191
     The Hubbard contrib.    to forces
     atom    1 type  1   force =     0.00000000    0.00000000    0.00000000
     atom    2 type  2   force =     0.00000000    0.00000000    0.00000000
     atom    3 type  2   force =     0.00000000    0.00000000    0.00000000
     The SCF correction term to forces
     atom    1 type  1   force =    -0.00000000   -0.00000000    0.00000000
     atom    2 type  2   force =    -0.00000000   -0.00000000   -0.00042980
     atom    3 type  2   force =    -0.00000000   -0.00000000    0.00042980

     Total force =     0.029595     Total SCF correction =     0.000608


     Computing stress (Cartesian axis) and pressure


     negative rho (up, down):  4.613E-04 0.000E+00
          total   stress  (Ry/bohr**3)                   (kbar)     P=       -9.79
  -0.00003169   0.00000000   0.00000000           -4.66        0.00        0.00
   0.00000000  -0.00003169   0.00000000            0.00       -4.66        0.00
   0.00000000   0.00000000  -0.00013626            0.00        0.00      -20.04


     Writing all to output data dir ./tmp/scf.save/
 
     init_run     :      0.40s CPU      0.46s WALL (       1 calls)
     electrons    :      3.98s CPU      4.34s WALL (       1 calls)
     forces       :      0.20s CPU      0.20s WALL (       1 calls)
     stress       :      0.75s CPU      0.78s WALL (       1 calls)

     Called by init_run:
     wfcinit      :      0.07s CPU      0.08s WALL (       1 calls)
     potinit      :      0.12s CPU      0.12s WALL (       1 calls)
     hinit0       :      0.16s CPU      0.18s WALL (       1 calls)

     Called by electrons:
     c_bands      :      2.58s CPU      2.77s WALL (       8 calls)
     sum_band     :      0.59s CPU      0.72s WALL (       8 calls)
     v_of_rho     :      0.04s CPU      0.05s WALL (       8 calls)
     newd         :      0.29s CPU      0.32s WALL (       8 calls)
     PAW_pot      :      0.56s CPU      0.58s WALL (       8 calls)
     mix_rho      :      0.01s CPU      0.01s WALL (       8 calls)

     Called by c_bands:
     init_us_2    :      0.06s CPU      0.06s WALL (     266 calls)
     init_us_2:cp :      0.06s CPU      0.06s WALL (     266 calls)
     cegterg      :      1.83s CPU      2.03s WALL (     112 calls)

     Called by *egterg:
     cdiaghg      :      0.11s CPU      0.12s WALL (     386 calls)
     h_psi        :      1.47s CPU      1.63s WALL (     414 calls)
     s_psi        :      0.03s CPU      0.03s WALL (     414 calls)
     g_psi        :      0.01s CPU      0.01s WALL (     288 calls)

     Called by h_psi:
     h_psi:calbec :      0.12s CPU      0.13s WALL (     414 calls)
     vloc_psi     :      1.30s CPU      1.44s WALL (     414 calls)
     add_vuspsi   :      0.04s CPU      0.04s WALL (     414 calls)

     General routines
     calbec       :      0.19s CPU      0.21s WALL (     596 calls)
     fft          :      0.06s CPU      0.09s WALL (     114 calls)
     ffts         :      0.00s CPU      0.00s WALL (       8 calls)
     fftw         :      1.38s CPU      1.55s WALL (   12264 calls)
 
     Parallel routines
 
     PWSCF        :      5.54s CPU      6.09s WALL

 
   This run was terminated on:  13:33:14   6Jun2025            

=------------------------------------------------------------------------------=
   JOB DONE.
=------------------------------------------------------------------------------=
