
     Program PWSCF v.7.2 starts on  6Jun2025 at 13:33:38 

     This program is part of the open-source Quantum ESPRESSO suite
     for quantum simulation of materials; please cite
         "P. Giannozzi et al., J. Phys.:Condens. Matter 21 395502 (2009);
         "P. Giannozzi et al., J. Phys.:Condens. Matter 29 465901 (2017);
         "P. Giannozzi et al., J. Chem. Phys. 152 154105 (2020);
          URL http://www.quantum-espresso.org", 
     in publications or presentations arising from this work. More details at
     http://www.quantum-espresso.org/quote

     Parallel version (MPI), running on    16 processors

     MPI processes distributed on     1 nodes
     39918 MiB available memory on the printing compute node when the environment starts
 
     Waiting for input...
     Reading input from standard input

     Current dimensions of program PWSCF are:
     Max number of different atomic species (ntypx) = 10
     Max number of k-points (npk) =  40000
     Max angular momentum in pseudopotentials (lmaxx) =  4
     file Mo.pbe-spn-kjpaw_psl.1.0.0.UPF: wavefunction(s)  4S 4D renormalized
     file S.pbe-n-kjpaw_psl.1.0.0.UPF: wavefunction(s)  3S 3P renormalized
     Message from routine setup:
     using ibrav=0 with symmetry is DISCOURAGED, use correct ibrav instead
 
     R & G space division:  proc/nbgrp/npool/nimage =      16
     Subspace diagonalization in iterative solution of the eigenvalue problem:
     a serial algorithm will be used

 
     Parallelization info
     --------------------
     sticks:   dense  smooth     PW     G-vecs:    dense   smooth      PW
     Min          50      50     14                 5518     5518     849
     Max          51      51     16                 5527     5527     856
     Sum         805     805    235                88391    88391   13631
 
     Using Slab Decomposition
 


     bravais-lattice index     =            0
     lattice parameter (alat)  =       6.0093  a.u.
     unit-cell volume          =     915.4463 (a.u.)^3
     number of atoms/cell      =            3
     number of atomic types    =            2
     number of electrons       =        26.00
     number of Kohn-Sham states=           17
     kinetic-energy cutoff     =      80.0000  Ry
     charge density cutoff     =     320.0000  Ry
     scf convergence threshold =      1.0E-06
     mixing beta               =       0.7000
     number of iterations used =            8  plain     mixing
     Exchange-correlation= SLA  PW   PBX  PBC
                           (   1   4   3   4   0   0   0)

     celldm(1)=   6.009329  celldm(2)=   0.000000  celldm(3)=   0.000000
     celldm(4)=   0.000000  celldm(5)=   0.000000  celldm(6)=   0.000000

     crystal axes: (cart. coord. in units of alat)
               a(1) = (   1.000000   0.000000   0.000000 )  
               a(2) = (  -0.500000   0.866025   0.000000 )  
               a(3) = (   0.000000   0.000000   4.871069 )  

     reciprocal axes: (cart. coord. in units 2 pi/alat)
               b(1) = (  1.000000  0.577350  0.000000 )  
               b(2) = (  0.000000  1.154701  0.000000 )  
               b(3) = (  0.000000  0.000000  0.205294 )  


     PseudoPot. # 1 for Mo read from file:
     /shared/ESPRESSO/PSLIBRARY/1.0.0/pbe/PSEUDOPOTENTIALS/Mo.pbe-spn-kjpaw_psl.1.0.0.UPF
     MD5 check sum: 4396e0c640fcce5c25f020efccf1ab12
     Pseudo is Projector augmented-wave + core cor, Zval = 14.0
     Generated using &quot;atomic&quot; code by A. Dal Corso  v.6.3
     Shape of augmentation charge: PSQ
     Using radial grid of 1229 points,  6 beta functions with: 
                l(1) =   0
                l(2) =   0
                l(3) =   1
                l(4) =   1
                l(5) =   2
                l(6) =   2
     Q(r) pseudized with 0 coefficients 


     PseudoPot. # 2 for S  read from file:
     /shared/ESPRESSO/PSLIBRARY/1.0.0/pbe/PSEUDOPOTENTIALS/S.pbe-n-kjpaw_psl.1.0.0.UPF
     MD5 check sum: c08f931834bcc19553f8bde8f1a3adc5
     Pseudo is Projector augmented-wave + core cor, Zval =  6.0
     Generated using "atomic" code by A. Dal Corso  (Quantum ESPRESSO distribution)
     Shape of augmentation charge: PSQ
     Using radial grid of 1151 points,  6 beta functions with: 
                l(1) =   0
                l(2) =   0
                l(3) =   1
                l(4) =   1
                l(5) =   2
                l(6) =   2
     Q(r) pseudized with 0 coefficients 


     atomic species   valence    mass     pseudopotential
        Mo            14.00    95.94000     Mo( 1.00)
        S              6.00    32.06500     S ( 1.00)

     12 Sym. Ops. (no inversion) found



   Cartesian axes

     site n.     atom                  positions (alat units)
         1           Mo  tau(   1) = (   0.0000000   0.0000000   2.4355346  )
         2           S   tau(   2) = (   0.5000000   0.2886751   2.9371069  )
         3           S   tau(   3) = (   0.5000000   0.2886751   1.9339623  )

     number of k points=    30  Fermi-Dirac smearing, width (Ry)=  0.0070
                       cart. coord. in units 2pi/alat
        k(    1) = (   0.0000000   0.0000000   0.0000000), wk =   0.0078125
        k(    2) = (   0.0000000   0.0721688   0.0000000), wk =   0.0468750
        k(    3) = (   0.0000000   0.1443376   0.0000000), wk =   0.0468750
        k(    4) = (   0.0000000   0.2165064   0.0000000), wk =   0.0468750
        k(    5) = (   0.0000000   0.2886751   0.0000000), wk =   0.0468750
        k(    6) = (   0.0000000   0.3608439   0.0000000), wk =   0.0468750
        k(    7) = (   0.0000000   0.4330127   0.0000000), wk =   0.0468750
        k(    8) = (   0.0000000   0.5051815   0.0000000), wk =   0.0468750
        k(    9) = (   0.0000000  -0.5773503   0.0000000), wk =   0.0234375
        k(   10) = (   0.0625000   0.1082532   0.0000000), wk =   0.0468750
        k(   11) = (   0.0625000   0.1804220   0.0000000), wk =   0.0937500
        k(   12) = (   0.0625000   0.2525907   0.0000000), wk =   0.0937500
        k(   13) = (   0.0625000   0.3247595   0.0000000), wk =   0.0937500
        k(   14) = (   0.0625000   0.3969283   0.0000000), wk =   0.0937500
        k(   15) = (   0.0625000   0.4690971   0.0000000), wk =   0.0937500
        k(   16) = (   0.0625000   0.5412659   0.0000000), wk =   0.0937500
        k(   17) = (   0.1250000   0.2165064   0.0000000), wk =   0.0468750
        k(   18) = (   0.1250000   0.2886751   0.0000000), wk =   0.0937500
        k(   19) = (   0.1250000   0.3608439   0.0000000), wk =   0.0937500
        k(   20) = (   0.1250000   0.4330127   0.0000000), wk =   0.0937500
        k(   21) = (   0.1250000   0.5051815   0.0000000), wk =   0.0937500
        k(   22) = (   0.1250000   0.5773503   0.0000000), wk =   0.0468750
        k(   23) = (   0.1875000   0.3247595   0.0000000), wk =   0.0468750
        k(   24) = (   0.1875000   0.3969283   0.0000000), wk =   0.0937500
        k(   25) = (   0.1875000   0.4690971   0.0000000), wk =   0.0937500
        k(   26) = (   0.1875000   0.5412659   0.0000000), wk =   0.0937500
        k(   27) = (   0.2500000   0.4330127   0.0000000), wk =   0.0468750
        k(   28) = (   0.2500000   0.5051815   0.0000000), wk =   0.0937500
        k(   29) = (   0.2500000   0.5773503   0.0000000), wk =   0.0468750
        k(   30) = (   0.3125000   0.5412659   0.0000000), wk =   0.0468750

     Dense  grid:    88391 G-vectors     FFT dimensions: (  36,  36, 180)

     Estimated max dynamical RAM per process >      29.47 MB

     Estimated total dynamical RAM >     471.56 MB

     Initial potential from superposition of free atoms

     starting charge      25.9991, renormalised to      26.0000

     negative rho (up, down):  3.875E-04 0.000E+00
     Starting wfcs are   18 randomized atomic wfcs
     Checking if some PAW data can be deallocated... 

     total cpu time spent up to now is        0.6 secs

     Self-consistent Calculation

     iteration #  1     ecut=    80.00 Ry     beta= 0.70
     Davidson diagonalization with overlap
     ethr =  1.00E-02,  avg # of iterations =  2.3

     Threshold (ethr) on eigenvalues was too large:
     Diagonalizing with lowered threshold

     Davidson diagonalization with overlap
     ethr =  2.83E-04,  avg # of iterations =  3.5

     negative rho (up, down):  4.618E-04 0.000E+00

     total cpu time spent up to now is        2.2 secs

     total energy              =    -496.65390718 Ry
     estimated scf accuracy    <       0.11095162 Ry

     iteration #  2     ecut=    80.00 Ry     beta= 0.70
     Davidson diagonalization with overlap
     ethr =  4.27E-04,  avg # of iterations =  3.0

     negative rho (up, down):  4.400E-04 0.000E+00

     total cpu time spent up to now is        3.1 secs

     total energy              =    -496.62414191 Ry
     estimated scf accuracy    <       0.29842582 Ry

     iteration #  3     ecut=    80.00 Ry     beta= 0.70
     Davidson diagonalization with overlap
     ethr =  4.27E-04,  avg # of iterations =  2.5

     negative rho (up, down):  4.376E-04 0.000E+00

     total cpu time spent up to now is        4.1 secs

     total energy              =    -496.67721964 Ry
     estimated scf accuracy    <       0.14022885 Ry

     iteration #  4     ecut=    80.00 Ry     beta= 0.70
     Davidson diagonalization with overlap
     ethr =  4.27E-04,  avg # of iterations =  1.4

     negative rho (up, down):  4.562E-04 0.000E+00

     total cpu time spent up to now is        5.0 secs

     total energy              =    -496.69557508 Ry
     estimated scf accuracy    <       0.00060400 Ry

     iteration #  5     ecut=    80.00 Ry     beta= 0.70
     Davidson diagonalization with overlap
     ethr =  2.32E-06,  avg # of iterations =  3.5

     negative rho (up, down):  4.590E-04 0.000E+00

     total cpu time spent up to now is        6.1 secs

     total energy              =    -496.69586144 Ry
     estimated scf accuracy    <       0.00011403 Ry

     iteration #  6     ecut=    80.00 Ry     beta= 0.70
     Davidson diagonalization with overlap
     ethr =  4.39E-07,  avg # of iterations =  2.0

     negative rho (up, down):  4.609E-04 0.000E+00

     total cpu time spent up to now is        7.0 secs

     total energy              =    -496.69587045 Ry
     estimated scf accuracy    <       0.00001091 Ry

     iteration #  7     ecut=    80.00 Ry     beta= 0.70
     Davidson diagonalization with overlap
     ethr =  4.19E-08,  avg # of iterations =  2.2

     negative rho (up, down):  4.613E-04 0.000E+00

     total cpu time spent up to now is        7.9 secs

     End of self-consistent calculation

          k = 0.0000 0.0000 0.0000 ( 11105 PWs)   bands (ev):

   -60.4041 -34.5331 -34.3176 -34.3176 -13.4948 -12.2957  -5.0232  -1.9267
    -1.9267  -1.3589  -0.8600  -0.8600   0.3780   3.2519   3.2519   3.4195
     3.4195

          k = 0.0000 0.0722 0.0000 ( 11101 PWs)   bands (ev):

   -60.4026 -34.5303 -34.3318 -34.3208 -13.4374 -12.2700  -4.9550  -2.0628
    -1.8670  -1.6103  -0.9546  -0.6999   0.3571   3.1632   3.2481   3.3508
     3.3554

          k = 0.0000 0.1443 0.0000 ( 11109 PWs)   bands (ev):

   -60.3986 -34.5225 -34.3723 -34.3301 -13.2700 -12.1952  -4.7658  -2.4163
    -2.0447  -1.6951  -1.1997  -0.5742   0.2660   2.8948   3.0376   3.1900
     3.6020

          k = 0.0000 0.2165 0.0000 ( 11091 PWs)   bands (ev):

   -60.3926 -34.5107 -34.4324 -34.3439 -13.0073 -12.0781  -4.5151  -2.8585
    -2.5195  -1.5167  -1.4339  -0.6567   0.0508   2.6220   2.9853   3.0899
     3.9113

          k = 0.0000 0.2887 0.0000 ( 11067 PWs)   bands (ev):

   -60.3855 -34.5026 -34.4967 -34.3602 -12.6748 -11.9310  -4.3586  -3.2131
    -3.0086  -1.8384  -1.1232  -0.8829  -0.2507   2.5628   2.8081   3.3495
     4.1982

          k = 0.0000 0.3608 0.0000 ( 11073 PWs)   bands (ev):

   -60.3784 -34.5721 -34.4828 -34.3764 -12.3107 -11.7723  -4.5033  -3.4815
    -3.3264  -2.1205  -1.1233  -0.8176  -0.4547   2.6852   2.7081   3.7013
     4.4195

          k = 0.0000 0.4330 0.0000 ( 11047 PWs)   bands (ev):

   -60.3723 -34.6304 -34.4709 -34.3902 -11.9688 -11.6268  -4.8206  -3.8855
    -3.3676  -2.3365  -1.3044  -0.5730  -0.4169   2.6998   2.9038   4.0178
     4.5654

          k = 0.0000 0.5052 0.0000 ( 11026 PWs)   bands (ev):

   -60.3683 -34.6690 -34.4629 -34.3993 -11.7176 -11.5229  -5.0866  -4.1601
    -3.4443  -2.4714  -1.4097  -0.4236  -0.2347   2.7453   3.1307   4.2170
     4.6449

          k = 0.0000-0.5774 0.0000 ( 11030 PWs)   bands (ev):

   -60.3669 -34.6825 -34.4602 -34.4025 -11.6239 -11.4850  -5.1882  -4.2576
    -3.4836  -2.5171  -1.4435  -0.3748  -0.1371   2.7730   3.2377   4.2811
     4.6697

          k = 0.0625 0.1083 0.0000 ( 11119 PWs)   bands (ev):

   -60.3999 -34.5250 -34.3588 -34.3275 -13.3249 -12.2197  -4.8257  -2.3052
    -1.9106  -1.7535  -1.1669  -0.5534   0.3012   2.9949   3.0397   3.2339
     3.5407

          k = 0.0625 0.1804 0.0000 ( 11107 PWs)   bands (ev):

   -60.3949 -34.5152 -34.4080 -34.3402 -13.1097 -12.1236  -4.6006  -2.6958
    -2.3066  -1.5475  -1.5297  -0.4969   0.1468   2.6906   2.9729   3.0473
     3.8458

          k = 0.0625 0.2526 0.0000 ( 11082 PWs)   bands (ev):

   -60.3884 -34.5023 -34.4716 -34.3567 -12.8116 -11.9909  -4.3779  -3.0879
    -2.7554  -1.9006  -1.2936  -0.6268  -0.1155   2.5107   2.8898   3.1100
     4.1593

          k = 0.0625 0.3248 0.0000 ( 11082 PWs)   bands (ev):

   -60.3812 -34.5398 -34.4884 -34.3746 -12.4618 -11.8366  -4.3698  -3.2878
    -3.2418  -2.1890  -1.0744  -0.8703  -0.3389   2.4927   2.8352   3.4130
     4.4112

          k = 0.0625 0.3969 0.0000 ( 11076 PWs)   bands (ev):

   -60.3747 -34.6021 -34.4754 -34.3911 -12.1058 -11.6824  -4.6286  -3.7050
    -3.3156  -2.3792  -1.1214  -0.9501  -0.3231   2.5848   2.9030   3.7657
     4.5638

          k = 0.0625 0.4691 0.0000 ( 11044 PWs)   bands (ev):

   -60.3696 -34.6495 -34.4655 -34.4037 -11.8047 -11.5551  -4.9242  -4.0671
    -3.3795  -2.4897  -1.3141  -0.8312  -0.1509   2.7065   3.0659   4.0793
     4.6002

          k = 0.0625 0.5413 0.0000 ( 11017 PWs)   bands (ev):

   -60.3669 -34.6749 -34.4602 -34.4105 -11.6284 -11.4823  -5.1069  -4.2655
    -3.4516  -2.5395  -1.4168  -0.7424   0.0035   2.7725   3.2365   4.3087
     4.5364

          k = 0.1250 0.2165 0.0000 ( 11101 PWs)   bands (ev):

   -60.3894 -34.5043 -34.4587 -34.3575 -12.8586 -12.0114  -4.3887  -3.0271
    -2.5938  -2.0471  -1.3732  -0.4571  -0.0605   2.4837   2.9183   2.9626
     4.1760

          k = 0.1250 0.2887 0.0000 ( 11086 PWs)   bands (ev):

   -60.3828 -34.5170 -34.4914 -34.3790 -12.5416 -11.8700  -4.2851  -3.2386
    -2.9914  -2.4434  -1.2856  -0.5838  -0.2544   2.3680   2.9034   3.1222
     4.4635

          k = 0.1250 0.3608 0.0000 ( 11082 PWs)   bands (ev):

   -60.3762 -34.5744 -34.4785 -34.4009 -12.1960 -11.7171  -4.4336  -3.5111
    -3.2423  -2.5974  -1.3505  -0.8347  -0.2683   2.4272   2.9725   3.4100
     4.6478

          k = 0.1250 0.4330 0.0000 ( 11053 PWs)   bands (ev):

   -60.3706 -34.6224 -34.4675 -34.4195 -11.8738 -11.5765  -4.6869  -3.9731
    -3.2600  -2.6276  -1.3958  -1.1142  -0.1284   2.6151   3.0808   3.7268
     4.7072

          k = 0.1250 0.5052 0.0000 ( 11034 PWs)   bands (ev):

   -60.3669 -34.6543 -34.4602 -34.4319 -11.6391 -11.4758  -4.8896  -4.2824
    -3.3559  -2.6037  -1.3637  -1.3357   0.0614   2.7332   3.2594   3.9937
     4.6597

          k = 0.1250 0.5774 0.0000 ( 11018 PWs)   bands (ev):

   -60.3656 -34.6654 -34.4576 -34.4363 -11.5522 -11.4390  -4.9660  -4.3910
    -3.4077  -2.5846  -1.4224  -1.3421   0.1571   2.7437   3.3770   4.1164
     4.6052

          k = 0.1875 0.3248 0.0000 ( 11097 PWs)   bands (ev):

   -60.3768 -34.5619 -34.4796 -34.4071 -12.2274 -11.7289  -4.3483  -3.3969
    -3.2022  -2.7374  -1.5225  -0.6989  -0.2563   2.3652   2.9988   3.2462
     4.6921

          k = 0.1875 0.3969 0.0000 ( 11071 PWs)   bands (ev):

   -60.3712 -34.6005 -34.4686 -34.4355 -11.9119 -11.5870  -4.5011  -3.8993
    -3.1223  -2.7609  -1.8339  -0.9480  -0.1459   2.5424   3.1091   3.4481
     4.8230

          k = 0.1875 0.4691 0.0000 ( 11033 PWs)   bands (ev):

   -60.3669 -34.6286 -34.4602 -34.4585 -11.6497 -11.4692  -4.6312  -4.2966
    -3.1921  -2.6782  -1.9983  -1.2346   0.0494   2.6657   3.2993   3.6366
     4.8780

          k = 0.1875 0.5413 0.0000 ( 11018 PWs)   bands (ev):

   -60.3646 -34.6433 -34.4713 -34.4557 -11.4988 -11.4017  -4.6972  -4.5117
    -3.3191  -2.5836  -2.0315  -1.4406   0.2341   2.6222   3.5346   3.7455
     4.8901

          k = 0.2500 0.4330 0.0000 ( 11051 PWs)   bands (ev):

   -60.3669 -34.6152 -34.4722 -34.4602 -11.6541 -11.4665  -4.5073  -4.3017
    -3.0444  -2.7111  -2.3438  -1.1875   0.0364   2.6344   3.3171   3.4957
     4.9707

          k = 0.2500 0.5052 0.0000 ( 11040 PWs)   bands (ev):

   -60.3640 -34.6196 -34.5022 -34.4546 -11.4718 -11.3799  -4.5861  -4.4361
    -3.1671  -2.6240  -2.5696  -1.4531   0.2712   2.5142   3.5174   3.6318
     5.0893

          k = 0.2500 0.5774 0.0000 ( 11024 PWs)   bands (ev):

   -60.3630 -34.6194 -34.5145 -34.4526 -11.4057 -11.3481  -4.6874  -4.3758
    -3.3104  -2.6654  -2.4820  -1.5848   0.3960   2.4136   3.5212   3.7891
     5.1360

          k = 0.3125 0.5413 0.0000 ( 11016 PWs)   bands (ev):

   -60.3625 -34.5998 -34.5408 -34.4516 -11.3732 -11.3284  -4.7527  -4.1421
    -3.3678  -2.9495  -2.4186  -1.6609   0.4733   2.3050   3.4356   3.8899
     5.2382

     the Fermi energy is     1.3583 ev

!    total energy              =    -496.69587380 Ry
     total all-electron energy =     -9695.026088 Ry
     estimated scf accuracy    <       0.00000040 Ry
     smearing contrib. (-TS)   =      -0.00000193 Ry
     internal energy E=F+TS    =    -496.69587187 Ry

     The total energy is F=E-TS. E is the sum of the following terms:
     one-electron contribution =    -740.33081497 Ry
     hartree contribution      =     374.06051839 Ry
     xc contribution           =     -29.64912659 Ry
     ewald contribution        =     218.85262295 Ry
     one-center paw contrib.   =    -319.62907166 Ry

     convergence has been achieved in   7 iterations

     negative rho (up, down):  4.613E-04 0.000E+00

     Forces acting on atoms (cartesian axes, Ry/au):

     atom    1 type  1   force =     0.00000000    0.00000000    0.00000000
     atom    2 type  2   force =     0.00000000   -0.00000000   -0.02089797
     atom    3 type  2   force =     0.00000000   -0.00000000    0.02089797
     The non-local contrib.  to forces
     atom    1 type  1   force =     0.00000000    0.00000000    0.00000000
     atom    2 type  2   force =     0.00000000   -0.00000000   -0.27778471
     atom    3 type  2   force =     0.00000000    0.00000000    0.27778471
     The ionic contribution  to forces
     atom    1 type  1   force =     0.00000000   -0.00000000    0.00000000
     atom    2 type  2   force =    -0.00000000    0.00000000   32.99976195
     atom    3 type  2   force =    -0.00000000    0.00000000  -32.99976195
     The local contribution  to forces
     atom    1 type  1   force =    -0.00000000   -0.00000000    0.00000000
     atom    2 type  2   force =    -0.00000000    0.00000000  -32.74521290
     atom    3 type  2   force =    -0.00000000    0.00000000   32.74521290
     The core correction contribution to forces
     atom    1 type  1   force =    -0.00000000   -0.00000000   -0.00000000
     atom    2 type  2   force =     0.00000000   -0.00000000    0.00269090
     atom    3 type  2   force =     0.00000000   -0.00000000   -0.00269090
     The Hubbard contrib.    to forces
     atom    1 type  1   force =     0.00000000    0.00000000    0.00000000
     atom    2 type  2   force =     0.00000000    0.00000000    0.00000000
     atom    3 type  2   force =     0.00000000    0.00000000    0.00000000
     The SCF correction term to forces
     atom    1 type  1   force =    -0.00000000   -0.00000000   -0.00000000
     atom    2 type  2   force =     0.00000000   -0.00000000   -0.00035321
     atom    3 type  2   force =     0.00000000    0.00000000    0.00035321

     Total force =     0.029554     Total SCF correction =     0.000500


     Computing stress (Cartesian axis) and pressure


     negative rho (up, down):  4.613E-04 0.000E+00
          total   stress  (Ry/bohr**3)                   (kbar)     P=       -9.80
  -0.00003183  -0.00000000   0.00000000           -4.68       -0.00        0.00
  -0.00000000  -0.00003183   0.00000000           -0.00       -4.68        0.00
   0.00000000   0.00000000  -0.00013626            0.00        0.00      -20.04


     Writing all to output data dir ./tmp/scf.save/
 
     init_run     :      0.39s CPU      0.46s WALL (       1 calls)
     electrons    :      6.79s CPU      7.33s WALL (       1 calls)
     forces       :      0.22s CPU      0.22s WALL (       1 calls)
     stress       :      1.11s CPU      1.13s WALL (       1 calls)

     Called by init_run:
     wfcinit      :      0.16s CPU      0.17s WALL (       1 calls)
     potinit      :      0.09s CPU      0.10s WALL (       1 calls)
     hinit0       :      0.08s CPU      0.11s WALL (       1 calls)

     Called by electrons:
     c_bands      :      5.09s CPU      5.50s WALL (       8 calls)
     sum_band     :      0.95s CPU      1.04s WALL (       8 calls)
     v_of_rho     :      0.05s CPU      0.05s WALL (       8 calls)
     newd         :      0.27s CPU      0.30s WALL (       8 calls)
     PAW_pot      :      0.51s CPU      0.54s WALL (       8 calls)
     mix_rho      :      0.01s CPU      0.01s WALL (       8 calls)

     Called by c_bands:
     init_us_2    :      0.14s CPU      0.14s WALL (     570 calls)
     init_us_2:cp :      0.14s CPU      0.14s WALL (     570 calls)
     cegterg      :      3.81s CPU      4.20s WALL (     240 calls)

     Called by *egterg:
     cdiaghg      :      0.27s CPU      0.28s WALL (     823 calls)
     h_psi        :      3.10s CPU      3.46s WALL (     883 calls)
     s_psi        :      0.09s CPU      0.09s WALL (     883 calls)
     g_psi        :      0.01s CPU      0.01s WALL (     613 calls)

     Called by h_psi:
     h_psi:calbec :      0.22s CPU      0.23s WALL (     883 calls)
     vloc_psi     :      2.74s CPU      3.07s WALL (     883 calls)
     add_vuspsi   :      0.11s CPU      0.12s WALL (     883 calls)

     General routines
     calbec       :      0.62s CPU      0.65s WALL (    1273 calls)
     fft          :      0.03s CPU      0.06s WALL (     114 calls)
     ffts         :      0.00s CPU      0.00s WALL (       8 calls)
     fftw         :      2.82s CPU      3.16s WALL (   26298 calls)
 
     Parallel routines
 
     PWSCF        :      8.73s CPU      9.49s WALL

 
   This run was terminated on:  13:33:47   6Jun2025            

=------------------------------------------------------------------------------=
   JOB DONE.
=------------------------------------------------------------------------------=
