
     Program PWSCF v.7.2 starts on  6Jun2025 at 13:32:53 

     This program is part of the open-source Quantum ESPRESSO suite
     for quantum simulation of materials; please cite
         "P. Giannozzi et al., J. Phys.:Condens. Matter 21 395502 (2009);
         "P. Giannozzi et al., J. Phys.:Condens. Matter 29 465901 (2017);
         "P. Giannozzi et al., J. Chem. Phys. 152 154105 (2020);
          URL http://www.quantum-espresso.org", 
     in publications or presentations arising from this work. More details at
     http://www.quantum-espresso.org/quote

     Parallel version (MPI), running on    16 processors

     MPI processes distributed on     1 nodes
     39286 MiB available memory on the printing compute node when the environment starts
 
     Waiting for input...
     Reading input from standard input

     Current dimensions of program PWSCF are:
     Max number of different atomic species (ntypx) = 10
     Max number of k-points (npk) =  40000
     Max angular momentum in pseudopotentials (lmaxx) =  4
     file Mo.pbe-spn-kjpaw_psl.1.0.0.UPF: wavefunction(s)  4S 4D renormalized
     file S.pbe-n-kjpaw_psl.1.0.0.UPF: wavefunction(s)  3S 3P renormalized
     Message from routine setup:
     using ibrav=0 with symmetry is DISCOURAGED, use correct ibrav instead
 
     R & G space division:  proc/nbgrp/npool/nimage =      16
     Subspace diagonalization in iterative solution of the eigenvalue problem:
     a serial algorithm will be used

 
     Parallelization info
     --------------------
     sticks:   dense  smooth     PW     G-vecs:    dense   smooth      PW
     Min          50      50     14                 5518     5518     862
     Max          51      51     16                 5527     5527     871
     Sum         805     805    235                88391    88391   13835
 
     Using Slab Decomposition
 


     bravais-lattice index     =            0
     lattice parameter (alat)  =       6.0093  a.u.
     unit-cell volume          =     915.4463 (a.u.)^3
     number of atoms/cell      =            3
     number of atomic types    =            2
     number of electrons       =        26.00
     number of Kohn-Sham states=           17
     kinetic-energy cutoff     =      80.0000  Ry
     charge density cutoff     =     320.0000  Ry
     scf convergence threshold =      1.0E-06
     mixing beta               =       0.7000
     number of iterations used =            8  plain     mixing
     Exchange-correlation= SLA  PW   PBX  PBC
                           (   1   4   3   4   0   0   0)

     celldm(1)=   6.009329  celldm(2)=   0.000000  celldm(3)=   0.000000
     celldm(4)=   0.000000  celldm(5)=   0.000000  celldm(6)=   0.000000

     crystal axes: (cart. coord. in units of alat)
               a(1) = (   1.000000   0.000000   0.000000 )  
               a(2) = (  -0.500000   0.866025   0.000000 )  
               a(3) = (   0.000000   0.000000   4.871069 )  

     reciprocal axes: (cart. coord. in units 2 pi/alat)
               b(1) = (  1.000000  0.577350  0.000000 )  
               b(2) = (  0.000000  1.154701  0.000000 )  
               b(3) = (  0.000000  0.000000  0.205294 )  


     PseudoPot. # 1 for Mo read from file:
     /shared/ESPRESSO/PSLIBRARY/1.0.0/pbe/PSEUDOPOTENTIALS/Mo.pbe-spn-kjpaw_psl.1.0.0.UPF
     MD5 check sum: 4396e0c640fcce5c25f020efccf1ab12
     Pseudo is Projector augmented-wave + core cor, Zval = 14.0
     Generated using &quot;atomic&quot; code by A. Dal Corso  v.6.3
     Shape of augmentation charge: PSQ
     Using radial grid of 1229 points,  6 beta functions with: 
                l(1) =   0
                l(2) =   0
                l(3) =   1
                l(4) =   1
                l(5) =   2
                l(6) =   2
     Q(r) pseudized with 0 coefficients 


     PseudoPot. # 2 for S  read from file:
     /shared/ESPRESSO/PSLIBRARY/1.0.0/pbe/PSEUDOPOTENTIALS/S.pbe-n-kjpaw_psl.1.0.0.UPF
     MD5 check sum: c08f931834bcc19553f8bde8f1a3adc5
     Pseudo is Projector augmented-wave + core cor, Zval =  6.0
     Generated using "atomic" code by A. Dal Corso  (Quantum ESPRESSO distribution)
     Shape of augmentation charge: PSQ
     Using radial grid of 1151 points,  6 beta functions with: 
                l(1) =   0
                l(2) =   0
                l(3) =   1
                l(4) =   1
                l(5) =   2
                l(6) =   2
     Q(r) pseudized with 0 coefficients 


     atomic species   valence    mass     pseudopotential
        Mo            14.00    95.94000     Mo( 1.00)
        S              6.00    32.06500     S ( 1.00)

     12 Sym. Ops. (no inversion) found



   Cartesian axes

     site n.     atom                  positions (alat units)
         1           Mo  tau(   1) = (   0.0000000   0.0000000   2.4355346  )
         2           S   tau(   2) = (   0.5000000   0.2886751   2.9371069  )
         3           S   tau(   3) = (   0.5000000   0.2886751   1.9339623  )

     number of k points=     7  Fermi-Dirac smearing, width (Ry)=  0.0070
                       cart. coord. in units 2pi/alat
        k(    1) = (   0.0000000   0.0000000   0.0000000), wk =   0.0555556
        k(    2) = (   0.0000000   0.1924501   0.0000000), wk =   0.3333333
        k(    3) = (   0.0000000   0.3849002   0.0000000), wk =   0.3333333
        k(    4) = (   0.0000000  -0.5773503   0.0000000), wk =   0.1666667
        k(    5) = (   0.1666667   0.2886751   0.0000000), wk =   0.3333333
        k(    6) = (   0.1666667   0.4811252   0.0000000), wk =   0.6666667
        k(    7) = (   0.3333333   0.5773503   0.0000000), wk =   0.1111111

     Dense  grid:    88391 G-vectors     FFT dimensions: (  36,  36, 180)

     Estimated max dynamical RAM per process >      25.35 MB

     Estimated total dynamical RAM >     405.60 MB

     Initial potential from superposition of free atoms

     starting charge      25.9991, renormalised to      26.0000

     negative rho (up, down):  3.875E-04 0.000E+00
     Starting wfcs are   18 randomized atomic wfcs
     Checking if some PAW data can be deallocated... 

     total cpu time spent up to now is        0.9 secs

     Self-consistent Calculation

     iteration #  1     ecut=    80.00 Ry     beta= 0.70
     Davidson diagonalization with overlap
     ethr =  1.00E-02,  avg # of iterations =  2.4

     Threshold (ethr) on eigenvalues was too large:
     Diagonalizing with lowered threshold

     Davidson diagonalization with overlap
     ethr =  2.84E-04,  avg # of iterations =  3.4

     negative rho (up, down):  4.610E-04 0.000E+00

     total cpu time spent up to now is        1.5 secs

     total energy              =    -496.65431268 Ry
     estimated scf accuracy    <       0.11016828 Ry

     iteration #  2     ecut=    80.00 Ry     beta= 0.70
     Davidson diagonalization with overlap
     ethr =  4.24E-04,  avg # of iterations =  3.0

     negative rho (up, down):  4.377E-04 0.000E+00

     total cpu time spent up to now is        1.9 secs

     total energy              =    -496.62401231 Ry
     estimated scf accuracy    <       0.29816245 Ry

     iteration #  3     ecut=    80.00 Ry     beta= 0.70
     Davidson diagonalization with overlap
     ethr =  4.24E-04,  avg # of iterations =  2.6

     negative rho (up, down):  4.364E-04 0.000E+00

     total cpu time spent up to now is        2.2 secs

     total energy              =    -496.67748276 Ry
     estimated scf accuracy    <       0.13836402 Ry

     iteration #  4     ecut=    80.00 Ry     beta= 0.70
     Davidson diagonalization with overlap
     ethr =  4.24E-04,  avg # of iterations =  1.4

     negative rho (up, down):  4.576E-04 0.000E+00

     total cpu time spent up to now is        2.5 secs

     total energy              =    -496.69548769 Ry
     estimated scf accuracy    <       0.00063100 Ry

     iteration #  5     ecut=    80.00 Ry     beta= 0.70
     Davidson diagonalization with overlap
     ethr =  2.43E-06,  avg # of iterations =  4.0

     negative rho (up, down):  4.599E-04 0.000E+00

     total cpu time spent up to now is        2.9 secs

     total energy              =    -496.69578070 Ry
     estimated scf accuracy    <       0.00011927 Ry

     iteration #  6     ecut=    80.00 Ry     beta= 0.70
     Davidson diagonalization with overlap
     ethr =  4.59E-07,  avg # of iterations =  1.9

     negative rho (up, down):  4.615E-04 0.000E+00

     total cpu time spent up to now is        3.3 secs

     total energy              =    -496.69579060 Ry
     estimated scf accuracy    <       0.00000933 Ry

     iteration #  7     ecut=    80.00 Ry     beta= 0.70
     Davidson diagonalization with overlap
     ethr =  3.59E-08,  avg # of iterations =  2.4

     negative rho (up, down):  4.617E-04 0.000E+00

     total cpu time spent up to now is        3.7 secs

     End of self-consistent calculation

          k = 0.0000 0.0000 0.0000 ( 11105 PWs)   bands (ev):

   -60.4029 -34.5336 -34.3156 -34.3156 -13.4942 -12.2951  -5.0224  -1.9254
    -1.9254  -1.3583  -0.8595  -0.8595   0.3783   3.2525   3.2525   3.4206
     3.4206

          k = 0.0000 0.1925 0.0000 ( 11097 PWs)   bands (ev):

   -60.3936 -34.5155 -34.4088 -34.3370 -13.1035 -12.1206  -4.5981  -2.7096
    -2.3582  -1.5275  -1.4072  -0.6063   0.1379   2.6929   3.0469   3.0549
     3.8080

          k = 0.0000 0.3849 0.0000 ( 11073 PWs)   bands (ev):

   -60.3750 -34.5913 -34.4790 -34.3794 -12.1906 -11.7203  -4.6030  -3.6263
    -3.3354  -2.2002  -1.1912  -0.7260  -0.4687   2.6975   2.7522   3.8166
     4.4769

          k = 0.0000-0.5774 0.0000 ( 11030 PWs)   bands (ev):

   -60.3657 -34.6806 -34.4607 -34.4005 -11.6233 -11.4844  -5.1875  -4.2570
    -3.4827  -2.5166  -1.4428  -0.3741  -0.1361   2.7750   3.2385   4.2816
     4.6703

          k = 0.1667 0.2887 0.0000 ( 11093 PWs)   bands (ev):

   -60.3797 -34.5289 -34.4882 -34.3866 -12.4435 -11.8256  -4.2799  -3.2416
    -3.0731  -2.6112  -1.3547  -0.5833  -0.2661   2.3371   2.9354   3.1304
     4.5558

          k = 0.1667 0.4811 0.0000 ( 11020 PWs)   bands (ev):

   -60.3657 -34.6349 -34.4607 -34.4480 -11.6460 -11.4706  -4.7115  -4.2922
    -3.2535  -2.6550  -1.7977  -1.2655   0.0575   2.6879   3.2884   3.7391
     4.8134

          k = 0.3333 0.5774 0.0000 ( 11022 PWs)   bands (ev):

   -60.3611 -34.5892 -34.5506 -34.4516 -11.3562 -11.3190  -4.7806  -4.0269
    -3.4914  -2.9790  -2.3790  -1.7083   0.5190   2.2564   3.4195   3.9405
     5.2676

     the Fermi energy is     1.3547 ev

!    total energy              =    -496.69579372 Ry
     total all-electron energy =     -9695.026008 Ry
     estimated scf accuracy    <       0.00000046 Ry
     smearing contrib. (-TS)   =      -0.00000315 Ry
     internal energy E=F+TS    =    -496.69579056 Ry

     The total energy is F=E-TS. E is the sum of the following terms:
     one-electron contribution =    -740.33360589 Ry
     hartree contribution      =     374.06365140 Ry
     xc contribution           =     -29.64935230 Ry
     ewald contribution        =     218.85262295 Ry
     one-center paw contrib.   =    -319.62910672 Ry

     convergence has been achieved in   7 iterations

     negative rho (up, down):  4.617E-04 0.000E+00

     Forces acting on atoms (cartesian axes, Ry/au):

     atom    1 type  1   force =     0.00000000    0.00000000    0.00000000
     atom    2 type  2   force =     0.00000000    0.00000000   -0.02084671
     atom    3 type  2   force =     0.00000000   -0.00000000    0.02084671
     The non-local contrib.  to forces
     atom    1 type  1   force =     0.00000000   -0.00000000    0.00000000
     atom    2 type  2   force =     0.00000000    0.00000000   -0.27818049
     atom    3 type  2   force =     0.00000000    0.00000000    0.27818049
     The ionic contribution  to forces
     atom    1 type  1   force =     0.00000000   -0.00000000    0.00000000
     atom    2 type  2   force =    -0.00000000    0.00000000   32.99976195
     atom    3 type  2   force =    -0.00000000    0.00000000  -32.99976195
     The local contribution  to forces
     atom    1 type  1   force =    -0.00000000   -0.00000000    0.00000000
     atom    2 type  2   force =    -0.00000000    0.00000000  -32.74487863
     atom    3 type  2   force =    -0.00000000    0.00000000   32.74487863
     The core correction contribution to forces
     atom    1 type  1   force =     0.00000000    0.00000000   -0.00000000
     atom    2 type  2   force =     0.00000000   -0.00000000    0.00270171
     atom    3 type  2   force =     0.00000000   -0.00000000   -0.00270171
     The Hubbard contrib.    to forces
     atom    1 type  1   force =     0.00000000    0.00000000    0.00000000
     atom    2 type  2   force =     0.00000000    0.00000000    0.00000000
     atom    3 type  2   force =     0.00000000    0.00000000    0.00000000
     The SCF correction term to forces
     atom    1 type  1   force =    -0.00000000   -0.00000000   -0.00000000
     atom    2 type  2   force =     0.00000000    0.00000000   -0.00025125
     atom    3 type  2   force =    -0.00000000   -0.00000000    0.00025125

     Total force =     0.029482     Total SCF correction =     0.000355


     Computing stress (Cartesian axis) and pressure


     negative rho (up, down):  4.617E-04 0.000E+00
          total   stress  (Ry/bohr**3)                   (kbar)     P=       -9.74
  -0.00003169   0.00000000  -0.00000000           -4.66        0.00       -0.00
   0.00000000  -0.00003169   0.00000000            0.00       -4.66        0.00
  -0.00000000   0.00000000  -0.00013530           -0.00        0.00      -19.90


     Writing all to output data dir ./tmp/scf.save/
 
     init_run     :      0.46s CPU      0.60s WALL (       1 calls)
     electrons    :      2.70s CPU      2.79s WALL (       1 calls)
     forces       :      0.18s CPU      0.18s WALL (       1 calls)
     stress       :      0.59s CPU      0.60s WALL (       1 calls)

     Called by init_run:
     wfcinit      :      0.04s CPU      0.04s WALL (       1 calls)
     potinit      :      0.11s CPU      0.12s WALL (       1 calls)
     hinit0       :      0.24s CPU      0.34s WALL (       1 calls)

     Called by electrons:
     c_bands      :      1.31s CPU      1.35s WALL (       8 calls)
     sum_band     :      0.56s CPU      0.58s WALL (       8 calls)
     v_of_rho     :      0.05s CPU      0.05s WALL (       8 calls)
     newd         :      0.29s CPU      0.31s WALL (       8 calls)
     PAW_pot      :      0.56s CPU      0.58s WALL (       8 calls)
     mix_rho      :      0.01s CPU      0.01s WALL (       8 calls)

     Called by c_bands:
     init_us_2    :      0.04s CPU      0.05s WALL (     133 calls)
     init_us_2:cp :      0.04s CPU      0.05s WALL (     133 calls)
     cegterg      :      0.89s CPU      0.92s WALL (      56 calls)

     Called by *egterg:
     cdiaghg      :      0.07s CPU      0.07s WALL (     197 calls)
     h_psi        :      0.71s CPU      0.74s WALL (     211 calls)
     s_psi        :      0.02s CPU      0.03s WALL (     211 calls)
     g_psi        :      0.00s CPU      0.00s WALL (     148 calls)

     Called by h_psi:
     h_psi:calbec :      0.06s CPU      0.06s WALL (     211 calls)
     vloc_psi     :      0.61s CPU      0.63s WALL (     211 calls)
     add_vuspsi   :      0.03s CPU      0.04s WALL (     211 calls)

     General routines
     calbec       :      0.09s CPU      0.09s WALL (     302 calls)
     fft          :      0.13s CPU      0.24s WALL (     114 calls)
     ffts         :      0.00s CPU      0.00s WALL (       8 calls)
     fftw         :      0.62s CPU      0.64s WALL (    6104 calls)
 
     Parallel routines
 
     PWSCF        :      4.21s CPU      4.49s WALL

 
   This run was terminated on:  13:32:57   6Jun2025            

=------------------------------------------------------------------------------=
   JOB DONE.
=------------------------------------------------------------------------------=
