
     Program PWSCF v.7.2 starts on  6Jun2025 at 13:33:17 

     This program is part of the open-source Quantum ESPRESSO suite
     for quantum simulation of materials; please cite
         "P. Giannozzi et al., J. Phys.:Condens. Matter 21 395502 (2009);
         "P. Giannozzi et al., J. Phys.:Condens. Matter 29 465901 (2017);
         "P. Giannozzi et al., J. Chem. Phys. 152 154105 (2020);
          URL http://www.quantum-espresso.org", 
     in publications or presentations arising from this work. More details at
     http://www.quantum-espresso.org/quote

     Parallel version (MPI), running on    16 processors

     MPI processes distributed on     1 nodes
     39677 MiB available memory on the printing compute node when the environment starts
 
     Waiting for input...
     Reading input from standard input

     Current dimensions of program PWSCF are:
     Max number of different atomic species (ntypx) = 10
     Max number of k-points (npk) =  40000
     Max angular momentum in pseudopotentials (lmaxx) =  4
     file Mo.pbe-spn-kjpaw_psl.1.0.0.UPF: wavefunction(s)  4S 4D renormalized
     file S.pbe-n-kjpaw_psl.1.0.0.UPF: wavefunction(s)  3S 3P renormalized
     Message from routine setup:
     using ibrav=0 with symmetry is DISCOURAGED, use correct ibrav instead
 
     R & G space division:  proc/nbgrp/npool/nimage =      16
     Subspace diagonalization in iterative solution of the eigenvalue problem:
     a serial algorithm will be used

 
     Parallelization info
     --------------------
     sticks:   dense  smooth     PW     G-vecs:    dense   smooth      PW
     Min          50      50     14                 5518     5518     862
     Max          51      51     16                 5527     5527     871
     Sum         805     805    235                88391    88391   13835
 
     Using Slab Decomposition
 


     bravais-lattice index     =            0
     lattice parameter (alat)  =       6.0093  a.u.
     unit-cell volume          =     915.4463 (a.u.)^3
     number of atoms/cell      =            3
     number of atomic types    =            2
     number of electrons       =        26.00
     number of Kohn-Sham states=           17
     kinetic-energy cutoff     =      80.0000  Ry
     charge density cutoff     =     320.0000  Ry
     scf convergence threshold =      1.0E-06
     mixing beta               =       0.7000
     number of iterations used =            8  plain     mixing
     Exchange-correlation= SLA  PW   PBX  PBC
                           (   1   4   3   4   0   0   0)

     celldm(1)=   6.009329  celldm(2)=   0.000000  celldm(3)=   0.000000
     celldm(4)=   0.000000  celldm(5)=   0.000000  celldm(6)=   0.000000

     crystal axes: (cart. coord. in units of alat)
               a(1) = (   1.000000   0.000000   0.000000 )  
               a(2) = (  -0.500000   0.866025   0.000000 )  
               a(3) = (   0.000000   0.000000   4.871069 )  

     reciprocal axes: (cart. coord. in units 2 pi/alat)
               b(1) = (  1.000000  0.577350  0.000000 )  
               b(2) = (  0.000000  1.154701  0.000000 )  
               b(3) = (  0.000000  0.000000  0.205294 )  


     PseudoPot. # 1 for Mo read from file:
     /shared/ESPRESSO/PSLIBRARY/1.0.0/pbe/PSEUDOPOTENTIALS/Mo.pbe-spn-kjpaw_psl.1.0.0.UPF
     MD5 check sum: 4396e0c640fcce5c25f020efccf1ab12
     Pseudo is Projector augmented-wave + core cor, Zval = 14.0
     Generated using &quot;atomic&quot; code by A. Dal Corso  v.6.3
     Shape of augmentation charge: PSQ
     Using radial grid of 1229 points,  6 beta functions with: 
                l(1) =   0
                l(2) =   0
                l(3) =   1
                l(4) =   1
                l(5) =   2
                l(6) =   2
     Q(r) pseudized with 0 coefficients 


     PseudoPot. # 2 for S  read from file:
     /shared/ESPRESSO/PSLIBRARY/1.0.0/pbe/PSEUDOPOTENTIALS/S.pbe-n-kjpaw_psl.1.0.0.UPF
     MD5 check sum: c08f931834bcc19553f8bde8f1a3adc5
     Pseudo is Projector augmented-wave + core cor, Zval =  6.0
     Generated using "atomic" code by A. Dal Corso  (Quantum ESPRESSO distribution)
     Shape of augmentation charge: PSQ
     Using radial grid of 1151 points,  6 beta functions with: 
                l(1) =   0
                l(2) =   0
                l(3) =   1
                l(4) =   1
                l(5) =   2
                l(6) =   2
     Q(r) pseudized with 0 coefficients 


     atomic species   valence    mass     pseudopotential
        Mo            14.00    95.94000     Mo( 1.00)
        S              6.00    32.06500     S ( 1.00)

     12 Sym. Ops. (no inversion) found



   Cartesian axes

     site n.     atom                  positions (alat units)
         1           Mo  tau(   1) = (   0.0000000   0.0000000   2.4355346  )
         2           S   tau(   2) = (   0.5000000   0.2886751   2.9371069  )
         3           S   tau(   3) = (   0.5000000   0.2886751   1.9339623  )

     number of k points=    19  Fermi-Dirac smearing, width (Ry)=  0.0070
                       cart. coord. in units 2pi/alat
        k(    1) = (   0.0000000   0.0000000   0.0000000), wk =   0.0138889
        k(    2) = (   0.0000000   0.0962250   0.0000000), wk =   0.0833333
        k(    3) = (   0.0000000   0.1924501   0.0000000), wk =   0.0833333
        k(    4) = (   0.0000000   0.2886751   0.0000000), wk =   0.0833333
        k(    5) = (   0.0000000   0.3849002   0.0000000), wk =   0.0833333
        k(    6) = (   0.0000000   0.4811252   0.0000000), wk =   0.0833333
        k(    7) = (   0.0000000  -0.5773503   0.0000000), wk =   0.0416667
        k(    8) = (   0.0833333   0.1443376   0.0000000), wk =   0.0833333
        k(    9) = (   0.0833333   0.2405626   0.0000000), wk =   0.1666667
        k(   10) = (   0.0833333   0.3367877   0.0000000), wk =   0.1666667
        k(   11) = (   0.0833333   0.4330127   0.0000000), wk =   0.1666667
        k(   12) = (   0.0833333   0.5292377   0.0000000), wk =   0.1666667
        k(   13) = (   0.1666667   0.2886751   0.0000000), wk =   0.0833333
        k(   14) = (   0.1666667   0.3849002   0.0000000), wk =   0.1666667
        k(   15) = (   0.1666667   0.4811252   0.0000000), wk =   0.1666667
        k(   16) = (   0.1666667   0.5773503   0.0000000), wk =   0.0833333
        k(   17) = (   0.2500000   0.4330127   0.0000000), wk =   0.0833333
        k(   18) = (   0.2500000   0.5292377   0.0000000), wk =   0.1666667
        k(   19) = (   0.3333333   0.5773503   0.0000000), wk =   0.0277778

     Dense  grid:    88391 G-vectors     FFT dimensions: (  36,  36, 180)

     Estimated max dynamical RAM per process >      27.50 MB

     Estimated total dynamical RAM >     440.01 MB

     Initial potential from superposition of free atoms

     starting charge      25.9991, renormalised to      26.0000

     negative rho (up, down):  3.875E-04 0.000E+00
     Starting wfcs are   18 randomized atomic wfcs
     Checking if some PAW data can be deallocated... 

     total cpu time spent up to now is        0.8 secs

     Self-consistent Calculation

     iteration #  1     ecut=    80.00 Ry     beta= 0.70
     Davidson diagonalization with overlap
     ethr =  1.00E-02,  avg # of iterations =  2.2

     Threshold (ethr) on eigenvalues was too large:
     Diagonalizing with lowered threshold

     Davidson diagonalization with overlap
     ethr =  2.82E-04,  avg # of iterations =  3.6

     negative rho (up, down):  4.615E-04 0.000E+00

     total cpu time spent up to now is        2.0 secs

     total energy              =    -496.65382248 Ry
     estimated scf accuracy    <       0.11103048 Ry

     iteration #  2     ecut=    80.00 Ry     beta= 0.70
     Davidson diagonalization with overlap
     ethr =  4.27E-04,  avg # of iterations =  3.0

     negative rho (up, down):  4.393E-04 0.000E+00

     total cpu time spent up to now is        2.7 secs

     total energy              =    -496.62369809 Ry
     estimated scf accuracy    <       0.30097203 Ry

     iteration #  3     ecut=    80.00 Ry     beta= 0.70
     Davidson diagonalization with overlap
     ethr =  4.27E-04,  avg # of iterations =  2.5

     negative rho (up, down):  4.371E-04 0.000E+00

     total cpu time spent up to now is        3.3 secs

     total energy              =    -496.67726875 Ry
     estimated scf accuracy    <       0.13994034 Ry

     iteration #  4     ecut=    80.00 Ry     beta= 0.70
     Davidson diagonalization with overlap
     ethr =  4.27E-04,  avg # of iterations =  1.5

     negative rho (up, down):  4.562E-04 0.000E+00

     total cpu time spent up to now is        3.9 secs

     total energy              =    -496.69557926 Ry
     estimated scf accuracy    <       0.00062052 Ry

     iteration #  5     ecut=    80.00 Ry     beta= 0.70
     Davidson diagonalization with overlap
     ethr =  2.39E-06,  avg # of iterations =  3.4

     negative rho (up, down):  4.590E-04 0.000E+00

     total cpu time spent up to now is        4.7 secs

     total energy              =    -496.69586133 Ry
     estimated scf accuracy    <       0.00010899 Ry

     iteration #  6     ecut=    80.00 Ry     beta= 0.70
     Davidson diagonalization with overlap
     ethr =  4.19E-07,  avg # of iterations =  2.0

     negative rho (up, down):  4.610E-04 0.000E+00

     total cpu time spent up to now is        5.3 secs

     total energy              =    -496.69587078 Ry
     estimated scf accuracy    <       0.00001055 Ry

     iteration #  7     ecut=    80.00 Ry     beta= 0.70
     Davidson diagonalization with overlap
     ethr =  4.06E-08,  avg # of iterations =  2.2

     negative rho (up, down):  4.613E-04 0.000E+00

     total cpu time spent up to now is        6.0 secs

     End of self-consistent calculation

          k = 0.0000 0.0000 0.0000 ( 11105 PWs)   bands (ev):

   -60.4040 -34.5331 -34.3175 -34.3175 -13.4950 -12.2958  -5.0233  -1.9269
    -1.9269  -1.3590  -0.8601  -0.8601   0.3779   3.2518   3.2518   3.4194
     3.4194

          k = 0.0000 0.0962 0.0000 ( 11109 PWs)   bands (ev):

   -60.4015 -34.5282 -34.3426 -34.3232 -13.3935 -12.2504  -4.9037  -2.1621
    -1.8215  -1.7475  -1.0234  -0.6386   0.3373   3.1128   3.1364   3.3088
     3.4219

          k = 0.0000 0.1925 0.0000 ( 11097 PWs)   bands (ev):

   -60.3947 -34.5149 -34.4107 -34.3389 -13.1043 -12.1214  -4.5989  -2.7110
    -2.3588  -1.5289  -1.4078  -0.6070   0.1374   2.6917   3.0462   3.0535
     3.8073

          k = 0.0000 0.2887 0.0000 ( 11067 PWs)   bands (ev):

   -60.3854 -34.5026 -34.4967 -34.3602 -12.6750 -11.9311  -4.3587  -3.2133
    -3.0088  -1.8385  -1.1234  -0.8830  -0.2508   2.5627   2.8080   3.3494
     4.1981

          k = 0.0000 0.3849 0.0000 ( 11073 PWs)   bands (ev):

   -60.3761 -34.5932 -34.4785 -34.3814 -12.1913 -11.7211  -4.6040  -3.6270
    -3.3363  -2.2009  -1.1920  -0.7271  -0.4698   2.6958   2.7514   3.8160
     4.4762

          k = 0.0000 0.4811 0.0000 ( 11038 PWs)   bands (ev):

   -60.3693 -34.6587 -34.4650 -34.3968 -11.7869 -11.5514  -5.0123  -4.0865
    -3.4188  -2.4362  -1.3830  -0.4622  -0.2970   2.7284   3.0608   4.1658
     4.6249

          k = 0.0000-0.5774 0.0000 ( 11030 PWs)   bands (ev):

   -60.3668 -34.6825 -34.4601 -34.4025 -11.6241 -11.4852  -5.1884  -4.2577
    -3.4837  -2.5173  -1.4436  -0.3750  -0.1372   2.7730   3.2377   4.2810
     4.6696

          k = 0.0833 0.1443 0.0000 ( 11119 PWs)   bands (ev):

   -60.3969 -34.5191 -34.3879 -34.3352 -13.1980 -12.1631  -4.6881  -2.5461
    -2.1516  -1.6316  -1.4100  -0.4818   0.2169   2.7925   2.9672   3.1134
     3.7366

          k = 0.0833 0.2406 0.0000 ( 11090 PWs)   bands (ev):

   -60.3888 -34.5034 -34.4646 -34.3570 -12.8378 -12.0024  -4.3838  -3.0557
    -2.6772  -1.9681  -1.3365  -0.5383  -0.0856   2.4959   2.9060   3.0332
     4.1666

          k = 0.0833 0.3368 0.0000 ( 11092 PWs)   bands (ev):

   -60.3795 -34.5519 -34.4851 -34.3821 -12.3778 -11.7992  -4.3864  -3.3217
    -3.2862  -2.3408  -1.1319  -0.8466  -0.3285   2.4542   2.8775   3.4099
     4.4960

          k = 0.0833 0.4330 0.0000 ( 11066 PWs)   bands (ev):

   -60.3715 -34.6265 -34.4693 -34.4038 -11.9254 -11.6037  -4.7567  -3.9192
    -3.3194  -2.5065  -1.1853  -1.0492  -0.1964   2.6303   3.0110   3.8693
     4.6249

          k = 0.0833 0.5292 0.0000 ( 11017 PWs)   bands (ev):

   -60.3668 -34.6692 -34.4601 -34.4164 -11.6318 -11.4806  -5.0468  -4.2709
    -3.4270  -2.5570  -1.3954  -0.9363   0.0355   2.7657   3.2401   4.2469
     4.5342

          k = 0.1667 0.2887 0.0000 ( 11093 PWs)   bands (ev):

   -60.3808 -34.5308 -34.4876 -34.3885 -12.4443 -11.8263  -4.2808  -3.2427
    -3.0737  -2.6119  -1.3557  -0.5840  -0.2672   2.3358   2.9342   3.1298
     4.5551

          k = 0.1667 0.3849 0.0000 ( 11085 PWs)   bands (ev):

   -60.3727 -34.5929 -34.4718 -34.4233 -12.0062 -11.6306  -4.4829  -3.7600
    -3.1643  -2.7365  -1.6605  -0.8929  -0.1907   2.4891   3.0637   3.4314
     4.7695

          k = 0.1667 0.4811 0.0000 ( 11020 PWs)   bands (ev):

   -60.3668 -34.6368 -34.4602 -34.4499 -11.6468 -11.4713  -4.7124  -4.2929
    -3.2545  -2.6557  -1.7985  -1.2662   0.0561   2.6870   3.2868   3.7385
     4.8128

          k = 0.1667 0.5774 0.0000 ( 11022 PWs)   bands (ev):

   -60.3646 -34.6527 -34.4598 -34.4559 -11.5047 -11.4089  -4.8016  -4.4872
    -3.3621  -2.5816  -1.8017  -1.4471   0.2266   2.6633   3.5026   3.8690
     4.7946

          k = 0.2500 0.4330 0.0000 ( 11051 PWs)   bands (ev):

   -60.3668 -34.6152 -34.4722 -34.4602 -11.6543 -11.4667  -4.5074  -4.3019
    -3.0446  -2.7113  -2.3440  -1.1876   0.0363   2.6343   3.3171   3.4956
     4.9706

          k = 0.2500 0.5292 0.0000 ( 11034 PWs)   bands (ev):

   -60.3634 -34.6196 -34.5088 -34.4535 -11.4356 -11.3626  -4.6421  -4.4067
    -3.2382  -2.6509  -2.5252  -1.5220   0.3362   2.4633   3.5197   3.7152
     5.1147

          k = 0.3333 0.5774 0.0000 ( 11022 PWs)   bands (ev):

   -60.3621 -34.5912 -34.5525 -34.4510 -11.3570 -11.3198  -4.7813  -4.0275
    -3.4924  -2.9801  -2.3797  -1.7091   0.5172   2.2560   3.4188   3.9388
     5.2670

     the Fermi energy is     1.3581 ev

!    total energy              =    -496.69587391 Ry
     total all-electron energy =     -9695.026089 Ry
     estimated scf accuracy    <       0.00000034 Ry
     smearing contrib. (-TS)   =      -0.00000195 Ry
     internal energy E=F+TS    =    -496.69587196 Ry

     The total energy is F=E-TS. E is the sum of the following terms:
     one-electron contribution =    -740.33054276 Ry
     hartree contribution      =     374.06021954 Ry
     xc contribution           =     -29.64911025 Ry
     ewald contribution        =     218.85262295 Ry
     one-center paw contrib.   =    -319.62906146 Ry

     convergence has been achieved in   7 iterations

     negative rho (up, down):  4.613E-04 0.000E+00

     Forces acting on atoms (cartesian axes, Ry/au):

     atom    1 type  1   force =     0.00000000    0.00000000    0.00000000
     atom    2 type  2   force =     0.00000000    0.00000000   -0.02085004
     atom    3 type  2   force =     0.00000000    0.00000000    0.02085004
     The non-local contrib.  to forces
     atom    1 type  1   force =     0.00000000    0.00000000    0.00000000
     atom    2 type  2   force =     0.00000000    0.00000000   -0.27776177
     atom    3 type  2   force =     0.00000000   -0.00000000    0.27776177
     The ionic contribution  to forces
     atom    1 type  1   force =     0.00000000   -0.00000000    0.00000000
     atom    2 type  2   force =    -0.00000000    0.00000000   32.99976195
     atom    3 type  2   force =    -0.00000000    0.00000000  -32.99976195
     The local contribution  to forces
     atom    1 type  1   force =     0.00000000   -0.00000000    0.00000000
     atom    2 type  2   force =    -0.00000000    0.00000000  -32.74520303
     atom    3 type  2   force =    -0.00000000    0.00000000   32.74520303
     The core correction contribution to forces
     atom    1 type  1   force =     0.00000000    0.00000000   -0.00000000
     atom    2 type  2   force =     0.00000000   -0.00000000    0.00269061
     atom    3 type  2   force =     0.00000000   -0.00000000   -0.00269061
     The Hubbard contrib.    to forces
     atom    1 type  1   force =     0.00000000    0.00000000    0.00000000
     atom    2 type  2   force =     0.00000000    0.00000000    0.00000000
     atom    3 type  2   force =     0.00000000    0.00000000    0.00000000
     The SCF correction term to forces
     atom    1 type  1   force =     0.00000000    0.00000000    0.00000000
     atom    2 type  2   force =     0.00000000    0.00000000   -0.00033780
     atom    3 type  2   force =     0.00000000    0.00000000    0.00033780

     Total force =     0.029486     Total SCF correction =     0.000478


     Computing stress (Cartesian axis) and pressure


     negative rho (up, down):  4.613E-04 0.000E+00
          total   stress  (Ry/bohr**3)                   (kbar)     P=       -9.82
  -0.00003197  -0.00000000   0.00000000           -4.70       -0.00        0.00
  -0.00000000  -0.00003197   0.00000000           -0.00       -4.70        0.00
   0.00000000   0.00000000  -0.00013640            0.00        0.00      -20.06


     Writing all to output data dir ./tmp/scf.save/
 
     init_run     :      0.43s CPU      0.52s WALL (       1 calls)
     electrons    :      4.74s CPU      5.22s WALL (       1 calls)
     forces       :      0.20s CPU      0.20s WALL (       1 calls)
     stress       :      0.87s CPU      0.88s WALL (       1 calls)

     Called by init_run:
     wfcinit      :      0.09s CPU      0.09s WALL (       1 calls)
     potinit      :      0.11s CPU      0.12s WALL (       1 calls)
     hinit0       :      0.17s CPU      0.22s WALL (       1 calls)

     Called by electrons:
     c_bands      :      3.21s CPU      3.54s WALL (       8 calls)
     sum_band     :      0.69s CPU      0.82s WALL (       8 calls)
     v_of_rho     :      0.05s CPU      0.05s WALL (       8 calls)
     newd         :      0.30s CPU      0.31s WALL (       8 calls)
     PAW_pot      :      0.57s CPU      0.60s WALL (       8 calls)
     mix_rho      :      0.01s CPU      0.01s WALL (       8 calls)

     Called by c_bands:
     init_us_2    :      0.07s CPU      0.07s WALL (     361 calls)
     init_us_2:cp :      0.06s CPU      0.07s WALL (     361 calls)
     cegterg      :      2.20s CPU      2.52s WALL (     152 calls)

     Called by *egterg:
     cdiaghg      :      0.14s CPU      0.15s WALL (     522 calls)
     h_psi        :      1.76s CPU      2.01s WALL (     560 calls)
     s_psi        :      0.04s CPU      0.04s WALL (     560 calls)
     g_psi        :      0.01s CPU      0.01s WALL (     389 calls)

     Called by h_psi:
     h_psi:calbec :      0.14s CPU      0.16s WALL (     560 calls)
     vloc_psi     :      1.56s CPU      1.78s WALL (     560 calls)
     add_vuspsi   :      0.04s CPU      0.05s WALL (     560 calls)

     General routines
     calbec       :      0.41s CPU      0.45s WALL (     807 calls)
     fft          :      0.07s CPU      0.12s WALL (     114 calls)
     ffts         :      0.00s CPU      0.00s WALL (       8 calls)
     fftw         :      1.66s CPU      1.92s WALL (   16638 calls)
 
     Parallel routines
 
     PWSCF        :      6.51s CPU      7.19s WALL

 
   This run was terminated on:  13:33:24   6Jun2025            

=------------------------------------------------------------------------------=
   JOB DONE.
=------------------------------------------------------------------------------=
