
     Program PWSCF v.7.2 starts on  6Jun2025 at 12:55:31 

     This program is part of the open-source Quantum ESPRESSO suite
     for quantum simulation of materials; please cite
         "P. Giannozzi et al., J. Phys.:Condens. Matter 21 395502 (2009);
         "P. Giannozzi et al., J. Phys.:Condens. Matter 29 465901 (2017);
         "P. Giannozzi et al., J. Chem. Phys. 152 154105 (2020);
          URL http://www.quantum-espresso.org", 
     in publications or presentations arising from this work. More details at
     http://www.quantum-espresso.org/quote

     Parallel version (MPI), running on    16 processors

     MPI processes distributed on     1 nodes
     38178 MiB available memory on the printing compute node when the environment starts
 
     Waiting for input...
     Reading input from standard input

     Current dimensions of program PWSCF are:
     Max number of different atomic species (ntypx) = 10
     Max number of k-points (npk) =  40000
     Max angular momentum in pseudopotentials (lmaxx) =  4
     file Mo.pbe-spn-kjpaw_psl.1.0.0.UPF: wavefunction(s)  4S 4D renormalized
     file S.pbe-n-kjpaw_psl.1.0.0.UPF: wavefunction(s)  3S 3P renormalized
     Message from routine setup:
     using ibrav=0 with symmetry is DISCOURAGED, use correct ibrav instead
 
     R & G space division:  proc/nbgrp/npool/nimage =      16
     Subspace diagonalization in iterative solution of the eigenvalue problem:
     a serial algorithm will be used

 
     Parallelization info
     --------------------
     sticks:   dense  smooth     PW     G-vecs:    dense   smooth      PW
     Min          52      52     15                 6050     6050     925
     Max          53      53     16                 6069     6069     944
     Sum         847     847    241                97041    97041   14877
 
     Using Slab Decomposition
 


     bravais-lattice index     =            0
     lattice parameter (alat)  =       6.0093  a.u.
     unit-cell volume          =     915.4463 (a.u.)^3
     number of atoms/cell      =            3
     number of atomic types    =            2
     number of electrons       =        26.00
     number of Kohn-Sham states=           17
     kinetic-energy cutoff     =      85.0000  Ry
     charge density cutoff     =     340.0000  Ry
     scf convergence threshold =      1.0E-06
     mixing beta               =       0.7000
     number of iterations used =            8  plain     mixing
     Exchange-correlation= SLA  PW   PBX  PBC
                           (   1   4   3   4   0   0   0)

     celldm(1)=   6.009329  celldm(2)=   0.000000  celldm(3)=   0.000000
     celldm(4)=   0.000000  celldm(5)=   0.000000  celldm(6)=   0.000000

     crystal axes: (cart. coord. in units of alat)
               a(1) = (   1.000000   0.000000   0.000000 )  
               a(2) = (  -0.500000   0.866025   0.000000 )  
               a(3) = (   0.000000   0.000000   4.871069 )  

     reciprocal axes: (cart. coord. in units 2 pi/alat)
               b(1) = (  1.000000  0.577350  0.000000 )  
               b(2) = (  0.000000  1.154701  0.000000 )  
               b(3) = (  0.000000  0.000000  0.205294 )  


     PseudoPot. # 1 for Mo read from file:
     /shared/ESPRESSO/PSLIBRARY/1.0.0/pbe/PSEUDOPOTENTIALS/Mo.pbe-spn-kjpaw_psl.1.0.0.UPF
     MD5 check sum: 4396e0c640fcce5c25f020efccf1ab12
     Pseudo is Projector augmented-wave + core cor, Zval = 14.0
     Generated using &quot;atomic&quot; code by A. Dal Corso  v.6.3
     Shape of augmentation charge: PSQ
     Using radial grid of 1229 points,  6 beta functions with: 
                l(1) =   0
                l(2) =   0
                l(3) =   1
                l(4) =   1
                l(5) =   2
                l(6) =   2
     Q(r) pseudized with 0 coefficients 


     PseudoPot. # 2 for S  read from file:
     /shared/ESPRESSO/PSLIBRARY/1.0.0/pbe/PSEUDOPOTENTIALS/S.pbe-n-kjpaw_psl.1.0.0.UPF
     MD5 check sum: c08f931834bcc19553f8bde8f1a3adc5
     Pseudo is Projector augmented-wave + core cor, Zval =  6.0
     Generated using "atomic" code by A. Dal Corso  (Quantum ESPRESSO distribution)
     Shape of augmentation charge: PSQ
     Using radial grid of 1151 points,  6 beta functions with: 
                l(1) =   0
                l(2) =   0
                l(3) =   1
                l(4) =   1
                l(5) =   2
                l(6) =   2
     Q(r) pseudized with 0 coefficients 


     atomic species   valence    mass     pseudopotential
        Mo            14.00    95.94000     Mo( 1.00)
        S              6.00    32.06500     S ( 1.00)

     12 Sym. Ops. (no inversion) found



   Cartesian axes

     site n.     atom                  positions (alat units)
         1           Mo  tau(   1) = (   0.0000000   0.0000000   2.4355346  )
         2           S   tau(   2) = (   0.5000000   0.2886751   2.9371069  )
         3           S   tau(   3) = (   0.5000000   0.2886751   1.9339623  )

     number of k points=    30  Fermi-Dirac smearing, width (Ry)=  0.0070
                       cart. coord. in units 2pi/alat
        k(    1) = (   0.0000000   0.0000000   0.0000000), wk =   0.0078125
        k(    2) = (   0.0000000   0.0721688   0.0000000), wk =   0.0468750
        k(    3) = (   0.0000000   0.1443376   0.0000000), wk =   0.0468750
        k(    4) = (   0.0000000   0.2165064   0.0000000), wk =   0.0468750
        k(    5) = (   0.0000000   0.2886751   0.0000000), wk =   0.0468750
        k(    6) = (   0.0000000   0.3608439   0.0000000), wk =   0.0468750
        k(    7) = (   0.0000000   0.4330127   0.0000000), wk =   0.0468750
        k(    8) = (   0.0000000   0.5051815   0.0000000), wk =   0.0468750
        k(    9) = (   0.0000000  -0.5773503   0.0000000), wk =   0.0234375
        k(   10) = (   0.0625000   0.1082532   0.0000000), wk =   0.0468750
        k(   11) = (   0.0625000   0.1804220   0.0000000), wk =   0.0937500
        k(   12) = (   0.0625000   0.2525907   0.0000000), wk =   0.0937500
        k(   13) = (   0.0625000   0.3247595   0.0000000), wk =   0.0937500
        k(   14) = (   0.0625000   0.3969283   0.0000000), wk =   0.0937500
        k(   15) = (   0.0625000   0.4690971   0.0000000), wk =   0.0937500
        k(   16) = (   0.0625000   0.5412659   0.0000000), wk =   0.0937500
        k(   17) = (   0.1250000   0.2165064   0.0000000), wk =   0.0468750
        k(   18) = (   0.1250000   0.2886751   0.0000000), wk =   0.0937500
        k(   19) = (   0.1250000   0.3608439   0.0000000), wk =   0.0937500
        k(   20) = (   0.1250000   0.4330127   0.0000000), wk =   0.0937500
        k(   21) = (   0.1250000   0.5051815   0.0000000), wk =   0.0937500
        k(   22) = (   0.1250000   0.5773503   0.0000000), wk =   0.0468750
        k(   23) = (   0.1875000   0.3247595   0.0000000), wk =   0.0468750
        k(   24) = (   0.1875000   0.3969283   0.0000000), wk =   0.0937500
        k(   25) = (   0.1875000   0.4690971   0.0000000), wk =   0.0937500
        k(   26) = (   0.1875000   0.5412659   0.0000000), wk =   0.0937500
        k(   27) = (   0.2500000   0.4330127   0.0000000), wk =   0.0468750
        k(   28) = (   0.2500000   0.5051815   0.0000000), wk =   0.0937500
        k(   29) = (   0.2500000   0.5773503   0.0000000), wk =   0.0468750
        k(   30) = (   0.3125000   0.5412659   0.0000000), wk =   0.0468750

     Dense  grid:    97041 G-vectors     FFT dimensions: (  36,  36, 180)

     Estimated max dynamical RAM per process >      31.99 MB

     Estimated total dynamical RAM >     511.90 MB

     Initial potential from superposition of free atoms

     starting charge      25.9991, renormalised to      26.0000

     negative rho (up, down):  4.491E-04 0.000E+00
     Starting wfcs are   18 randomized atomic wfcs
     Checking if some PAW data can be deallocated... 

     total cpu time spent up to now is        0.9 secs

     Self-consistent Calculation

     iteration #  1     ecut=    85.00 Ry     beta= 0.70
     Davidson diagonalization with overlap
     ethr =  1.00E-02,  avg # of iterations =  2.3

     Threshold (ethr) on eigenvalues was too large:
     Diagonalizing with lowered threshold

     Davidson diagonalization with overlap
     ethr =  2.83E-04,  avg # of iterations =  3.6

     negative rho (up, down):  5.120E-04 0.000E+00

     total cpu time spent up to now is        2.5 secs

     total energy              =    -496.65384445 Ry
     estimated scf accuracy    <       0.11119095 Ry

     iteration #  2     ecut=    85.00 Ry     beta= 0.70
     Davidson diagonalization with overlap
     ethr =  4.28E-04,  avg # of iterations =  3.0

     negative rho (up, down):  4.868E-04 0.000E+00

     total cpu time spent up to now is        3.3 secs

     total energy              =    -496.62398565 Ry
     estimated scf accuracy    <       0.29975255 Ry

     iteration #  3     ecut=    85.00 Ry     beta= 0.70
     Davidson diagonalization with overlap
     ethr =  4.28E-04,  avg # of iterations =  2.5

     negative rho (up, down):  4.820E-04 0.000E+00

     total cpu time spent up to now is        4.1 secs

     total energy              =    -496.67728912 Ry
     estimated scf accuracy    <       0.14054560 Ry

     iteration #  4     ecut=    85.00 Ry     beta= 0.70
     Davidson diagonalization with overlap
     ethr =  4.28E-04,  avg # of iterations =  1.4

     negative rho (up, down):  4.987E-04 0.000E+00

     total cpu time spent up to now is        4.9 secs

     total energy              =    -496.69568570 Ry
     estimated scf accuracy    <       0.00060615 Ry

     iteration #  5     ecut=    85.00 Ry     beta= 0.70
     Davidson diagonalization with overlap
     ethr =  2.33E-06,  avg # of iterations =  3.5

     negative rho (up, down):  5.012E-04 0.000E+00

     total cpu time spent up to now is        5.9 secs

     total energy              =    -496.69597244 Ry
     estimated scf accuracy    <       0.00011418 Ry

     iteration #  6     ecut=    85.00 Ry     beta= 0.70
     Davidson diagonalization with overlap
     ethr =  4.39E-07,  avg # of iterations =  2.0

     negative rho (up, down):  5.031E-04 0.000E+00

     total cpu time spent up to now is        6.9 secs

     total energy              =    -496.69598149 Ry
     estimated scf accuracy    <       0.00001093 Ry

     iteration #  7     ecut=    85.00 Ry     beta= 0.70
     Davidson diagonalization with overlap
     ethr =  4.21E-08,  avg # of iterations =  2.2

     negative rho (up, down):  5.035E-04 0.000E+00

     total cpu time spent up to now is        7.9 secs

     End of self-consistent calculation

          k = 0.0000 0.0000 0.0000 ( 12139 PWs)   bands (ev):

   -60.4045 -34.5333 -34.3178 -34.3178 -13.4949 -12.2957  -5.0232  -1.9268
    -1.9268  -1.3590  -0.8600  -0.8600   0.3779   3.2518   3.2518   3.4194
     3.4194

          k = 0.0000 0.0722 0.0000 ( 12131 PWs)   bands (ev):

   -60.4031 -34.5306 -34.3321 -34.3211 -13.4374 -12.2701  -4.9550  -2.0629
    -1.8671  -1.6104  -0.9547  -0.7000   0.3570   3.1631   3.2480   3.3507
     3.3553

          k = 0.0000 0.1443 0.0000 ( 12089 PWs)   bands (ev):

   -60.3990 -34.5227 -34.3726 -34.3303 -13.2700 -12.1953  -4.7659  -2.4164
    -2.0448  -1.6952  -1.1997  -0.5743   0.2659   2.8947   3.0375   3.1899
     3.6019

          k = 0.0000 0.2165 0.0000 ( 12069 PWs)   bands (ev):

   -60.3930 -34.5109 -34.4327 -34.3442 -13.0074 -12.0782  -4.5152  -2.8586
    -2.5196  -1.5168  -1.4340  -0.6568   0.0507   2.6219   2.9853   3.0898
     3.9112

          k = 0.0000 0.2887 0.0000 ( 12107 PWs)   bands (ev):

   -60.3859 -34.5029 -34.4970 -34.3605 -12.6749 -11.9310  -4.3586  -3.2132
    -3.0087  -1.8384  -1.1233  -0.8830  -0.2508   2.5627   2.8080   3.3494
     4.1981

          k = 0.0000 0.3608 0.0000 ( 12113 PWs)   bands (ev):

   -60.3788 -34.5723 -34.4830 -34.3767 -12.3108 -11.7723  -4.5034  -3.4815
    -3.3264  -2.1205  -1.1234  -0.8177  -0.4548   2.6851   2.7080   3.7012
     4.4194

          k = 0.0000 0.4330 0.0000 ( 12138 PWs)   bands (ev):

   -60.3728 -34.6306 -34.4712 -34.3904 -11.9689 -11.6268  -4.8206  -3.8856
    -3.3676  -2.3366  -1.3045  -0.5731  -0.4170   2.6997   2.9037   4.0177
     4.5653

          k = 0.0000 0.5052 0.0000 ( 12132 PWs)   bands (ev):

   -60.3687 -34.6693 -34.4632 -34.3996 -11.7176 -11.5230  -5.0867  -4.1602
    -3.4444  -2.4714  -1.4097  -0.4237  -0.2348   2.7452   3.1306   4.2169
     4.6448

          k = 0.0000-0.5774 0.0000 ( 12140 PWs)   bands (ev):

   -60.3673 -34.6828 -34.4604 -34.4028 -11.6240 -11.4851  -5.1883  -4.2577
    -3.4837  -2.5172  -1.4436  -0.3749  -0.1372   2.7730   3.2377   4.2811
     4.6696

          k = 0.0625 0.1083 0.0000 ( 12075 PWs)   bands (ev):

   -60.4003 -34.5253 -34.3591 -34.3278 -13.3250 -12.2198  -4.8258  -2.3053
    -1.9107  -1.7535  -1.1670  -0.5534   0.3012   2.9948   3.0396   3.2338
     3.5406

          k = 0.0625 0.1804 0.0000 ( 12085 PWs)   bands (ev):

   -60.3953 -34.5155 -34.4082 -34.3404 -13.1098 -12.1237  -4.6007  -2.6959
    -2.3067  -1.5476  -1.5298  -0.4970   0.1467   2.6905   2.9728   3.0472
     3.8457

          k = 0.0625 0.2526 0.0000 ( 12094 PWs)   bands (ev):

   -60.3888 -34.5026 -34.4719 -34.3570 -12.8117 -11.9910  -4.3779  -3.0879
    -2.7555  -1.9007  -1.2937  -0.6269  -0.1156   2.5106   2.8897   3.1099
     4.1592

          k = 0.0625 0.3248 0.0000 ( 12106 PWs)   bands (ev):

   -60.3816 -34.5401 -34.4886 -34.3749 -12.4619 -11.8367  -4.3699  -3.2879
    -3.2419  -2.1890  -1.0745  -0.8704  -0.3389   2.4926   2.8351   3.4129
     4.4111

          k = 0.0625 0.3969 0.0000 ( 12107 PWs)   bands (ev):

   -60.3751 -34.6024 -34.4757 -34.3914 -12.1059 -11.6824  -4.6286  -3.7051
    -3.3157  -2.3793  -1.1215  -0.9501  -0.3232   2.5847   2.9030   3.7656
     4.5637

          k = 0.0625 0.4691 0.0000 ( 12131 PWs)   bands (ev):

   -60.3700 -34.6497 -34.4658 -34.4039 -11.8048 -11.5551  -4.9243  -4.0672
    -3.3796  -2.4898  -1.3142  -0.8312  -0.1510   2.7064   3.0658   4.0792
     4.6001

          k = 0.0625 0.5413 0.0000 ( 12140 PWs)   bands (ev):

   -60.3673 -34.6752 -34.4604 -34.4107 -11.6285 -11.4824  -5.1070  -4.2655
    -3.4517  -2.5395  -1.4168  -0.7424   0.0034   2.7725   3.2364   4.3086
     4.5363

          k = 0.1250 0.2165 0.0000 ( 12115 PWs)   bands (ev):

   -60.3898 -34.5046 -34.4590 -34.3578 -12.8587 -12.0115  -4.3888  -3.0272
    -2.5938  -2.0471  -1.3732  -0.4571  -0.0605   2.4836   2.9182   2.9625
     4.1759

          k = 0.1250 0.2887 0.0000 ( 12089 PWs)   bands (ev):

   -60.3832 -34.5173 -34.4917 -34.3793 -12.5416 -11.8701  -4.2852  -3.2386
    -2.9915  -2.4434  -1.2857  -0.5839  -0.2545   2.3679   2.9033   3.1221
     4.4634

          k = 0.1250 0.3608 0.0000 ( 12108 PWs)   bands (ev):

   -60.3766 -34.5746 -34.4788 -34.4011 -12.1961 -11.7172  -4.4337  -3.5111
    -3.2424  -2.5975  -1.3505  -0.8347  -0.2683   2.4271   2.9725   3.4099
     4.6477

          k = 0.1250 0.4330 0.0000 ( 12114 PWs)   bands (ev):

   -60.3710 -34.6227 -34.4678 -34.4197 -11.8739 -11.5766  -4.6870  -3.9732
    -3.2601  -2.6277  -1.3959  -1.1143  -0.1284   2.6150   3.0808   3.7267
     4.7071

          k = 0.1250 0.5052 0.0000 ( 12120 PWs)   bands (ev):

   -60.3673 -34.6546 -34.4605 -34.4322 -11.6392 -11.4759  -4.8897  -4.2825
    -3.3560  -2.6037  -1.3638  -1.3358   0.0613   2.7332   3.2593   3.9936
     4.6596

          k = 0.1250 0.5774 0.0000 ( 12114 PWs)   bands (ev):

   -60.3660 -34.6657 -34.4579 -34.4366 -11.5523 -11.4390  -4.9661  -4.3911
    -3.4077  -2.5846  -1.4225  -1.3422   0.1570   2.7436   3.3769   4.1163
     4.6051

          k = 0.1875 0.3248 0.0000 ( 12103 PWs)   bands (ev):

   -60.3772 -34.5621 -34.4798 -34.4073 -12.2275 -11.7290  -4.3484  -3.3969
    -3.2023  -2.7375  -1.5225  -0.6989  -0.2564   2.3652   2.9988   3.2461
     4.6920

          k = 0.1875 0.3969 0.0000 ( 12112 PWs)   bands (ev):

   -60.3716 -34.6008 -34.4689 -34.4357 -11.9119 -11.5870  -4.5012  -3.8994
    -3.1224  -2.7610  -1.8340  -0.9481  -0.1459   2.5424   3.1091   3.4480
     4.8229

          k = 0.1875 0.4691 0.0000 ( 12110 PWs)   bands (ev):

   -60.3673 -34.6289 -34.4605 -34.4587 -11.6498 -11.4693  -4.6313  -4.2967
    -3.1921  -2.6782  -1.9984  -1.2347   0.0493   2.6657   3.2992   3.6365
     4.8779

          k = 0.1875 0.5413 0.0000 ( 12136 PWs)   bands (ev):

   -60.3650 -34.6436 -34.4716 -34.4559 -11.4988 -11.4017  -4.6973  -4.5118
    -3.3191  -2.5837  -2.0316  -1.4407   0.2340   2.6221   3.5345   3.7455
     4.8900

          k = 0.2500 0.4330 0.0000 ( 12131 PWs)   bands (ev):

   -60.3673 -34.6155 -34.4725 -34.4605 -11.6542 -11.4666  -4.5074  -4.3018
    -3.0445  -2.7112  -2.3439  -1.1876   0.0364   2.6343   3.3171   3.4956
     4.9706

          k = 0.2500 0.5052 0.0000 ( 12133 PWs)   bands (ev):

   -60.3645 -34.6198 -34.5025 -34.4549 -11.4719 -11.3799  -4.5861  -4.4362
    -3.1672  -2.6241  -2.5697  -1.4532   0.2711   2.5142   3.5173   3.6318
     5.0892

          k = 0.2500 0.5774 0.0000 ( 12131 PWs)   bands (ev):

   -60.3634 -34.6197 -34.5147 -34.4529 -11.4057 -11.3481  -4.6875  -4.3759
    -3.3105  -2.6655  -2.4820  -1.5849   0.3959   2.4135   3.5211   3.7890
     5.1359

          k = 0.3125 0.5413 0.0000 ( 12127 PWs)   bands (ev):

   -60.3629 -34.6001 -34.5411 -34.4518 -11.3733 -11.3285  -4.7528  -4.1421
    -3.3679  -2.9496  -2.4186  -1.6609   0.4733   2.3049   3.4355   3.8898
     5.2381

     the Fermi energy is     1.3583 ev

!    total energy              =    -496.69598485 Ry
     total all-electron energy =     -9695.026199 Ry
     estimated scf accuracy    <       0.00000040 Ry
     smearing contrib. (-TS)   =      -0.00000193 Ry
     internal energy E=F+TS    =    -496.69598293 Ry

     The total energy is F=E-TS. E is the sum of the following terms:
     one-electron contribution =    -740.33065720 Ry
     hartree contribution      =     374.06025728 Ry
     xc contribution           =     -29.64915000 Ry
     ewald contribution        =     218.85262295 Ry
     one-center paw contrib.   =    -319.62905595 Ry

     convergence has been achieved in   7 iterations

     negative rho (up, down):  5.035E-04 0.000E+00

     Forces acting on atoms (cartesian axes, Ry/au):

     atom    1 type  1   force =     0.00000000    0.00000000    0.00000000
     atom    2 type  2   force =     0.00000000    0.00000000   -0.02089276
     atom    3 type  2   force =     0.00000000   -0.00000000    0.02089276
     The non-local contrib.  to forces
     atom    1 type  1   force =     0.00000000   -0.00000000    0.00000000
     atom    2 type  2   force =     0.00000000   -0.00000000   -0.27778725
     atom    3 type  2   force =    -0.00000000    0.00000000    0.27778725
     The ionic contribution  to forces
     atom    1 type  1   force =     0.00000000   -0.00000000    0.00000000
     atom    2 type  2   force =    -0.00000000    0.00000000   32.99976195
     atom    3 type  2   force =    -0.00000000    0.00000000  -32.99976195
     The local contribution  to forces
     atom    1 type  1   force =     0.00000000   -0.00000000    0.00000000
     atom    2 type  2   force =    -0.00000000    0.00000000  -32.74519569
     atom    3 type  2   force =    -0.00000000    0.00000000   32.74519569
     The core correction contribution to forces
     atom    1 type  1   force =     0.00000000   -0.00000000   -0.00000000
     atom    2 type  2   force =     0.00000000   -0.00000000    0.00269072
     atom    3 type  2   force =     0.00000000   -0.00000000   -0.00269072
     The Hubbard contrib.    to forces
     atom    1 type  1   force =     0.00000000    0.00000000    0.00000000
     atom    2 type  2   force =     0.00000000    0.00000000    0.00000000
     atom    3 type  2   force =     0.00000000    0.00000000    0.00000000
     The SCF correction term to forces
     atom    1 type  1   force =    -0.00000000   -0.00000000   -0.00000000
     atom    2 type  2   force =     0.00000000   -0.00000000   -0.00036250
     atom    3 type  2   force =     0.00000000   -0.00000000    0.00036250

     Total force =     0.029547     Total SCF correction =     0.000513


     Computing stress (Cartesian axis) and pressure


     negative rho (up, down):  5.035E-04 0.000E+00
          total   stress  (Ry/bohr**3)                   (kbar)     P=       -9.83
  -0.00003195   0.00000000   0.00000000           -4.70        0.00        0.00
   0.00000000  -0.00003195   0.00000000            0.00       -4.70        0.00
   0.00000000   0.00000000  -0.00013651            0.00        0.00      -20.08


     Writing all to output data dir ./tmp/scf.save/
 
     init_run     :      0.56s CPU      0.69s WALL (       1 calls)
     electrons    :      6.59s CPU      6.95s WALL (       1 calls)
     forces       :      0.24s CPU      0.24s WALL (       1 calls)
     stress       :      1.20s CPU      1.23s WALL (       1 calls)

     Called by init_run:
     wfcinit      :      0.17s CPU      0.21s WALL (       1 calls)
     potinit      :      0.11s CPU      0.13s WALL (       1 calls)
     hinit0       :      0.19s CPU      0.24s WALL (       1 calls)

     Called by electrons:
     c_bands      :      4.98s CPU      5.26s WALL (       8 calls)
     sum_band     :      0.88s CPU      0.94s WALL (       8 calls)
     v_of_rho     :      0.04s CPU      0.04s WALL (       8 calls)
     newd         :      0.29s CPU      0.31s WALL (       8 calls)
     PAW_pot      :      0.48s CPU      0.51s WALL (       8 calls)
     mix_rho      :      0.01s CPU      0.01s WALL (       8 calls)

     Called by c_bands:
     init_us_2    :      0.12s CPU      0.13s WALL (     570 calls)
     init_us_2:cp :      0.12s CPU      0.13s WALL (     570 calls)
     cegterg      :      3.25s CPU      3.52s WALL (     240 calls)

     Called by *egterg:
     cdiaghg      :      0.24s CPU      0.25s WALL (     824 calls)
     h_psi        :      2.59s CPU      2.84s WALL (     884 calls)
     s_psi        :      0.07s CPU      0.08s WALL (     884 calls)
     g_psi        :      0.01s CPU      0.01s WALL (     614 calls)

     Called by h_psi:
     h_psi:calbec :      0.20s CPU      0.22s WALL (     884 calls)
     vloc_psi     :      2.29s CPU      2.50s WALL (     884 calls)
     add_vuspsi   :      0.08s CPU      0.09s WALL (     884 calls)

     General routines
     calbec       :      0.66s CPU      0.71s WALL (    1274 calls)
     fft          :      0.07s CPU      0.12s WALL (     114 calls)
     ffts         :      0.00s CPU      0.00s WALL (       8 calls)
     fftw         :      2.35s CPU      2.58s WALL (   26306 calls)
 
     Parallel routines
 
     PWSCF        :      8.87s CPU      9.53s WALL

 
   This run was terminated on:  12:55:41   6Jun2025            

=------------------------------------------------------------------------------=
   JOB DONE.
=------------------------------------------------------------------------------=
