
     Program PWSCF v.7.2 starts on  6Jun2025 at 12:55:36 

     This program is part of the open-source Quantum ESPRESSO suite
     for quantum simulation of materials; please cite
         "P. Giannozzi et al., J. Phys.:Condens. Matter 21 395502 (2009);
         "P. Giannozzi et al., J. Phys.:Condens. Matter 29 465901 (2017);
         "P. Giannozzi et al., J. Chem. Phys. 152 154105 (2020);
          URL http://www.quantum-espresso.org", 
     in publications or presentations arising from this work. More details at
     http://www.quantum-espresso.org/quote

     Parallel version (MPI), running on    16 processors

     MPI processes distributed on     1 nodes
     38101 MiB available memory on the printing compute node when the environment starts
 
     Waiting for input...
     Reading input from standard input

     Current dimensions of program PWSCF are:
     Max number of different atomic species (ntypx) = 10
     Max number of k-points (npk) =  40000
     Max angular momentum in pseudopotentials (lmaxx) =  4
     file Mo.pbe-spn-kjpaw_psl.1.0.0.UPF: wavefunction(s)  4S 4D renormalized
     file S.pbe-n-kjpaw_psl.1.0.0.UPF: wavefunction(s)  3S 3P renormalized
     Message from routine setup:
     using ibrav=0 with symmetry is DISCOURAGED, use correct ibrav instead
 
     R & G space division:  proc/nbgrp/npool/nimage =      16
     Subspace diagonalization in iterative solution of the eigenvalue problem:
     a serial algorithm will be used

 
     Parallelization info
     --------------------
     sticks:   dense  smooth     PW     G-vecs:    dense   smooth      PW
     Min          55      55     15                 6583     6583     995
     Max          56      56     16                 6600     6600    1018
     Sum         889     889    253               105465   105465   16163
 
     Using Slab Decomposition
 


     bravais-lattice index     =            0
     lattice parameter (alat)  =       6.0093  a.u.
     unit-cell volume          =     915.4463 (a.u.)^3
     number of atoms/cell      =            3
     number of atomic types    =            2
     number of electrons       =        26.00
     number of Kohn-Sham states=           17
     kinetic-energy cutoff     =      90.0000  Ry
     charge density cutoff     =     360.0000  Ry
     scf convergence threshold =      1.0E-06
     mixing beta               =       0.7000
     number of iterations used =            8  plain     mixing
     Exchange-correlation= SLA  PW   PBX  PBC
                           (   1   4   3   4   0   0   0)

     celldm(1)=   6.009329  celldm(2)=   0.000000  celldm(3)=   0.000000
     celldm(4)=   0.000000  celldm(5)=   0.000000  celldm(6)=   0.000000

     crystal axes: (cart. coord. in units of alat)
               a(1) = (   1.000000   0.000000   0.000000 )  
               a(2) = (  -0.500000   0.866025   0.000000 )  
               a(3) = (   0.000000   0.000000   4.871069 )  

     reciprocal axes: (cart. coord. in units 2 pi/alat)
               b(1) = (  1.000000  0.577350  0.000000 )  
               b(2) = (  0.000000  1.154701  0.000000 )  
               b(3) = (  0.000000  0.000000  0.205294 )  


     PseudoPot. # 1 for Mo read from file:
     /shared/ESPRESSO/PSLIBRARY/1.0.0/pbe/PSEUDOPOTENTIALS/Mo.pbe-spn-kjpaw_psl.1.0.0.UPF
     MD5 check sum: 4396e0c640fcce5c25f020efccf1ab12
     Pseudo is Projector augmented-wave + core cor, Zval = 14.0
     Generated using &quot;atomic&quot; code by A. Dal Corso  v.6.3
     Shape of augmentation charge: PSQ
     Using radial grid of 1229 points,  6 beta functions with: 
                l(1) =   0
                l(2) =   0
                l(3) =   1
                l(4) =   1
                l(5) =   2
                l(6) =   2
     Q(r) pseudized with 0 coefficients 


     PseudoPot. # 2 for S  read from file:
     /shared/ESPRESSO/PSLIBRARY/1.0.0/pbe/PSEUDOPOTENTIALS/S.pbe-n-kjpaw_psl.1.0.0.UPF
     MD5 check sum: c08f931834bcc19553f8bde8f1a3adc5
     Pseudo is Projector augmented-wave + core cor, Zval =  6.0
     Generated using "atomic" code by A. Dal Corso  (Quantum ESPRESSO distribution)
     Shape of augmentation charge: PSQ
     Using radial grid of 1151 points,  6 beta functions with: 
                l(1) =   0
                l(2) =   0
                l(3) =   1
                l(4) =   1
                l(5) =   2
                l(6) =   2
     Q(r) pseudized with 0 coefficients 


     atomic species   valence    mass     pseudopotential
        Mo            14.00    95.94000     Mo( 1.00)
        S              6.00    32.06500     S ( 1.00)

     12 Sym. Ops. (no inversion) found



   Cartesian axes

     site n.     atom                  positions (alat units)
         1           Mo  tau(   1) = (   0.0000000   0.0000000   2.4355346  )
         2           S   tau(   2) = (   0.5000000   0.2886751   2.9371069  )
         3           S   tau(   3) = (   0.5000000   0.2886751   1.9339623  )

     number of k points=    30  Fermi-Dirac smearing, width (Ry)=  0.0070
                       cart. coord. in units 2pi/alat
        k(    1) = (   0.0000000   0.0000000   0.0000000), wk =   0.0078125
        k(    2) = (   0.0000000   0.0721688   0.0000000), wk =   0.0468750
        k(    3) = (   0.0000000   0.1443376   0.0000000), wk =   0.0468750
        k(    4) = (   0.0000000   0.2165064   0.0000000), wk =   0.0468750
        k(    5) = (   0.0000000   0.2886751   0.0000000), wk =   0.0468750
        k(    6) = (   0.0000000   0.3608439   0.0000000), wk =   0.0468750
        k(    7) = (   0.0000000   0.4330127   0.0000000), wk =   0.0468750
        k(    8) = (   0.0000000   0.5051815   0.0000000), wk =   0.0468750
        k(    9) = (   0.0000000  -0.5773503   0.0000000), wk =   0.0234375
        k(   10) = (   0.0625000   0.1082532   0.0000000), wk =   0.0468750
        k(   11) = (   0.0625000   0.1804220   0.0000000), wk =   0.0937500
        k(   12) = (   0.0625000   0.2525907   0.0000000), wk =   0.0937500
        k(   13) = (   0.0625000   0.3247595   0.0000000), wk =   0.0937500
        k(   14) = (   0.0625000   0.3969283   0.0000000), wk =   0.0937500
        k(   15) = (   0.0625000   0.4690971   0.0000000), wk =   0.0937500
        k(   16) = (   0.0625000   0.5412659   0.0000000), wk =   0.0937500
        k(   17) = (   0.1250000   0.2165064   0.0000000), wk =   0.0468750
        k(   18) = (   0.1250000   0.2886751   0.0000000), wk =   0.0937500
        k(   19) = (   0.1250000   0.3608439   0.0000000), wk =   0.0937500
        k(   20) = (   0.1250000   0.4330127   0.0000000), wk =   0.0937500
        k(   21) = (   0.1250000   0.5051815   0.0000000), wk =   0.0937500
        k(   22) = (   0.1250000   0.5773503   0.0000000), wk =   0.0468750
        k(   23) = (   0.1875000   0.3247595   0.0000000), wk =   0.0468750
        k(   24) = (   0.1875000   0.3969283   0.0000000), wk =   0.0937500
        k(   25) = (   0.1875000   0.4690971   0.0000000), wk =   0.0937500
        k(   26) = (   0.1875000   0.5412659   0.0000000), wk =   0.0937500
        k(   27) = (   0.2500000   0.4330127   0.0000000), wk =   0.0468750
        k(   28) = (   0.2500000   0.5051815   0.0000000), wk =   0.0937500
        k(   29) = (   0.2500000   0.5773503   0.0000000), wk =   0.0468750
        k(   30) = (   0.3125000   0.5412659   0.0000000), wk =   0.0468750

     Dense  grid:   105465 G-vectors     FFT dimensions: (  40,  40, 180)

     Estimated max dynamical RAM per process >      34.86 MB

     Estimated total dynamical RAM >     557.71 MB

     Initial potential from superposition of free atoms

     starting charge      25.9991, renormalised to      26.0000

     negative rho (up, down):  3.382E-04 0.000E+00
     Starting wfcs are   18 randomized atomic wfcs
     Checking if some PAW data can be deallocated... 

     total cpu time spent up to now is        1.3 secs

     Self-consistent Calculation

     iteration #  1     ecut=    90.00 Ry     beta= 0.70
     Davidson diagonalization with overlap
     ethr =  1.00E-02,  avg # of iterations =  2.3

     Threshold (ethr) on eigenvalues was too large:
     Diagonalizing with lowered threshold

     Davidson diagonalization with overlap
     ethr =  2.83E-04,  avg # of iterations =  3.6

     negative rho (up, down):  3.751E-04 0.000E+00

     total cpu time spent up to now is        3.5 secs

     total energy              =    -496.65400522 Ry
     estimated scf accuracy    <       0.11114904 Ry

     iteration #  2     ecut=    90.00 Ry     beta= 0.70
     Davidson diagonalization with overlap
     ethr =  4.27E-04,  avg # of iterations =  3.0

     negative rho (up, down):  3.546E-04 0.000E+00

     total cpu time spent up to now is        4.6 secs

     total energy              =    -496.62426677 Ry
     estimated scf accuracy    <       0.29891878 Ry

     iteration #  3     ecut=    90.00 Ry     beta= 0.70
     Davidson diagonalization with overlap
     ethr =  4.27E-04,  avg # of iterations =  2.5

     negative rho (up, down):  3.502E-04 0.000E+00

     total cpu time spent up to now is        5.4 secs

     total energy              =    -496.67739898 Ry
     estimated scf accuracy    <       0.14063839 Ry

     iteration #  4     ecut=    90.00 Ry     beta= 0.70
     Davidson diagonalization with overlap
     ethr =  4.27E-04,  avg # of iterations =  1.4

     negative rho (up, down):  3.621E-04 0.000E+00

     total cpu time spent up to now is        6.2 secs

     total energy              =    -496.69580962 Ry
     estimated scf accuracy    <       0.00060327 Ry

     iteration #  5     ecut=    90.00 Ry     beta= 0.70
     Davidson diagonalization with overlap
     ethr =  2.32E-06,  avg # of iterations =  3.5

     negative rho (up, down):  3.640E-04 0.000E+00

     total cpu time spent up to now is        7.3 secs

     total energy              =    -496.69609683 Ry
     estimated scf accuracy    <       0.00011479 Ry

     iteration #  6     ecut=    90.00 Ry     beta= 0.70
     Davidson diagonalization with overlap
     ethr =  4.41E-07,  avg # of iterations =  2.0

     negative rho (up, down):  3.655E-04 0.000E+00

     total cpu time spent up to now is        8.2 secs

     total energy              =    -496.69610567 Ry
     estimated scf accuracy    <       0.00001117 Ry

     iteration #  7     ecut=    90.00 Ry     beta= 0.70
     Davidson diagonalization with overlap
     ethr =  4.30E-08,  avg # of iterations =  2.2

     negative rho (up, down):  3.658E-04 0.000E+00

     total cpu time spent up to now is        9.4 secs

     End of self-consistent calculation

          k = 0.0000 0.0000 0.0000 ( 13127 PWs)   bands (ev):

   -60.4047 -34.5333 -34.3178 -34.3178 -13.4946 -12.2955  -5.0230  -1.9266
    -1.9266  -1.3588  -0.8598  -0.8598   0.3781   3.2520   3.2520   3.4196
     3.4196

          k = 0.0000 0.0722 0.0000 ( 13093 PWs)   bands (ev):

   -60.4033 -34.5306 -34.3321 -34.3211 -13.4372 -12.2698  -4.9548  -2.0627
    -1.8668  -1.6102  -0.9545  -0.6997   0.3573   3.1634   3.2482   3.3509
     3.3555

          k = 0.0000 0.1443 0.0000 ( 13135 PWs)   bands (ev):

   -60.3993 -34.5227 -34.3726 -34.3303 -13.2698 -12.1950  -4.7657  -2.4161
    -2.0446  -1.6949  -1.1995  -0.5741   0.2661   2.8949   3.0378   3.1901
     3.6021

          k = 0.0000 0.2165 0.0000 ( 13170 PWs)   bands (ev):

   -60.3933 -34.5109 -34.4327 -34.3442 -13.0071 -12.0779  -4.5150  -2.8584
    -2.5194  -1.5166  -1.4338  -0.6565   0.0509   2.6222   2.9855   3.0900
     3.9114

          k = 0.0000 0.2887 0.0000 ( 13188 PWs)   bands (ev):

   -60.3862 -34.5029 -34.4970 -34.3605 -12.6747 -11.9308  -4.3584  -3.2130
    -3.0085  -1.8382  -1.1231  -0.8828  -0.2506   2.5629   2.8082   3.3497
     4.1983

          k = 0.0000 0.3608 0.0000 ( 13194 PWs)   bands (ev):

   -60.3791 -34.5723 -34.4830 -34.3767 -12.3106 -11.7721  -4.5032  -3.4813
    -3.3262  -2.1203  -1.1232  -0.8175  -0.4546   2.6853   2.7082   3.7014
     4.4196

          k = 0.0000 0.4330 0.0000 ( 13192 PWs)   bands (ev):

   -60.3730 -34.6306 -34.4711 -34.3904 -11.9686 -11.6266  -4.8204  -3.8854
    -3.3674  -2.3364  -1.3043  -0.5729  -0.4168   2.6999   2.9039   4.0179
     4.5655

          k = 0.0000 0.5052 0.0000 ( 13208 PWs)   bands (ev):

   -60.3690 -34.6693 -34.4632 -34.3995 -11.7174 -11.5227  -5.0865  -4.1600
    -3.4442  -2.4712  -1.4095  -0.4235  -0.2346   2.7454   3.1308   4.2171
     4.6449

          k = 0.0000-0.5774 0.0000 ( 13190 PWs)   bands (ev):

   -60.3676 -34.6828 -34.4604 -34.4027 -11.6238 -11.4848  -5.1881  -4.2575
    -3.4835  -2.5170  -1.4434  -0.3747  -0.1370   2.7731   3.2379   4.2812
     4.6698

          k = 0.0625 0.1083 0.0000 ( 13131 PWs)   bands (ev):

   -60.4006 -34.5252 -34.3591 -34.3277 -13.3248 -12.2196  -4.8256  -2.3051
    -1.9105  -1.7533  -1.1668  -0.5532   0.3014   2.9951   3.0398   3.2340
     3.5408

          k = 0.0625 0.1804 0.0000 ( 13146 PWs)   bands (ev):

   -60.3956 -34.5154 -34.4082 -34.3404 -13.1096 -12.1234  -4.6005  -2.6957
    -2.3065  -1.5474  -1.5296  -0.4968   0.1469   2.6908   2.9730   3.0474
     3.8459

          k = 0.0625 0.2526 0.0000 ( 13179 PWs)   bands (ev):

   -60.3890 -34.5026 -34.4719 -34.3570 -12.8114 -11.9907  -4.3777  -3.0877
    -2.7553  -1.9005  -1.2935  -0.6267  -0.1154   2.5108   2.8899   3.1102
     4.1594

          k = 0.0625 0.3248 0.0000 ( 13185 PWs)   bands (ev):

   -60.3819 -34.5401 -34.4886 -34.3749 -12.4616 -11.8365  -4.3697  -3.2877
    -3.2417  -2.1888  -1.0743  -0.8701  -0.3387   2.4928   2.8353   3.4131
     4.4113

          k = 0.0625 0.3969 0.0000 ( 13200 PWs)   bands (ev):

   -60.3754 -34.6024 -34.4757 -34.3914 -12.1056 -11.6822  -4.6284  -3.7049
    -3.3155  -2.3791  -1.1213  -0.9499  -0.3230   2.5849   2.9032   3.7658
     4.5639

          k = 0.0625 0.4691 0.0000 ( 13220 PWs)   bands (ev):

   -60.3703 -34.6497 -34.4658 -34.4039 -11.8046 -11.5549  -4.9241  -4.0670
    -3.3794  -2.4896  -1.3140  -0.8310  -0.1508   2.7066   3.0660   4.0794
     4.6003

          k = 0.0625 0.5413 0.0000 ( 13212 PWs)   bands (ev):

   -60.3676 -34.6752 -34.4604 -34.4107 -11.6282 -11.4821  -5.1068  -4.2653
    -3.4515  -2.5393  -1.4166  -0.7422   0.0036   2.7727   3.2366   4.3088
     4.5365

          k = 0.1250 0.2165 0.0000 ( 13195 PWs)   bands (ev):

   -60.3901 -34.5045 -34.4590 -34.3578 -12.8585 -12.0112  -4.3886  -3.0270
    -2.5936  -2.0469  -1.3730  -0.4569  -0.0603   2.4838   2.9184   2.9628
     4.1761

          k = 0.1250 0.2887 0.0000 ( 13194 PWs)   bands (ev):

   -60.3835 -34.5173 -34.4916 -34.3793 -12.5414 -11.8699  -4.2850  -3.2384
    -2.9913  -2.4432  -1.2855  -0.5836  -0.2543   2.3681   2.9035   3.1223
     4.4636

          k = 0.1250 0.3608 0.0000 ( 13190 PWs)   bands (ev):

   -60.3769 -34.5746 -34.4787 -34.4011 -12.1958 -11.7169  -4.4335  -3.5109
    -3.2422  -2.5973  -1.3503  -0.8345  -0.2681   2.4273   2.9727   3.4101
     4.6479

          k = 0.1250 0.4330 0.0000 ( 13206 PWs)   bands (ev):

   -60.3713 -34.6227 -34.4678 -34.4197 -11.8736 -11.5763  -4.6868  -3.9730
    -3.2599  -2.6275  -1.3957  -1.1141  -0.1282   2.6152   3.0809   3.7269
     4.7073

          k = 0.1250 0.5052 0.0000 ( 13214 PWs)   bands (ev):

   -60.3676 -34.6546 -34.4604 -34.4322 -11.6390 -11.4756  -4.8895  -4.2823
    -3.3558  -2.6035  -1.3636  -1.3356   0.0615   2.7334   3.2595   3.9938
     4.6598

          k = 0.1250 0.5774 0.0000 ( 13221 PWs)   bands (ev):

   -60.3663 -34.6657 -34.4578 -34.4366 -11.5521 -11.4388  -4.9659  -4.3909
    -3.4075  -2.5844  -1.4223  -1.3420   0.1572   2.7438   3.3771   4.1165
     4.6053

          k = 0.1875 0.3248 0.0000 ( 13201 PWs)   bands (ev):

   -60.3774 -34.5621 -34.4798 -34.4073 -12.2272 -11.7287  -4.3482  -3.3967
    -3.2021  -2.7373  -1.5223  -0.6987  -0.2562   2.3654   2.9990   3.2463
     4.6922

          k = 0.1875 0.3969 0.0000 ( 13212 PWs)   bands (ev):

   -60.3719 -34.6008 -34.4688 -34.4357 -11.9117 -11.5868  -4.5010  -3.8992
    -3.1222  -2.7608  -1.8338  -0.9478  -0.1457   2.5426   3.1093   3.4482
     4.8231

          k = 0.1875 0.4691 0.0000 ( 13235 PWs)   bands (ev):

   -60.3676 -34.6289 -34.4604 -34.4587 -11.6496 -11.4691  -4.6311  -4.2965
    -3.1919  -2.6780  -1.9982  -1.2345   0.0495   2.6659   3.2994   3.6367
     4.8781

          k = 0.1875 0.5413 0.0000 ( 13231 PWs)   bands (ev):

   -60.3653 -34.6436 -34.4716 -34.4559 -11.4986 -11.4015  -4.6971  -4.5116
    -3.3189  -2.5835  -2.0314  -1.4405   0.2342   2.6223   3.5347   3.7456
     4.8902

          k = 0.2500 0.4330 0.0000 ( 13217 PWs)   bands (ev):

   -60.3676 -34.6155 -34.4725 -34.4605 -11.6539 -11.4663  -4.5072  -4.3016
    -3.0443  -2.7110  -2.3437  -1.1874   0.0366   2.6345   3.3173   3.4958
     4.9708

          k = 0.2500 0.5052 0.0000 ( 13239 PWs)   bands (ev):

   -60.3647 -34.6198 -34.5025 -34.4548 -11.4716 -11.3797  -4.5859  -4.4360
    -3.1670  -2.6239  -2.5695  -1.4530   0.2713   2.5144   3.5175   3.6319
     5.0894

          k = 0.2500 0.5774 0.0000 ( 13247 PWs)   bands (ev):

   -60.3637 -34.6197 -34.5147 -34.4529 -11.4055 -11.3479  -4.6873  -4.3757
    -3.3103  -2.6653  -2.4818  -1.5847   0.3961   2.4137   3.5213   3.7892
     5.1361

          k = 0.3125 0.5413 0.0000 ( 13247 PWs)   bands (ev):

   -60.3632 -34.6001 -34.5411 -34.4518 -11.3730 -11.3282  -4.7526  -4.1419
    -3.3677  -2.9494  -2.4184  -1.6608   0.4735   2.3051   3.4357   3.8900
     5.2383

     the Fermi energy is     1.3585 ev

!    total energy              =    -496.69610912 Ry
     total all-electron energy =     -9695.026324 Ry
     estimated scf accuracy    <       0.00000042 Ry
     smearing contrib. (-TS)   =      -0.00000193 Ry
     internal energy E=F+TS    =    -496.69610719 Ry

     The total energy is F=E-TS. E is the sum of the following terms:
     one-electron contribution =    -740.33107441 Ry
     hartree contribution      =     374.06051616 Ry
     xc contribution           =     -29.64914885 Ry
     ewald contribution        =     218.85262295 Ry
     one-center paw contrib.   =    -319.62902304 Ry

     convergence has been achieved in   7 iterations

     negative rho (up, down):  3.658E-04 0.000E+00

     Forces acting on atoms (cartesian axes, Ry/au):

     atom    1 type  1   force =     0.00000000   -0.00000000    0.00000000
     atom    2 type  2   force =     0.00000000    0.00000000   -0.02089102
     atom    3 type  2   force =    -0.00000000   -0.00000000    0.02089102
     The non-local contrib.  to forces
     atom    1 type  1   force =     0.00000000    0.00000000    0.00000000
     atom    2 type  2   force =    -0.00000000   -0.00000000   -0.27778963
     atom    3 type  2   force =     0.00000000   -0.00000000    0.27778963
     The ionic contribution  to forces
     atom    1 type  1   force =     0.00000000   -0.00000000    0.00000000
     atom    2 type  2   force =    -0.00000000    0.00000000   32.99976195
     atom    3 type  2   force =    -0.00000000    0.00000000  -32.99976195
     The local contribution  to forces
     atom    1 type  1   force =     0.00000000   -0.00000000    0.00000000
     atom    2 type  2   force =    -0.00000000    0.00000000  -32.74518939
     atom    3 type  2   force =    -0.00000000    0.00000000   32.74518939
     The core correction contribution to forces
     atom    1 type  1   force =    -0.00000000    0.00000000   -0.00000000
     atom    2 type  2   force =     0.00000000   -0.00000000    0.00269157
     atom    3 type  2   force =     0.00000000   -0.00000000   -0.00269157
     The Hubbard contrib.    to forces
     atom    1 type  1   force =     0.00000000    0.00000000    0.00000000
     atom    2 type  2   force =     0.00000000    0.00000000    0.00000000
     atom    3 type  2   force =     0.00000000    0.00000000    0.00000000
     The SCF correction term to forces
     atom    1 type  1   force =     0.00000000    0.00000000    0.00000000
     atom    2 type  2   force =    -0.00000000   -0.00000000   -0.00036552
     atom    3 type  2   force =    -0.00000000    0.00000000    0.00036552

     Total force =     0.029544     Total SCF correction =     0.000517


     Computing stress (Cartesian axis) and pressure


     negative rho (up, down):  3.658E-04 0.000E+00
          total   stress  (Ry/bohr**3)                   (kbar)     P=       -9.87
  -0.00003220  -0.00000000   0.00000000           -4.74       -0.00        0.00
  -0.00000000  -0.00003220  -0.00000000           -0.00       -4.74       -0.00
   0.00000000   0.00000000  -0.00013686            0.00        0.00      -20.13


     Writing all to output data dir ./tmp/scf.save/
 
     init_run     :      0.66s CPU      0.80s WALL (       1 calls)
     electrons    :      7.45s CPU      8.14s WALL (       1 calls)
     forces       :      0.26s CPU      0.27s WALL (       1 calls)
     stress       :      1.35s CPU      1.40s WALL (       1 calls)

     Called by init_run:
     wfcinit      :      0.19s CPU      0.25s WALL (       1 calls)
     potinit      :      0.14s CPU      0.16s WALL (       1 calls)
     hinit0       :      0.21s CPU      0.25s WALL (       1 calls)

     Called by electrons:
     c_bands      :      5.74s CPU      6.23s WALL (       8 calls)
     sum_band     :      0.98s CPU      1.15s WALL (       8 calls)
     v_of_rho     :      0.06s CPU      0.06s WALL (       8 calls)
     newd         :      0.31s CPU      0.33s WALL (       8 calls)
     PAW_pot      :      0.48s CPU      0.50s WALL (       8 calls)
     mix_rho      :      0.01s CPU      0.01s WALL (       8 calls)

     Called by c_bands:
     init_us_2    :      0.12s CPU      0.13s WALL (     570 calls)
     init_us_2:cp :      0.12s CPU      0.13s WALL (     570 calls)
     cegterg      :      3.82s CPU      4.29s WALL (     240 calls)

     Called by *egterg:
     cdiaghg      :      0.22s CPU      0.24s WALL (     823 calls)
     h_psi        :      3.12s CPU      3.57s WALL (     883 calls)
     s_psi        :      0.07s CPU      0.08s WALL (     883 calls)
     g_psi        :      0.01s CPU      0.01s WALL (     613 calls)

     Called by h_psi:
     h_psi:calbec :      0.23s CPU      0.26s WALL (     883 calls)
     vloc_psi     :      2.78s CPU      3.19s WALL (     883 calls)
     add_vuspsi   :      0.08s CPU      0.09s WALL (     883 calls)

     General routines
     calbec       :      0.76s CPU      0.83s WALL (    1273 calls)
     fft          :      0.06s CPU      0.10s WALL (     114 calls)
     ffts         :      0.00s CPU      0.00s WALL (       8 calls)
     fftw         :      2.94s CPU      3.39s WALL (   26302 calls)
 
     Parallel routines
 
     PWSCF        :     10.16s CPU     11.25s WALL

 
   This run was terminated on:  12:55:48   6Jun2025            

=------------------------------------------------------------------------------=
   JOB DONE.
=------------------------------------------------------------------------------=
