
     Program PWSCF v.7.2 starts on  6Jun2025 at 12:55: 1 

     This program is part of the open-source Quantum ESPRESSO suite
     for quantum simulation of materials; please cite
         "P. Giannozzi et al., J. Phys.:Condens. Matter 21 395502 (2009);
         "P. Giannozzi et al., J. Phys.:Condens. Matter 29 465901 (2017);
         "P. Giannozzi et al., J. Chem. Phys. 152 154105 (2020);
          URL http://www.quantum-espresso.org", 
     in publications or presentations arising from this work. More details at
     http://www.quantum-espresso.org/quote

     Parallel version (MPI), running on    16 processors

     MPI processes distributed on     1 nodes
     39712 MiB available memory on the printing compute node when the environment starts
 
     Waiting for input...
     Reading input from standard input

     Current dimensions of program PWSCF are:
     Max number of different atomic species (ntypx) = 10
     Max number of k-points (npk) =  40000
     Max angular momentum in pseudopotentials (lmaxx) =  4
     file Mo.pbe-spn-kjpaw_psl.1.0.0.UPF: wavefunction(s)  4S 4D renormalized
     file S.pbe-n-kjpaw_psl.1.0.0.UPF: wavefunction(s)  3S 3P renormalized
     Message from routine setup:
     using ibrav=0 with symmetry is DISCOURAGED, use correct ibrav instead
 
     R & G space division:  proc/nbgrp/npool/nimage =      16
     Subspace diagonalization in iterative solution of the eigenvalue problem:
     a serial algorithm will be used

 
     Parallelization info
     --------------------
     sticks:   dense  smooth     PW     G-vecs:    dense   smooth      PW
     Min          34      34     10                 3148     3148     504
     Max          35      35     11                 3167     3167     519
     Sum         547     547    163                50449    50449    8181
 
     Using Slab Decomposition
 


     bravais-lattice index     =            0
     lattice parameter (alat)  =       6.0093  a.u.
     unit-cell volume          =     915.4463 (a.u.)^3
     number of atoms/cell      =            3
     number of atomic types    =            2
     number of electrons       =        26.00
     number of Kohn-Sham states=           17
     kinetic-energy cutoff     =      55.0000  Ry
     charge density cutoff     =     220.0000  Ry
     scf convergence threshold =      1.0E-06
     mixing beta               =       0.7000
     number of iterations used =            8  plain     mixing
     Exchange-correlation= SLA  PW   PBX  PBC
                           (   1   4   3   4   0   0   0)

     celldm(1)=   6.009329  celldm(2)=   0.000000  celldm(3)=   0.000000
     celldm(4)=   0.000000  celldm(5)=   0.000000  celldm(6)=   0.000000

     crystal axes: (cart. coord. in units of alat)
               a(1) = (   1.000000   0.000000   0.000000 )  
               a(2) = (  -0.500000   0.866025   0.000000 )  
               a(3) = (   0.000000   0.000000   4.871069 )  

     reciprocal axes: (cart. coord. in units 2 pi/alat)
               b(1) = (  1.000000  0.577350  0.000000 )  
               b(2) = (  0.000000  1.154701  0.000000 )  
               b(3) = (  0.000000  0.000000  0.205294 )  


     PseudoPot. # 1 for Mo read from file:
     /shared/ESPRESSO/PSLIBRARY/1.0.0/pbe/PSEUDOPOTENTIALS/Mo.pbe-spn-kjpaw_psl.1.0.0.UPF
     MD5 check sum: 4396e0c640fcce5c25f020efccf1ab12
     Pseudo is Projector augmented-wave + core cor, Zval = 14.0
     Generated using &quot;atomic&quot; code by A. Dal Corso  v.6.3
     Shape of augmentation charge: PSQ
     Using radial grid of 1229 points,  6 beta functions with: 
                l(1) =   0
                l(2) =   0
                l(3) =   1
                l(4) =   1
                l(5) =   2
                l(6) =   2
     Q(r) pseudized with 0 coefficients 


     PseudoPot. # 2 for S  read from file:
     /shared/ESPRESSO/PSLIBRARY/1.0.0/pbe/PSEUDOPOTENTIALS/S.pbe-n-kjpaw_psl.1.0.0.UPF
     MD5 check sum: c08f931834bcc19553f8bde8f1a3adc5
     Pseudo is Projector augmented-wave + core cor, Zval =  6.0
     Generated using "atomic" code by A. Dal Corso  (Quantum ESPRESSO distribution)
     Shape of augmentation charge: PSQ
     Using radial grid of 1151 points,  6 beta functions with: 
                l(1) =   0
                l(2) =   0
                l(3) =   1
                l(4) =   1
                l(5) =   2
                l(6) =   2
     Q(r) pseudized with 0 coefficients 


     atomic species   valence    mass     pseudopotential
        Mo            14.00    95.94000     Mo( 1.00)
        S              6.00    32.06500     S ( 1.00)

     12 Sym. Ops. (no inversion) found



   Cartesian axes

     site n.     atom                  positions (alat units)
         1           Mo  tau(   1) = (   0.0000000   0.0000000   2.4355346  )
         2           S   tau(   2) = (   0.5000000   0.2886751   2.9371069  )
         3           S   tau(   3) = (   0.5000000   0.2886751   1.9339623  )

     number of k points=    30  Fermi-Dirac smearing, width (Ry)=  0.0070
                       cart. coord. in units 2pi/alat
        k(    1) = (   0.0000000   0.0000000   0.0000000), wk =   0.0078125
        k(    2) = (   0.0000000   0.0721688   0.0000000), wk =   0.0468750
        k(    3) = (   0.0000000   0.1443376   0.0000000), wk =   0.0468750
        k(    4) = (   0.0000000   0.2165064   0.0000000), wk =   0.0468750
        k(    5) = (   0.0000000   0.2886751   0.0000000), wk =   0.0468750
        k(    6) = (   0.0000000   0.3608439   0.0000000), wk =   0.0468750
        k(    7) = (   0.0000000   0.4330127   0.0000000), wk =   0.0468750
        k(    8) = (   0.0000000   0.5051815   0.0000000), wk =   0.0468750
        k(    9) = (   0.0000000  -0.5773503   0.0000000), wk =   0.0234375
        k(   10) = (   0.0625000   0.1082532   0.0000000), wk =   0.0468750
        k(   11) = (   0.0625000   0.1804220   0.0000000), wk =   0.0937500
        k(   12) = (   0.0625000   0.2525907   0.0000000), wk =   0.0937500
        k(   13) = (   0.0625000   0.3247595   0.0000000), wk =   0.0937500
        k(   14) = (   0.0625000   0.3969283   0.0000000), wk =   0.0937500
        k(   15) = (   0.0625000   0.4690971   0.0000000), wk =   0.0937500
        k(   16) = (   0.0625000   0.5412659   0.0000000), wk =   0.0937500
        k(   17) = (   0.1250000   0.2165064   0.0000000), wk =   0.0468750
        k(   18) = (   0.1250000   0.2886751   0.0000000), wk =   0.0937500
        k(   19) = (   0.1250000   0.3608439   0.0000000), wk =   0.0937500
        k(   20) = (   0.1250000   0.4330127   0.0000000), wk =   0.0937500
        k(   21) = (   0.1250000   0.5051815   0.0000000), wk =   0.0937500
        k(   22) = (   0.1250000   0.5773503   0.0000000), wk =   0.0468750
        k(   23) = (   0.1875000   0.3247595   0.0000000), wk =   0.0468750
        k(   24) = (   0.1875000   0.3969283   0.0000000), wk =   0.0937500
        k(   25) = (   0.1875000   0.4690971   0.0000000), wk =   0.0937500
        k(   26) = (   0.1875000   0.5412659   0.0000000), wk =   0.0937500
        k(   27) = (   0.2500000   0.4330127   0.0000000), wk =   0.0468750
        k(   28) = (   0.2500000   0.5051815   0.0000000), wk =   0.0937500
        k(   29) = (   0.2500000   0.5773503   0.0000000), wk =   0.0468750
        k(   30) = (   0.3125000   0.5412659   0.0000000), wk =   0.0468750

     Dense  grid:    50449 G-vectors     FFT dimensions: (  30,  30, 144)

     Estimated max dynamical RAM per process >      17.51 MB

     Estimated total dynamical RAM >     280.09 MB

     Initial potential from superposition of free atoms

     starting charge      25.9991, renormalised to      26.0000

     negative rho (up, down):  1.174E-03 0.000E+00
     Starting wfcs are   18 randomized atomic wfcs
     Checking if some PAW data can be deallocated... 

     total cpu time spent up to now is        0.7 secs

     Self-consistent Calculation

     iteration #  1     ecut=    55.00 Ry     beta= 0.70
     Davidson diagonalization with overlap
     ethr =  1.00E-02,  avg # of iterations =  2.3

     Threshold (ethr) on eigenvalues was too large:
     Diagonalizing with lowered threshold

     Davidson diagonalization with overlap
     ethr =  2.83E-04,  avg # of iterations =  3.7

     negative rho (up, down):  1.458E-03 0.000E+00

     total cpu time spent up to now is        1.8 secs

     total energy              =    -496.65165860 Ry
     estimated scf accuracy    <       0.11092882 Ry

     iteration #  2     ecut=    55.00 Ry     beta= 0.70
     Davidson diagonalization with overlap
     ethr =  4.27E-04,  avg # of iterations =  3.0

     negative rho (up, down):  1.414E-03 0.000E+00

     total cpu time spent up to now is        2.5 secs

     total energy              =    -496.62234541 Ry
     estimated scf accuracy    <       0.29483336 Ry

     iteration #  3     ecut=    55.00 Ry     beta= 0.70
     Davidson diagonalization with overlap
     ethr =  4.27E-04,  avg # of iterations =  2.5

     negative rho (up, down):  1.425E-03 0.000E+00

     total cpu time spent up to now is        3.2 secs

     total energy              =    -496.67474932 Ry
     estimated scf accuracy    <       0.14151829 Ry

     iteration #  4     ecut=    55.00 Ry     beta= 0.70
     Davidson diagonalization with overlap
     ethr =  4.27E-04,  avg # of iterations =  1.4

     negative rho (up, down):  1.483E-03 0.000E+00

     total cpu time spent up to now is        3.7 secs

     total energy              =    -496.69325173 Ry
     estimated scf accuracy    <       0.00060755 Ry

     iteration #  5     ecut=    55.00 Ry     beta= 0.70
     Davidson diagonalization with overlap
     ethr =  2.34E-06,  avg # of iterations =  3.5

     negative rho (up, down):  1.488E-03 0.000E+00

     total cpu time spent up to now is        4.5 secs

     total energy              =    -496.69353922 Ry
     estimated scf accuracy    <       0.00011263 Ry

     iteration #  6     ecut=    55.00 Ry     beta= 0.70
     Davidson diagonalization with overlap
     ethr =  4.33E-07,  avg # of iterations =  2.0

     negative rho (up, down):  1.492E-03 0.000E+00

     total cpu time spent up to now is        5.1 secs

     total energy              =    -496.69354809 Ry
     estimated scf accuracy    <       0.00001106 Ry

     iteration #  7     ecut=    55.00 Ry     beta= 0.70
     Davidson diagonalization with overlap
     ethr =  4.25E-08,  avg # of iterations =  2.2

     negative rho (up, down):  1.493E-03 0.000E+00

     total cpu time spent up to now is        5.7 secs

     End of self-consistent calculation

          k = 0.0000 0.0000 0.0000 (  6303 PWs)   bands (ev):

   -60.4014 -34.5359 -34.3206 -34.3206 -13.4958 -12.2967  -5.0241  -1.9279
    -1.9279  -1.3601  -0.8610  -0.8610   0.3770   3.2513   3.2513   3.4188
     3.4188

          k = 0.0000 0.0722 0.0000 (  6287 PWs)   bands (ev):

   -60.3999 -34.5332 -34.3348 -34.3238 -13.4383 -12.2710  -4.9559  -2.0640
    -1.8681  -1.6114  -0.9556  -0.7010   0.3561   3.1626   3.2471   3.3502
     3.3547

          k = 0.0000 0.1443 0.0000 (  6263 PWs)   bands (ev):

   -60.3958 -34.5252 -34.3753 -34.3331 -13.2709 -12.1962  -4.7668  -2.4174
    -2.0458  -1.6962  -1.2007  -0.5753   0.2651   2.8936   3.0369   3.1893
     3.6015

          k = 0.0000 0.2165 0.0000 (  6300 PWs)   bands (ev):

   -60.3900 -34.5135 -34.4355 -34.3470 -13.0083 -12.0792  -4.5161  -2.8596
    -2.5206  -1.5178  -1.4350  -0.6578   0.0499   2.6209   2.9847   3.0890
     3.9108

          k = 0.0000 0.2887 0.0000 (  6306 PWs)   bands (ev):

   -60.3829 -34.5058 -34.4995 -34.3633 -12.6759 -11.9320  -4.3597  -3.2141
    -3.0097  -1.8394  -1.1244  -0.8840  -0.2515   2.5618   2.8075   3.3486
     4.1978

          k = 0.0000 0.3608 0.0000 (  6298 PWs)   bands (ev):

   -60.3758 -34.5752 -34.4855 -34.3795 -12.3118 -11.7733  -4.5045  -3.4825
    -3.3273  -2.1215  -1.1243  -0.8188  -0.4555   2.6844   2.7075   3.7004
     4.4191

          k = 0.0000 0.4330 0.0000 (  6312 PWs)   bands (ev):

   -60.3698 -34.6335 -34.4737 -34.3932 -11.9699 -11.6279  -4.8216  -3.8866
    -3.3686  -2.3376  -1.3054  -0.5742  -0.4178   2.6993   2.9032   4.0170
     4.5651

          k = 0.0000 0.5052 0.0000 (  6306 PWs)   bands (ev):

   -60.3657 -34.6722 -34.4657 -34.4023 -11.7187 -11.5240  -5.0876  -4.1612
    -3.4454  -2.4725  -1.4106  -0.4248  -0.2356   2.7449   3.1303   4.2164
     4.6446

          k = 0.0000-0.5774 0.0000 (  6304 PWs)   bands (ev):

   -60.3643 -34.6857 -34.4630 -34.4055 -11.6251 -11.4861  -5.1892  -4.2586
    -3.4847  -2.5182  -1.4444  -0.3760  -0.1380   2.7727   3.2374   4.2806
     4.6694

          k = 0.0625 0.1083 0.0000 (  6255 PWs)   bands (ev):

   -60.3971 -34.5278 -34.3618 -34.3305 -13.3259 -12.2208  -4.8267  -2.3063
    -1.9117  -1.7546  -1.1679  -0.5545   0.3004   2.9938   3.0390   3.2332
     3.5401

          k = 0.0625 0.1804 0.0000 (  6262 PWs)   bands (ev):

   -60.3921 -34.5179 -34.4110 -34.3432 -13.1107 -12.1247  -4.6016  -2.6969
    -2.3077  -1.5486  -1.5308  -0.4981   0.1460   2.6895   2.9721   3.0466
     3.8453

          k = 0.0625 0.2526 0.0000 (  6284 PWs)   bands (ev):

   -60.3857 -34.5051 -34.4747 -34.3597 -12.8126 -11.9920  -4.3789  -3.0889
    -2.7564  -1.9017  -1.2948  -0.6279  -0.1163   2.5096   2.8891   3.1092
     4.1588

          k = 0.0625 0.3248 0.0000 (  6299 PWs)   bands (ev):

   -60.3786 -34.5429 -34.4911 -34.3777 -12.4629 -11.8377  -4.3710  -3.2888
    -3.2429  -2.1900  -1.0755  -0.8713  -0.3397   2.4918   2.8345   3.4122
     4.4107

          k = 0.0625 0.3969 0.0000 (  6317 PWs)   bands (ev):

   -60.3721 -34.6053 -34.4782 -34.3942 -12.1069 -11.6835  -4.6297  -3.7061
    -3.3166  -2.3803  -1.1224  -0.9511  -0.3240   2.5841   2.9025   3.7650
     4.5634

          k = 0.0625 0.4691 0.0000 (  6314 PWs)   bands (ev):

   -60.3671 -34.6526 -34.4683 -34.4068 -11.8059 -11.5562  -4.9252  -4.0682
    -3.3806  -2.4908  -1.3150  -0.8322  -0.1519   2.7060   3.0655   4.0786
     4.5999

          k = 0.0625 0.5413 0.0000 (  6326 PWs)   bands (ev):

   -60.3644 -34.6781 -34.4630 -34.4136 -11.6296 -11.4834  -5.1079  -4.2665
    -3.4527  -2.5406  -1.4177  -0.7434   0.0025   2.7721   3.2361   4.3081
     4.5360

          k = 0.1250 0.2165 0.0000 (  6293 PWs)   bands (ev):

   -60.3867 -34.5071 -34.4618 -34.3606 -12.8596 -12.0125  -4.3898  -3.0281
    -2.5948  -2.0481  -1.3743  -0.4582  -0.0613   2.4826   2.9176   2.9619
     4.1753

          k = 0.1250 0.2887 0.0000 (  6297 PWs)   bands (ev):

   -60.3802 -34.5202 -34.4942 -34.3821 -12.5426 -11.8711  -4.2863  -3.2395
    -2.9925  -2.4444  -1.2867  -0.5848  -0.2552   2.3671   2.9028   3.1215
     4.4629

          k = 0.1250 0.3608 0.0000 (  6310 PWs)   bands (ev):

   -60.3737 -34.5775 -34.4813 -34.4039 -12.1971 -11.7182  -4.4347  -3.5122
    -3.2432  -2.5985  -1.3515  -0.8357  -0.2692   2.4264   2.9721   3.4094
     4.6472

          k = 0.1250 0.4330 0.0000 (  6318 PWs)   bands (ev):

   -60.3681 -34.6256 -34.4703 -34.4226 -11.8749 -11.5776  -4.6880  -3.9742
    -3.2610  -2.6287  -1.3968  -1.1152  -0.1293   2.6145   3.0805   3.7263
     4.7067

          k = 0.1250 0.5052 0.0000 (  6316 PWs)   bands (ev):

   -60.3644 -34.6575 -34.4630 -34.4350 -11.6403 -11.4769  -4.8906  -4.2835
    -3.3570  -2.6047  -1.3648  -1.3366   0.0605   2.7328   3.2590   3.9933
     4.6592

          k = 0.1250 0.5774 0.0000 (  6341 PWs)   bands (ev):

   -60.3632 -34.6687 -34.4604 -34.4394 -11.5534 -11.4401  -4.9670  -4.3921
    -3.4088  -2.5856  -1.4233  -1.3432   0.1561   2.7433   3.3766   4.1160
     4.6047

          k = 0.1875 0.3248 0.0000 (  6313 PWs)   bands (ev):

   -60.3742 -34.5650 -34.4824 -34.4101 -12.2285 -11.7300  -4.3495  -3.3980
    -3.2031  -2.7384  -1.5235  -0.6999  -0.2572   2.3645   2.9984   3.2456
     4.6915

          k = 0.1875 0.3969 0.0000 (  6316 PWs)   bands (ev):

   -60.3687 -34.6037 -34.4714 -34.4386 -11.9130 -11.5881  -4.5023  -3.9005
    -3.1232  -2.7620  -1.8350  -0.9490  -0.1468   2.5417   3.1088   3.4476
     4.8225

          k = 0.1875 0.4691 0.0000 (  6317 PWs)   bands (ev):

   -60.3644 -34.6318 -34.4630 -34.4616 -11.6509 -11.4704  -4.6323  -4.2978
    -3.1931  -2.6792  -1.9994  -1.2356   0.0485   2.6652   3.2989   3.6361
     4.8776

          k = 0.1875 0.5413 0.0000 (  6318 PWs)   bands (ev):

   -60.3621 -34.6466 -34.4744 -34.4584 -11.4999 -11.4028  -4.6982  -4.5128
    -3.3201  -2.5847  -2.0325  -1.4415   0.2332   2.6218   3.5342   3.7452
     4.8897

          k = 0.2500 0.4330 0.0000 (  6319 PWs)   bands (ev):

   -60.3644 -34.6184 -34.4753 -34.4630 -11.6552 -11.4676  -4.5084  -4.3029
    -3.0454  -2.7122  -2.3449  -1.1885   0.0356   2.6338   3.3168   3.4952
     4.9703

          k = 0.2500 0.5052 0.0000 (  6334 PWs)   bands (ev):

   -60.3616 -34.6228 -34.5054 -34.4574 -11.4730 -11.3810  -4.5872  -4.4371
    -3.1681  -2.6251  -2.5707  -1.4540   0.2703   2.5138   3.5170   3.6314
     5.0890

          k = 0.2500 0.5774 0.0000 (  6341 PWs)   bands (ev):

   -60.3606 -34.6226 -34.5176 -34.4554 -11.4068 -11.3492  -4.6886  -4.3768
    -3.3115  -2.6665  -2.4830  -1.5857   0.3952   2.4132   3.5209   3.7887
     5.1358

          k = 0.3125 0.5413 0.0000 (  6339 PWs)   bands (ev):

   -60.3601 -34.6030 -34.5440 -34.4544 -11.3744 -11.3295  -4.7539  -4.1430
    -3.3689  -2.9506  -2.4196  -1.6618   0.4725   2.3045   3.4353   3.8895
     5.2380

     the Fermi energy is     1.3576 ev

!    total energy              =    -496.69355139 Ry
     total all-electron energy =     -9695.023766 Ry
     estimated scf accuracy    <       0.00000036 Ry
     smearing contrib. (-TS)   =      -0.00000193 Ry
     internal energy E=F+TS    =    -496.69354946 Ry

     The total energy is F=E-TS. E is the sum of the following terms:
     one-electron contribution =    -740.32107771 Ry
     hartree contribution      =     374.05478545 Ry
     xc contribution           =     -29.64806690 Ry
     ewald contribution        =     218.85262292 Ry
     one-center paw contrib.   =    -319.63181322 Ry

     convergence has been achieved in   7 iterations

     negative rho (up, down):  1.493E-03 0.000E+00

     Forces acting on atoms (cartesian axes, Ry/au):

     atom    1 type  1   force =     0.00000000    0.00000000    0.00000000
     atom    2 type  2   force =     0.00000000    0.00000000   -0.02092051
     atom    3 type  2   force =     0.00000000   -0.00000000    0.02092051
     The non-local contrib.  to forces
     atom    1 type  1   force =     0.00000000    0.00000000    0.00000000
     atom    2 type  2   force =     0.00000000    0.00000000   -0.27778337
     atom    3 type  2   force =     0.00000000    0.00000000    0.27778337
     The ionic contribution  to forces
     atom    1 type  1   force =     0.00000000   -0.00000000    0.00000000
     atom    2 type  2   force =    -0.00000000    0.00000000   32.99976195
     atom    3 type  2   force =    -0.00000000    0.00000000  -32.99976195
     The local contribution  to forces
     atom    1 type  1   force =     0.00000000   -0.00000000    0.00000000
     atom    2 type  2   force =    -0.00000000    0.00000000  -32.74528314
     atom    3 type  2   force =    -0.00000000    0.00000000   32.74528314
     The core correction contribution to forces
     atom    1 type  1   force =    -0.00000000    0.00000000   -0.00000000
     atom    2 type  2   force =     0.00000000   -0.00000000    0.00268788
     atom    3 type  2   force =     0.00000000   -0.00000000   -0.00268788
     The Hubbard contrib.    to forces
     atom    1 type  1   force =     0.00000000    0.00000000    0.00000000
     atom    2 type  2   force =     0.00000000    0.00000000    0.00000000
     atom    3 type  2   force =     0.00000000    0.00000000    0.00000000
     The SCF correction term to forces
     atom    1 type  1   force =    -0.00000000   -0.00000000   -0.00000000
     atom    2 type  2   force =     0.00000000    0.00000000   -0.00030383
     atom    3 type  2   force =     0.00000000    0.00000000    0.00030383

     Total force =     0.029586     Total SCF correction =     0.000430


     Computing stress (Cartesian axis) and pressure


     negative rho (up, down):  1.493E-03 0.000E+00
          total   stress  (Ry/bohr**3)                   (kbar)     P=      -11.38
  -0.00004244   0.00000000  -0.00000000           -6.24        0.00       -0.00
   0.00000000  -0.00004244   0.00000000            0.00       -6.24        0.00
  -0.00000000   0.00000000  -0.00014717           -0.00        0.00      -21.65


     Writing all to output data dir ./tmp/scf.save/
 
     init_run     :      0.34s CPU      0.44s WALL (       1 calls)
     electrons    :      4.93s CPU      5.08s WALL (       1 calls)
     forces       :      0.13s CPU      0.13s WALL (       1 calls)
     stress       :      0.57s CPU      0.58s WALL (       1 calls)

     Called by init_run:
     wfcinit      :      0.12s CPU      0.14s WALL (       1 calls)
     potinit      :      0.08s CPU      0.10s WALL (       1 calls)
     hinit0       :      0.10s CPU      0.16s WALL (       1 calls)

     Called by electrons:
     c_bands      :      3.58s CPU      3.69s WALL (       8 calls)
     sum_band     :      0.68s CPU      0.71s WALL (       8 calls)
     v_of_rho     :      0.02s CPU      0.03s WALL (       8 calls)
     newd         :      0.18s CPU      0.18s WALL (       8 calls)
     PAW_pot      :      0.52s CPU      0.55s WALL (       8 calls)
     mix_rho      :      0.01s CPU      0.01s WALL (       8 calls)

     Called by c_bands:
     init_us_2    :      0.09s CPU      0.09s WALL (     570 calls)
     init_us_2:cp :      0.09s CPU      0.09s WALL (     570 calls)
     cegterg      :      2.57s CPU      2.67s WALL (     240 calls)

     Called by *egterg:
     cdiaghg      :      0.26s CPU      0.27s WALL (     825 calls)
     h_psi        :      2.11s CPU      2.20s WALL (     885 calls)
     s_psi        :      0.05s CPU      0.06s WALL (     885 calls)
     g_psi        :      0.01s CPU      0.01s WALL (     615 calls)

     Called by h_psi:
     h_psi:calbec :      0.10s CPU      0.11s WALL (     885 calls)
     vloc_psi     :      1.93s CPU      2.01s WALL (     885 calls)
     add_vuspsi   :      0.06s CPU      0.06s WALL (     885 calls)

     General routines
     calbec       :      0.16s CPU      0.16s WALL (    1275 calls)
     fft          :      0.03s CPU      0.09s WALL (     114 calls)
     ffts         :      0.00s CPU      0.00s WALL (       8 calls)
     fftw         :      2.07s CPU      2.15s WALL (   26234 calls)
 
     Parallel routines
 
     PWSCF        :      6.25s CPU      6.59s WALL

 
   This run was terminated on:  12:55: 7   6Jun2025            

=------------------------------------------------------------------------------=
   JOB DONE.
=------------------------------------------------------------------------------=
