
     Program PWSCF v.7.2 starts on  6Jun2025 at 12:55: 3 

     This program is part of the open-source Quantum ESPRESSO suite
     for quantum simulation of materials; please cite
         "P. Giannozzi et al., J. Phys.:Condens. Matter 21 395502 (2009);
         "P. Giannozzi et al., J. Phys.:Condens. Matter 29 465901 (2017);
         "P. Giannozzi et al., J. Chem. Phys. 152 154105 (2020);
          URL http://www.quantum-espresso.org", 
     in publications or presentations arising from this work. More details at
     http://www.quantum-espresso.org/quote

     Parallel version (MPI), running on    16 processors

     MPI processes distributed on     1 nodes
     38415 MiB available memory on the printing compute node when the environment starts
 
     Waiting for input...
     Reading input from standard input

     Current dimensions of program PWSCF are:
     Max number of different atomic species (ntypx) = 10
     Max number of k-points (npk) =  40000
     Max angular momentum in pseudopotentials (lmaxx) =  4
     file Mo.pbe-spn-kjpaw_psl.1.0.0.UPF: wavefunction(s)  4S 4D renormalized
     file S.pbe-n-kjpaw_psl.1.0.0.UPF: wavefunction(s)  3S 3P renormalized
     Message from routine setup:
     using ibrav=0 with symmetry is DISCOURAGED, use correct ibrav instead
 
     R & G space division:  proc/nbgrp/npool/nimage =      16
     Subspace diagonalization in iterative solution of the eigenvalue problem:
     a serial algorithm will be used

 
     Parallelization info
     --------------------
     sticks:   dense  smooth     PW     G-vecs:    dense   smooth      PW
     Min          37      37     10                 3583     3583     562
     Max          38      38     11                 3599     3599     585
     Sum         595     595    169                57475    57475    9091
 
     Using Slab Decomposition
 


     bravais-lattice index     =            0
     lattice parameter (alat)  =       6.0093  a.u.
     unit-cell volume          =     915.4463 (a.u.)^3
     number of atoms/cell      =            3
     number of atomic types    =            2
     number of electrons       =        26.00
     number of Kohn-Sham states=           17
     kinetic-energy cutoff     =      60.0000  Ry
     charge density cutoff     =     240.0000  Ry
     scf convergence threshold =      1.0E-06
     mixing beta               =       0.7000
     number of iterations used =            8  plain     mixing
     Exchange-correlation= SLA  PW   PBX  PBC
                           (   1   4   3   4   0   0   0)

     celldm(1)=   6.009329  celldm(2)=   0.000000  celldm(3)=   0.000000
     celldm(4)=   0.000000  celldm(5)=   0.000000  celldm(6)=   0.000000

     crystal axes: (cart. coord. in units of alat)
               a(1) = (   1.000000   0.000000   0.000000 )  
               a(2) = (  -0.500000   0.866025   0.000000 )  
               a(3) = (   0.000000   0.000000   4.871069 )  

     reciprocal axes: (cart. coord. in units 2 pi/alat)
               b(1) = (  1.000000  0.577350  0.000000 )  
               b(2) = (  0.000000  1.154701  0.000000 )  
               b(3) = (  0.000000  0.000000  0.205294 )  


     PseudoPot. # 1 for Mo read from file:
     /shared/ESPRESSO/PSLIBRARY/1.0.0/pbe/PSEUDOPOTENTIALS/Mo.pbe-spn-kjpaw_psl.1.0.0.UPF
     MD5 check sum: 4396e0c640fcce5c25f020efccf1ab12
     Pseudo is Projector augmented-wave + core cor, Zval = 14.0
     Generated using &quot;atomic&quot; code by A. Dal Corso  v.6.3
     Shape of augmentation charge: PSQ
     Using radial grid of 1229 points,  6 beta functions with: 
                l(1) =   0
                l(2) =   0
                l(3) =   1
                l(4) =   1
                l(5) =   2
                l(6) =   2
     Q(r) pseudized with 0 coefficients 


     PseudoPot. # 2 for S  read from file:
     /shared/ESPRESSO/PSLIBRARY/1.0.0/pbe/PSEUDOPOTENTIALS/S.pbe-n-kjpaw_psl.1.0.0.UPF
     MD5 check sum: c08f931834bcc19553f8bde8f1a3adc5
     Pseudo is Projector augmented-wave + core cor, Zval =  6.0
     Generated using "atomic" code by A. Dal Corso  (Quantum ESPRESSO distribution)
     Shape of augmentation charge: PSQ
     Using radial grid of 1151 points,  6 beta functions with: 
                l(1) =   0
                l(2) =   0
                l(3) =   1
                l(4) =   1
                l(5) =   2
                l(6) =   2
     Q(r) pseudized with 0 coefficients 


     atomic species   valence    mass     pseudopotential
        Mo            14.00    95.94000     Mo( 1.00)
        S              6.00    32.06500     S ( 1.00)

     12 Sym. Ops. (no inversion) found



   Cartesian axes

     site n.     atom                  positions (alat units)
         1           Mo  tau(   1) = (   0.0000000   0.0000000   2.4355346  )
         2           S   tau(   2) = (   0.5000000   0.2886751   2.9371069  )
         3           S   tau(   3) = (   0.5000000   0.2886751   1.9339623  )

     number of k points=    30  Fermi-Dirac smearing, width (Ry)=  0.0070
                       cart. coord. in units 2pi/alat
        k(    1) = (   0.0000000   0.0000000   0.0000000), wk =   0.0078125
        k(    2) = (   0.0000000   0.0721688   0.0000000), wk =   0.0468750
        k(    3) = (   0.0000000   0.1443376   0.0000000), wk =   0.0468750
        k(    4) = (   0.0000000   0.2165064   0.0000000), wk =   0.0468750
        k(    5) = (   0.0000000   0.2886751   0.0000000), wk =   0.0468750
        k(    6) = (   0.0000000   0.3608439   0.0000000), wk =   0.0468750
        k(    7) = (   0.0000000   0.4330127   0.0000000), wk =   0.0468750
        k(    8) = (   0.0000000   0.5051815   0.0000000), wk =   0.0468750
        k(    9) = (   0.0000000  -0.5773503   0.0000000), wk =   0.0234375
        k(   10) = (   0.0625000   0.1082532   0.0000000), wk =   0.0468750
        k(   11) = (   0.0625000   0.1804220   0.0000000), wk =   0.0937500
        k(   12) = (   0.0625000   0.2525907   0.0000000), wk =   0.0937500
        k(   13) = (   0.0625000   0.3247595   0.0000000), wk =   0.0937500
        k(   14) = (   0.0625000   0.3969283   0.0000000), wk =   0.0937500
        k(   15) = (   0.0625000   0.4690971   0.0000000), wk =   0.0937500
        k(   16) = (   0.0625000   0.5412659   0.0000000), wk =   0.0937500
        k(   17) = (   0.1250000   0.2165064   0.0000000), wk =   0.0468750
        k(   18) = (   0.1250000   0.2886751   0.0000000), wk =   0.0937500
        k(   19) = (   0.1250000   0.3608439   0.0000000), wk =   0.0937500
        k(   20) = (   0.1250000   0.4330127   0.0000000), wk =   0.0937500
        k(   21) = (   0.1250000   0.5051815   0.0000000), wk =   0.0937500
        k(   22) = (   0.1250000   0.5773503   0.0000000), wk =   0.0468750
        k(   23) = (   0.1875000   0.3247595   0.0000000), wk =   0.0468750
        k(   24) = (   0.1875000   0.3969283   0.0000000), wk =   0.0937500
        k(   25) = (   0.1875000   0.4690971   0.0000000), wk =   0.0937500
        k(   26) = (   0.1875000   0.5412659   0.0000000), wk =   0.0937500
        k(   27) = (   0.2500000   0.4330127   0.0000000), wk =   0.0468750
        k(   28) = (   0.2500000   0.5051815   0.0000000), wk =   0.0937500
        k(   29) = (   0.2500000   0.5773503   0.0000000), wk =   0.0468750
        k(   30) = (   0.3125000   0.5412659   0.0000000), wk =   0.0468750

     Dense  grid:    57475 G-vectors     FFT dimensions: (  30,  30, 150)

     Estimated max dynamical RAM per process >      19.73 MB

     Estimated total dynamical RAM >     315.70 MB

     Initial potential from superposition of free atoms

     starting charge      25.9991, renormalised to      26.0000

     negative rho (up, down):  1.359E-03 0.000E+00
     Starting wfcs are   18 randomized atomic wfcs
     Checking if some PAW data can be deallocated... 

     total cpu time spent up to now is        1.2 secs

     Self-consistent Calculation

     iteration #  1     ecut=    60.00 Ry     beta= 0.70
     Davidson diagonalization with overlap
     ethr =  1.00E-02,  avg # of iterations =  2.3

     Threshold (ethr) on eigenvalues was too large:
     Diagonalizing with lowered threshold

     Davidson diagonalization with overlap
     ethr =  2.82E-04,  avg # of iterations =  3.6

     negative rho (up, down):  1.649E-03 0.000E+00

     total cpu time spent up to now is        2.6 secs

     total energy              =    -496.65278650 Ry
     estimated scf accuracy    <       0.11099150 Ry

     iteration #  2     ecut=    60.00 Ry     beta= 0.70
     Davidson diagonalization with overlap
     ethr =  4.27E-04,  avg # of iterations =  3.0

     negative rho (up, down):  1.597E-03 0.000E+00

     total cpu time spent up to now is        3.4 secs

     total energy              =    -496.62331134 Ry
     estimated scf accuracy    <       0.29599309 Ry

     iteration #  3     ecut=    60.00 Ry     beta= 0.70
     Davidson diagonalization with overlap
     ethr =  4.27E-04,  avg # of iterations =  2.5

     negative rho (up, down):  1.603E-03 0.000E+00

     total cpu time spent up to now is        4.1 secs

     total energy              =    -496.67593695 Ry
     estimated scf accuracy    <       0.14148973 Ry

     iteration #  4     ecut=    60.00 Ry     beta= 0.70
     Davidson diagonalization with overlap
     ethr =  4.27E-04,  avg # of iterations =  1.4

     negative rho (up, down):  1.662E-03 0.000E+00

     total cpu time spent up to now is        4.7 secs

     total energy              =    -496.69443444 Ry
     estimated scf accuracy    <       0.00060744 Ry

     iteration #  5     ecut=    60.00 Ry     beta= 0.70
     Davidson diagonalization with overlap
     ethr =  2.34E-06,  avg # of iterations =  3.5

     negative rho (up, down):  1.668E-03 0.000E+00

     total cpu time spent up to now is        5.2 secs

     total energy              =    -496.69472144 Ry
     estimated scf accuracy    <       0.00011324 Ry

     iteration #  6     ecut=    60.00 Ry     beta= 0.70
     Davidson diagonalization with overlap
     ethr =  4.36E-07,  avg # of iterations =  2.0

     negative rho (up, down):  1.673E-03 0.000E+00

     total cpu time spent up to now is        5.7 secs

     total energy              =    -496.69473038 Ry
     estimated scf accuracy    <       0.00001094 Ry

     iteration #  7     ecut=    60.00 Ry     beta= 0.70
     Davidson diagonalization with overlap
     ethr =  4.21E-08,  avg # of iterations =  2.2

     negative rho (up, down):  1.673E-03 0.000E+00

     total cpu time spent up to now is        6.2 secs

     End of self-consistent calculation

          k = 0.0000 0.0000 0.0000 (  7219 PWs)   bands (ev):

   -60.4057 -34.5367 -34.3215 -34.3215 -13.4964 -12.2973  -5.0247  -1.9285
    -1.9285  -1.3608  -0.8615  -0.8615   0.3761   3.2505   3.2505   3.4180
     3.4180

          k = 0.0000 0.0722 0.0000 (  7229 PWs)   bands (ev):

   -60.4043 -34.5340 -34.3357 -34.3247 -13.4390 -12.2716  -4.9565  -2.0646
    -1.8688  -1.6121  -0.9562  -0.7016   0.3552   3.1618   3.2462   3.3495
     3.3539

          k = 0.0000 0.1443 0.0000 (  7215 PWs)   bands (ev):

   -60.4003 -34.5261 -34.3762 -34.3340 -13.2716 -12.1968  -4.7674  -2.4180
    -2.0464  -1.6968  -1.2013  -0.5760   0.2642   2.8926   3.0360   3.1885
     3.6007

          k = 0.0000 0.2165 0.0000 (  7207 PWs)   bands (ev):

   -60.3942 -34.5143 -34.4363 -34.3478 -13.0089 -12.0797  -4.5167  -2.8602
    -2.5212  -1.5183  -1.4356  -0.6585   0.0492   2.6198   2.9839   3.0880
     3.9100

          k = 0.0000 0.2887 0.0000 (  7203 PWs)   bands (ev):

   -60.3871 -34.5065 -34.5004 -34.3641 -12.6765 -11.9326  -4.3602  -3.2147
    -3.0103  -1.8400  -1.1249  -0.8846  -0.2523   2.5607   2.8068   3.3475
     4.1970

          k = 0.0000 0.3608 0.0000 (  7183 PWs)   bands (ev):

   -60.3800 -34.5760 -34.4864 -34.3803 -12.3124 -11.7739  -4.5050  -3.4831
    -3.3279  -2.1221  -1.1249  -0.8193  -0.4562   2.6835   2.7068   3.6994
     4.4183

          k = 0.0000 0.4330 0.0000 (  7179 PWs)   bands (ev):

   -60.3739 -34.6342 -34.4746 -34.3940 -11.9705 -11.6284  -4.8222  -3.8872
    -3.3692  -2.3382  -1.3060  -0.5747  -0.4185   2.6986   2.9024   4.0161
     4.5643

          k = 0.0000 0.5052 0.0000 (  7168 PWs)   bands (ev):

   -60.3698 -34.6729 -34.4666 -34.4032 -11.7193 -11.5246  -5.0882  -4.1617
    -3.4460  -2.4730  -1.4111  -0.4254  -0.2363   2.7442   3.1295   4.2155
     4.6437

          k = 0.0000-0.5774 0.0000 (  7164 PWs)   bands (ev):

   -60.3684 -34.6864 -34.4638 -34.4064 -11.6257 -11.4867  -5.1898  -4.2592
    -3.4853  -2.5188  -1.4450  -0.3766  -0.1387   2.7720   3.2367   4.2797
     4.6686

          k = 0.0625 0.1083 0.0000 (  7215 PWs)   bands (ev):

   -60.4016 -34.5287 -34.3627 -34.3314 -13.3265 -12.2214  -4.8273  -2.3069
    -1.9123  -1.7552  -1.1685  -0.5552   0.2995   2.9928   3.0382   3.2324
     3.5393

          k = 0.0625 0.1804 0.0000 (  7205 PWs)   bands (ev):

   -60.3965 -34.5189 -34.4119 -34.3441 -13.1113 -12.1252  -4.6022  -2.6976
    -2.3083  -1.5492  -1.5314  -0.4988   0.1452   2.6884   2.9712   3.0459
     3.8444

          k = 0.0625 0.2526 0.0000 (  7205 PWs)   bands (ev):

   -60.3900 -34.5060 -34.4755 -34.3606 -12.8132 -11.9925  -4.3795  -3.0895
    -2.7570  -1.9023  -1.2954  -0.6286  -0.1171   2.5086   2.8884   3.1083
     4.1579

          k = 0.0625 0.3248 0.0000 (  7202 PWs)   bands (ev):

   -60.3829 -34.5437 -34.4920 -34.3785 -12.4635 -11.8383  -4.3715  -3.2894
    -3.2434  -2.1906  -1.0761  -0.8719  -0.3404   2.4909   2.8337   3.4112
     4.4099

          k = 0.0625 0.3969 0.0000 (  7193 PWs)   bands (ev):

   -60.3763 -34.6060 -34.4791 -34.3950 -12.1075 -11.6840  -4.6302  -3.7067
    -3.3172  -2.3808  -1.1229  -0.9517  -0.3247   2.5833   2.9017   3.7640
     4.5626

          k = 0.0625 0.4691 0.0000 (  7163 PWs)   bands (ev):

   -60.3711 -34.6533 -34.4692 -34.4076 -11.8064 -11.5568  -4.9258  -4.0687
    -3.3811  -2.4913  -1.3156  -0.8328  -0.1525   2.7053   3.0647   4.0778
     4.5990

          k = 0.0625 0.5413 0.0000 (  7162 PWs)   bands (ev):

   -60.3684 -34.6788 -34.4638 -34.4144 -11.6301 -11.4840  -5.1085  -4.2671
    -3.4533  -2.5411  -1.4182  -0.7441   0.0019   2.7715   3.2354   4.3073
     4.5352

          k = 0.1250 0.2165 0.0000 (  7217 PWs)   bands (ev):

   -60.3910 -34.5080 -34.4626 -34.3614 -12.8603 -12.0130  -4.3904  -3.0288
    -2.5954  -2.0487  -1.3749  -0.4588  -0.0620   2.4816   2.9168   2.9610
     4.1744

          k = 0.1250 0.2887 0.0000 (  7204 PWs)   bands (ev):

   -60.3844 -34.5209 -34.4951 -34.3829 -12.5432 -11.8717  -4.2868  -3.2401
    -2.9931  -2.4450  -1.2873  -0.5855  -0.2559   2.3661   2.9019   3.1205
     4.4620

          k = 0.1250 0.3608 0.0000 (  7187 PWs)   bands (ev):

   -60.3778 -34.5783 -34.4822 -34.4048 -12.1977 -11.7188  -4.4353  -3.5127
    -3.2439  -2.5990  -1.3521  -0.8363  -0.2698   2.4255   2.9713   3.4084
     4.6463

          k = 0.1250 0.4330 0.0000 (  7176 PWs)   bands (ev):

   -60.3722 -34.6263 -34.4712 -34.4234 -11.8755 -11.5782  -4.6886  -3.9748
    -3.2616  -2.6292  -1.3974  -1.1157  -0.1299   2.6137   3.0797   3.7254
     4.7059

          k = 0.1250 0.5052 0.0000 (  7163 PWs)   bands (ev):

   -60.3684 -34.6582 -34.4639 -34.4358 -11.6409 -11.4775  -4.8912  -4.2841
    -3.3576  -2.6053  -1.3654  -1.3372   0.0598   2.7320   3.2583   3.9924
     4.6584

          k = 0.1250 0.5774 0.0000 (  7158 PWs)   bands (ev):

   -60.3671 -34.6693 -34.4613 -34.4402 -11.5540 -11.4407  -4.9675  -4.3926
    -3.4093  -2.5862  -1.4239  -1.3438   0.1555   2.7426   3.3759   4.1152
     4.6038

          k = 0.1875 0.3248 0.0000 (  7195 PWs)   bands (ev):

   -60.3784 -34.5658 -34.4832 -34.4110 -12.2290 -11.7306  -4.3500  -3.3985
    -3.2037  -2.7390  -1.5241  -0.7005  -0.2579   2.3635   2.9976   3.2446
     4.6906

          k = 0.1875 0.3969 0.0000 (  7189 PWs)   bands (ev):

   -60.3728 -34.6044 -34.4723 -34.4394 -11.9136 -11.5886  -4.5028  -3.9010
    -3.1238  -2.7625  -1.8356  -0.9495  -0.1474   2.5408   3.1081   3.4467
     4.8216

          k = 0.1875 0.4691 0.0000 (  7164 PWs)   bands (ev):

   -60.3684 -34.6325 -34.4639 -34.4624 -11.6515 -11.4709  -4.6328  -4.2983
    -3.1937  -2.6798  -2.0000  -1.2361   0.0479   2.6644   3.2982   3.6353
     4.8766

          k = 0.1875 0.5413 0.0000 (  7152 PWs)   bands (ev):

   -60.3661 -34.6472 -34.4752 -34.4593 -11.5005 -11.4033  -4.6988  -4.5134
    -3.3207  -2.5852  -2.0331  -1.4421   0.2326   2.6211   3.5335   3.7444
     4.8888

          k = 0.2500 0.4330 0.0000 (  7189 PWs)   bands (ev):

   -60.3685 -34.6191 -34.4761 -34.4639 -11.6558 -11.4682  -4.5089  -4.3034
    -3.0460  -2.7127  -2.3455  -1.1890   0.0349   2.6330   3.3160   3.4944
     4.9693

          k = 0.2500 0.5052 0.0000 (  7149 PWs)   bands (ev):

   -60.3655 -34.6234 -34.5061 -34.4583 -11.4735 -11.3815  -4.5877  -4.4377
    -3.1687  -2.6257  -2.5712  -1.4546   0.2697   2.5130   3.5162   3.6307
     5.0881

          k = 0.2500 0.5774 0.0000 (  7162 PWs)   bands (ev):

   -60.3646 -34.6233 -34.5183 -34.4563 -11.4074 -11.3498  -4.6891  -4.3774
    -3.3120  -2.6671  -2.4836  -1.5863   0.3946   2.4124   3.5200   3.7880
     5.1349

          k = 0.3125 0.5413 0.0000 (  7150 PWs)   bands (ev):

   -60.3640 -34.6037 -34.5447 -34.4553 -11.3750 -11.3301  -4.7544  -4.1436
    -3.3694  -2.9511  -2.4202  -1.6623   0.4720   2.3037   3.4344   3.8888
     5.2371

     the Fermi energy is     1.3568 ev

!    total energy              =    -496.69473368 Ry
     total all-electron energy =     -9695.024948 Ry
     estimated scf accuracy    <       0.00000037 Ry
     smearing contrib. (-TS)   =      -0.00000193 Ry
     internal energy E=F+TS    =    -496.69473176 Ry

     The total energy is F=E-TS. E is the sum of the following terms:
     one-electron contribution =    -740.32314885 Ry
     hartree contribution      =     374.05470814 Ry
     xc contribution           =     -29.64846702 Ry
     ewald contribution        =     218.85262292 Ry
     one-center paw contrib.   =    -319.63044696 Ry

     convergence has been achieved in   7 iterations

     negative rho (up, down):  1.673E-03 0.000E+00

     Forces acting on atoms (cartesian axes, Ry/au):

     atom    1 type  1   force =     0.00000000    0.00000000    0.00000000
     atom    2 type  2   force =     0.00000000    0.00000000   -0.02092584
     atom    3 type  2   force =     0.00000000   -0.00000000    0.02092584
     The non-local contrib.  to forces
     atom    1 type  1   force =     0.00000000    0.00000000    0.00000000
     atom    2 type  2   force =     0.00000000   -0.00000000   -0.27778642
     atom    3 type  2   force =     0.00000000   -0.00000000    0.27778642
     The ionic contribution  to forces
     atom    1 type  1   force =     0.00000000   -0.00000000    0.00000000
     atom    2 type  2   force =    -0.00000000    0.00000000   32.99976195
     atom    3 type  2   force =    -0.00000000    0.00000000  -32.99976195
     The local contribution  to forces
     atom    1 type  1   force =    -0.00000000   -0.00000000   -0.00000000
     atom    2 type  2   force =    -0.00000000    0.00000000  -32.74526757
     atom    3 type  2   force =    -0.00000000    0.00000000   32.74526757
     The core correction contribution to forces
     atom    1 type  1   force =     0.00000000    0.00000000   -0.00000000
     atom    2 type  2   force =     0.00000000   -0.00000000    0.00268941
     atom    3 type  2   force =     0.00000000   -0.00000000   -0.00268941
     The Hubbard contrib.    to forces
     atom    1 type  1   force =     0.00000000    0.00000000    0.00000000
     atom    2 type  2   force =     0.00000000    0.00000000    0.00000000
     atom    3 type  2   force =     0.00000000    0.00000000    0.00000000
     The SCF correction term to forces
     atom    1 type  1   force =     0.00000000    0.00000000    0.00000000
     atom    2 type  2   force =     0.00000000   -0.00000000   -0.00032322
     atom    3 type  2   force =     0.00000000    0.00000000    0.00032322

     Total force =     0.029594     Total SCF correction =     0.000457


     Computing stress (Cartesian axis) and pressure


     negative rho (up, down):  1.673E-03 0.000E+00
          total   stress  (Ry/bohr**3)                   (kbar)     P=      -10.76
  -0.00003824   0.00000000   0.00000000           -5.63        0.00        0.00
   0.00000000  -0.00003824   0.00000000            0.00       -5.63        0.00
   0.00000000  -0.00000000  -0.00014290            0.00       -0.00      -21.02


     Writing all to output data dir ./tmp/scf.save/
 
     init_run     :      0.43s CPU      0.54s WALL (       1 calls)
     electrons    :      4.77s CPU      5.06s WALL (       1 calls)
     forces       :      0.13s CPU      0.13s WALL (       1 calls)
     stress       :      0.56s CPU      0.57s WALL (       1 calls)

     Called by init_run:
     wfcinit      :      0.16s CPU      0.17s WALL (       1 calls)
     potinit      :      0.11s CPU      0.12s WALL (       1 calls)
     hinit0       :      0.12s CPU      0.18s WALL (       1 calls)

     Called by electrons:
     c_bands      :      3.53s CPU      3.78s WALL (       8 calls)
     sum_band     :      0.66s CPU      0.69s WALL (       8 calls)
     v_of_rho     :      0.03s CPU      0.03s WALL (       8 calls)
     newd         :      0.16s CPU      0.17s WALL (       8 calls)
     PAW_pot      :      0.47s CPU      0.49s WALL (       8 calls)
     mix_rho      :      0.00s CPU      0.00s WALL (       8 calls)

     Called by c_bands:
     init_us_2    :      0.09s CPU      0.09s WALL (     570 calls)
     init_us_2:cp :      0.09s CPU      0.09s WALL (     570 calls)
     cegterg      :      2.85s CPU      3.09s WALL (     240 calls)

     Called by *egterg:
     cdiaghg      :      0.25s CPU      0.26s WALL (     824 calls)
     h_psi        :      2.42s CPU      2.66s WALL (     884 calls)
     s_psi        :      0.06s CPU      0.06s WALL (     884 calls)
     g_psi        :      0.01s CPU      0.01s WALL (     614 calls)

     Called by h_psi:
     h_psi:calbec :      0.11s CPU      0.12s WALL (     884 calls)
     vloc_psi     :      2.23s CPU      2.46s WALL (     884 calls)
     add_vuspsi   :      0.06s CPU      0.07s WALL (     884 calls)

     General routines
     calbec       :      0.17s CPU      0.17s WALL (    1274 calls)
     fft          :      0.02s CPU      0.08s WALL (     114 calls)
     ffts         :      0.00s CPU      0.00s WALL (       8 calls)
     fftw         :      2.35s CPU      2.58s WALL (   26266 calls)
 
     Parallel routines
 
     PWSCF        :      6.50s CPU      7.08s WALL

 
   This run was terminated on:  12:55:10   6Jun2025            

=------------------------------------------------------------------------------=
   JOB DONE.
=------------------------------------------------------------------------------=
