
     Program PWSCF v.7.2 starts on  6Jun2025 at 12:55:13 

     This program is part of the open-source Quantum ESPRESSO suite
     for quantum simulation of materials; please cite
         "P. Giannozzi et al., J. Phys.:Condens. Matter 21 395502 (2009);
         "P. Giannozzi et al., J. Phys.:Condens. Matter 29 465901 (2017);
         "P. Giannozzi et al., J. Chem. Phys. 152 154105 (2020);
          URL http://www.quantum-espresso.org", 
     in publications or presentations arising from this work. More details at
     http://www.quantum-espresso.org/quote

     Parallel version (MPI), running on    16 processors

     MPI processes distributed on     1 nodes
     38317 MiB available memory on the printing compute node when the environment starts
 
     Waiting for input...
     Reading input from standard input

     Current dimensions of program PWSCF are:
     Max number of different atomic species (ntypx) = 10
     Max number of k-points (npk) =  40000
     Max angular momentum in pseudopotentials (lmaxx) =  4
     file Mo.pbe-spn-kjpaw_psl.1.0.0.UPF: wavefunction(s)  4S 4D renormalized
     file S.pbe-n-kjpaw_psl.1.0.0.UPF: wavefunction(s)  3S 3P renormalized
     Message from routine setup:
     using ibrav=0 with symmetry is DISCOURAGED, use correct ibrav instead
 
     R & G space division:  proc/nbgrp/npool/nimage =      16
     Subspace diagonalization in iterative solution of the eigenvalue problem:
     a serial algorithm will be used

 
     Parallelization info
     --------------------
     sticks:   dense  smooth     PW     G-vecs:    dense   smooth      PW
     Min          43      43     12                 4510     4510     704
     Max          44      44     13                 4527     4527     727
     Sum         691     691    199                72281    72281   11419
 
     Using Slab Decomposition
 


     bravais-lattice index     =            0
     lattice parameter (alat)  =       6.0093  a.u.
     unit-cell volume          =     915.4463 (a.u.)^3
     number of atoms/cell      =            3
     number of atomic types    =            2
     number of electrons       =        26.00
     number of Kohn-Sham states=           17
     kinetic-energy cutoff     =      70.0000  Ry
     charge density cutoff     =     280.0000  Ry
     scf convergence threshold =      1.0E-06
     mixing beta               =       0.7000
     number of iterations used =            8  plain     mixing
     Exchange-correlation= SLA  PW   PBX  PBC
                           (   1   4   3   4   0   0   0)

     celldm(1)=   6.009329  celldm(2)=   0.000000  celldm(3)=   0.000000
     celldm(4)=   0.000000  celldm(5)=   0.000000  celldm(6)=   0.000000

     crystal axes: (cart. coord. in units of alat)
               a(1) = (   1.000000   0.000000   0.000000 )  
               a(2) = (  -0.500000   0.866025   0.000000 )  
               a(3) = (   0.000000   0.000000   4.871069 )  

     reciprocal axes: (cart. coord. in units 2 pi/alat)
               b(1) = (  1.000000  0.577350  0.000000 )  
               b(2) = (  0.000000  1.154701  0.000000 )  
               b(3) = (  0.000000  0.000000  0.205294 )  


     PseudoPot. # 1 for Mo read from file:
     /shared/ESPRESSO/PSLIBRARY/1.0.0/pbe/PSEUDOPOTENTIALS/Mo.pbe-spn-kjpaw_psl.1.0.0.UPF
     MD5 check sum: 4396e0c640fcce5c25f020efccf1ab12
     Pseudo is Projector augmented-wave + core cor, Zval = 14.0
     Generated using &quot;atomic&quot; code by A. Dal Corso  v.6.3
     Shape of augmentation charge: PSQ
     Using radial grid of 1229 points,  6 beta functions with: 
                l(1) =   0
                l(2) =   0
                l(3) =   1
                l(4) =   1
                l(5) =   2
                l(6) =   2
     Q(r) pseudized with 0 coefficients 


     PseudoPot. # 2 for S  read from file:
     /shared/ESPRESSO/PSLIBRARY/1.0.0/pbe/PSEUDOPOTENTIALS/S.pbe-n-kjpaw_psl.1.0.0.UPF
     MD5 check sum: c08f931834bcc19553f8bde8f1a3adc5
     Pseudo is Projector augmented-wave + core cor, Zval =  6.0
     Generated using "atomic" code by A. Dal Corso  (Quantum ESPRESSO distribution)
     Shape of augmentation charge: PSQ
     Using radial grid of 1151 points,  6 beta functions with: 
                l(1) =   0
                l(2) =   0
                l(3) =   1
                l(4) =   1
                l(5) =   2
                l(6) =   2
     Q(r) pseudized with 0 coefficients 


     atomic species   valence    mass     pseudopotential
        Mo            14.00    95.94000     Mo( 1.00)
        S              6.00    32.06500     S ( 1.00)

     12 Sym. Ops. (no inversion) found



   Cartesian axes

     site n.     atom                  positions (alat units)
         1           Mo  tau(   1) = (   0.0000000   0.0000000   2.4355346  )
         2           S   tau(   2) = (   0.5000000   0.2886751   2.9371069  )
         3           S   tau(   3) = (   0.5000000   0.2886751   1.9339623  )

     number of k points=    30  Fermi-Dirac smearing, width (Ry)=  0.0070
                       cart. coord. in units 2pi/alat
        k(    1) = (   0.0000000   0.0000000   0.0000000), wk =   0.0078125
        k(    2) = (   0.0000000   0.0721688   0.0000000), wk =   0.0468750
        k(    3) = (   0.0000000   0.1443376   0.0000000), wk =   0.0468750
        k(    4) = (   0.0000000   0.2165064   0.0000000), wk =   0.0468750
        k(    5) = (   0.0000000   0.2886751   0.0000000), wk =   0.0468750
        k(    6) = (   0.0000000   0.3608439   0.0000000), wk =   0.0468750
        k(    7) = (   0.0000000   0.4330127   0.0000000), wk =   0.0468750
        k(    8) = (   0.0000000   0.5051815   0.0000000), wk =   0.0468750
        k(    9) = (   0.0000000  -0.5773503   0.0000000), wk =   0.0234375
        k(   10) = (   0.0625000   0.1082532   0.0000000), wk =   0.0468750
        k(   11) = (   0.0625000   0.1804220   0.0000000), wk =   0.0937500
        k(   12) = (   0.0625000   0.2525907   0.0000000), wk =   0.0937500
        k(   13) = (   0.0625000   0.3247595   0.0000000), wk =   0.0937500
        k(   14) = (   0.0625000   0.3969283   0.0000000), wk =   0.0937500
        k(   15) = (   0.0625000   0.4690971   0.0000000), wk =   0.0937500
        k(   16) = (   0.0625000   0.5412659   0.0000000), wk =   0.0937500
        k(   17) = (   0.1250000   0.2165064   0.0000000), wk =   0.0468750
        k(   18) = (   0.1250000   0.2886751   0.0000000), wk =   0.0937500
        k(   19) = (   0.1250000   0.3608439   0.0000000), wk =   0.0937500
        k(   20) = (   0.1250000   0.4330127   0.0000000), wk =   0.0937500
        k(   21) = (   0.1250000   0.5051815   0.0000000), wk =   0.0937500
        k(   22) = (   0.1250000   0.5773503   0.0000000), wk =   0.0468750
        k(   23) = (   0.1875000   0.3247595   0.0000000), wk =   0.0468750
        k(   24) = (   0.1875000   0.3969283   0.0000000), wk =   0.0937500
        k(   25) = (   0.1875000   0.4690971   0.0000000), wk =   0.0937500
        k(   26) = (   0.1875000   0.5412659   0.0000000), wk =   0.0937500
        k(   27) = (   0.2500000   0.4330127   0.0000000), wk =   0.0468750
        k(   28) = (   0.2500000   0.5051815   0.0000000), wk =   0.0937500
        k(   29) = (   0.2500000   0.5773503   0.0000000), wk =   0.0468750
        k(   30) = (   0.3125000   0.5412659   0.0000000), wk =   0.0468750

     Dense  grid:    72281 G-vectors     FFT dimensions: (  36,  36, 160)

     Estimated max dynamical RAM per process >      24.48 MB

     Estimated total dynamical RAM >     391.62 MB

     Initial potential from superposition of free atoms

     starting charge      25.9991, renormalised to      26.0000

     negative rho (up, down):  2.664E-04 0.000E+00
     Starting wfcs are   18 randomized atomic wfcs
     Checking if some PAW data can be deallocated... 

     total cpu time spent up to now is        1.1 secs

     Self-consistent Calculation

     iteration #  1     ecut=    70.00 Ry     beta= 0.70
     Davidson diagonalization with overlap
     ethr =  1.00E-02,  avg # of iterations =  2.3

     Threshold (ethr) on eigenvalues was too large:
     Diagonalizing with lowered threshold

     Davidson diagonalization with overlap
     ethr =  2.83E-04,  avg # of iterations =  3.6

     negative rho (up, down):  2.716E-04 0.000E+00

     total cpu time spent up to now is        3.0 secs

     total energy              =    -496.65340508 Ry
     estimated scf accuracy    <       0.11131660 Ry

     iteration #  2     ecut=    70.00 Ry     beta= 0.70
     Davidson diagonalization with overlap
     ethr =  4.28E-04,  avg # of iterations =  3.0

     negative rho (up, down):  2.524E-04 0.000E+00

     total cpu time spent up to now is        3.9 secs

     total energy              =    -496.62359645 Ry
     estimated scf accuracy    <       0.29991556 Ry

     iteration #  3     ecut=    70.00 Ry     beta= 0.70
     Davidson diagonalization with overlap
     ethr =  4.28E-04,  avg # of iterations =  2.5

     negative rho (up, down):  2.462E-04 0.000E+00

     total cpu time spent up to now is        4.4 secs

     total energy              =    -496.67689184 Ry
     estimated scf accuracy    <       0.14068613 Ry

     iteration #  4     ecut=    70.00 Ry     beta= 0.70
     Davidson diagonalization with overlap
     ethr =  4.28E-04,  avg # of iterations =  1.4

     negative rho (up, down):  2.526E-04 0.000E+00

     total cpu time spent up to now is        4.9 secs

     total energy              =    -496.69531682 Ry
     estimated scf accuracy    <       0.00060458 Ry

     iteration #  5     ecut=    70.00 Ry     beta= 0.70
     Davidson diagonalization with overlap
     ethr =  2.33E-06,  avg # of iterations =  3.5

     negative rho (up, down):  2.538E-04 0.000E+00

     total cpu time spent up to now is        5.7 secs

     total energy              =    -496.69560318 Ry
     estimated scf accuracy    <       0.00011358 Ry

     iteration #  6     ecut=    70.00 Ry     beta= 0.70
     Davidson diagonalization with overlap
     ethr =  4.37E-07,  avg # of iterations =  2.0

     negative rho (up, down):  2.549E-04 0.000E+00

     total cpu time spent up to now is        6.3 secs

     total energy              =    -496.69561204 Ry
     estimated scf accuracy    <       0.00001101 Ry

     iteration #  7     ecut=    70.00 Ry     beta= 0.70
     Davidson diagonalization with overlap
     ethr =  4.23E-08,  avg # of iterations =  2.2

     negative rho (up, down):  2.552E-04 0.000E+00

     total cpu time spent up to now is        7.0 secs

     End of self-consistent calculation

          k = 0.0000 0.0000 0.0000 (  8945 PWs)   bands (ev):

   -60.4039 -34.5331 -34.3176 -34.3176 -13.4945 -12.2954  -5.0229  -1.9264
    -1.9264  -1.3586  -0.8596  -0.8596   0.3784   3.2522   3.2522   3.4199
     3.4199

          k = 0.0000 0.0722 0.0000 (  8957 PWs)   bands (ev):

   -60.4025 -34.5303 -34.3319 -34.3209 -13.4371 -12.2697  -4.9547  -2.0625
    -1.8667  -1.6100  -0.9543  -0.6996   0.3575   3.1636   3.2485   3.3512
     3.3558

          k = 0.0000 0.1443 0.0000 (  8978 PWs)   bands (ev):

   -60.3985 -34.5225 -34.3724 -34.3301 -13.2697 -12.1949  -4.7655  -2.4160
    -2.0444  -1.6948  -1.1994  -0.5739   0.2664   2.8952   3.0380   3.1903
     3.6024

          k = 0.0000 0.2165 0.0000 (  9014 PWs)   bands (ev):

   -60.3924 -34.5107 -34.4325 -34.3440 -13.0070 -12.0778  -4.5148  -2.8582
    -2.5192  -1.5164  -1.4336  -0.6564   0.0511   2.6225   2.9857   3.0903
     3.9116

          k = 0.0000 0.2887 0.0000 (  9036 PWs)   bands (ev):

   -60.3853 -34.5027 -34.4968 -34.3603 -12.6745 -11.9307  -4.3583  -3.2128
    -3.0084  -1.8381  -1.1230  -0.8826  -0.2504   2.5632   2.8084   3.3499
     4.1986

          k = 0.0000 0.3608 0.0000 (  9042 PWs)   bands (ev):

   -60.3782 -34.5721 -34.4828 -34.3765 -12.3104 -11.7720  -4.5030  -3.4812
    -3.3261  -2.1201  -1.1230  -0.8173  -0.4544   2.6856   2.7084   3.7017
     4.4198

          k = 0.0000 0.4330 0.0000 (  9028 PWs)   bands (ev):

   -60.3722 -34.6304 -34.4709 -34.3902 -11.9685 -11.6265  -4.8203  -3.8853
    -3.3673  -2.3362  -1.3042  -0.5727  -0.4166   2.7001   2.9042   4.0182
     4.5658

          k = 0.0000 0.5052 0.0000 (  9046 PWs)   bands (ev):

   -60.3681 -34.6691 -34.4630 -34.3993 -11.7173 -11.5226  -5.0863  -4.1598
    -3.4440  -2.4711  -1.4094  -0.4233  -0.2344   2.7456   3.1310   4.2174
     4.6452

          k = 0.0000-0.5774 0.0000 (  9054 PWs)   bands (ev):

   -60.3667 -34.6826 -34.4602 -34.4025 -11.6236 -11.4847  -5.1879  -4.2573
    -3.4833  -2.5168  -1.4432  -0.3745  -0.1368   2.7733   3.2381   4.2815
     4.6701

          k = 0.0625 0.1083 0.0000 (  8982 PWs)   bands (ev):

   -60.3998 -34.5250 -34.3588 -34.3275 -13.3246 -12.2195  -4.8254  -2.3049
    -1.9103  -1.7531  -1.1666  -0.5530   0.3016   2.9954   3.0401   3.2342
     3.5410

          k = 0.0625 0.1804 0.0000 (  9013 PWs)   bands (ev):

   -60.3947 -34.5152 -34.4080 -34.3402 -13.1094 -12.1233  -4.6003  -2.6955
    -2.3063  -1.5472  -1.5294  -0.4966   0.1471   2.6911   2.9733   3.0477
     3.8462

          k = 0.0625 0.2526 0.0000 (  9037 PWs)   bands (ev):

   -60.3882 -34.5023 -34.4717 -34.3568 -12.8113 -11.9906  -4.3776  -3.0876
    -2.7551  -1.9003  -1.2934  -0.6265  -0.1152   2.5111   2.8902   3.1105
     4.1597

          k = 0.0625 0.3248 0.0000 (  9053 PWs)   bands (ev):

   -60.3811 -34.5398 -34.4884 -34.3747 -12.4615 -11.8363  -4.3696  -3.2875
    -3.2415  -2.1887  -1.0741  -0.8700  -0.3385   2.4930   2.8355   3.4134
     4.4116

          k = 0.0625 0.3969 0.0000 (  9066 PWs)   bands (ev):

   -60.3745 -34.6022 -34.4755 -34.3912 -12.1055 -11.6821  -4.6283  -3.7048
    -3.3153  -2.3789  -1.1211  -0.9498  -0.3228   2.5851   2.9034   3.7661
     4.5642

          k = 0.0625 0.4691 0.0000 (  9063 PWs)   bands (ev):

   -60.3694 -34.6495 -34.4656 -34.4037 -11.8044 -11.5548  -4.9239  -4.0668
    -3.3792  -2.4894  -1.3138  -0.8309  -0.1506   2.7068   3.0663   4.0796
     4.6006

          k = 0.0625 0.5413 0.0000 (  9063 PWs)   bands (ev):

   -60.3667 -34.6750 -34.4602 -34.4105 -11.6281 -11.4820  -5.1067  -4.2652
    -3.4513  -2.5392  -1.4165  -0.7421   0.0038   2.7729   3.2369   4.3090
     4.5368

          k = 0.1250 0.2165 0.0000 (  9046 PWs)   bands (ev):

   -60.3892 -34.5043 -34.4588 -34.3576 -12.8583 -12.0111  -4.3885  -3.0268
    -2.5935  -2.0468  -1.3729  -0.4568  -0.0601   2.4841   2.9186   2.9630
     4.1764

          k = 0.1250 0.2887 0.0000 (  9043 PWs)   bands (ev):

   -60.3826 -34.5171 -34.4914 -34.3790 -12.5413 -11.8698  -4.2849  -3.2382
    -2.9912  -2.4431  -1.2853  -0.5835  -0.2541   2.3684   2.9038   3.1226
     4.4640

          k = 0.1250 0.3608 0.0000 (  9059 PWs)   bands (ev):

   -60.3760 -34.5744 -34.4785 -34.4009 -12.1957 -11.7168  -4.4333  -3.5108
    -3.2420  -2.5971  -1.3502  -0.8344  -0.2680   2.4275   2.9729   3.4104
     4.6482

          k = 0.1250 0.4330 0.0000 (  9072 PWs)   bands (ev):

   -60.3705 -34.6225 -34.4675 -34.4195 -11.8735 -11.5762  -4.6867  -3.9729
    -3.2597  -2.6273  -1.3955  -1.1139  -0.1281   2.6155   3.0812   3.7272
     4.7076

          k = 0.1250 0.5052 0.0000 (  9081 PWs)   bands (ev):

   -60.3667 -34.6543 -34.4602 -34.4320 -11.6388 -11.4755  -4.8893  -4.2822
    -3.3557  -2.6034  -1.3634  -1.3354   0.0617   2.7336   3.2597   3.9941
     4.6601

          k = 0.1250 0.5774 0.0000 (  9058 PWs)   bands (ev):

   -60.3654 -34.6655 -34.4576 -34.4364 -11.5519 -11.4387  -4.9657  -4.3907
    -3.4074  -2.5843  -1.4221  -1.3419   0.1574   2.7440   3.3773   4.1168
     4.6056

          k = 0.1875 0.3248 0.0000 (  9052 PWs)   bands (ev):

   -60.3766 -34.5619 -34.4796 -34.4071 -12.2271 -11.7286  -4.3480  -3.3966
    -3.2019  -2.7371  -1.5222  -0.6986  -0.2560   2.3656   2.9992   3.2466
     4.6925

          k = 0.1875 0.3969 0.0000 (  9073 PWs)   bands (ev):

   -60.3710 -34.6005 -34.4686 -34.4355 -11.9116 -11.5867  -4.5009  -3.8991
    -3.1220  -2.7606  -1.8336  -0.9477  -0.1456   2.5428   3.1095   3.4485
     4.8235

          k = 0.1875 0.4691 0.0000 (  9072 PWs)   bands (ev):

   -60.3667 -34.6287 -34.4602 -34.4585 -11.6494 -11.4689  -4.6309  -4.2964
    -3.1918  -2.6779  -1.9980  -1.2343   0.0497   2.6661   3.2996   3.6369
     4.8784

          k = 0.1875 0.5413 0.0000 (  9075 PWs)   bands (ev):

   -60.3644 -34.6434 -34.4714 -34.4557 -11.4985 -11.4014  -4.6970  -4.5114
    -3.3188  -2.5833  -2.0312  -1.4403   0.2344   2.6226   3.5350   3.7459
     4.8905

          k = 0.2500 0.4330 0.0000 (  9090 PWs)   bands (ev):

   -60.3667 -34.6153 -34.4722 -34.4602 -11.6538 -11.4662  -4.5070  -4.3015
    -3.0441  -2.7109  -2.3435  -1.1872   0.0367   2.6347   3.3175   3.4960
     4.9711

          k = 0.2500 0.5052 0.0000 (  9074 PWs)   bands (ev):

   -60.3639 -34.6196 -34.5023 -34.4546 -11.4715 -11.3796  -4.5858  -4.4358
    -3.1668  -2.6237  -2.5693  -1.4528   0.2715   2.5146   3.5178   3.6322
     5.0897

          k = 0.2500 0.5774 0.0000 (  9076 PWs)   bands (ev):

   -60.3629 -34.6194 -34.5145 -34.4526 -11.4054 -11.3478  -4.6872  -4.3755
    -3.3101  -2.6652  -2.4817  -1.5845   0.3963   2.4140   3.5216   3.7895
     5.1364

          k = 0.3125 0.5413 0.0000 (  9082 PWs)   bands (ev):

   -60.3623 -34.5999 -34.5408 -34.4516 -11.3729 -11.3281  -4.7524  -4.1418
    -3.3675  -2.9492  -2.4183  -1.6606   0.4736   2.3053   3.4360   3.8903
     5.2386

     the Fermi energy is     1.3587 ev

!    total energy              =    -496.69561542 Ry
     total all-electron energy =     -9695.025830 Ry
     estimated scf accuracy    <       0.00000040 Ry
     smearing contrib. (-TS)   =      -0.00000193 Ry
     internal energy E=F+TS    =    -496.69561350 Ry

     The total energy is F=E-TS. E is the sum of the following terms:
     one-electron contribution =    -740.33038265 Ry
     hartree contribution      =     374.06034141 Ry
     xc contribution           =     -29.64893892 Ry
     ewald contribution        =     218.85262295 Ry
     one-center paw contrib.   =    -319.62925629 Ry

     convergence has been achieved in   7 iterations

     negative rho (up, down):  2.552E-04 0.000E+00

     Forces acting on atoms (cartesian axes, Ry/au):

     atom    1 type  1   force =     0.00000000    0.00000000    0.00000000
     atom    2 type  2   force =    -0.00000000    0.00000000   -0.02090683
     atom    3 type  2   force =     0.00000000   -0.00000000    0.02090683
     The non-local contrib.  to forces
     atom    1 type  1   force =     0.00000000    0.00000000    0.00000000
     atom    2 type  2   force =     0.00000000    0.00000000   -0.27780416
     atom    3 type  2   force =     0.00000000    0.00000000    0.27780416
     The ionic contribution  to forces
     atom    1 type  1   force =     0.00000000   -0.00000000    0.00000000
     atom    2 type  2   force =    -0.00000000    0.00000000   32.99976195
     atom    3 type  2   force =    -0.00000000    0.00000000  -32.99976195
     The local contribution  to forces
     atom    1 type  1   force =    -0.00000000   -0.00000000    0.00000000
     atom    2 type  2   force =    -0.00000000    0.00000000  -32.74519348
     atom    3 type  2   force =    -0.00000000    0.00000000   32.74519348
     The core correction contribution to forces
     atom    1 type  1   force =    -0.00000000    0.00000000   -0.00000000
     atom    2 type  2   force =     0.00000000   -0.00000000    0.00269081
     atom    3 type  2   force =     0.00000000   -0.00000000   -0.00269081
     The Hubbard contrib.    to forces
     atom    1 type  1   force =     0.00000000    0.00000000    0.00000000
     atom    2 type  2   force =     0.00000000    0.00000000    0.00000000
     atom    3 type  2   force =     0.00000000    0.00000000    0.00000000
     The SCF correction term to forces
     atom    1 type  1   force =    -0.00000000   -0.00000000    0.00000000
     atom    2 type  2   force =     0.00000000    0.00000000   -0.00036195
     atom    3 type  2   force =     0.00000000    0.00000000    0.00036195

     Total force =     0.029567     Total SCF correction =     0.000512


     Computing stress (Cartesian axis) and pressure


     negative rho (up, down):  2.552E-04 0.000E+00
          total   stress  (Ry/bohr**3)                   (kbar)     P=       -9.91
  -0.00003248   0.00000000   0.00000000           -4.78        0.00        0.00
   0.00000000  -0.00003248  -0.00000000            0.00       -4.78       -0.00
   0.00000000   0.00000000  -0.00013723            0.00        0.00      -20.19


     Writing all to output data dir ./tmp/scf.save/
 
     init_run     :      0.49s CPU      0.57s WALL (       1 calls)
     electrons    :      5.37s CPU      5.85s WALL (       1 calls)
     forces       :      0.17s CPU      0.18s WALL (       1 calls)
     stress       :      0.76s CPU      0.76s WALL (       1 calls)

     Called by init_run:
     wfcinit      :      0.16s CPU      0.17s WALL (       1 calls)
     potinit      :      0.12s CPU      0.12s WALL (       1 calls)
     hinit0       :      0.15s CPU      0.20s WALL (       1 calls)

     Called by electrons:
     c_bands      :      3.83s CPU      4.13s WALL (       8 calls)
     sum_band     :      0.71s CPU      0.74s WALL (       8 calls)
     v_of_rho     :      0.03s CPU      0.04s WALL (       8 calls)
     newd         :      0.20s CPU      0.22s WALL (       8 calls)
     PAW_pot      :      0.69s CPU      0.84s WALL (       8 calls)
     mix_rho      :      0.01s CPU      0.01s WALL (       8 calls)

     Called by c_bands:
     init_us_2    :      0.11s CPU      0.11s WALL (     570 calls)
     init_us_2:cp :      0.11s CPU      0.11s WALL (     570 calls)
     cegterg      :      2.94s CPU      3.22s WALL (     240 calls)

     Called by *egterg:
     cdiaghg      :      0.26s CPU      0.27s WALL (     823 calls)
     h_psi        :      2.41s CPU      2.69s WALL (     883 calls)
     s_psi        :      0.07s CPU      0.07s WALL (     883 calls)
     g_psi        :      0.01s CPU      0.01s WALL (     613 calls)

     Called by h_psi:
     h_psi:calbec :      0.14s CPU      0.14s WALL (     883 calls)
     vloc_psi     :      2.17s CPU      2.44s WALL (     883 calls)
     add_vuspsi   :      0.08s CPU      0.08s WALL (     883 calls)

     General routines
     calbec       :      0.22s CPU      0.23s WALL (    1273 calls)
     fft          :      0.03s CPU      0.08s WALL (     114 calls)
     ffts         :      0.00s CPU      0.00s WALL (       8 calls)
     fftw         :      2.20s CPU      2.47s WALL (   26312 calls)
 
     Parallel routines
 
     PWSCF        :      7.29s CPU      8.09s WALL

 
   This run was terminated on:  12:55:21   6Jun2025            

=------------------------------------------------------------------------------=
   JOB DONE.
=------------------------------------------------------------------------------=
