
     Program PWSCF v.7.2 starts on  6Jun2025 at 12:54:54 

     This program is part of the open-source Quantum ESPRESSO suite
     for quantum simulation of materials; please cite
         "P. Giannozzi et al., J. Phys.:Condens. Matter 21 395502 (2009);
         "P. Giannozzi et al., J. Phys.:Condens. Matter 29 465901 (2017);
         "P. Giannozzi et al., J. Chem. Phys. 152 154105 (2020);
          URL http://www.quantum-espresso.org", 
     in publications or presentations arising from this work. More details at
     http://www.quantum-espresso.org/quote

     Parallel version (MPI), running on    16 processors

     MPI processes distributed on     1 nodes
     38536 MiB available memory on the printing compute node when the environment starts
 
     Waiting for input...
     Reading input from standard input

     Current dimensions of program PWSCF are:
     Max number of different atomic species (ntypx) = 10
     Max number of k-points (npk) =  40000
     Max angular momentum in pseudopotentials (lmaxx) =  4
     file Mo.pbe-spn-kjpaw_psl.1.0.0.UPF: wavefunction(s)  4S 4D renormalized
     file S.pbe-n-kjpaw_psl.1.0.0.UPF: wavefunction(s)  3S 3P renormalized
     Message from routine setup:
     using ibrav=0 with symmetry is DISCOURAGED, use correct ibrav instead
 
     R & G space division:  proc/nbgrp/npool/nimage =      16
     Subspace diagonalization in iterative solution of the eigenvalue problem:
     a serial algorithm will be used

 
     Parallelization info
     --------------------
     sticks:   dense  smooth     PW     G-vecs:    dense   smooth      PW
     Min          31      31      9                 2731     2731     441
     Max          32      32     10                 2754     2754     456
     Sum         499     499    151                43841    43841    7195
 
     Using Slab Decomposition
 


     bravais-lattice index     =            0
     lattice parameter (alat)  =       6.0093  a.u.
     unit-cell volume          =     915.4463 (a.u.)^3
     number of atoms/cell      =            3
     number of atomic types    =            2
     number of electrons       =        26.00
     number of Kohn-Sham states=           17
     kinetic-energy cutoff     =      50.0000  Ry
     charge density cutoff     =     200.0000  Ry
     scf convergence threshold =      1.0E-06
     mixing beta               =       0.7000
     number of iterations used =            8  plain     mixing
     Exchange-correlation= SLA  PW   PBX  PBC
                           (   1   4   3   4   0   0   0)

     celldm(1)=   6.009329  celldm(2)=   0.000000  celldm(3)=   0.000000
     celldm(4)=   0.000000  celldm(5)=   0.000000  celldm(6)=   0.000000

     crystal axes: (cart. coord. in units of alat)
               a(1) = (   1.000000   0.000000   0.000000 )  
               a(2) = (  -0.500000   0.866025   0.000000 )  
               a(3) = (   0.000000   0.000000   4.871069 )  

     reciprocal axes: (cart. coord. in units 2 pi/alat)
               b(1) = (  1.000000  0.577350  0.000000 )  
               b(2) = (  0.000000  1.154701  0.000000 )  
               b(3) = (  0.000000  0.000000  0.205294 )  


     PseudoPot. # 1 for Mo read from file:
     /shared/ESPRESSO/PSLIBRARY/1.0.0/pbe/PSEUDOPOTENTIALS/Mo.pbe-spn-kjpaw_psl.1.0.0.UPF
     MD5 check sum: 4396e0c640fcce5c25f020efccf1ab12
     Pseudo is Projector augmented-wave + core cor, Zval = 14.0
     Generated using &quot;atomic&quot; code by A. Dal Corso  v.6.3
     Shape of augmentation charge: PSQ
     Using radial grid of 1229 points,  6 beta functions with: 
                l(1) =   0
                l(2) =   0
                l(3) =   1
                l(4) =   1
                l(5) =   2
                l(6) =   2
     Q(r) pseudized with 0 coefficients 


     PseudoPot. # 2 for S  read from file:
     /shared/ESPRESSO/PSLIBRARY/1.0.0/pbe/PSEUDOPOTENTIALS/S.pbe-n-kjpaw_psl.1.0.0.UPF
     MD5 check sum: c08f931834bcc19553f8bde8f1a3adc5
     Pseudo is Projector augmented-wave + core cor, Zval =  6.0
     Generated using "atomic" code by A. Dal Corso  (Quantum ESPRESSO distribution)
     Shape of augmentation charge: PSQ
     Using radial grid of 1151 points,  6 beta functions with: 
                l(1) =   0
                l(2) =   0
                l(3) =   1
                l(4) =   1
                l(5) =   2
                l(6) =   2
     Q(r) pseudized with 0 coefficients 


     atomic species   valence    mass     pseudopotential
        Mo            14.00    95.94000     Mo( 1.00)
        S              6.00    32.06500     S ( 1.00)

     12 Sym. Ops. (no inversion) found



   Cartesian axes

     site n.     atom                  positions (alat units)
         1           Mo  tau(   1) = (   0.0000000   0.0000000   2.4355346  )
         2           S   tau(   2) = (   0.5000000   0.2886751   2.9371069  )
         3           S   tau(   3) = (   0.5000000   0.2886751   1.9339623  )

     number of k points=    30  Fermi-Dirac smearing, width (Ry)=  0.0070
                       cart. coord. in units 2pi/alat
        k(    1) = (   0.0000000   0.0000000   0.0000000), wk =   0.0078125
        k(    2) = (   0.0000000   0.0721688   0.0000000), wk =   0.0468750
        k(    3) = (   0.0000000   0.1443376   0.0000000), wk =   0.0468750
        k(    4) = (   0.0000000   0.2165064   0.0000000), wk =   0.0468750
        k(    5) = (   0.0000000   0.2886751   0.0000000), wk =   0.0468750
        k(    6) = (   0.0000000   0.3608439   0.0000000), wk =   0.0468750
        k(    7) = (   0.0000000   0.4330127   0.0000000), wk =   0.0468750
        k(    8) = (   0.0000000   0.5051815   0.0000000), wk =   0.0468750
        k(    9) = (   0.0000000  -0.5773503   0.0000000), wk =   0.0234375
        k(   10) = (   0.0625000   0.1082532   0.0000000), wk =   0.0468750
        k(   11) = (   0.0625000   0.1804220   0.0000000), wk =   0.0937500
        k(   12) = (   0.0625000   0.2525907   0.0000000), wk =   0.0937500
        k(   13) = (   0.0625000   0.3247595   0.0000000), wk =   0.0937500
        k(   14) = (   0.0625000   0.3969283   0.0000000), wk =   0.0937500
        k(   15) = (   0.0625000   0.4690971   0.0000000), wk =   0.0937500
        k(   16) = (   0.0625000   0.5412659   0.0000000), wk =   0.0937500
        k(   17) = (   0.1250000   0.2165064   0.0000000), wk =   0.0468750
        k(   18) = (   0.1250000   0.2886751   0.0000000), wk =   0.0937500
        k(   19) = (   0.1250000   0.3608439   0.0000000), wk =   0.0937500
        k(   20) = (   0.1250000   0.4330127   0.0000000), wk =   0.0937500
        k(   21) = (   0.1250000   0.5051815   0.0000000), wk =   0.0937500
        k(   22) = (   0.1250000   0.5773503   0.0000000), wk =   0.0468750
        k(   23) = (   0.1875000   0.3247595   0.0000000), wk =   0.0468750
        k(   24) = (   0.1875000   0.3969283   0.0000000), wk =   0.0937500
        k(   25) = (   0.1875000   0.4690971   0.0000000), wk =   0.0937500
        k(   26) = (   0.1875000   0.5412659   0.0000000), wk =   0.0937500
        k(   27) = (   0.2500000   0.4330127   0.0000000), wk =   0.0468750
        k(   28) = (   0.2500000   0.5051815   0.0000000), wk =   0.0937500
        k(   29) = (   0.2500000   0.5773503   0.0000000), wk =   0.0468750
        k(   30) = (   0.3125000   0.5412659   0.0000000), wk =   0.0468750

     Dense  grid:    43841 G-vectors     FFT dimensions: (  27,  27, 135)

     Estimated max dynamical RAM per process >      15.37 MB

     Estimated total dynamical RAM >     245.90 MB

     Check: negative core charge=   -0.000002

     Initial potential from superposition of free atoms

     starting charge      25.9991, renormalised to      26.0000

     negative rho (up, down):  1.010E-04 0.000E+00
     Starting wfcs are   18 randomized atomic wfcs
     Checking if some PAW data can be deallocated... 

     total cpu time spent up to now is        0.9 secs

     Self-consistent Calculation

     iteration #  1     ecut=    50.00 Ry     beta= 0.70
     Davidson diagonalization with overlap
     ethr =  1.00E-02,  avg # of iterations =  2.3

     Threshold (ethr) on eigenvalues was too large:
     Diagonalizing with lowered threshold

     Davidson diagonalization with overlap
     ethr =  2.82E-04,  avg # of iterations =  3.6

     negative rho (up, down):  1.125E-04 0.000E+00

     total cpu time spent up to now is        2.0 secs

     total energy              =    -496.65016978 Ry
     estimated scf accuracy    <       0.11084548 Ry

     iteration #  2     ecut=    50.00 Ry     beta= 0.70
     Davidson diagonalization with overlap
     ethr =  4.26E-04,  avg # of iterations =  3.0

     negative rho (up, down):  1.039E-04 0.000E+00

     total cpu time spent up to now is        2.6 secs

     total energy              =    -496.62094007 Ry
     estimated scf accuracy    <       0.29370545 Ry

     iteration #  3     ecut=    50.00 Ry     beta= 0.70
     Davidson diagonalization with overlap
     ethr =  4.26E-04,  avg # of iterations =  2.5

     negative rho (up, down):  1.034E-04 0.000E+00

     total cpu time spent up to now is        3.2 secs

     total energy              =    -496.67315549 Ry
     estimated scf accuracy    <       0.14159168 Ry

     iteration #  4     ecut=    50.00 Ry     beta= 0.70
     Davidson diagonalization with overlap
     ethr =  4.26E-04,  avg # of iterations =  1.4

     negative rho (up, down):  1.116E-04 0.000E+00

     total cpu time spent up to now is        3.7 secs

     total energy              =    -496.69166432 Ry
     estimated scf accuracy    <       0.00060601 Ry

     iteration #  5     ecut=    50.00 Ry     beta= 0.70
     Davidson diagonalization with overlap
     ethr =  2.33E-06,  avg # of iterations =  3.5

     negative rho (up, down):  1.131E-04 0.000E+00

     total cpu time spent up to now is        4.2 secs

     total energy              =    -496.69195308 Ry
     estimated scf accuracy    <       0.00011417 Ry

     iteration #  6     ecut=    50.00 Ry     beta= 0.70
     Davidson diagonalization with overlap
     ethr =  4.39E-07,  avg # of iterations =  2.0

     negative rho (up, down):  1.141E-04 0.000E+00

     total cpu time spent up to now is        4.6 secs

     total energy              =    -496.69196190 Ry
     estimated scf accuracy    <       0.00001105 Ry

     iteration #  7     ecut=    50.00 Ry     beta= 0.70
     Davidson diagonalization with overlap
     ethr =  4.25E-08,  avg # of iterations =  2.2

     negative rho (up, down):  1.144E-04 0.000E+00

     total cpu time spent up to now is        5.0 secs

     End of self-consistent calculation

          k = 0.0000 0.0000 0.0000 (  5501 PWs)   bands (ev):

   -60.3939 -34.5330 -34.3173 -34.3173 -13.4943 -12.2953  -5.0227  -1.9265
    -1.9265  -1.3585  -0.8595  -0.8595   0.3788   3.2528   3.2528   3.4203
     3.4203

          k = 0.0000 0.0722 0.0000 (  5471 PWs)   bands (ev):

   -60.3923 -34.5302 -34.3315 -34.3205 -13.4369 -12.2697  -4.9546  -2.0626
    -1.8667  -1.6099  -0.9542  -0.6994   0.3579   3.1642   3.2490   3.3517
     3.3562

          k = 0.0000 0.1443 0.0000 (  5465 PWs)   bands (ev):

   -60.3882 -34.5224 -34.3720 -34.3297 -13.2695 -12.1949  -4.7654  -2.4160
    -2.0444  -1.6948  -1.1993  -0.5738   0.2667   2.8958   3.0386   3.1908
     3.6029

          k = 0.0000 0.2165 0.0000 (  5460 PWs)   bands (ev):

   -60.3822 -34.5105 -34.4321 -34.3436 -13.0069 -12.0778  -4.5148  -2.8582
    -2.5192  -1.5164  -1.4336  -0.6563   0.0514   2.6231   2.9862   3.0910
     3.9123

          k = 0.0000 0.2887 0.0000 (  5448 PWs)   bands (ev):

   -60.3750 -34.5022 -34.4966 -34.3598 -12.6744 -11.9307  -4.3584  -3.2127
    -3.0084  -1.8380  -1.1229  -0.8825  -0.2502   2.5638   2.8090   3.3507
     4.1993

          k = 0.0000 0.3608 0.0000 (  5460 PWs)   bands (ev):

   -60.3679 -34.5717 -34.4827 -34.3761 -12.3104 -11.7720  -4.5031  -3.4812
    -3.3259  -2.1202  -1.1229  -0.8173  -0.4542   2.6862   2.7090   3.7025
     4.4206

          k = 0.0000 0.4330 0.0000 (  5478 PWs)   bands (ev):

   -60.3620 -34.6300 -34.4708 -34.3899 -11.9685 -11.6265  -4.8203  -3.8853
    -3.3672  -2.3363  -1.3040  -0.5727  -0.4164   2.7008   2.9048   4.0189
     4.5666

          k = 0.0000 0.5052 0.0000 (  5482 PWs)   bands (ev):

   -60.3580 -34.6687 -34.4629 -34.3989 -11.7173 -11.5227  -5.0862  -4.1598
    -3.4441  -2.4711  -1.4092  -0.4233  -0.2343   2.7463   3.1317   4.2181
     4.6461

          k = 0.0000-0.5774 0.0000 (  5482 PWs)   bands (ev):

   -60.3565 -34.6823 -34.4601 -34.4022 -11.6236 -11.4848  -5.1878  -4.2573
    -3.4834  -2.5169  -1.4431  -0.3745  -0.1367   2.7741   3.2388   4.2821
     4.6709

          k = 0.0625 0.1083 0.0000 (  5463 PWs)   bands (ev):

   -60.3895 -34.5249 -34.3584 -34.3272 -13.3245 -12.2194  -4.8253  -2.3049
    -1.9102  -1.7532  -1.1665  -0.5529   0.3020   2.9959   3.0407   3.2347
     3.5416

          k = 0.0625 0.1804 0.0000 (  5460 PWs)   bands (ev):

   -60.3845 -34.5151 -34.4076 -34.3398 -13.1093 -12.1233  -4.6002  -2.6955
    -2.3063  -1.5472  -1.5294  -0.4965   0.1475   2.6916   2.9739   3.0482
     3.8469

          k = 0.0625 0.2526 0.0000 (  5455 PWs)   bands (ev):

   -60.3779 -34.5022 -34.4713 -34.3564 -12.8112 -11.9906  -4.3776  -3.0875
    -2.7551  -1.9003  -1.2933  -0.6264  -0.1149   2.5116   2.8907   3.1112
     4.1604

          k = 0.0625 0.3248 0.0000 (  5468 PWs)   bands (ev):

   -60.3708 -34.5394 -34.4883 -34.3743 -12.4614 -11.8364  -4.3697  -3.2873
    -3.2416  -2.1886  -1.0741  -0.8699  -0.3383   2.4936   2.8361   3.4141
     4.4124

          k = 0.0625 0.3969 0.0000 (  5455 PWs)   bands (ev):

   -60.3642 -34.6017 -34.4753 -34.3908 -12.1054 -11.6821  -4.6283  -3.7048
    -3.3152  -2.3789  -1.1210  -0.9497  -0.3226   2.5857   2.9041   3.7668
     4.5650

          k = 0.0625 0.4691 0.0000 (  5470 PWs)   bands (ev):

   -60.3592 -34.6491 -34.4654 -34.4033 -11.8044 -11.5548  -4.9238  -4.0668
    -3.3792  -2.4894  -1.3137  -0.8308  -0.1505   2.7075   3.0670   4.0804
     4.6014

          k = 0.0625 0.5413 0.0000 (  5487 PWs)   bands (ev):

   -60.3566 -34.6747 -34.4601 -34.4101 -11.6281 -11.4821  -5.1065  -4.2652
    -3.4514  -2.5392  -1.4164  -0.7420   0.0039   2.7736   3.2376   4.3097
     4.5375

          k = 0.1250 0.2165 0.0000 (  5453 PWs)   bands (ev):

   -60.3789 -34.5041 -34.4584 -34.3572 -12.8582 -12.0111  -4.3885  -3.0267
    -2.5934  -2.0467  -1.3729  -0.4567  -0.0599   2.4846   2.9192   2.9637
     4.1771

          k = 0.1250 0.2887 0.0000 (  5467 PWs)   bands (ev):

   -60.3724 -34.5167 -34.4913 -34.3787 -12.5412 -11.8698  -4.2850  -3.2380
    -2.9912  -2.4430  -1.2853  -0.5834  -0.2538   2.3689   2.9044   3.1233
     4.4648

          k = 0.1250 0.3608 0.0000 (  5456 PWs)   bands (ev):

   -60.3657 -34.5740 -34.4784 -34.4005 -12.1956 -11.7169  -4.4334  -3.5108
    -3.2418  -2.5971  -1.3501  -0.8343  -0.2678   2.4281   2.9736   3.4111
     4.6490

          k = 0.1250 0.4330 0.0000 (  5461 PWs)   bands (ev):

   -60.3602 -34.6221 -34.4674 -34.4191 -11.8735 -11.5762  -4.6866  -3.9729
    -3.2596  -2.6273  -1.3954  -1.1138  -0.1279   2.6161   3.0819   3.7279
     4.7084

          k = 0.1250 0.5052 0.0000 (  5465 PWs)   bands (ev):

   -60.3564 -34.6540 -34.4601 -34.4316 -11.6389 -11.4755  -4.8892  -4.2822
    -3.3557  -2.6034  -1.3634  -1.3353   0.0618   2.7342   3.2605   3.9948
     4.6609

          k = 0.1250 0.5774 0.0000 (  5464 PWs)   bands (ev):

   -60.3551 -34.6652 -34.4574 -34.4359 -11.5520 -11.4387  -4.9655  -4.3908
    -3.4074  -2.5843  -1.4220  -1.3418   0.1575   2.7447   3.3781   4.1175
     4.6063

          k = 0.1875 0.3248 0.0000 (  5457 PWs)   bands (ev):

   -60.3663 -34.5615 -34.4794 -34.4067 -12.2270 -11.7286  -4.3481  -3.3966
    -3.2017  -2.7371  -1.5221  -0.6985  -0.2558   2.3662   2.9999   3.2473
     4.6934

          k = 0.1875 0.3969 0.0000 (  5457 PWs)   bands (ev):

   -60.3607 -34.6001 -34.4685 -34.4351 -11.9115 -11.5867  -4.5009  -3.8991
    -3.1218  -2.7606  -1.8336  -0.9476  -0.1454   2.5434   3.1103   3.4492
     4.8243

          k = 0.1875 0.4691 0.0000 (  5471 PWs)   bands (ev):

   -60.3565 -34.6283 -34.4601 -34.4581 -11.6494 -11.4690  -4.6309  -4.2964
    -3.1917  -2.6779  -1.9979  -1.2342   0.0499   2.6667   3.3004   3.6377
     4.8792

          k = 0.1875 0.5413 0.0000 (  5462 PWs)   bands (ev):

   -60.3541 -34.6430 -34.4710 -34.4555 -11.4985 -11.4014  -4.6968  -4.5115
    -3.3188  -2.5833  -2.0311  -1.4402   0.2346   2.6232   3.5357   3.7467
     4.8913

          k = 0.2500 0.4330 0.0000 (  5453 PWs)   bands (ev):

   -60.3564 -34.6149 -34.4718 -34.4601 -11.6538 -11.4663  -4.5070  -4.3015
    -3.0440  -2.7108  -2.3435  -1.1871   0.0369   2.6353   3.3183   3.4968
     4.9720

          k = 0.2500 0.5052 0.0000 (  5455 PWs)   bands (ev):

   -60.3535 -34.6192 -34.5019 -34.4544 -11.4715 -11.3796  -4.5859  -4.4357
    -3.1667  -2.6237  -2.5693  -1.4527   0.2717   2.5152   3.5185   3.6330
     5.0906

          k = 0.2500 0.5774 0.0000 (  5477 PWs)   bands (ev):

   -60.3526 -34.6191 -34.5141 -34.4525 -11.4054 -11.3478  -4.6873  -4.3754
    -3.3101  -2.6651  -2.4817  -1.5844   0.3965   2.4146   3.5223   3.7902
     5.1373

          k = 0.3125 0.5413 0.0000 (  5463 PWs)   bands (ev):

   -60.3520 -34.5995 -34.5404 -34.4514 -11.3729 -11.3282  -4.7526  -4.1416
    -3.3675  -2.9492  -2.4183  -1.6605   0.4739   2.3059   3.4367   3.8910
     5.2395

     the Fermi energy is     1.3591 ev

!    total energy              =    -496.69196525 Ry
     total all-electron energy =     -9695.022180 Ry
     estimated scf accuracy    <       0.00000039 Ry
     smearing contrib. (-TS)   =      -0.00000192 Ry
     internal energy E=F+TS    =    -496.69196332 Ry

     The total energy is F=E-TS. E is the sum of the following terms:
     one-electron contribution =    -740.32046895 Ry
     hartree contribution      =     374.05732640 Ry
     xc contribution           =     -29.64779228 Ry
     ewald contribution        =     218.85262293 Ry
     one-center paw contrib.   =    -319.63365143 Ry

     convergence has been achieved in   7 iterations

     negative rho (up, down):  1.144E-04 0.000E+00

     Forces acting on atoms (cartesian axes, Ry/au):

     atom    1 type  1   force =    -0.00000000    0.00000000    0.00000000
     atom    2 type  2   force =     0.00000000    0.00000000   -0.02089431
     atom    3 type  2   force =     0.00000000    0.00000000    0.02089431
     The non-local contrib.  to forces
     atom    1 type  1   force =     0.00000000    0.00000000    0.00000000
     atom    2 type  2   force =     0.00000000    0.00000000   -0.27778421
     atom    3 type  2   force =     0.00000000    0.00000000    0.27778421
     The ionic contribution  to forces
     atom    1 type  1   force =     0.00000000   -0.00000000    0.00000000
     atom    2 type  2   force =    -0.00000000    0.00000000   32.99976195
     atom    3 type  2   force =    -0.00000000    0.00000000  -32.99976195
     The local contribution  to forces
     atom    1 type  1   force =    -0.00000000   -0.00000000   -0.00000000
     atom    2 type  2   force =    -0.00000000    0.00000000  -32.74526382
     atom    3 type  2   force =    -0.00000000    0.00000000   32.74526382
     The core correction contribution to forces
     atom    1 type  1   force =     0.00000000    0.00000000   -0.00000000
     atom    2 type  2   force =     0.00000000   -0.00000000    0.00269034
     atom    3 type  2   force =     0.00000000   -0.00000000   -0.00269034
     The Hubbard contrib.    to forces
     atom    1 type  1   force =     0.00000000    0.00000000    0.00000000
     atom    2 type  2   force =     0.00000000    0.00000000    0.00000000
     atom    3 type  2   force =     0.00000000    0.00000000    0.00000000
     The SCF correction term to forces
     atom    1 type  1   force =     0.00000000    0.00000000    0.00000000
     atom    2 type  2   force =     0.00000000   -0.00000000   -0.00029857
     atom    3 type  2   force =    -0.00000000   -0.00000000    0.00029857

     Total force =     0.029549     Total SCF correction =     0.000422


     Computing stress (Cartesian axis) and pressure


     negative rho (up, down):  1.144E-04 0.000E+00
          total   stress  (Ry/bohr**3)                   (kbar)     P=      -11.28
  -0.00004175   0.00000000   0.00000000           -6.14        0.00        0.00
   0.00000000  -0.00004175   0.00000000            0.00       -6.14        0.00
   0.00000000   0.00000000  -0.00014664            0.00        0.00      -21.57


     Writing all to output data dir ./tmp/scf.save/
 
     init_run     :      0.36s CPU      0.45s WALL (       1 calls)
     electrons    :      3.72s CPU      4.07s WALL (       1 calls)
     forces       :      0.08s CPU      0.08s WALL (       1 calls)
     stress       :      0.32s CPU      0.34s WALL (       1 calls)

     Called by init_run:
     wfcinit      :      0.11s CPU      0.14s WALL (       1 calls)
     potinit      :      0.10s CPU      0.10s WALL (       1 calls)
     hinit0       :      0.11s CPU      0.16s WALL (       1 calls)

     Called by electrons:
     c_bands      :      2.77s CPU      3.02s WALL (       8 calls)
     sum_band     :      0.45s CPU      0.52s WALL (       8 calls)
     v_of_rho     :      0.02s CPU      0.02s WALL (       8 calls)
     newd         :      0.13s CPU      0.14s WALL (       8 calls)
     PAW_pot      :      0.44s CPU      0.47s WALL (       8 calls)
     mix_rho      :      0.00s CPU      0.00s WALL (       8 calls)

     Called by c_bands:
     init_us_2    :      0.04s CPU      0.05s WALL (     570 calls)
     init_us_2:cp :      0.04s CPU      0.05s WALL (     570 calls)
     cegterg      :      1.96s CPU      2.20s WALL (     240 calls)

     Called by *egterg:
     cdiaghg      :      0.19s CPU      0.21s WALL (     824 calls)
     h_psi        :      1.62s CPU      1.82s WALL (     884 calls)
     s_psi        :      0.03s CPU      0.03s WALL (     884 calls)
     g_psi        :      0.01s CPU      0.01s WALL (     614 calls)

     Called by h_psi:
     h_psi:calbec :      0.09s CPU      0.10s WALL (     884 calls)
     vloc_psi     :      1.49s CPU      1.67s WALL (     884 calls)
     add_vuspsi   :      0.03s CPU      0.03s WALL (     884 calls)

     General routines
     calbec       :      0.14s CPU      0.16s WALL (    1274 calls)
     fft          :      0.03s CPU      0.08s WALL (     114 calls)
     ffts         :      0.00s CPU      0.00s WALL (       8 calls)
     fftw         :      1.64s CPU      1.84s WALL (   26298 calls)
 
     Parallel routines
 
     PWSCF        :      4.84s CPU      5.50s WALL

 
   This run was terminated on:  12:55: 0   6Jun2025            

=------------------------------------------------------------------------------=
   JOB DONE.
=------------------------------------------------------------------------------=
