
     Program PWSCF v.7.2 starts on  6Jun2025 at 12:54:46 

     This program is part of the open-source Quantum ESPRESSO suite
     for quantum simulation of materials; please cite
         "P. Giannozzi et al., J. Phys.:Condens. Matter 21 395502 (2009);
         "P. Giannozzi et al., J. Phys.:Condens. Matter 29 465901 (2017);
         "P. Giannozzi et al., J. Chem. Phys. 152 154105 (2020);
          URL http://www.quantum-espresso.org", 
     in publications or presentations arising from this work. More details at
     http://www.quantum-espresso.org/quote

     Parallel version (MPI), running on    16 processors

     MPI processes distributed on     1 nodes
     39245 MiB available memory on the printing compute node when the environment starts
 
     Waiting for input...
     Reading input from standard input

     Current dimensions of program PWSCF are:
     Max number of different atomic species (ntypx) = 10
     Max number of k-points (npk) =  40000
     Max angular momentum in pseudopotentials (lmaxx) =  4
     file Mo.pbe-spn-kjpaw_psl.1.0.0.UPF: wavefunction(s)  4S 4D renormalized
     file S.pbe-n-kjpaw_psl.1.0.0.UPF: wavefunction(s)  3S 3P renormalized
     Message from routine setup:
     using ibrav=0 with symmetry is DISCOURAGED, use correct ibrav instead
 
     R & G space division:  proc/nbgrp/npool/nimage =      16
     Subspace diagonalization in iterative solution of the eigenvalue problem:
     a serial algorithm will be used

 
     Parallelization info
     --------------------
     sticks:   dense  smooth     PW     G-vecs:    dense   smooth      PW
     Min          24      24      7                 1942     1942     323
     Max          26      26      8                 1951     1951     340
     Sum         397     397    121                31161    31161    5309
 
     Using Slab Decomposition
 


     bravais-lattice index     =            0
     lattice parameter (alat)  =       6.0093  a.u.
     unit-cell volume          =     915.4463 (a.u.)^3
     number of atoms/cell      =            3
     number of atomic types    =            2
     number of electrons       =        26.00
     number of Kohn-Sham states=           17
     kinetic-energy cutoff     =      40.0000  Ry
     charge density cutoff     =     160.0000  Ry
     scf convergence threshold =      1.0E-06
     mixing beta               =       0.7000
     number of iterations used =            8  plain     mixing
     Exchange-correlation= SLA  PW   PBX  PBC
                           (   1   4   3   4   0   0   0)

     celldm(1)=   6.009329  celldm(2)=   0.000000  celldm(3)=   0.000000
     celldm(4)=   0.000000  celldm(5)=   0.000000  celldm(6)=   0.000000

     crystal axes: (cart. coord. in units of alat)
               a(1) = (   1.000000   0.000000   0.000000 )  
               a(2) = (  -0.500000   0.866025   0.000000 )  
               a(3) = (   0.000000   0.000000   4.871069 )  

     reciprocal axes: (cart. coord. in units 2 pi/alat)
               b(1) = (  1.000000  0.577350  0.000000 )  
               b(2) = (  0.000000  1.154701  0.000000 )  
               b(3) = (  0.000000  0.000000  0.205294 )  


     PseudoPot. # 1 for Mo read from file:
     /shared/ESPRESSO/PSLIBRARY/1.0.0/pbe/PSEUDOPOTENTIALS/Mo.pbe-spn-kjpaw_psl.1.0.0.UPF
     MD5 check sum: 4396e0c640fcce5c25f020efccf1ab12
     Pseudo is Projector augmented-wave + core cor, Zval = 14.0
     Generated using &quot;atomic&quot; code by A. Dal Corso  v.6.3
     Shape of augmentation charge: PSQ
     Using radial grid of 1229 points,  6 beta functions with: 
                l(1) =   0
                l(2) =   0
                l(3) =   1
                l(4) =   1
                l(5) =   2
                l(6) =   2
     Q(r) pseudized with 0 coefficients 


     PseudoPot. # 2 for S  read from file:
     /shared/ESPRESSO/PSLIBRARY/1.0.0/pbe/PSEUDOPOTENTIALS/S.pbe-n-kjpaw_psl.1.0.0.UPF
     MD5 check sum: c08f931834bcc19553f8bde8f1a3adc5
     Pseudo is Projector augmented-wave + core cor, Zval =  6.0
     Generated using "atomic" code by A. Dal Corso  (Quantum ESPRESSO distribution)
     Shape of augmentation charge: PSQ
     Using radial grid of 1151 points,  6 beta functions with: 
                l(1) =   0
                l(2) =   0
                l(3) =   1
                l(4) =   1
                l(5) =   2
                l(6) =   2
     Q(r) pseudized with 0 coefficients 


     atomic species   valence    mass     pseudopotential
        Mo            14.00    95.94000     Mo( 1.00)
        S              6.00    32.06500     S ( 1.00)

     12 Sym. Ops. (no inversion) found



   Cartesian axes

     site n.     atom                  positions (alat units)
         1           Mo  tau(   1) = (   0.0000000   0.0000000   2.4355346  )
         2           S   tau(   2) = (   0.5000000   0.2886751   2.9371069  )
         3           S   tau(   3) = (   0.5000000   0.2886751   1.9339623  )

     number of k points=    30  Fermi-Dirac smearing, width (Ry)=  0.0070
                       cart. coord. in units 2pi/alat
        k(    1) = (   0.0000000   0.0000000   0.0000000), wk =   0.0078125
        k(    2) = (   0.0000000   0.0721688   0.0000000), wk =   0.0468750
        k(    3) = (   0.0000000   0.1443376   0.0000000), wk =   0.0468750
        k(    4) = (   0.0000000   0.2165064   0.0000000), wk =   0.0468750
        k(    5) = (   0.0000000   0.2886751   0.0000000), wk =   0.0468750
        k(    6) = (   0.0000000   0.3608439   0.0000000), wk =   0.0468750
        k(    7) = (   0.0000000   0.4330127   0.0000000), wk =   0.0468750
        k(    8) = (   0.0000000   0.5051815   0.0000000), wk =   0.0468750
        k(    9) = (   0.0000000  -0.5773503   0.0000000), wk =   0.0234375
        k(   10) = (   0.0625000   0.1082532   0.0000000), wk =   0.0468750
        k(   11) = (   0.0625000   0.1804220   0.0000000), wk =   0.0937500
        k(   12) = (   0.0625000   0.2525907   0.0000000), wk =   0.0937500
        k(   13) = (   0.0625000   0.3247595   0.0000000), wk =   0.0937500
        k(   14) = (   0.0625000   0.3969283   0.0000000), wk =   0.0937500
        k(   15) = (   0.0625000   0.4690971   0.0000000), wk =   0.0937500
        k(   16) = (   0.0625000   0.5412659   0.0000000), wk =   0.0937500
        k(   17) = (   0.1250000   0.2165064   0.0000000), wk =   0.0468750
        k(   18) = (   0.1250000   0.2886751   0.0000000), wk =   0.0937500
        k(   19) = (   0.1250000   0.3608439   0.0000000), wk =   0.0937500
        k(   20) = (   0.1250000   0.4330127   0.0000000), wk =   0.0937500
        k(   21) = (   0.1250000   0.5051815   0.0000000), wk =   0.0937500
        k(   22) = (   0.1250000   0.5773503   0.0000000), wk =   0.0468750
        k(   23) = (   0.1875000   0.3247595   0.0000000), wk =   0.0468750
        k(   24) = (   0.1875000   0.3969283   0.0000000), wk =   0.0937500
        k(   25) = (   0.1875000   0.4690971   0.0000000), wk =   0.0937500
        k(   26) = (   0.1875000   0.5412659   0.0000000), wk =   0.0937500
        k(   27) = (   0.2500000   0.4330127   0.0000000), wk =   0.0468750
        k(   28) = (   0.2500000   0.5051815   0.0000000), wk =   0.0937500
        k(   29) = (   0.2500000   0.5773503   0.0000000), wk =   0.0468750
        k(   30) = (   0.3125000   0.5412659   0.0000000), wk =   0.0468750

     Dense  grid:    31161 G-vectors     FFT dimensions: (  25,  25, 120)

     Estimated max dynamical RAM per process >      11.37 MB

     Estimated total dynamical RAM >     182.00 MB

     Check: negative core charge=   -0.000001

     Initial potential from superposition of free atoms

     starting charge      25.9991, renormalised to      26.0000

     negative rho (up, down):  5.715E-03 0.000E+00
     Starting wfcs are   18 randomized atomic wfcs
     Checking if some PAW data can be deallocated... 

     total cpu time spent up to now is        1.0 secs

     Self-consistent Calculation

     iteration #  1     ecut=    40.00 Ry     beta= 0.70
     Davidson diagonalization with overlap
     ethr =  1.00E-02,  avg # of iterations =  2.3

     Threshold (ethr) on eigenvalues was too large:
     Diagonalizing with lowered threshold

     Davidson diagonalization with overlap
     ethr =  2.84E-04,  avg # of iterations =  3.6

     negative rho (up, down):  6.840E-03 0.000E+00

     total cpu time spent up to now is        1.9 secs

     total energy              =    -496.64729271 Ry
     estimated scf accuracy    <       0.11061953 Ry

     iteration #  2     ecut=    40.00 Ry     beta= 0.70
     Davidson diagonalization with overlap
     ethr =  4.25E-04,  avg # of iterations =  3.0

     negative rho (up, down):  6.683E-03 0.000E+00

     total cpu time spent up to now is        2.4 secs

     total energy              =    -496.61873541 Ry
     estimated scf accuracy    <       0.28802398 Ry

     iteration #  3     ecut=    40.00 Ry     beta= 0.70
     Davidson diagonalization with overlap
     ethr =  4.25E-04,  avg # of iterations =  2.5

     negative rho (up, down):  6.727E-03 0.000E+00

     total cpu time spent up to now is        2.8 secs

     total energy              =    -496.66994431 Ry
     estimated scf accuracy    <       0.14329098 Ry

     iteration #  4     ecut=    40.00 Ry     beta= 0.70
     Davidson diagonalization with overlap
     ethr =  4.25E-04,  avg # of iterations =  1.4

     negative rho (up, down):  6.929E-03 0.000E+00

     total cpu time spent up to now is        3.2 secs

     total energy              =    -496.68861702 Ry
     estimated scf accuracy    <       0.00061257 Ry

     iteration #  5     ecut=    40.00 Ry     beta= 0.70
     Davidson diagonalization with overlap
     ethr =  2.36E-06,  avg # of iterations =  3.4

     negative rho (up, down):  6.946E-03 0.000E+00

     total cpu time spent up to now is        3.7 secs

     total energy              =    -496.68890633 Ry
     estimated scf accuracy    <       0.00011167 Ry

     iteration #  6     ecut=    40.00 Ry     beta= 0.70
     Davidson diagonalization with overlap
     ethr =  4.29E-07,  avg # of iterations =  2.0

     negative rho (up, down):  6.957E-03 0.000E+00

     total cpu time spent up to now is        4.0 secs

     total energy              =    -496.68891534 Ry
     estimated scf accuracy    <       0.00001077 Ry

     iteration #  7     ecut=    40.00 Ry     beta= 0.70
     Davidson diagonalization with overlap
     ethr =  4.14E-08,  avg # of iterations =  2.2

     negative rho (up, down):  6.959E-03 0.000E+00

     total cpu time spent up to now is        4.4 secs

     End of self-consistent calculation

          k = 0.0000 0.0000 0.0000 (  3875 PWs)   bands (ev):

   -60.4094 -34.5497 -34.3336 -34.3336 -13.5048 -12.3056  -5.0331  -1.9362
    -1.9362  -1.3711  -0.8702  -0.8702   0.3672   3.2432   3.2432   3.4114
     3.4114

          k = 0.0000 0.0722 0.0000 (  3851 PWs)   bands (ev):

   -60.4080 -34.5469 -34.3479 -34.3369 -13.4474 -12.2800  -4.9649  -2.0723
    -1.8762  -1.6215  -0.9647  -0.7106   0.3467   3.1547   3.2382   3.3424
     3.3476

          k = 0.0000 0.1443 0.0000 (  3885 PWs)   bands (ev):

   -60.4040 -34.5390 -34.3884 -34.3461 -13.2800 -12.2052  -4.7758  -2.4261
    -2.0552  -1.7051  -1.2097  -0.5854   0.2560   2.8826   3.0279   3.1816
     3.5939

          k = 0.0000 0.2165 0.0000 (  3891 PWs)   bands (ev):

   -60.3979 -34.5273 -34.4485 -34.3600 -13.0174 -12.0882  -4.5251  -2.8685
    -2.5296  -1.5267  -1.4441  -0.6675   0.0418   2.6093   2.9769   3.0791
     3.9035

          k = 0.0000 0.2887 0.0000 (  3898 PWs)   bands (ev):

   -60.3908 -34.5186 -34.5133 -34.3763 -12.6850 -11.9411  -4.3685  -3.2231
    -3.0185  -1.8485  -1.1336  -0.8932  -0.2593   2.5510   2.7996   3.3379
     4.1906

          k = 0.0000 0.3608 0.0000 (  3892 PWs)   bands (ev):

   -60.3837 -34.5880 -34.4994 -34.3925 -12.3210 -11.7825  -4.5131  -3.4912
    -3.3363  -2.1305  -1.1330  -0.8279  -0.4632   2.6749   2.6998   3.6900
     4.4122

          k = 0.0000 0.4330 0.0000 (  3916 PWs)   bands (ev):

   -60.3776 -34.6463 -34.4875 -34.4062 -11.9792 -11.6371  -4.8305  -3.8953
    -3.3773  -2.3466  -1.3138  -0.5833  -0.4259   2.6916   2.8941   4.0072
     4.5583

          k = 0.0000 0.5052 0.0000 (  3896 PWs)   bands (ev):

   -60.3736 -34.6850 -34.4795 -34.4153 -11.7281 -11.5332  -5.0965  -4.1697
    -3.4536  -2.4813  -1.4186  -0.4338  -0.2435   2.7376   3.1218   4.2078
     4.6381

          k = 0.0000-0.5774 0.0000 (  3908 PWs)   bands (ev):

   -60.3721 -34.6985 -34.4768 -34.4185 -11.6345 -11.4954  -5.1982  -4.2672
    -3.4930  -2.5271  -1.4524  -0.3851  -0.1459   2.7651   3.2292   4.2721
     4.6630

          k = 0.0625 0.1083 0.0000 (  3874 PWs)   bands (ev):

   -60.4053 -34.5416 -34.3749 -34.3435 -13.3350 -12.2297  -4.8357  -2.3148
    -1.9213  -1.7633  -1.1768  -0.5645   0.2911   2.9834   3.0305   3.2255
     3.5324

          k = 0.0625 0.1804 0.0000 (  3887 PWs)   bands (ev):

   -60.4002 -34.5318 -34.4240 -34.3562 -13.1199 -12.1337  -4.6106  -2.7058
    -2.3168  -1.5577  -1.5397  -0.5080   0.1374   2.6781   2.9629   3.0386
     3.8375

          k = 0.0625 0.2526 0.0000 (  3897 PWs)   bands (ev):

   -60.3937 -34.5189 -34.4876 -34.3728 -12.8218 -12.0010  -4.3878  -3.0978
    -2.7654  -1.9106  -1.3040  -0.6374  -0.1243   2.4989   2.8807   3.0992
     4.1509

          k = 0.0625 0.3248 0.0000 (  3890 PWs)   bands (ev):

   -60.3865 -34.5558 -34.5050 -34.3907 -12.4721 -11.8468  -4.3797  -3.2978
    -3.2516  -2.1989  -1.0846  -0.8803  -0.3475   2.4823   2.8262   3.4022
     4.4031

          k = 0.0625 0.3969 0.0000 (  3910 PWs)   bands (ev):

   -60.3799 -34.6181 -34.4920 -34.4071 -12.1162 -11.6926  -4.6385  -3.7149
    -3.3254  -2.3892  -1.1310  -0.9600  -0.3323   2.5755   2.8942   3.7552
     4.5560

          k = 0.0625 0.4691 0.0000 (  3917 PWs)   bands (ev):

   -60.3749 -34.6654 -34.4821 -34.4197 -11.8152 -11.5654  -4.9341  -4.0768
    -3.3891  -2.4998  -1.3233  -0.8410  -0.1603   2.6981   3.0570   4.0699
     4.5926

          k = 0.0625 0.5413 0.0000 (  3917 PWs)   bands (ev):

   -60.3722 -34.6909 -34.4768 -34.4265 -11.6390 -11.4927  -5.1169  -4.2752
    -3.4610  -2.5496  -1.4258  -0.7523  -0.0057   2.7645   3.2278   4.3000
     4.5288

          k = 0.1250 0.2165 0.0000 (  3904 PWs)   bands (ev):

   -60.3947 -34.5209 -34.4748 -34.3736 -12.8688 -12.0215  -4.3988  -3.0372
    -2.6038  -2.0571  -1.3835  -0.4678  -0.0694   2.4719   2.9089   2.9524
     4.1668

          k = 0.1250 0.2887 0.0000 (  3900 PWs)   bands (ev):

   -60.3881 -34.5330 -34.5080 -34.3950 -12.5518 -11.8802  -4.2952  -3.2485
    -3.0014  -2.4533  -1.2958  -0.5940  -0.2632   2.3574   2.8942   3.1120
     4.4543

          k = 0.1250 0.3608 0.0000 (  3899 PWs)   bands (ev):

   -60.3815 -34.5904 -34.4951 -34.4169 -12.2063 -11.7274  -4.4435  -3.5209
    -3.2521  -2.6073  -1.3604  -0.8444  -0.2773   2.4173   2.9642   3.4002
     4.6390

          k = 0.1250 0.4330 0.0000 (  3925 PWs)   bands (ev):

   -60.3759 -34.6384 -34.4841 -34.4355 -11.8843 -11.5868  -4.6969  -3.9831
    -3.2697  -2.6376  -1.4057  -1.1237  -0.1377   2.6058   3.0725   3.7176
     4.6986

          k = 0.1250 0.5052 0.0000 (  3928 PWs)   bands (ev):

   -60.3722 -34.6703 -34.4768 -34.4480 -11.6497 -11.4862  -4.8995  -4.2923
    -3.3656  -2.6136  -1.3736  -1.3448   0.0520   2.7245   3.2507   3.9858
     4.6513

          k = 0.1250 0.5774 0.0000 (  3918 PWs)   bands (ev):

   -60.3708 -34.6814 -34.4742 -34.4523 -11.5628 -11.4494  -4.9759  -4.4008
    -3.4173  -2.5945  -1.4314  -1.3520   0.1477   2.7353   3.3686   4.1092
     4.5968

          k = 0.1875 0.3248 0.0000 (  3908 PWs)   bands (ev):

   -60.3820 -34.5779 -34.4962 -34.4231 -12.2377 -11.7392  -4.3584  -3.4068
    -3.2120  -2.7472  -1.5325  -0.7087  -0.2656   2.3550   2.9905   3.2366
     4.6829

          k = 0.1875 0.3969 0.0000 (  3924 PWs)   bands (ev):

   -60.3764 -34.6165 -34.4852 -34.4515 -11.9223 -11.5973  -4.5112  -3.9093
    -3.1320  -2.7707  -1.8439  -0.9575  -0.1553   2.5326   3.1010   3.4393
     4.8141

          k = 0.1875 0.4691 0.0000 (  3937 PWs)   bands (ev):

   -60.3722 -34.6446 -34.4768 -34.4745 -11.6603 -11.4796  -4.6412  -4.3066
    -3.2018  -2.6879  -2.0082  -1.2439   0.0399   2.6566   3.2905   3.6283
     4.8697

          k = 0.1875 0.5413 0.0000 (  3936 PWs)   bands (ev):

   -60.3698 -34.6593 -34.4873 -34.4723 -11.5094 -11.4121  -4.7072  -4.5216
    -3.3288  -2.5935  -2.0413  -1.4496   0.2248   2.6134   3.5260   3.7379
     4.8821

          k = 0.2500 0.4330 0.0000 (  3922 PWs)   bands (ev):

   -60.3722 -34.6312 -34.4882 -34.4768 -11.6646 -11.4769  -4.5173  -4.3117
    -3.0541  -2.7208  -2.3538  -1.1968   0.0271   2.6254   3.3088   3.4877
     4.9627

          k = 0.2500 0.5052 0.0000 (  3954 PWs)   bands (ev):

   -60.3693 -34.6356 -34.5182 -34.4712 -11.4824 -11.3903  -4.5961  -4.4461
    -3.1770  -2.6339  -2.5794  -1.4622   0.2615   2.5051   3.5098   3.6230
     5.0816

          k = 0.2500 0.5774 0.0000 (  3956 PWs)   bands (ev):

   -60.3683 -34.6354 -34.5305 -34.4692 -11.4163 -11.3585  -4.6974  -4.3858
    -3.3204  -2.6753  -2.4918  -1.5938   0.3863   2.4047   3.5136   3.7804
     5.1287

          k = 0.3125 0.5413 0.0000 (  3950 PWs)   bands (ev):

   -60.3677 -34.6158 -34.5568 -34.4682 -11.3839 -11.3388  -4.7626  -4.1521
    -3.3777  -2.9593  -2.4285  -1.6697   0.4637   2.2960   3.4283   3.8815
     5.2314

     the Fermi energy is     1.3485 ev

!    total energy              =    -496.68891856 Ry
     total all-electron energy =     -9695.019133 Ry
     estimated scf accuracy    <       0.00000034 Ry
     smearing contrib. (-TS)   =      -0.00000193 Ry
     internal energy E=F+TS    =    -496.68891663 Ry

     The total energy is F=E-TS. E is the sum of the following terms:
     one-electron contribution =    -740.29276844 Ry
     hartree contribution      =     374.03342020 Ry
     xc contribution           =     -29.64827591 Ry
     ewald contribution        =     218.85262291 Ry
     one-center paw contrib.   =    -319.63391539 Ry

     convergence has been achieved in   7 iterations

     negative rho (up, down):  6.959E-03 0.000E+00

     Forces acting on atoms (cartesian axes, Ry/au):

     atom    1 type  1   force =     0.00000000   -0.00000000    0.00000000
     atom    2 type  2   force =     0.00000000   -0.00000000   -0.02085303
     atom    3 type  2   force =     0.00000000   -0.00000000    0.02085303
     The non-local contrib.  to forces
     atom    1 type  1   force =     0.00000000   -0.00000000    0.00000000
     atom    2 type  2   force =     0.00000000    0.00000000   -0.27747078
     atom    3 type  2   force =     0.00000000    0.00000000    0.27747078
     The ionic contribution  to forces
     atom    1 type  1   force =     0.00000000   -0.00000000    0.00000000
     atom    2 type  2   force =    -0.00000000    0.00000000   32.99976195
     atom    3 type  2   force =    -0.00000000    0.00000000  -32.99976195
     The local contribution  to forces
     atom    1 type  1   force =     0.00000000   -0.00000000    0.00000000
     atom    2 type  2   force =    -0.00000000    0.00000000  -32.74554834
     atom    3 type  2   force =    -0.00000000    0.00000000   32.74554834
     The core correction contribution to forces
     atom    1 type  1   force =     0.00000000    0.00000000   -0.00000000
     atom    2 type  2   force =     0.00000000   -0.00000000    0.00267537
     atom    3 type  2   force =     0.00000000   -0.00000000   -0.00267537
     The Hubbard contrib.    to forces
     atom    1 type  1   force =     0.00000000    0.00000000    0.00000000
     atom    2 type  2   force =     0.00000000    0.00000000    0.00000000
     atom    3 type  2   force =     0.00000000    0.00000000    0.00000000
     The SCF correction term to forces
     atom    1 type  1   force =     0.00000000    0.00000000   -0.00000000
     atom    2 type  2   force =    -0.00000000   -0.00000000   -0.00027123
     atom    3 type  2   force =    -0.00000000    0.00000000    0.00027123

     Total force =     0.029491     Total SCF correction =     0.000384


     Computing stress (Cartesian axis) and pressure


     negative rho (up, down):  6.959E-03 0.000E+00
          total   stress  (Ry/bohr**3)                   (kbar)     P=      -12.57
  -0.00005122  -0.00000000   0.00000000           -7.53       -0.00        0.00
  -0.00000000  -0.00005122   0.00000000           -0.00       -7.53        0.00
   0.00000000  -0.00000000  -0.00015391            0.00       -0.00      -22.64


     Writing all to output data dir ./tmp/scf.save/
 
     init_run     :      0.63s CPU      0.75s WALL (       1 calls)
     electrons    :      3.20s CPU      3.32s WALL (       1 calls)
     forces       :      0.05s CPU      0.05s WALL (       1 calls)
     stress       :      0.22s CPU      0.22s WALL (       1 calls)

     Called by init_run:
     wfcinit      :      0.08s CPU      0.09s WALL (       1 calls)
     potinit      :      0.45s CPU      0.50s WALL (       1 calls)
     hinit0       :      0.07s CPU      0.12s WALL (       1 calls)

     Called by electrons:
     c_bands      :      2.31s CPU      2.41s WALL (       8 calls)
     sum_band     :      0.38s CPU      0.40s WALL (       8 calls)
     v_of_rho     :      0.02s CPU      0.02s WALL (       8 calls)
     newd         :      0.10s CPU      0.10s WALL (       8 calls)
     PAW_pot      :      0.84s CPU      0.90s WALL (       8 calls)
     mix_rho      :      0.00s CPU      0.00s WALL (       8 calls)

     Called by c_bands:
     init_us_2    :      0.05s CPU      0.05s WALL (     570 calls)
     init_us_2:cp :      0.05s CPU      0.05s WALL (     570 calls)
     cegterg      :      1.69s CPU      1.77s WALL (     240 calls)

     Called by *egterg:
     cdiaghg      :      0.24s CPU      0.25s WALL (     821 calls)
     h_psi        :      1.33s CPU      1.39s WALL (     881 calls)
     s_psi        :      0.04s CPU      0.04s WALL (     881 calls)
     g_psi        :      0.01s CPU      0.01s WALL (     611 calls)

     Called by h_psi:
     h_psi:calbec :      0.07s CPU      0.07s WALL (     881 calls)
     vloc_psi     :      1.21s CPU      1.27s WALL (     881 calls)
     add_vuspsi   :      0.04s CPU      0.04s WALL (     881 calls)

     General routines
     calbec       :      0.09s CPU      0.10s WALL (    1271 calls)
     fft          :      0.01s CPU      0.06s WALL (     114 calls)
     ffts         :      0.00s CPU      0.00s WALL (       8 calls)
     fftw         :      1.29s CPU      1.35s WALL (   26212 calls)
 
     Parallel routines
 
     PWSCF        :      4.40s CPU      4.70s WALL

 
   This run was terminated on:  12:54:51   6Jun2025            

=------------------------------------------------------------------------------=
   JOB DONE.
=------------------------------------------------------------------------------=
