
     Program PWSCF v.7.2 starts on  6Jun2025 at 12:54:46 

     This program is part of the open-source Quantum ESPRESSO suite
     for quantum simulation of materials; please cite
         "P. Giannozzi et al., J. Phys.:Condens. Matter 21 395502 (2009);
         "P. Giannozzi et al., J. Phys.:Condens. Matter 29 465901 (2017);
         "P. Giannozzi et al., J. Chem. Phys. 152 154105 (2020);
          URL http://www.quantum-espresso.org", 
     in publications or presentations arising from this work. More details at
     http://www.quantum-espresso.org/quote

     Parallel version (MPI), running on    16 processors

     MPI processes distributed on     1 nodes
     39102 MiB available memory on the printing compute node when the environment starts
 
     Waiting for input...
     Reading input from standard input

     Current dimensions of program PWSCF are:
     Max number of different atomic species (ntypx) = 10
     Max number of k-points (npk) =  40000
     Max angular momentum in pseudopotentials (lmaxx) =  4
     file Mo.pbe-spn-kjpaw_psl.1.0.0.UPF: wavefunction(s)  4S 4D renormalized
     file S.pbe-n-kjpaw_psl.1.0.0.UPF: wavefunction(s)  3S 3P renormalized
     Message from routine setup:
     using ibrav=0 with symmetry is DISCOURAGED, use correct ibrav instead
 
     R & G space division:  proc/nbgrp/npool/nimage =      16
     Subspace diagonalization in iterative solution of the eigenvalue problem:
     a serial algorithm will be used

 
     Parallelization info
     --------------------
     sticks:   dense  smooth     PW     G-vecs:    dense   smooth      PW
     Min          21      21      6                 1593     1593     270
     Max          22      22      7                 1612     1612     285
     Sum         349     349    109                25671    25671    4417
 
     Using Slab Decomposition
 


     bravais-lattice index     =            0
     lattice parameter (alat)  =       6.0093  a.u.
     unit-cell volume          =     915.4463 (a.u.)^3
     number of atoms/cell      =            3
     number of atomic types    =            2
     number of electrons       =        26.00
     number of Kohn-Sham states=           17
     kinetic-energy cutoff     =      35.0000  Ry
     charge density cutoff     =     140.0000  Ry
     scf convergence threshold =      1.0E-06
     mixing beta               =       0.7000
     number of iterations used =            8  plain     mixing
     Exchange-correlation= SLA  PW   PBX  PBC
                           (   1   4   3   4   0   0   0)

     celldm(1)=   6.009329  celldm(2)=   0.000000  celldm(3)=   0.000000
     celldm(4)=   0.000000  celldm(5)=   0.000000  celldm(6)=   0.000000

     crystal axes: (cart. coord. in units of alat)
               a(1) = (   1.000000   0.000000   0.000000 )  
               a(2) = (  -0.500000   0.866025   0.000000 )  
               a(3) = (   0.000000   0.000000   4.871069 )  

     reciprocal axes: (cart. coord. in units 2 pi/alat)
               b(1) = (  1.000000  0.577350  0.000000 )  
               b(2) = (  0.000000  1.154701  0.000000 )  
               b(3) = (  0.000000  0.000000  0.205294 )  


     PseudoPot. # 1 for Mo read from file:
     /shared/ESPRESSO/PSLIBRARY/1.0.0/pbe/PSEUDOPOTENTIALS/Mo.pbe-spn-kjpaw_psl.1.0.0.UPF
     MD5 check sum: 4396e0c640fcce5c25f020efccf1ab12
     Pseudo is Projector augmented-wave + core cor, Zval = 14.0
     Generated using &quot;atomic&quot; code by A. Dal Corso  v.6.3
     Shape of augmentation charge: PSQ
     Using radial grid of 1229 points,  6 beta functions with: 
                l(1) =   0
                l(2) =   0
                l(3) =   1
                l(4) =   1
                l(5) =   2
                l(6) =   2
     Q(r) pseudized with 0 coefficients 


     PseudoPot. # 2 for S  read from file:
     /shared/ESPRESSO/PSLIBRARY/1.0.0/pbe/PSEUDOPOTENTIALS/S.pbe-n-kjpaw_psl.1.0.0.UPF
     MD5 check sum: c08f931834bcc19553f8bde8f1a3adc5
     Pseudo is Projector augmented-wave + core cor, Zval =  6.0
     Generated using "atomic" code by A. Dal Corso  (Quantum ESPRESSO distribution)
     Shape of augmentation charge: PSQ
     Using radial grid of 1151 points,  6 beta functions with: 
                l(1) =   0
                l(2) =   0
                l(3) =   1
                l(4) =   1
                l(5) =   2
                l(6) =   2
     Q(r) pseudized with 0 coefficients 


     atomic species   valence    mass     pseudopotential
        Mo            14.00    95.94000     Mo( 1.00)
        S              6.00    32.06500     S ( 1.00)

     12 Sym. Ops. (no inversion) found



   Cartesian axes

     site n.     atom                  positions (alat units)
         1           Mo  tau(   1) = (   0.0000000   0.0000000   2.4355346  )
         2           S   tau(   2) = (   0.5000000   0.2886751   2.9371069  )
         3           S   tau(   3) = (   0.5000000   0.2886751   1.9339623  )

     number of k points=    30  Fermi-Dirac smearing, width (Ry)=  0.0070
                       cart. coord. in units 2pi/alat
        k(    1) = (   0.0000000   0.0000000   0.0000000), wk =   0.0078125
        k(    2) = (   0.0000000   0.0721688   0.0000000), wk =   0.0468750
        k(    3) = (   0.0000000   0.1443376   0.0000000), wk =   0.0468750
        k(    4) = (   0.0000000   0.2165064   0.0000000), wk =   0.0468750
        k(    5) = (   0.0000000   0.2886751   0.0000000), wk =   0.0468750
        k(    6) = (   0.0000000   0.3608439   0.0000000), wk =   0.0468750
        k(    7) = (   0.0000000   0.4330127   0.0000000), wk =   0.0468750
        k(    8) = (   0.0000000   0.5051815   0.0000000), wk =   0.0468750
        k(    9) = (   0.0000000  -0.5773503   0.0000000), wk =   0.0234375
        k(   10) = (   0.0625000   0.1082532   0.0000000), wk =   0.0468750
        k(   11) = (   0.0625000   0.1804220   0.0000000), wk =   0.0937500
        k(   12) = (   0.0625000   0.2525907   0.0000000), wk =   0.0937500
        k(   13) = (   0.0625000   0.3247595   0.0000000), wk =   0.0937500
        k(   14) = (   0.0625000   0.3969283   0.0000000), wk =   0.0937500
        k(   15) = (   0.0625000   0.4690971   0.0000000), wk =   0.0937500
        k(   16) = (   0.0625000   0.5412659   0.0000000), wk =   0.0937500
        k(   17) = (   0.1250000   0.2165064   0.0000000), wk =   0.0468750
        k(   18) = (   0.1250000   0.2886751   0.0000000), wk =   0.0937500
        k(   19) = (   0.1250000   0.3608439   0.0000000), wk =   0.0937500
        k(   20) = (   0.1250000   0.4330127   0.0000000), wk =   0.0937500
        k(   21) = (   0.1250000   0.5051815   0.0000000), wk =   0.0937500
        k(   22) = (   0.1250000   0.5773503   0.0000000), wk =   0.0468750
        k(   23) = (   0.1875000   0.3247595   0.0000000), wk =   0.0468750
        k(   24) = (   0.1875000   0.3969283   0.0000000), wk =   0.0937500
        k(   25) = (   0.1875000   0.4690971   0.0000000), wk =   0.0937500
        k(   26) = (   0.1875000   0.5412659   0.0000000), wk =   0.0937500
        k(   27) = (   0.2500000   0.4330127   0.0000000), wk =   0.0468750
        k(   28) = (   0.2500000   0.5051815   0.0000000), wk =   0.0937500
        k(   29) = (   0.2500000   0.5773503   0.0000000), wk =   0.0468750
        k(   30) = (   0.3125000   0.5412659   0.0000000), wk =   0.0468750

     Dense  grid:    25671 G-vectors     FFT dimensions: (  24,  24, 120)

     Estimated max dynamical RAM per process >       9.60 MB

     Estimated total dynamical RAM >     153.52 MB

     Check: negative core charge=   -0.000003

     Initial potential from superposition of free atoms

     starting charge      25.9991, renormalised to      26.0000

     negative rho (up, down):  5.428E-03 0.000E+00
     Starting wfcs are   18 randomized atomic wfcs
     Checking if some PAW data can be deallocated... 

     total cpu time spent up to now is        0.5 secs

     Self-consistent Calculation

     iteration #  1     ecut=    35.00 Ry     beta= 0.70
     Davidson diagonalization with overlap
     ethr =  1.00E-02,  avg # of iterations =  2.3

     Threshold (ethr) on eigenvalues was too large:
     Diagonalizing with lowered threshold

     Davidson diagonalization with overlap
     ethr =  2.80E-04,  avg # of iterations =  3.6

     negative rho (up, down):  5.924E-03 0.000E+00

     total cpu time spent up to now is        1.2 secs

     total energy              =    -496.63932396 Ry
     estimated scf accuracy    <       0.10964191 Ry

     iteration #  2     ecut=    35.00 Ry     beta= 0.70
     Davidson diagonalization with overlap
     ethr =  4.22E-04,  avg # of iterations =  3.0

     negative rho (up, down):  5.725E-03 0.000E+00

     total cpu time spent up to now is        1.6 secs

     total energy              =    -496.61650657 Ry
     estimated scf accuracy    <       0.24410534 Ry

     iteration #  3     ecut=    35.00 Ry     beta= 0.70
     Davidson diagonalization with overlap
     ethr =  4.22E-04,  avg # of iterations =  2.4

     negative rho (up, down):  5.706E-03 0.000E+00

     total cpu time spent up to now is        1.9 secs

     total energy              =    -496.65936136 Ry
     estimated scf accuracy    <       0.15545713 Ry

     iteration #  4     ecut=    35.00 Ry     beta= 0.70
     Davidson diagonalization with overlap
     ethr =  4.22E-04,  avg # of iterations =  1.4

     negative rho (up, down):  5.778E-03 0.000E+00

     total cpu time spent up to now is        2.2 secs

     total energy              =    -496.67936673 Ry
     estimated scf accuracy    <       0.00058340 Ry

     iteration #  5     ecut=    35.00 Ry     beta= 0.70
     Davidson diagonalization with overlap
     ethr =  2.24E-06,  avg # of iterations =  3.5

     negative rho (up, down):  5.791E-03 0.000E+00

     total cpu time spent up to now is        2.7 secs

     total energy              =    -496.67966790 Ry
     estimated scf accuracy    <       0.00012380 Ry

     iteration #  6     ecut=    35.00 Ry     beta= 0.70
     Davidson diagonalization with overlap
     ethr =  4.76E-07,  avg # of iterations =  1.7

     negative rho (up, down):  5.800E-03 0.000E+00

     total cpu time spent up to now is        3.0 secs

     total energy              =    -496.67967688 Ry
     estimated scf accuracy    <       0.00001157 Ry

     iteration #  7     ecut=    35.00 Ry     beta= 0.70
     Davidson diagonalization with overlap
     ethr =  4.45E-08,  avg # of iterations =  2.0

     negative rho (up, down):  5.801E-03 0.000E+00

     total cpu time spent up to now is        3.3 secs

     End of self-consistent calculation

          k = 0.0000 0.0000 0.0000 (  3199 PWs)   bands (ev):

   -60.4582 -34.5894 -34.3758 -34.3758 -13.5028 -12.3030  -5.0316  -1.9349
    -1.9349  -1.3674  -0.8629  -0.8629   0.3737   3.2520   3.2520   3.4162
     3.4162

          k = 0.0000 0.0722 0.0000 (  3225 PWs)   bands (ev):

   -60.4569 -34.5868 -34.3901 -34.3791 -13.4454 -12.2773  -4.9639  -2.0716
    -1.8763  -1.6172  -0.9588  -0.7060   0.3516   3.1620   3.2432   3.3501
     3.3513

          k = 0.0000 0.1443 0.0000 (  3218 PWs)   bands (ev):

   -60.4528 -34.5789 -34.4303 -34.3883 -13.2781 -12.2025  -4.7748  -2.4253
    -2.0503  -1.7033  -1.2043  -0.5815   0.2608   2.8887   3.0377   3.1867
     3.6020

          k = 0.0000 0.2165 0.0000 (  3216 PWs)   bands (ev):

   -60.4468 -34.5672 -34.4903 -34.4020 -13.0154 -12.0853  -4.5241  -2.8680
    -2.5251  -1.5215  -1.4411  -0.6646   0.0462   2.6159   2.9835   3.0894
     3.9126

          k = 0.0000 0.2887 0.0000 (  3210 PWs)   bands (ev):

   -60.4397 -34.5601 -34.5533 -34.4183 -12.6830 -11.9380  -4.3675  -3.2223
    -3.0143  -1.8431  -1.1301  -0.8902  -0.2560   2.5596   2.8077   3.3489
     4.2009

          k = 0.0000 0.3608 0.0000 (  3210 PWs)   bands (ev):

   -60.4325 -34.6292 -34.5395 -34.4345 -12.3189 -11.7793  -4.5118  -3.4881
    -3.3354  -2.1260  -1.1297  -0.8239  -0.4613   2.6863   2.7111   3.6997
     4.4220

          k = 0.0000 0.4330 0.0000 (  3202 PWs)   bands (ev):

   -60.4265 -34.6873 -34.5277 -34.4481 -11.9770 -11.6337  -4.8285  -3.8924
    -3.3764  -2.3419  -1.3100  -0.5795  -0.4247   2.7056   2.9088   4.0175
     4.5693

          k = 0.0000 0.5052 0.0000 (  3198 PWs)   bands (ev):

   -60.4224 -34.7258 -34.5197 -34.4572 -11.7258 -11.5296  -5.0946  -4.1671
    -3.4527  -2.4767  -1.4144  -0.4305  -0.2431   2.7547   3.1369   4.2185
     4.6493

          k = 0.0000-0.5774 0.0000 (  3204 PWs)   bands (ev):

   -60.4210 -34.7393 -34.5170 -34.4604 -11.6323 -11.4917  -5.1962  -4.2650
    -3.4923  -2.5227  -1.4483  -0.3818  -0.1460   2.7849   3.2450   4.2813
     4.6736

          k = 0.0625 0.1083 0.0000 (  3221 PWs)   bands (ev):

   -60.4541 -34.5815 -34.4169 -34.3857 -13.3330 -12.2271  -4.8345  -2.3140
    -1.9168  -1.7623  -1.1714  -0.5605   0.2968   2.9893   3.0386   3.2301
     3.5404

          k = 0.0625 0.1804 0.0000 (  3219 PWs)   bands (ev):

   -60.4491 -34.5717 -34.4659 -34.3984 -13.1179 -12.1309  -4.6095  -2.7055
    -2.3120  -1.5553  -1.5345  -0.5046   0.1419   2.6841   2.9730   3.0445
     3.8468

          k = 0.0625 0.2526 0.0000 (  3219 PWs)   bands (ev):

   -60.4425 -34.5589 -34.5293 -34.4149 -12.8198 -11.9980  -4.3869  -3.0975
    -2.7609  -1.9058  -1.3010  -0.6345  -0.1207   2.5053   2.8883   3.1100
     4.1610

          k = 0.0625 0.3248 0.0000 (  3215 PWs)   bands (ev):

   -60.4354 -34.5971 -34.5451 -34.4327 -12.4700 -11.8437  -4.3788  -3.2970
    -3.2481  -2.1944  -1.0816  -0.8772  -0.3444   2.4901   2.8366   3.4123
     4.4135

          k = 0.0625 0.3969 0.0000 (  3195 PWs)   bands (ev):

   -60.4288 -34.6591 -34.5322 -34.4490 -12.1140 -11.6893  -4.6365  -3.7117
    -3.3244  -2.3845  -1.1274  -0.9571  -0.3290   2.5870   2.9099   3.7661
     4.5671

          k = 0.0625 0.4691 0.0000 (  3195 PWs)   bands (ev):

   -60.4237 -34.7063 -34.5223 -34.4616 -11.8130 -11.5619  -4.9321  -4.0740
    -3.3881  -2.4950  -1.3193  -0.8389  -0.1576   2.7136   3.0742   4.0807
     4.6039

          k = 0.0625 0.5413 0.0000 (  3211 PWs)   bands (ev):

   -60.4211 -34.7318 -34.5170 -34.4683 -11.6368 -11.4890  -5.1151  -4.2727
    -3.4603  -2.5452  -1.4217  -0.7505  -0.0039   2.7807   3.2429   4.3101
     4.5395

          k = 0.1250 0.2165 0.0000 (  3207 PWs)   bands (ev):

   -60.4435 -34.5608 -34.5164 -34.4156 -12.8668 -12.0185  -4.3976  -3.0366
    -2.5989  -2.0517  -1.3803  -0.4648  -0.0650   2.4780   2.9175   2.9642
     4.1783

          k = 0.1250 0.2887 0.0000 (  3207 PWs)   bands (ev):

   -60.4369 -34.5744 -34.5480 -34.4370 -12.5498 -11.8771  -4.2942  -3.2476
    -2.9974  -2.4484  -1.2924  -0.5911  -0.2592   2.3639   2.9057   3.1233
     4.4659

          k = 0.1250 0.3608 0.0000 (  3199 PWs)   bands (ev):

   -60.4303 -34.6315 -34.5352 -34.4588 -12.2042 -11.7241  -4.4421  -3.5177
    -3.2510  -2.6026  -1.3575  -0.8413  -0.2728   2.4253   2.9801   3.4108
     4.6505

          k = 0.1250 0.4330 0.0000 (  3181 PWs)   bands (ev):

   -60.4247 -34.6793 -34.5243 -34.4773 -11.8821 -11.5833  -4.6949  -3.9797
    -3.2681  -2.6329  -1.4036  -1.1199  -0.1324   2.6176   3.0920   3.7295
     4.7110

          k = 0.1250 0.5052 0.0000 (  3193 PWs)   bands (ev):

   -60.4210 -34.7112 -34.5170 -34.4897 -11.6475 -11.4825  -4.8976  -4.2892
    -3.3640  -2.6091  -1.3720  -1.3408   0.0567   2.7390   3.2670   3.9971
     4.6634

          k = 0.1250 0.5774 0.0000 (  3200 PWs)   bands (ev):

   -60.4197 -34.7223 -34.5144 -34.4941 -11.5606 -11.4456  -4.9739  -4.3978
    -3.4158  -2.5904  -1.4272  -1.3505   0.1516   2.7499   3.3843   4.1207
     4.6079

          k = 0.1875 0.3248 0.0000 (  3200 PWs)   bands (ev):

   -60.4309 -34.6191 -34.5363 -34.4650 -12.2356 -11.7358  -4.3572  -3.4032
    -3.2108  -2.7427  -1.5296  -0.7058  -0.2604   2.3621   3.0058   3.2476
     4.6950

          k = 0.1875 0.3969 0.0000 (  3196 PWs)   bands (ev):

   -60.4253 -34.6575 -34.5254 -34.4933 -11.9201 -11.5939  -4.5094  -3.9061
    -3.1303  -2.7670  -1.8416  -0.9544  -0.1492   2.5413   3.1198   3.4499
     4.8249

          k = 0.1875 0.4691 0.0000 (  3191 PWs)   bands (ev):

   -60.4210 -34.6856 -34.5170 -34.5162 -11.6581 -11.4760  -4.6393  -4.3034
    -3.1997  -2.6844  -2.0066  -1.2402   0.0464   2.6685   3.3074   3.6391
     4.8818

          k = 0.1875 0.5413 0.0000 (  3195 PWs)   bands (ev):

   -60.4187 -34.7003 -34.5290 -34.5125 -11.5072 -11.4084  -4.7053  -4.5187
    -3.3266  -2.5905  -2.0397  -1.4457   0.2313   2.6274   3.5417   3.7479
     4.8934

          k = 0.2500 0.4330 0.0000 (  3198 PWs)   bands (ev):

   -60.4211 -34.6723 -34.5299 -34.5171 -11.6625 -11.4733  -4.5156  -4.3086
    -3.0518  -2.7174  -2.3524  -1.1934   0.0336   2.6351   3.3240   3.4974
     4.9749

          k = 0.2500 0.5052 0.0000 (  3188 PWs)   bands (ev):

   -60.4182 -34.6766 -34.5598 -34.5114 -11.4802 -11.3865  -4.5926  -4.4442
    -3.1744  -2.6326  -2.5765  -1.4581   0.2694   2.5166   3.5208   3.6374
     5.0952

          k = 0.2500 0.5774 0.0000 (  3176 PWs)   bands (ev):

   -60.4171 -34.6763 -34.5719 -34.5095 -11.4141 -11.3547  -4.6940  -4.3834
    -3.3181  -2.6735  -2.4894  -1.5892   0.3955   2.4175   3.5249   3.7975
     5.1419

          k = 0.3125 0.5413 0.0000 (  3178 PWs)   bands (ev):

   -60.4166 -34.6569 -34.5982 -34.5084 -11.3817 -11.3350  -4.7593  -4.1495
    -3.3763  -2.9570  -2.4266  -1.6650   0.4734   2.3077   3.4389   3.8974
     5.2443

     the Fermi energy is     1.3569 ev

!    total energy              =    -496.67968019 Ry
     total all-electron energy =     -9695.009895 Ry
     estimated scf accuracy    <       0.00000020 Ry
     smearing contrib. (-TS)   =      -0.00000192 Ry
     internal energy E=F+TS    =    -496.67967827 Ry

     The total energy is F=E-TS. E is the sum of the following terms:
     one-electron contribution =    -740.27026821 Ry
     hartree contribution      =     374.00829138 Ry
     xc contribution           =     -29.64576229 Ry
     ewald contribution        =     218.85262294 Ry
     one-center paw contrib.   =    -319.62456209 Ry

     convergence has been achieved in   7 iterations

     negative rho (up, down):  5.801E-03 0.000E+00

     Forces acting on atoms (cartesian axes, Ry/au):

     atom    1 type  1   force =     0.00000000    0.00000000    0.00000000
     atom    2 type  2   force =     0.00000000    0.00000000   -0.02071999
     atom    3 type  2   force =     0.00000000    0.00000000    0.02071999
     The non-local contrib.  to forces
     atom    1 type  1   force =     0.00000000    0.00000000    0.00000000
     atom    2 type  2   force =    -0.00000000   -0.00000000   -0.27774663
     atom    3 type  2   force =    -0.00000000   -0.00000000    0.27774663
     The ionic contribution  to forces
     atom    1 type  1   force =     0.00000000   -0.00000000    0.00000000
     atom    2 type  2   force =    -0.00000000    0.00000000   32.99976195
     atom    3 type  2   force =    -0.00000000    0.00000000  -32.99976195
     The local contribution  to forces
     atom    1 type  1   force =     0.00000000   -0.00000000    0.00000000
     atom    2 type  2   force =    -0.00000000    0.00000000  -32.74524736
     atom    3 type  2   force =    -0.00000000    0.00000000   32.74524736
     The core correction contribution to forces
     atom    1 type  1   force =    -0.00000000    0.00000000   -0.00000000
     atom    2 type  2   force =     0.00000000   -0.00000000    0.00270433
     atom    3 type  2   force =     0.00000000   -0.00000000   -0.00270433
     The Hubbard contrib.    to forces
     atom    1 type  1   force =     0.00000000    0.00000000    0.00000000
     atom    2 type  2   force =     0.00000000    0.00000000    0.00000000
     atom    3 type  2   force =     0.00000000    0.00000000    0.00000000
     The SCF correction term to forces
     atom    1 type  1   force =    -0.00000000   -0.00000000   -0.00000000
     atom    2 type  2   force =    -0.00000000    0.00000000   -0.00019229
     atom    3 type  2   force =    -0.00000000   -0.00000000    0.00019229

     Total force =     0.029302     Total SCF correction =     0.000272


     Computing stress (Cartesian axis) and pressure


     negative rho (up, down):  5.801E-03 0.000E+00
          total   stress  (Ry/bohr**3)                   (kbar)     P=      -23.69
  -0.00012587   0.00000000  -0.00000000          -18.52        0.00       -0.00
   0.00000000  -0.00012587   0.00000000            0.00      -18.52        0.00
   0.00000000   0.00000000  -0.00023141            0.00        0.00      -34.04


     Writing all to output data dir ./tmp/scf.save/
 
     init_run     :      0.23s CPU      0.27s WALL (       1 calls)
     electrons    :      2.55s CPU      2.81s WALL (       1 calls)
     forces       :      0.07s CPU      0.07s WALL (       1 calls)
     stress       :      0.29s CPU      0.30s WALL (       1 calls)

     Called by init_run:
     wfcinit      :      0.06s CPU      0.07s WALL (       1 calls)
     potinit      :      0.08s CPU      0.09s WALL (       1 calls)
     hinit0       :      0.06s CPU      0.09s WALL (       1 calls)

     Called by electrons:
     c_bands      :      1.70s CPU      1.91s WALL (       8 calls)
     sum_band     :      0.32s CPU      0.33s WALL (       8 calls)
     v_of_rho     :      0.01s CPU      0.01s WALL (       8 calls)
     newd         :      0.08s CPU      0.09s WALL (       8 calls)
     PAW_pot      :      0.52s CPU      0.54s WALL (       8 calls)
     mix_rho      :      0.00s CPU      0.00s WALL (       8 calls)

     Called by c_bands:
     init_us_2    :      0.04s CPU      0.05s WALL (     570 calls)
     init_us_2:cp :      0.04s CPU      0.05s WALL (     570 calls)
     cegterg      :      1.40s CPU      1.59s WALL (     240 calls)

     Called by *egterg:
     cdiaghg      :      0.23s CPU      0.25s WALL (     804 calls)
     h_psi        :      1.07s CPU      1.22s WALL (     864 calls)
     s_psi        :      0.03s CPU      0.03s WALL (     864 calls)
     g_psi        :      0.00s CPU      0.00s WALL (     594 calls)

     Called by h_psi:
     h_psi:calbec :      0.05s CPU      0.06s WALL (     864 calls)
     vloc_psi     :      0.98s CPU      1.12s WALL (     864 calls)
     add_vuspsi   :      0.03s CPU      0.03s WALL (     864 calls)

     General routines
     calbec       :      0.08s CPU      0.09s WALL (    1254 calls)
     fft          :      0.01s CPU      0.03s WALL (     114 calls)
     ffts         :      0.00s CPU      0.00s WALL (       8 calls)
     fftw         :      1.02s CPU      1.15s WALL (   26128 calls)
 
     Parallel routines
 
     PWSCF        :      3.42s CPU      3.80s WALL

 
   This run was terminated on:  12:54:50   6Jun2025            

=------------------------------------------------------------------------------=
   JOB DONE.
=------------------------------------------------------------------------------=
