
     Program PWSCF v.7.2 starts on  6Jun2025 at 12:55:10 

     This program is part of the open-source Quantum ESPRESSO suite
     for quantum simulation of materials; please cite
         "P. Giannozzi et al., J. Phys.:Condens. Matter 21 395502 (2009);
         "P. Giannozzi et al., J. Phys.:Condens. Matter 29 465901 (2017);
         "P. Giannozzi et al., J. Chem. Phys. 152 154105 (2020);
          URL http://www.quantum-espresso.org", 
     in publications or presentations arising from this work. More details at
     http://www.quantum-espresso.org/quote

     Parallel version (MPI), running on    16 processors

     MPI processes distributed on     1 nodes
     39972 MiB available memory on the printing compute node when the environment starts
 
     Waiting for input...
     Reading input from standard input

     Current dimensions of program PWSCF are:
     Max number of different atomic species (ntypx) = 10
     Max number of k-points (npk) =  40000
     Max angular momentum in pseudopotentials (lmaxx) =  4
     file Mo.pbe-spn-kjpaw_psl.1.0.0.UPF: wavefunction(s)  4S 4D renormalized
     file S.pbe-n-kjpaw_psl.1.0.0.UPF: wavefunction(s)  3S 3P renormalized
     Message from routine setup:
     using ibrav=0 with symmetry is DISCOURAGED, use correct ibrav instead
 
     R & G space division:  proc/nbgrp/npool/nimage =      16
     Subspace diagonalization in iterative solution of the eigenvalue problem:
     a serial algorithm will be used

 
     Parallelization info
     --------------------
     sticks:   dense  smooth     PW     G-vecs:    dense   smooth      PW
     Min          40      40     12                 4044     4044     640
     Max          41      41     14                 4065     4065     646
     Sum         649     649    199                64903    64903   10311
 
     Using Slab Decomposition
 


     bravais-lattice index     =            0
     lattice parameter (alat)  =       6.0093  a.u.
     unit-cell volume          =     915.4463 (a.u.)^3
     number of atoms/cell      =            3
     number of atomic types    =            2
     number of electrons       =        26.00
     number of Kohn-Sham states=           17
     kinetic-energy cutoff     =      65.0000  Ry
     charge density cutoff     =     260.0000  Ry
     scf convergence threshold =      1.0E-06
     mixing beta               =       0.7000
     number of iterations used =            8  plain     mixing
     Exchange-correlation= SLA  PW   PBX  PBC
                           (   1   4   3   4   0   0   0)

     celldm(1)=   6.009329  celldm(2)=   0.000000  celldm(3)=   0.000000
     celldm(4)=   0.000000  celldm(5)=   0.000000  celldm(6)=   0.000000

     crystal axes: (cart. coord. in units of alat)
               a(1) = (   1.000000   0.000000   0.000000 )  
               a(2) = (  -0.500000   0.866025   0.000000 )  
               a(3) = (   0.000000   0.000000   4.871069 )  

     reciprocal axes: (cart. coord. in units 2 pi/alat)
               b(1) = (  1.000000  0.577350  0.000000 )  
               b(2) = (  0.000000  1.154701  0.000000 )  
               b(3) = (  0.000000  0.000000  0.205294 )  


     PseudoPot. # 1 for Mo read from file:
     /shared/ESPRESSO/PSLIBRARY/1.0.0/pbe/PSEUDOPOTENTIALS/Mo.pbe-spn-kjpaw_psl.1.0.0.UPF
     MD5 check sum: 4396e0c640fcce5c25f020efccf1ab12
     Pseudo is Projector augmented-wave + core cor, Zval = 14.0
     Generated using &quot;atomic&quot; code by A. Dal Corso  v.6.3
     Shape of augmentation charge: PSQ
     Using radial grid of 1229 points,  6 beta functions with: 
                l(1) =   0
                l(2) =   0
                l(3) =   1
                l(4) =   1
                l(5) =   2
                l(6) =   2
     Q(r) pseudized with 0 coefficients 


     PseudoPot. # 2 for S  read from file:
     /shared/ESPRESSO/PSLIBRARY/1.0.0/pbe/PSEUDOPOTENTIALS/S.pbe-n-kjpaw_psl.1.0.0.UPF
     MD5 check sum: c08f931834bcc19553f8bde8f1a3adc5
     Pseudo is Projector augmented-wave + core cor, Zval =  6.0
     Generated using "atomic" code by A. Dal Corso  (Quantum ESPRESSO distribution)
     Shape of augmentation charge: PSQ
     Using radial grid of 1151 points,  6 beta functions with: 
                l(1) =   0
                l(2) =   0
                l(3) =   1
                l(4) =   1
                l(5) =   2
                l(6) =   2
     Q(r) pseudized with 0 coefficients 


     atomic species   valence    mass     pseudopotential
        Mo            14.00    95.94000     Mo( 1.00)
        S              6.00    32.06500     S ( 1.00)

     12 Sym. Ops. (no inversion) found



   Cartesian axes

     site n.     atom                  positions (alat units)
         1           Mo  tau(   1) = (   0.0000000   0.0000000   2.4355346  )
         2           S   tau(   2) = (   0.5000000   0.2886751   2.9371069  )
         3           S   tau(   3) = (   0.5000000   0.2886751   1.9339623  )

     number of k points=    30  Fermi-Dirac smearing, width (Ry)=  0.0070
                       cart. coord. in units 2pi/alat
        k(    1) = (   0.0000000   0.0000000   0.0000000), wk =   0.0078125
        k(    2) = (   0.0000000   0.0721688   0.0000000), wk =   0.0468750
        k(    3) = (   0.0000000   0.1443376   0.0000000), wk =   0.0468750
        k(    4) = (   0.0000000   0.2165064   0.0000000), wk =   0.0468750
        k(    5) = (   0.0000000   0.2886751   0.0000000), wk =   0.0468750
        k(    6) = (   0.0000000   0.3608439   0.0000000), wk =   0.0468750
        k(    7) = (   0.0000000   0.4330127   0.0000000), wk =   0.0468750
        k(    8) = (   0.0000000   0.5051815   0.0000000), wk =   0.0468750
        k(    9) = (   0.0000000  -0.5773503   0.0000000), wk =   0.0234375
        k(   10) = (   0.0625000   0.1082532   0.0000000), wk =   0.0468750
        k(   11) = (   0.0625000   0.1804220   0.0000000), wk =   0.0937500
        k(   12) = (   0.0625000   0.2525907   0.0000000), wk =   0.0937500
        k(   13) = (   0.0625000   0.3247595   0.0000000), wk =   0.0937500
        k(   14) = (   0.0625000   0.3969283   0.0000000), wk =   0.0937500
        k(   15) = (   0.0625000   0.4690971   0.0000000), wk =   0.0937500
        k(   16) = (   0.0625000   0.5412659   0.0000000), wk =   0.0937500
        k(   17) = (   0.1250000   0.2165064   0.0000000), wk =   0.0468750
        k(   18) = (   0.1250000   0.2886751   0.0000000), wk =   0.0937500
        k(   19) = (   0.1250000   0.3608439   0.0000000), wk =   0.0937500
        k(   20) = (   0.1250000   0.4330127   0.0000000), wk =   0.0937500
        k(   21) = (   0.1250000   0.5051815   0.0000000), wk =   0.0937500
        k(   22) = (   0.1250000   0.5773503   0.0000000), wk =   0.0468750
        k(   23) = (   0.1875000   0.3247595   0.0000000), wk =   0.0468750
        k(   24) = (   0.1875000   0.3969283   0.0000000), wk =   0.0937500
        k(   25) = (   0.1875000   0.4690971   0.0000000), wk =   0.0937500
        k(   26) = (   0.1875000   0.5412659   0.0000000), wk =   0.0937500
        k(   27) = (   0.2500000   0.4330127   0.0000000), wk =   0.0468750
        k(   28) = (   0.2500000   0.5051815   0.0000000), wk =   0.0937500
        k(   29) = (   0.2500000   0.5773503   0.0000000), wk =   0.0468750
        k(   30) = (   0.3125000   0.5412659   0.0000000), wk =   0.0468750

     Dense  grid:    64903 G-vectors     FFT dimensions: (  32,  32, 160)

     Estimated max dynamical RAM per process >      22.00 MB

     Estimated total dynamical RAM >     352.00 MB

     Initial potential from superposition of free atoms

     starting charge      25.9991, renormalised to      26.0000

     negative rho (up, down):  9.028E-04 0.000E+00
     Starting wfcs are   18 randomized atomic wfcs
     Checking if some PAW data can be deallocated... 

     total cpu time spent up to now is        0.5 secs

     Self-consistent Calculation

     iteration #  1     ecut=    65.00 Ry     beta= 0.70
     Davidson diagonalization with overlap
     ethr =  1.00E-02,  avg # of iterations =  2.3

     Threshold (ethr) on eigenvalues was too large:
     Diagonalizing with lowered threshold

     Davidson diagonalization with overlap
     ethr =  2.83E-04,  avg # of iterations =  3.6

     negative rho (up, down):  1.046E-03 0.000E+00

     total cpu time spent up to now is        1.6 secs

     total energy              =    -496.65353244 Ry
     estimated scf accuracy    <       0.11077839 Ry

     iteration #  2     ecut=    65.00 Ry     beta= 0.70
     Davidson diagonalization with overlap
     ethr =  4.26E-04,  avg # of iterations =  3.0

     negative rho (up, down):  1.008E-03 0.000E+00

     total cpu time spent up to now is        2.2 secs

     total energy              =    -496.62407565 Ry
     estimated scf accuracy    <       0.29558831 Ry

     iteration #  3     ecut=    65.00 Ry     beta= 0.70
     Davidson diagonalization with overlap
     ethr =  4.26E-04,  avg # of iterations =  2.5

     negative rho (up, down):  1.005E-03 0.000E+00

     total cpu time spent up to now is        2.8 secs

     total energy              =    -496.67664823 Ry
     estimated scf accuracy    <       0.14071845 Ry

     iteration #  4     ecut=    65.00 Ry     beta= 0.70
     Davidson diagonalization with overlap
     ethr =  4.26E-04,  avg # of iterations =  1.4

     negative rho (up, down):  1.038E-03 0.000E+00

     total cpu time spent up to now is        3.4 secs

     total energy              =    -496.69504963 Ry
     estimated scf accuracy    <       0.00060421 Ry

     iteration #  5     ecut=    65.00 Ry     beta= 0.70
     Davidson diagonalization with overlap
     ethr =  2.32E-06,  avg # of iterations =  3.5

     negative rho (up, down):  1.042E-03 0.000E+00

     total cpu time spent up to now is        4.1 secs

     total energy              =    -496.69533528 Ry
     estimated scf accuracy    <       0.00011226 Ry

     iteration #  6     ecut=    65.00 Ry     beta= 0.70
     Davidson diagonalization with overlap
     ethr =  4.32E-07,  avg # of iterations =  2.0

     negative rho (up, down):  1.045E-03 0.000E+00

     total cpu time spent up to now is        4.8 secs

     total energy              =    -496.69534430 Ry
     estimated scf accuracy    <       0.00001083 Ry

     iteration #  7     ecut=    65.00 Ry     beta= 0.70
     Davidson diagonalization with overlap
     ethr =  4.17E-08,  avg # of iterations =  2.2

     negative rho (up, down):  1.045E-03 0.000E+00

     total cpu time spent up to now is        5.4 secs

     End of self-consistent calculation

          k = 0.0000 0.0000 0.0000 (  8157 PWs)   bands (ev):

   -60.4056 -34.5351 -34.3197 -34.3197 -13.4957 -12.2965  -5.0240  -1.9278
    -1.9278  -1.3599  -0.8608  -0.8608   0.3769   3.2512   3.2512   3.4186
     3.4186

          k = 0.0000 0.0722 0.0000 (  8145 PWs)   bands (ev):

   -60.4042 -34.5324 -34.3340 -34.3230 -13.4382 -12.2709  -4.9558  -2.0638
    -1.8680  -1.6113  -0.9555  -0.7008   0.3560   3.1625   3.2470   3.3501
     3.3546

          k = 0.0000 0.1443 0.0000 (  8123 PWs)   bands (ev):

   -60.4001 -34.5245 -34.3745 -34.3323 -13.2708 -12.1961  -4.7667  -2.4172
    -2.0456  -1.6961  -1.2006  -0.5752   0.2650   2.8936   3.0368   3.1892
     3.6013

          k = 0.0000 0.2165 0.0000 (  8121 PWs)   bands (ev):

   -60.3941 -34.5127 -34.4346 -34.3461 -13.0082 -12.0790  -4.5160  -2.8594
    -2.5204  -1.5176  -1.4349  -0.6576   0.0499   2.6208   2.9846   3.0889
     3.9106

          k = 0.0000 0.2887 0.0000 (  8093 PWs)   bands (ev):

   -60.3870 -34.5048 -34.4988 -34.3624 -12.6757 -11.9319  -4.3595  -3.2140
    -3.0095  -1.8393  -1.1242  -0.8838  -0.2516   2.5617   2.8074   3.3484
     4.1976

          k = 0.0000 0.3608 0.0000 (  8085 PWs)   bands (ev):

   -60.3798 -34.5742 -34.4848 -34.3786 -12.3116 -11.7731  -4.5043  -3.4823
    -3.3272  -2.1214  -1.1242  -0.8186  -0.4555   2.6843   2.7074   3.7003
     4.4188

          k = 0.0000 0.4330 0.0000 (  8106 PWs)   bands (ev):

   -60.3738 -34.6325 -34.4730 -34.3923 -11.9697 -11.6277  -4.8215  -3.8864
    -3.3685  -2.3374  -1.3053  -0.5740  -0.4178   2.6991   2.9030   4.0169
     4.5648

          k = 0.0000 0.5052 0.0000 (  8112 PWs)   bands (ev):

   -60.3697 -34.6712 -34.4650 -34.4015 -11.7185 -11.5238  -5.0875  -4.1610
    -3.4452  -2.4723  -1.4105  -0.4246  -0.2356   2.7446   3.1300   4.2162
     4.6443

          k = 0.0000-0.5774 0.0000 (  8106 PWs)   bands (ev):

   -60.3683 -34.6847 -34.4622 -34.4047 -11.6249 -11.4859  -5.1891  -4.2585
    -3.4845  -2.5180  -1.4443  -0.3758  -0.1380   2.7724   3.2371   4.2804
     4.6691

          k = 0.0625 0.1083 0.0000 (  8123 PWs)   bands (ev):

   -60.4014 -34.5271 -34.3610 -34.3297 -13.3258 -12.2206  -4.8266  -2.3062
    -1.9115  -1.7544  -1.1678  -0.5543   0.3002   2.9937   3.0389   3.2331
     3.5400

          k = 0.0625 0.1804 0.0000 (  8114 PWs)   bands (ev):

   -60.3964 -34.5173 -34.4102 -34.3424 -13.1106 -12.1245  -4.6014  -2.6968
    -2.3075  -1.5485  -1.5306  -0.4979   0.1459   2.6894   2.9720   3.0465
     3.8451

          k = 0.0625 0.2526 0.0000 (  8091 PWs)   bands (ev):

   -60.3898 -34.5044 -34.4738 -34.3589 -12.8125 -11.9918  -4.3788  -3.0888
    -2.7563  -1.9015  -1.2946  -0.6278  -0.1164   2.5095   2.8890   3.1091
     4.1585

          k = 0.0625 0.3248 0.0000 (  8087 PWs)   bands (ev):

   -60.3827 -34.5420 -34.4904 -34.3768 -12.4627 -11.8375  -4.3708  -3.2887
    -3.2427  -2.1898  -1.0753  -0.8712  -0.3397   2.4917   2.8344   3.4120
     4.4105

          k = 0.0625 0.3969 0.0000 (  8092 PWs)   bands (ev):

   -60.3761 -34.6043 -34.4775 -34.3933 -12.1067 -11.6833  -4.6295  -3.7059
    -3.3165  -2.3801  -1.1222  -0.9510  -0.3240   2.5840   2.9023   3.7648
     4.5632

          k = 0.0625 0.4691 0.0000 (  8110 PWs)   bands (ev):

   -60.3711 -34.6516 -34.4676 -34.4059 -11.8057 -11.5560  -4.9251  -4.0680
    -3.3804  -2.4906  -1.3149  -0.8321  -0.1518   2.7058   3.0652   4.0785
     4.5996

          k = 0.0625 0.5413 0.0000 (  8102 PWs)   bands (ev):

   -60.3683 -34.6771 -34.4622 -34.4127 -11.6294 -11.4832  -5.1078  -4.2663
    -3.4525  -2.5404  -1.4176  -0.7433   0.0026   2.7719   3.2359   4.3079
     4.5358

          k = 0.1250 0.2165 0.0000 (  8109 PWs)   bands (ev):

   -60.3908 -34.5064 -34.4609 -34.3597 -12.8595 -12.0123  -4.3896  -3.0280
    -2.5946  -2.0480  -1.3741  -0.4580  -0.0613   2.4825   2.9175   2.9617
     4.1751

          k = 0.1250 0.2887 0.0000 (  8096 PWs)   bands (ev):

   -60.3842 -34.5192 -34.4935 -34.3812 -12.5425 -11.8709  -4.2861  -3.2394
    -2.9923  -2.4442  -1.2865  -0.5847  -0.2552   2.3670   2.9026   3.1213
     4.4627

          k = 0.1250 0.3608 0.0000 (  8095 PWs)   bands (ev):

   -60.3776 -34.5765 -34.4806 -34.4030 -12.1969 -11.7180  -4.4345  -3.5120
    -3.2432  -2.5983  -1.3514  -0.8355  -0.2691   2.4263   2.9718   3.4091
     4.6470

          k = 0.1250 0.4330 0.0000 (  8115 PWs)   bands (ev):

   -60.3721 -34.6246 -34.4696 -34.4217 -11.8747 -11.5774  -4.6879  -3.9740
    -3.2609  -2.6285  -1.3967  -1.1150  -0.1292   2.6143   3.0802   3.7260
     4.7065

          k = 0.1250 0.5052 0.0000 (  8113 PWs)   bands (ev):

   -60.3683 -34.6565 -34.4623 -34.4341 -11.6401 -11.4767  -4.8905  -4.2833
    -3.3568  -2.6045  -1.3647  -1.3365   0.0605   2.7325   3.2587   3.9930
     4.6590

          k = 0.1250 0.5774 0.0000 (  8082 PWs)   bands (ev):

   -60.3670 -34.6676 -34.4597 -34.4385 -11.5532 -11.4399  -4.9668  -4.3919
    -3.4086  -2.5855  -1.4232  -1.3431   0.1562   2.7431   3.3764   4.1158
     4.6045

          k = 0.1875 0.3248 0.0000 (  8100 PWs)   bands (ev):

   -60.3782 -34.5640 -34.4816 -34.4093 -12.2283 -11.7298  -4.3493  -3.3978
    -3.2030  -2.7383  -1.5234  -0.6997  -0.2572   2.3643   2.9982   3.2453
     4.6913

          k = 0.1875 0.3969 0.0000 (  8095 PWs)   bands (ev):

   -60.3726 -34.6027 -34.4707 -34.4377 -11.9128 -11.5879  -4.5021  -3.9003
    -3.1231  -2.7618  -1.8348  -0.9488  -0.1467   2.5416   3.1085   3.4474
     4.8223

          k = 0.1875 0.4691 0.0000 (  8101 PWs)   bands (ev):

   -60.3683 -34.6308 -34.4623 -34.4607 -11.6507 -11.4702  -4.6321  -4.2976
    -3.1929  -2.6790  -1.9992  -1.2354   0.0485   2.6650   3.2986   3.6359
     4.8773

          k = 0.1875 0.5413 0.0000 (  8101 PWs)   bands (ev):

   -60.3660 -34.6455 -34.4735 -34.4577 -11.4997 -11.4026  -4.6981  -4.5126
    -3.3200  -2.5845  -2.0324  -1.4414   0.2333   2.6216   3.5340   3.7449
     4.8894

          k = 0.2500 0.4330 0.0000 (  8110 PWs)   bands (ev):

   -60.3683 -34.6174 -34.4744 -34.4623 -11.6550 -11.4674  -4.5082  -4.3026
    -3.0453  -2.7120  -2.3447  -1.1883   0.0356   2.6336   3.3165   3.4950
     4.9700

          k = 0.2500 0.5052 0.0000 (  8085 PWs)   bands (ev):

   -60.3654 -34.6217 -34.5044 -34.4567 -11.4727 -11.3808  -4.5870  -4.4370
    -3.1680  -2.6249  -2.5705  -1.4539   0.2704   2.5135   3.5168   3.6312
     5.0886

          k = 0.2500 0.5774 0.0000 (  8094 PWs)   bands (ev):

   -60.3644 -34.6216 -34.5166 -34.4547 -11.4066 -11.3490  -4.6883  -4.3767
    -3.3113  -2.6663  -2.4829  -1.5856   0.3952   2.4130   3.5206   3.7885
     5.1354

          k = 0.3125 0.5413 0.0000 (  8068 PWs)   bands (ev):

   -60.3638 -34.6020 -34.5430 -34.4536 -11.3742 -11.3293  -4.7536  -4.1429
    -3.3687  -2.9504  -2.4195  -1.6616   0.4726   2.3043   3.4350   3.8893
     5.2376

     the Fermi energy is     1.3575 ev

!    total energy              =    -496.69534754 Ry
     total all-electron energy =     -9695.025562 Ry
     estimated scf accuracy    <       0.00000038 Ry
     smearing contrib. (-TS)   =      -0.00000193 Ry
     internal energy E=F+TS    =    -496.69534562 Ry

     The total energy is F=E-TS. E is the sum of the following terms:
     one-electron contribution =    -740.32732006 Ry
     hartree contribution      =     374.05774288 Ry
     xc contribution           =     -29.64875233 Ry
     ewald contribution        =     218.85262295 Ry
     one-center paw contrib.   =    -319.62963906 Ry

     convergence has been achieved in   7 iterations

     negative rho (up, down):  1.045E-03 0.000E+00

     Forces acting on atoms (cartesian axes, Ry/au):

     atom    1 type  1   force =     0.00000000    0.00000000    0.00000000
     atom    2 type  2   force =     0.00000000    0.00000000   -0.02091036
     atom    3 type  2   force =     0.00000000    0.00000000    0.02091036
     The non-local contrib.  to forces
     atom    1 type  1   force =     0.00000000    0.00000000    0.00000000
     atom    2 type  2   force =     0.00000000    0.00000000   -0.27778995
     atom    3 type  2   force =     0.00000000   -0.00000000    0.27778995
     The ionic contribution  to forces
     atom    1 type  1   force =     0.00000000   -0.00000000    0.00000000
     atom    2 type  2   force =    -0.00000000    0.00000000   32.99976195
     atom    3 type  2   force =    -0.00000000    0.00000000  -32.99976195
     The local contribution  to forces
     atom    1 type  1   force =     0.00000000   -0.00000000    0.00000000
     atom    2 type  2   force =    -0.00000000    0.00000000  -32.74527545
     atom    3 type  2   force =    -0.00000000    0.00000000   32.74527545
     The core correction contribution to forces
     atom    1 type  1   force =    -0.00000000   -0.00000000   -0.00000000
     atom    2 type  2   force =     0.00000000   -0.00000000    0.00268906
     atom    3 type  2   force =     0.00000000   -0.00000000   -0.00268906
     The Hubbard contrib.    to forces
     atom    1 type  1   force =     0.00000000    0.00000000    0.00000000
     atom    2 type  2   force =     0.00000000    0.00000000    0.00000000
     atom    3 type  2   force =     0.00000000    0.00000000    0.00000000
     The SCF correction term to forces
     atom    1 type  1   force =    -0.00000000    0.00000000   -0.00000000
     atom    2 type  2   force =     0.00000000    0.00000000   -0.00029597
     atom    3 type  2   force =     0.00000000    0.00000000    0.00029597

     Total force =     0.029572     Total SCF correction =     0.000419


     Computing stress (Cartesian axis) and pressure


     negative rho (up, down):  1.045E-03 0.000E+00
          total   stress  (Ry/bohr**3)                   (kbar)     P=      -10.18
  -0.00003437  -0.00000000  -0.00000000           -5.06       -0.00       -0.00
  -0.00000000  -0.00003437  -0.00000000           -0.00       -5.06       -0.00
   0.00000000  -0.00000000  -0.00013894            0.00       -0.00      -20.44


     Writing all to output data dir ./tmp/scf.save/
 
     init_run     :      0.29s CPU      0.34s WALL (       1 calls)
     electrons    :      4.56s CPU      4.94s WALL (       1 calls)
     forces       :      0.14s CPU      0.14s WALL (       1 calls)
     stress       :      0.75s CPU      0.77s WALL (       1 calls)

     Called by init_run:
     wfcinit      :      0.08s CPU      0.10s WALL (       1 calls)
     potinit      :      0.07s CPU      0.07s WALL (       1 calls)
     hinit0       :      0.10s CPU      0.12s WALL (       1 calls)

     Called by electrons:
     c_bands      :      3.31s CPU      3.65s WALL (       8 calls)
     sum_band     :      0.62s CPU      0.65s WALL (       8 calls)
     v_of_rho     :      0.03s CPU      0.03s WALL (       8 calls)
     newd         :      0.19s CPU      0.20s WALL (       8 calls)
     PAW_pot      :      0.46s CPU      0.47s WALL (       8 calls)
     mix_rho      :      0.01s CPU      0.01s WALL (       8 calls)

     Called by c_bands:
     init_us_2    :      0.10s CPU      0.10s WALL (     570 calls)
     init_us_2:cp :      0.10s CPU      0.10s WALL (     570 calls)
     cegterg      :      2.52s CPU      2.85s WALL (     240 calls)

     Called by *egterg:
     cdiaghg      :      0.25s CPU      0.26s WALL (     824 calls)
     h_psi        :      1.98s CPU      2.28s WALL (     884 calls)
     s_psi        :      0.06s CPU      0.06s WALL (     884 calls)
     g_psi        :      0.01s CPU      0.01s WALL (     614 calls)

     Called by h_psi:
     h_psi:calbec :      0.12s CPU      0.13s WALL (     884 calls)
     vloc_psi     :      1.78s CPU      2.07s WALL (     884 calls)
     add_vuspsi   :      0.06s CPU      0.07s WALL (     884 calls)

     General routines
     calbec       :      0.19s CPU      0.21s WALL (    1274 calls)
     fft          :      0.05s CPU      0.06s WALL (     114 calls)
     ffts         :      0.00s CPU      0.00s WALL (       8 calls)
     fftw         :      1.82s CPU      2.10s WALL (   26246 calls)
 
     Parallel routines
 
     PWSCF        :      5.94s CPU      6.51s WALL

 
   This run was terminated on:  12:55:17   6Jun2025            

=------------------------------------------------------------------------------=
   JOB DONE.
=------------------------------------------------------------------------------=
