
     Program PWSCF v.7.2 starts on  6Jun2025 at 12:55:44 

     This program is part of the open-source Quantum ESPRESSO suite
     for quantum simulation of materials; please cite
         "P. Giannozzi et al., J. Phys.:Condens. Matter 21 395502 (2009);
         "P. Giannozzi et al., J. Phys.:Condens. Matter 29 465901 (2017);
         "P. Giannozzi et al., J. Chem. Phys. 152 154105 (2020);
          URL http://www.quantum-espresso.org", 
     in publications or presentations arising from this work. More details at
     http://www.quantum-espresso.org/quote

     Parallel version (MPI), running on    16 processors

     MPI processes distributed on     1 nodes
     38041 MiB available memory on the printing compute node when the environment starts
 
     Waiting for input...
     Reading input from standard input

     Current dimensions of program PWSCF are:
     Max number of different atomic species (ntypx) = 10
     Max number of k-points (npk) =  40000
     Max angular momentum in pseudopotentials (lmaxx) =  4
     file Mo.pbe-spn-kjpaw_psl.1.0.0.UPF: wavefunction(s)  4S 4D renormalized
     file S.pbe-n-kjpaw_psl.1.0.0.UPF: wavefunction(s)  3S 3P renormalized
     Message from routine setup:
     using ibrav=0 with symmetry is DISCOURAGED, use correct ibrav instead
 
     R & G space division:  proc/nbgrp/npool/nimage =      16
     Subspace diagonalization in iterative solution of the eigenvalue problem:
     a serial algorithm will be used

 
     Parallelization info
     --------------------
     sticks:   dense  smooth     PW     G-vecs:    dense   smooth      PW
     Min          59      59     16                 7155     7155    1080
     Max          60      60     18                 7170     7170    1093
     Sum         955     955    265               114655   114655   17377
 
     Using Slab Decomposition
 


     bravais-lattice index     =            0
     lattice parameter (alat)  =       6.0093  a.u.
     unit-cell volume          =     915.4463 (a.u.)^3
     number of atoms/cell      =            3
     number of atomic types    =            2
     number of electrons       =        26.00
     number of Kohn-Sham states=           17
     kinetic-energy cutoff     =      95.0000  Ry
     charge density cutoff     =     380.0000  Ry
     scf convergence threshold =      1.0E-06
     mixing beta               =       0.7000
     number of iterations used =            8  plain     mixing
     Exchange-correlation= SLA  PW   PBX  PBC
                           (   1   4   3   4   0   0   0)

     celldm(1)=   6.009329  celldm(2)=   0.000000  celldm(3)=   0.000000
     celldm(4)=   0.000000  celldm(5)=   0.000000  celldm(6)=   0.000000

     crystal axes: (cart. coord. in units of alat)
               a(1) = (   1.000000   0.000000   0.000000 )  
               a(2) = (  -0.500000   0.866025   0.000000 )  
               a(3) = (   0.000000   0.000000   4.871069 )  

     reciprocal axes: (cart. coord. in units 2 pi/alat)
               b(1) = (  1.000000  0.577350  0.000000 )  
               b(2) = (  0.000000  1.154701  0.000000 )  
               b(3) = (  0.000000  0.000000  0.205294 )  


     PseudoPot. # 1 for Mo read from file:
     /shared/ESPRESSO/PSLIBRARY/1.0.0/pbe/PSEUDOPOTENTIALS/Mo.pbe-spn-kjpaw_psl.1.0.0.UPF
     MD5 check sum: 4396e0c640fcce5c25f020efccf1ab12
     Pseudo is Projector augmented-wave + core cor, Zval = 14.0
     Generated using &quot;atomic&quot; code by A. Dal Corso  v.6.3
     Shape of augmentation charge: PSQ
     Using radial grid of 1229 points,  6 beta functions with: 
                l(1) =   0
                l(2) =   0
                l(3) =   1
                l(4) =   1
                l(5) =   2
                l(6) =   2
     Q(r) pseudized with 0 coefficients 


     PseudoPot. # 2 for S  read from file:
     /shared/ESPRESSO/PSLIBRARY/1.0.0/pbe/PSEUDOPOTENTIALS/S.pbe-n-kjpaw_psl.1.0.0.UPF
     MD5 check sum: c08f931834bcc19553f8bde8f1a3adc5
     Pseudo is Projector augmented-wave + core cor, Zval =  6.0
     Generated using "atomic" code by A. Dal Corso  (Quantum ESPRESSO distribution)
     Shape of augmentation charge: PSQ
     Using radial grid of 1151 points,  6 beta functions with: 
                l(1) =   0
                l(2) =   0
                l(3) =   1
                l(4) =   1
                l(5) =   2
                l(6) =   2
     Q(r) pseudized with 0 coefficients 


     atomic species   valence    mass     pseudopotential
        Mo            14.00    95.94000     Mo( 1.00)
        S              6.00    32.06500     S ( 1.00)

     12 Sym. Ops. (no inversion) found



   Cartesian axes

     site n.     atom                  positions (alat units)
         1           Mo  tau(   1) = (   0.0000000   0.0000000   2.4355346  )
         2           S   tau(   2) = (   0.5000000   0.2886751   2.9371069  )
         3           S   tau(   3) = (   0.5000000   0.2886751   1.9339623  )

     number of k points=    30  Fermi-Dirac smearing, width (Ry)=  0.0070
                       cart. coord. in units 2pi/alat
        k(    1) = (   0.0000000   0.0000000   0.0000000), wk =   0.0078125
        k(    2) = (   0.0000000   0.0721688   0.0000000), wk =   0.0468750
        k(    3) = (   0.0000000   0.1443376   0.0000000), wk =   0.0468750
        k(    4) = (   0.0000000   0.2165064   0.0000000), wk =   0.0468750
        k(    5) = (   0.0000000   0.2886751   0.0000000), wk =   0.0468750
        k(    6) = (   0.0000000   0.3608439   0.0000000), wk =   0.0468750
        k(    7) = (   0.0000000   0.4330127   0.0000000), wk =   0.0468750
        k(    8) = (   0.0000000   0.5051815   0.0000000), wk =   0.0468750
        k(    9) = (   0.0000000  -0.5773503   0.0000000), wk =   0.0234375
        k(   10) = (   0.0625000   0.1082532   0.0000000), wk =   0.0468750
        k(   11) = (   0.0625000   0.1804220   0.0000000), wk =   0.0937500
        k(   12) = (   0.0625000   0.2525907   0.0000000), wk =   0.0937500
        k(   13) = (   0.0625000   0.3247595   0.0000000), wk =   0.0937500
        k(   14) = (   0.0625000   0.3969283   0.0000000), wk =   0.0937500
        k(   15) = (   0.0625000   0.4690971   0.0000000), wk =   0.0937500
        k(   16) = (   0.0625000   0.5412659   0.0000000), wk =   0.0937500
        k(   17) = (   0.1250000   0.2165064   0.0000000), wk =   0.0468750
        k(   18) = (   0.1250000   0.2886751   0.0000000), wk =   0.0937500
        k(   19) = (   0.1250000   0.3608439   0.0000000), wk =   0.0937500
        k(   20) = (   0.1250000   0.4330127   0.0000000), wk =   0.0937500
        k(   21) = (   0.1250000   0.5051815   0.0000000), wk =   0.0937500
        k(   22) = (   0.1250000   0.5773503   0.0000000), wk =   0.0468750
        k(   23) = (   0.1875000   0.3247595   0.0000000), wk =   0.0468750
        k(   24) = (   0.1875000   0.3969283   0.0000000), wk =   0.0937500
        k(   25) = (   0.1875000   0.4690971   0.0000000), wk =   0.0937500
        k(   26) = (   0.1875000   0.5412659   0.0000000), wk =   0.0937500
        k(   27) = (   0.2500000   0.4330127   0.0000000), wk =   0.0468750
        k(   28) = (   0.2500000   0.5051815   0.0000000), wk =   0.0937500
        k(   29) = (   0.2500000   0.5773503   0.0000000), wk =   0.0468750
        k(   30) = (   0.3125000   0.5412659   0.0000000), wk =   0.0468750

     Dense  grid:   114655 G-vectors     FFT dimensions: (  40,  40, 192)

     Estimated max dynamical RAM per process >      37.56 MB

     Estimated total dynamical RAM >     601.02 MB

     Initial potential from superposition of free atoms

     starting charge      25.9991, renormalised to      26.0000

     negative rho (up, down):  1.705E-04 0.000E+00
     Starting wfcs are   18 randomized atomic wfcs
     Checking if some PAW data can be deallocated... 

     total cpu time spent up to now is        1.1 secs

     Self-consistent Calculation

     iteration #  1     ecut=    95.00 Ry     beta= 0.70
     Davidson diagonalization with overlap
     ethr =  1.00E-02,  avg # of iterations =  2.3

     Threshold (ethr) on eigenvalues was too large:
     Diagonalizing with lowered threshold

     Davidson diagonalization with overlap
     ethr =  2.83E-04,  avg # of iterations =  3.6

     negative rho (up, down):  1.837E-04 0.000E+00

     total cpu time spent up to now is        3.4 secs

     total energy              =    -496.65403766 Ry
     estimated scf accuracy    <       0.11127643 Ry

     iteration #  2     ecut=    95.00 Ry     beta= 0.70
     Davidson diagonalization with overlap
     ethr =  4.28E-04,  avg # of iterations =  3.0

     negative rho (up, down):  1.714E-04 0.000E+00

     total cpu time spent up to now is        4.3 secs

     total energy              =    -496.62425127 Ry
     estimated scf accuracy    <       0.29994877 Ry

     iteration #  3     ecut=    95.00 Ry     beta= 0.70
     Davidson diagonalization with overlap
     ethr =  4.28E-04,  avg # of iterations =  2.5

     negative rho (up, down):  1.697E-04 0.000E+00

     total cpu time spent up to now is        5.1 secs

     total energy              =    -496.67754957 Ry
     estimated scf accuracy    <       0.14044202 Ry

     iteration #  4     ecut=    95.00 Ry     beta= 0.70
     Davidson diagonalization with overlap
     ethr =  4.28E-04,  avg # of iterations =  1.4

     negative rho (up, down):  1.764E-04 0.000E+00

     total cpu time spent up to now is        5.9 secs

     total energy              =    -496.69594417 Ry
     estimated scf accuracy    <       0.00059992 Ry

     iteration #  5     ecut=    95.00 Ry     beta= 0.70
     Davidson diagonalization with overlap
     ethr =  2.31E-06,  avg # of iterations =  3.5

     negative rho (up, down):  1.778E-04 0.000E+00

     total cpu time spent up to now is        6.8 secs

     total energy              =    -496.69623184 Ry
     estimated scf accuracy    <       0.00011520 Ry

     iteration #  6     ecut=    95.00 Ry     beta= 0.70
     Davidson diagonalization with overlap
     ethr =  4.43E-07,  avg # of iterations =  2.0

     negative rho (up, down):  1.789E-04 0.000E+00

     total cpu time spent up to now is        7.5 secs

     total energy              =    -496.69624085 Ry
     estimated scf accuracy    <       0.00001115 Ry

     iteration #  7     ecut=    95.00 Ry     beta= 0.70
     Davidson diagonalization with overlap
     ethr =  4.29E-08,  avg # of iterations =  2.2

     negative rho (up, down):  1.791E-04 0.000E+00

     total cpu time spent up to now is        8.4 secs

     End of self-consistent calculation

          k = 0.0000 0.0000 0.0000 ( 14371 PWs)   bands (ev):

   -60.4051 -34.5331 -34.3176 -34.3176 -13.4944 -12.2953  -5.0228  -1.9264
    -1.9264  -1.3585  -0.8596  -0.8596   0.3784   3.2522   3.2522   3.4198
     3.4198

          k = 0.0000 0.0722 0.0000 ( 14367 PWs)   bands (ev):

   -60.4037 -34.5304 -34.3319 -34.3209 -13.4370 -12.2696  -4.9546  -2.0625
    -1.8666  -1.6099  -0.9543  -0.6995   0.3575   3.1636   3.2485   3.3511
     3.3557

          k = 0.0000 0.1443 0.0000 ( 14330 PWs)   bands (ev):

   -60.3997 -34.5225 -34.3724 -34.3302 -13.2696 -12.1948  -4.7655  -2.4159
    -2.0444  -1.6947  -1.1993  -0.5738   0.2663   2.8953   3.0380   3.1903
     3.6023

          k = 0.0000 0.2165 0.0000 ( 14304 PWs)   bands (ev):

   -60.3936 -34.5107 -34.4325 -34.3440 -13.0069 -12.0777  -4.5148  -2.8582
    -2.5192  -1.5164  -1.4335  -0.6563   0.0511   2.6225   2.9857   3.0903
     3.9116

          k = 0.0000 0.2887 0.0000 ( 14350 PWs)   bands (ev):

   -60.3865 -34.5027 -34.4968 -34.3603 -12.6745 -11.9306  -4.3582  -3.2128
    -3.0083  -1.8380  -1.1229  -0.8826  -0.2504   2.5632   2.8084   3.3499
     4.1985

          k = 0.0000 0.3608 0.0000 ( 14294 PWs)   bands (ev):

   -60.3794 -34.5722 -34.4828 -34.3765 -12.3103 -11.7719  -4.5030  -3.4811
    -3.3260  -2.1201  -1.1230  -0.8173  -0.4544   2.6856   2.7084   3.7017
     4.4197

          k = 0.0000 0.4330 0.0000 ( 14310 PWs)   bands (ev):

   -60.3734 -34.6305 -34.4710 -34.3903 -11.9684 -11.6264  -4.8202  -3.8852
    -3.3672  -2.3362  -1.3041  -0.5727  -0.4166   2.7001   2.9041   4.0182
     4.5657

          k = 0.0000 0.5052 0.0000 ( 14306 PWs)   bands (ev):

   -60.3693 -34.6691 -34.4630 -34.3994 -11.7172 -11.5225  -5.0863  -4.1598
    -3.4440  -2.4710  -1.4093  -0.4233  -0.2344   2.7456   3.1310   4.2174
     4.6451

          k = 0.0000-0.5774 0.0000 ( 14298 PWs)   bands (ev):

   -60.3679 -34.6826 -34.4602 -34.4026 -11.6235 -11.4846  -5.1879  -4.2573
    -3.4833  -2.5168  -1.4432  -0.3745  -0.1368   2.7734   3.2381   4.2815
     4.6700

          k = 0.0625 0.1083 0.0000 ( 14341 PWs)   bands (ev):

   -60.4010 -34.5251 -34.3589 -34.3276 -13.3246 -12.2194  -4.8254  -2.3048
    -1.9102  -1.7531  -1.1666  -0.5530   0.3016   2.9954   3.0401   3.2342
     3.5410

          k = 0.0625 0.1804 0.0000 ( 14334 PWs)   bands (ev):

   -60.3959 -34.5152 -34.4081 -34.3403 -13.1094 -12.1232  -4.6002  -2.6955
    -2.3063  -1.5471  -1.5294  -0.4966   0.1471   2.6911   2.9733   3.0476
     3.8461

          k = 0.0625 0.2526 0.0000 ( 14326 PWs)   bands (ev):

   -60.3894 -34.5024 -34.4717 -34.3568 -12.8112 -11.9905  -4.3775  -3.0875
    -2.7550  -1.9003  -1.2933  -0.6265  -0.1152   2.5111   2.8902   3.1105
     4.1596

          k = 0.0625 0.3248 0.0000 ( 14331 PWs)   bands (ev):

   -60.3823 -34.5399 -34.4884 -34.3747 -12.4614 -11.8363  -4.3695  -3.2875
    -3.2415  -2.1886  -1.0740  -0.8699  -0.3385   2.4930   2.8355   3.4134
     4.4115

          k = 0.0625 0.3969 0.0000 ( 14308 PWs)   bands (ev):

   -60.3757 -34.6022 -34.4755 -34.3912 -12.1054 -11.6820  -4.6282  -3.7047
    -3.3153  -2.3788  -1.1211  -0.9497  -0.3227   2.5851   2.9034   3.7661
     4.5641

          k = 0.0625 0.4691 0.0000 ( 14302 PWs)   bands (ev):

   -60.3706 -34.6496 -34.4656 -34.4038 -11.8043 -11.5547  -4.9238  -4.0668
    -3.3792  -2.4894  -1.3138  -0.8308  -0.1506   2.7068   3.0662   4.0796
     4.6005

          k = 0.0625 0.5413 0.0000 ( 14315 PWs)   bands (ev):

   -60.3679 -34.6750 -34.4602 -34.4106 -11.6280 -11.4819  -5.1066  -4.2651
    -3.4513  -2.5391  -1.4165  -0.7420   0.0038   2.7729   3.2369   4.3090
     4.5367

          k = 0.1250 0.2165 0.0000 ( 14335 PWs)   bands (ev):

   -60.3904 -34.5043 -34.4588 -34.3576 -12.8582 -12.0110  -4.3884  -3.0268
    -2.5934  -2.0467  -1.3728  -0.4567  -0.0601   2.4841   2.9186   2.9630
     4.1763

          k = 0.1250 0.2887 0.0000 ( 14327 PWs)   bands (ev):

   -60.3838 -34.5171 -34.4915 -34.3791 -12.5412 -11.8697  -4.2848  -3.2382
    -2.9911  -2.4430  -1.2852  -0.5834  -0.2540   2.3684   2.9038   3.1226
     4.4639

          k = 0.1250 0.3608 0.0000 ( 14327 PWs)   bands (ev):

   -60.3772 -34.5745 -34.4786 -34.4010 -12.1956 -11.7167  -4.4332  -3.5107
    -3.2420  -2.5971  -1.3501  -0.8343  -0.2679   2.4275   2.9729   3.4104
     4.6481

          k = 0.1250 0.4330 0.0000 ( 14321 PWs)   bands (ev):

   -60.3716 -34.6225 -34.4676 -34.4196 -11.8734 -11.5761  -4.6866  -3.9728
    -3.2597  -2.6273  -1.3954  -1.1139  -0.1280   2.6155   3.0812   3.7271
     4.7075

          k = 0.1250 0.5052 0.0000 ( 14320 PWs)   bands (ev):

   -60.3679 -34.6544 -34.4602 -34.4320 -11.6388 -11.4754  -4.8893  -4.2821
    -3.3556  -2.6033  -1.3634  -1.3354   0.0617   2.7336   3.2597   3.9940
     4.6600

          k = 0.1250 0.5774 0.0000 ( 14314 PWs)   bands (ev):

   -60.3666 -34.6655 -34.4577 -34.4364 -11.5519 -11.4386  -4.9657  -4.3907
    -3.4073  -2.5842  -1.4221  -1.3418   0.1574   2.7440   3.3773   4.1167
     4.6055

          k = 0.1875 0.3248 0.0000 ( 14327 PWs)   bands (ev):

   -60.3778 -34.5620 -34.4796 -34.4072 -12.2270 -11.7285  -4.3480  -3.3965
    -3.2019  -2.7371  -1.5221  -0.6985  -0.2560   2.3656   2.9992   3.2465
     4.6924

          k = 0.1875 0.3969 0.0000 ( 14308 PWs)   bands (ev):

   -60.3722 -34.6006 -34.4687 -34.4356 -11.9115 -11.5866  -4.5008  -3.8990
    -3.1220  -2.7606  -1.8336  -0.9477  -0.1455   2.5428   3.1095   3.4484
     4.8234

          k = 0.1875 0.4691 0.0000 ( 14299 PWs)   bands (ev):

   -60.3679 -34.6287 -34.4603 -34.4586 -11.6493 -11.4689  -4.6309  -4.2963
    -3.1917  -2.6778  -1.9980  -1.2343   0.0497   2.6661   3.2996   3.6369
     4.8783

          k = 0.1875 0.5413 0.0000 ( 14291 PWs)   bands (ev):

   -60.3656 -34.6434 -34.4714 -34.4557 -11.4984 -11.4013  -4.6969  -4.5114
    -3.3187  -2.5833  -2.0312  -1.4403   0.2345   2.6226   3.5350   3.7458
     4.8904

          k = 0.2500 0.4330 0.0000 ( 14285 PWs)   bands (ev):

   -60.3679 -34.6153 -34.4723 -34.4603 -11.6537 -11.4661  -4.5070  -4.3014
    -3.0441  -2.7108  -2.3435  -1.1872   0.0368   2.6347   3.3175   3.4960
     4.9710

          k = 0.2500 0.5052 0.0000 ( 14279 PWs)   bands (ev):

   -60.3650 -34.6197 -34.5023 -34.4547 -11.4714 -11.3795  -4.5857  -4.4358
    -3.1668  -2.6237  -2.5693  -1.4528   0.2715   2.5146   3.5177   3.6322
     5.0896

          k = 0.2500 0.5774 0.0000 ( 14254 PWs)   bands (ev):

   -60.3640 -34.6195 -34.5146 -34.4527 -11.4053 -11.3477  -4.6871  -4.3755
    -3.3101  -2.6651  -2.4817  -1.5845   0.3963   2.4140   3.5215   3.7894
     5.1363

          k = 0.3125 0.5413 0.0000 ( 14281 PWs)   bands (ev):

   -60.3635 -34.5999 -34.5409 -34.4516 -11.3728 -11.3280  -4.7524  -4.1417
    -3.3675  -2.9491  -2.4183  -1.6606   0.4737   2.3053   3.4359   3.8902
     5.2385

     the Fermi energy is     1.3587 ev

!    total energy              =    -496.69624430 Ry
     total all-electron energy =     -9695.026459 Ry
     estimated scf accuracy    <       0.00000041 Ry
     smearing contrib. (-TS)   =      -0.00000193 Ry
     internal energy E=F+TS    =    -496.69624237 Ry

     The total energy is F=E-TS. E is the sum of the following terms:
     one-electron contribution =    -740.33148301 Ry
     hartree contribution      =     374.06074636 Ry
     xc contribution           =     -29.64914802 Ry
     ewald contribution        =     218.85262295 Ry
     one-center paw contrib.   =    -319.62898065 Ry

     convergence has been achieved in   7 iterations

     negative rho (up, down):  1.791E-04 0.000E+00

     Forces acting on atoms (cartesian axes, Ry/au):

     atom    1 type  1   force =     0.00000000    0.00000000    0.00000000
     atom    2 type  2   force =     0.00000000   -0.00000000   -0.02090467
     atom    3 type  2   force =     0.00000000   -0.00000000    0.02090467
     The non-local contrib.  to forces
     atom    1 type  1   force =     0.00000000    0.00000000    0.00000000
     atom    2 type  2   force =     0.00000000    0.00000000   -0.27780246
     atom    3 type  2   force =     0.00000000    0.00000000    0.27780246
     The ionic contribution  to forces
     atom    1 type  1   force =     0.00000000   -0.00000000    0.00000000
     atom    2 type  2   force =    -0.00000000    0.00000000   32.99976195
     atom    3 type  2   force =    -0.00000000    0.00000000  -32.99976195
     The local contribution  to forces
     atom    1 type  1   force =     0.00000000   -0.00000000    0.00000000
     atom    2 type  2   force =    -0.00000000    0.00000000  -32.74516930
     atom    3 type  2   force =    -0.00000000    0.00000000   32.74516930
     The core correction contribution to forces
     atom    1 type  1   force =    -0.00000000   -0.00000000   -0.00000000
     atom    2 type  2   force =     0.00000000   -0.00000000    0.00269197
     atom    3 type  2   force =     0.00000000   -0.00000000   -0.00269197
     The Hubbard contrib.    to forces
     atom    1 type  1   force =     0.00000000    0.00000000    0.00000000
     atom    2 type  2   force =     0.00000000    0.00000000    0.00000000
     atom    3 type  2   force =     0.00000000    0.00000000    0.00000000
     The SCF correction term to forces
     atom    1 type  1   force =     0.00000000    0.00000000   -0.00000000
     atom    2 type  2   force =     0.00000000    0.00000000   -0.00038683
     atom    3 type  2   force =    -0.00000000    0.00000000    0.00038683

     Total force =     0.029564     Total SCF correction =     0.000547


     Computing stress (Cartesian axis) and pressure


     negative rho (up, down):  1.791E-04 0.000E+00
          total   stress  (Ry/bohr**3)                   (kbar)     P=       -9.89
  -0.00003234  -0.00000000   0.00000000           -4.76       -0.00        0.00
  -0.00000000  -0.00003234   0.00000000           -0.00       -4.76        0.00
   0.00000000   0.00000000  -0.00013707            0.00        0.00      -20.16


     Writing all to output data dir ./tmp/scf.save/
 
     init_run     :      0.80s CPU      0.96s WALL (       1 calls)
     electrons    :      6.99s CPU      7.24s WALL (       1 calls)
     forces       :      0.17s CPU      0.17s WALL (       1 calls)
     stress       :      0.78s CPU      0.80s WALL (       1 calls)

     Called by init_run:
     wfcinit      :      0.25s CPU      0.27s WALL (       1 calls)
     potinit      :      0.22s CPU      0.29s WALL (       1 calls)
     hinit0       :      0.21s CPU      0.28s WALL (       1 calls)

     Called by electrons:
     c_bands      :      5.46s CPU      5.65s WALL (       8 calls)
     sum_band     :      0.93s CPU      0.99s WALL (       8 calls)
     v_of_rho     :      0.04s CPU      0.05s WALL (       8 calls)
     newd         :      0.30s CPU      0.31s WALL (       8 calls)
     PAW_pot      :      0.45s CPU      0.52s WALL (       8 calls)
     mix_rho      :      0.01s CPU      0.01s WALL (       8 calls)

     Called by c_bands:
     init_us_2    :      0.13s CPU      0.13s WALL (     570 calls)
     init_us_2:cp :      0.13s CPU      0.13s WALL (     570 calls)
     cegterg      :      3.33s CPU      3.51s WALL (     240 calls)

     Called by *egterg:
     cdiaghg      :      0.22s CPU      0.23s WALL (     822 calls)
     h_psi        :      2.76s CPU      2.91s WALL (     882 calls)
     s_psi        :      0.08s CPU      0.08s WALL (     882 calls)
     g_psi        :      0.01s CPU      0.01s WALL (     612 calls)

     Called by h_psi:
     h_psi:calbec :      0.21s CPU      0.22s WALL (     882 calls)
     vloc_psi     :      2.43s CPU      2.57s WALL (     882 calls)
     add_vuspsi   :      0.09s CPU      0.09s WALL (     882 calls)

     General routines
     calbec       :      0.28s CPU      0.30s WALL (    1272 calls)
     fft          :      0.07s CPU      0.12s WALL (     114 calls)
     ffts         :      0.00s CPU      0.00s WALL (       8 calls)
     fftw         :      2.54s CPU      2.69s WALL (   26304 calls)
 
     Parallel routines
 
     PWSCF        :      8.93s CPU      9.48s WALL

 
   This run was terminated on:  12:55:54   6Jun2025            

=------------------------------------------------------------------------------=
   JOB DONE.
=------------------------------------------------------------------------------=
