
     Program PWSCF v.7.2 starts on  6Jun2025 at 12:55:20 

     This program is part of the open-source Quantum ESPRESSO suite
     for quantum simulation of materials; please cite
         "P. Giannozzi et al., J. Phys.:Condens. Matter 21 395502 (2009);
         "P. Giannozzi et al., J. Phys.:Condens. Matter 29 465901 (2017);
         "P. Giannozzi et al., J. Chem. Phys. 152 154105 (2020);
          URL http://www.quantum-espresso.org", 
     in publications or presentations arising from this work. More details at
     http://www.quantum-espresso.org/quote

     Parallel version (MPI), running on    16 processors

     MPI processes distributed on     1 nodes
     38277 MiB available memory on the printing compute node when the environment starts
 
     Waiting for input...
     Reading input from standard input

     Current dimensions of program PWSCF are:
     Max number of different atomic species (ntypx) = 10
     Max number of k-points (npk) =  40000
     Max angular momentum in pseudopotentials (lmaxx) =  4
     file Mo.pbe-spn-kjpaw_psl.1.0.0.UPF: wavefunction(s)  4S 4D renormalized
     file S.pbe-n-kjpaw_psl.1.0.0.UPF: wavefunction(s)  3S 3P renormalized
     Message from routine setup:
     using ibrav=0 with symmetry is DISCOURAGED, use correct ibrav instead
 
     R & G space division:  proc/nbgrp/npool/nimage =      16
     Subspace diagonalization in iterative solution of the eigenvalue problem:
     a serial algorithm will be used

 
     Parallelization info
     --------------------
     sticks:   dense  smooth     PW     G-vecs:    dense   smooth      PW
     Min          46      46     13                 5016     5016     771
     Max          47      47     14                 5041     5041     790
     Sum         745     745    211                80465    80465   12477
 
     Using Slab Decomposition
 


     bravais-lattice index     =            0
     lattice parameter (alat)  =       6.0093  a.u.
     unit-cell volume          =     915.4463 (a.u.)^3
     number of atoms/cell      =            3
     number of atomic types    =            2
     number of electrons       =        26.00
     number of Kohn-Sham states=           17
     kinetic-energy cutoff     =      75.0000  Ry
     charge density cutoff     =     300.0000  Ry
     scf convergence threshold =      1.0E-06
     mixing beta               =       0.7000
     number of iterations used =            8  plain     mixing
     Exchange-correlation= SLA  PW   PBX  PBC
                           (   1   4   3   4   0   0   0)

     celldm(1)=   6.009329  celldm(2)=   0.000000  celldm(3)=   0.000000
     celldm(4)=   0.000000  celldm(5)=   0.000000  celldm(6)=   0.000000

     crystal axes: (cart. coord. in units of alat)
               a(1) = (   1.000000   0.000000   0.000000 )  
               a(2) = (  -0.500000   0.866025   0.000000 )  
               a(3) = (   0.000000   0.000000   4.871069 )  

     reciprocal axes: (cart. coord. in units 2 pi/alat)
               b(1) = (  1.000000  0.577350  0.000000 )  
               b(2) = (  0.000000  1.154701  0.000000 )  
               b(3) = (  0.000000  0.000000  0.205294 )  


     PseudoPot. # 1 for Mo read from file:
     /shared/ESPRESSO/PSLIBRARY/1.0.0/pbe/PSEUDOPOTENTIALS/Mo.pbe-spn-kjpaw_psl.1.0.0.UPF
     MD5 check sum: 4396e0c640fcce5c25f020efccf1ab12
     Pseudo is Projector augmented-wave + core cor, Zval = 14.0
     Generated using &quot;atomic&quot; code by A. Dal Corso  v.6.3
     Shape of augmentation charge: PSQ
     Using radial grid of 1229 points,  6 beta functions with: 
                l(1) =   0
                l(2) =   0
                l(3) =   1
                l(4) =   1
                l(5) =   2
                l(6) =   2
     Q(r) pseudized with 0 coefficients 


     PseudoPot. # 2 for S  read from file:
     /shared/ESPRESSO/PSLIBRARY/1.0.0/pbe/PSEUDOPOTENTIALS/S.pbe-n-kjpaw_psl.1.0.0.UPF
     MD5 check sum: c08f931834bcc19553f8bde8f1a3adc5
     Pseudo is Projector augmented-wave + core cor, Zval =  6.0
     Generated using "atomic" code by A. Dal Corso  (Quantum ESPRESSO distribution)
     Shape of augmentation charge: PSQ
     Using radial grid of 1151 points,  6 beta functions with: 
                l(1) =   0
                l(2) =   0
                l(3) =   1
                l(4) =   1
                l(5) =   2
                l(6) =   2
     Q(r) pseudized with 0 coefficients 


     atomic species   valence    mass     pseudopotential
        Mo            14.00    95.94000     Mo( 1.00)
        S              6.00    32.06500     S ( 1.00)

     12 Sym. Ops. (no inversion) found



   Cartesian axes

     site n.     atom                  positions (alat units)
         1           Mo  tau(   1) = (   0.0000000   0.0000000   2.4355346  )
         2           S   tau(   2) = (   0.5000000   0.2886751   2.9371069  )
         3           S   tau(   3) = (   0.5000000   0.2886751   1.9339623  )

     number of k points=    30  Fermi-Dirac smearing, width (Ry)=  0.0070
                       cart. coord. in units 2pi/alat
        k(    1) = (   0.0000000   0.0000000   0.0000000), wk =   0.0078125
        k(    2) = (   0.0000000   0.0721688   0.0000000), wk =   0.0468750
        k(    3) = (   0.0000000   0.1443376   0.0000000), wk =   0.0468750
        k(    4) = (   0.0000000   0.2165064   0.0000000), wk =   0.0468750
        k(    5) = (   0.0000000   0.2886751   0.0000000), wk =   0.0468750
        k(    6) = (   0.0000000   0.3608439   0.0000000), wk =   0.0468750
        k(    7) = (   0.0000000   0.4330127   0.0000000), wk =   0.0468750
        k(    8) = (   0.0000000   0.5051815   0.0000000), wk =   0.0468750
        k(    9) = (   0.0000000  -0.5773503   0.0000000), wk =   0.0234375
        k(   10) = (   0.0625000   0.1082532   0.0000000), wk =   0.0468750
        k(   11) = (   0.0625000   0.1804220   0.0000000), wk =   0.0937500
        k(   12) = (   0.0625000   0.2525907   0.0000000), wk =   0.0937500
        k(   13) = (   0.0625000   0.3247595   0.0000000), wk =   0.0937500
        k(   14) = (   0.0625000   0.3969283   0.0000000), wk =   0.0937500
        k(   15) = (   0.0625000   0.4690971   0.0000000), wk =   0.0937500
        k(   16) = (   0.0625000   0.5412659   0.0000000), wk =   0.0937500
        k(   17) = (   0.1250000   0.2165064   0.0000000), wk =   0.0468750
        k(   18) = (   0.1250000   0.2886751   0.0000000), wk =   0.0937500
        k(   19) = (   0.1250000   0.3608439   0.0000000), wk =   0.0937500
        k(   20) = (   0.1250000   0.4330127   0.0000000), wk =   0.0937500
        k(   21) = (   0.1250000   0.5051815   0.0000000), wk =   0.0937500
        k(   22) = (   0.1250000   0.5773503   0.0000000), wk =   0.0468750
        k(   23) = (   0.1875000   0.3247595   0.0000000), wk =   0.0468750
        k(   24) = (   0.1875000   0.3969283   0.0000000), wk =   0.0937500
        k(   25) = (   0.1875000   0.4690971   0.0000000), wk =   0.0937500
        k(   26) = (   0.1875000   0.5412659   0.0000000), wk =   0.0937500
        k(   27) = (   0.2500000   0.4330127   0.0000000), wk =   0.0468750
        k(   28) = (   0.2500000   0.5051815   0.0000000), wk =   0.0937500
        k(   29) = (   0.2500000   0.5773503   0.0000000), wk =   0.0468750
        k(   30) = (   0.3125000   0.5412659   0.0000000), wk =   0.0468750

     Dense  grid:    80465 G-vectors     FFT dimensions: (  36,  36, 162)

     Estimated max dynamical RAM per process >      27.02 MB

     Estimated total dynamical RAM >     432.36 MB

     Initial potential from superposition of free atoms

     starting charge      25.9991, renormalised to      26.0000

     negative rho (up, down):  1.329E-04 0.000E+00
     Starting wfcs are   18 randomized atomic wfcs
     Checking if some PAW data can be deallocated... 

     total cpu time spent up to now is        0.9 secs

     Self-consistent Calculation

     iteration #  1     ecut=    75.00 Ry     beta= 0.70
     Davidson diagonalization with overlap
     ethr =  1.00E-02,  avg # of iterations =  2.3

     Threshold (ethr) on eigenvalues was too large:
     Diagonalizing with lowered threshold

     Davidson diagonalization with overlap
     ethr =  2.84E-04,  avg # of iterations =  3.6

     negative rho (up, down):  1.789E-04 0.000E+00

     total cpu time spent up to now is        2.1 secs

     total energy              =    -496.65367605 Ry
     estimated scf accuracy    <       0.11110456 Ry

     iteration #  2     ecut=    75.00 Ry     beta= 0.70
     Davidson diagonalization with overlap
     ethr =  4.27E-04,  avg # of iterations =  3.0

     negative rho (up, down):  1.710E-04 0.000E+00

     total cpu time spent up to now is        2.8 secs

     total energy              =    -496.62373104 Ry
     estimated scf accuracy    <       0.30010789 Ry

     iteration #  3     ecut=    75.00 Ry     beta= 0.70
     Davidson diagonalization with overlap
     ethr =  4.27E-04,  avg # of iterations =  2.5

     negative rho (up, down):  1.719E-04 0.000E+00

     total cpu time spent up to now is        3.6 secs

     total energy              =    -496.67712452 Ry
     estimated scf accuracy    <       0.14006840 Ry

     iteration #  4     ecut=    75.00 Ry     beta= 0.70
     Davidson diagonalization with overlap
     ethr =  4.27E-04,  avg # of iterations =  1.4

     negative rho (up, down):  1.843E-04 0.000E+00

     total cpu time spent up to now is        4.2 secs

     total energy              =    -496.69546489 Ry
     estimated scf accuracy    <       0.00060815 Ry

     iteration #  5     ecut=    75.00 Ry     beta= 0.70
     Davidson diagonalization with overlap
     ethr =  2.34E-06,  avg # of iterations =  3.5

     negative rho (up, down):  1.864E-04 0.000E+00

     total cpu time spent up to now is        5.1 secs

     total energy              =    -496.69575151 Ry
     estimated scf accuracy    <       0.00011496 Ry

     iteration #  6     ecut=    75.00 Ry     beta= 0.70
     Davidson diagonalization with overlap
     ethr =  4.42E-07,  avg # of iterations =  2.0

     negative rho (up, down):  1.878E-04 0.000E+00

     total cpu time spent up to now is        6.0 secs

     total energy              =    -496.69576065 Ry
     estimated scf accuracy    <       0.00001085 Ry

     iteration #  7     ecut=    75.00 Ry     beta= 0.70
     Davidson diagonalization with overlap
     ethr =  4.17E-08,  avg # of iterations =  2.3

     negative rho (up, down):  1.881E-04 0.000E+00

     total cpu time spent up to now is        6.9 secs

     End of self-consistent calculation

          k = 0.0000 0.0000 0.0000 ( 10047 PWs)   bands (ev):

   -60.4036 -34.5327 -34.3172 -34.3172 -13.4944 -12.2953  -5.0228  -1.9264
    -1.9264  -1.3585  -0.8596  -0.8596   0.3785   3.2523   3.2523   3.4198
     3.4198

          k = 0.0000 0.0722 0.0000 ( 10057 PWs)   bands (ev):

   -60.4022 -34.5299 -34.3314 -34.3204 -13.4370 -12.2696  -4.9546  -2.0625
    -1.8666  -1.6099  -0.9542  -0.6995   0.3576   3.1636   3.2485   3.3512
     3.3558

          k = 0.0000 0.1443 0.0000 ( 10055 PWs)   bands (ev):

   -60.3982 -34.5220 -34.3719 -34.3297 -13.2696 -12.1948  -4.7655  -2.4159
    -2.0443  -1.6947  -1.1993  -0.5738   0.2664   2.8953   3.0381   3.1903
     3.6024

          k = 0.0000 0.2165 0.0000 ( 10054 PWs)   bands (ev):

   -60.3922 -34.5103 -34.4320 -34.3435 -13.0069 -12.0778  -4.5148  -2.8581
    -2.5192  -1.5163  -1.4335  -0.6563   0.0511   2.6226   2.9857   3.0904
     3.9117

          k = 0.0000 0.2887 0.0000 ( 10054 PWs)   bands (ev):

   -60.3850 -34.5022 -34.4963 -34.3598 -12.6745 -11.9306  -4.3582  -3.2128
    -3.0083  -1.8380  -1.1229  -0.8825  -0.2504   2.5633   2.8085   3.3500
     4.1986

          k = 0.0000 0.3608 0.0000 ( 10030 PWs)   bands (ev):

   -60.3779 -34.5717 -34.4824 -34.3760 -12.3104 -11.7719  -4.5030  -3.4811
    -3.3260  -2.1201  -1.1229  -0.8173  -0.4543   2.6856   2.7084   3.7018
     4.4198

          k = 0.0000 0.4330 0.0000 ( 10026 PWs)   bands (ev):

   -60.3719 -34.6300 -34.4705 -34.3898 -11.9684 -11.6264  -4.8202  -3.8852
    -3.3672  -2.3362  -1.3041  -0.5727  -0.4165   2.7001   2.9042   4.0183
     4.5658

          k = 0.0000 0.5052 0.0000 ( 10070 PWs)   bands (ev):

   -60.3678 -34.6686 -34.4625 -34.3989 -11.7172 -11.5225  -5.0862  -4.1597
    -3.4440  -2.4710  -1.4093  -0.4233  -0.2343   2.7456   3.1310   4.2174
     4.6452

          k = 0.0000-0.5774 0.0000 ( 10066 PWs)   bands (ev):

   -60.3664 -34.6822 -34.4597 -34.4021 -11.6236 -11.4846  -5.1879  -4.2572
    -3.4833  -2.5168  -1.4431  -0.3745  -0.1367   2.7734   3.2381   4.2815
     4.6701

          k = 0.0625 0.1083 0.0000 ( 10063 PWs)   bands (ev):

   -60.3995 -34.5246 -34.3584 -34.3271 -13.3246 -12.2194  -4.8254  -2.3048
    -1.9102  -1.7531  -1.1665  -0.5530   0.3017   2.9955   3.0401   3.2342
     3.5411

          k = 0.0625 0.1804 0.0000 ( 10066 PWs)   bands (ev):

   -60.3945 -34.5148 -34.4076 -34.3398 -13.1094 -12.1233  -4.6002  -2.6955
    -2.3063  -1.5471  -1.5294  -0.4965   0.1472   2.6912   2.9733   3.0477
     3.8462

          k = 0.0625 0.2526 0.0000 ( 10038 PWs)   bands (ev):

   -60.3879 -34.5019 -34.4712 -34.3563 -12.8112 -11.9905  -4.3775  -3.0875
    -2.7550  -1.9002  -1.2933  -0.6265  -0.1152   2.5112   2.8902   3.1105
     4.1597

          k = 0.0625 0.3248 0.0000 ( 10043 PWs)   bands (ev):

   -60.3808 -34.5394 -34.4880 -34.3742 -12.4614 -11.8363  -4.3695  -3.2875
    -3.2415  -2.1886  -1.0740  -0.8699  -0.3385   2.4931   2.8356   3.4134
     4.4116

          k = 0.0625 0.3969 0.0000 ( 10036 PWs)   bands (ev):

   -60.3742 -34.6017 -34.4750 -34.3907 -12.1054 -11.6820  -4.6282  -3.7047
    -3.3152  -2.3788  -1.1210  -0.9497  -0.3227   2.5852   2.9034   3.7662
     4.5642

          k = 0.0625 0.4691 0.0000 ( 10049 PWs)   bands (ev):

   -60.3692 -34.6491 -34.4651 -34.4033 -11.8044 -11.5547  -4.9238  -4.0667
    -3.3792  -2.4893  -1.3137  -0.8308  -0.1506   2.7069   3.0663   4.0797
     4.6006

          k = 0.0625 0.5413 0.0000 ( 10066 PWs)   bands (ev):

   -60.3664 -34.6745 -34.4598 -34.4101 -11.6281 -11.4820  -5.1066  -4.2651
    -3.4513  -2.5391  -1.4164  -0.7420   0.0038   2.7729   3.2369   4.3091
     4.5368

          k = 0.1250 0.2165 0.0000 ( 10049 PWs)   bands (ev):

   -60.3889 -34.5039 -34.4584 -34.3571 -12.8583 -12.0110  -4.3884  -3.0268
    -2.5934  -2.0467  -1.3728  -0.4567  -0.0601   2.4842   2.9187   2.9631
     4.1764

          k = 0.1250 0.2887 0.0000 ( 10032 PWs)   bands (ev):

   -60.3823 -34.5166 -34.4910 -34.3786 -12.5412 -11.8697  -4.2848  -3.2382
    -2.9911  -2.4430  -1.2852  -0.5834  -0.2540   2.3684   2.9038   3.1227
     4.4640

          k = 0.1250 0.3608 0.0000 ( 10039 PWs)   bands (ev):

   -60.3757 -34.5740 -34.4781 -34.4005 -12.1956 -11.7168  -4.4332  -3.5107
    -3.2420  -2.5970  -1.3501  -0.8343  -0.2679   2.4276   2.9729   3.4104
     4.6482

          k = 0.1250 0.4330 0.0000 ( 10023 PWs)   bands (ev):

   -60.3702 -34.6220 -34.4671 -34.4191 -11.8735 -11.5761  -4.6866  -3.9728
    -3.2596  -2.6273  -1.3954  -1.1138  -0.1280   2.6155   3.0812   3.7272
     4.7076

          k = 0.1250 0.5052 0.0000 ( 10033 PWs)   bands (ev):

   -60.3664 -34.6539 -34.4598 -34.4316 -11.6388 -11.4754  -4.8892  -4.2821
    -3.3556  -2.6033  -1.3634  -1.3353   0.0617   2.7336   3.2598   3.9941
     4.6601

          k = 0.1250 0.5774 0.0000 ( 10038 PWs)   bands (ev):

   -60.3651 -34.6651 -34.4572 -34.4359 -11.5519 -11.4386  -4.9656  -4.3906
    -3.4073  -2.5842  -1.4221  -1.3418   0.1574   2.7441   3.3773   4.1168
     4.6056

          k = 0.1875 0.3248 0.0000 ( 10034 PWs)   bands (ev):

   -60.3763 -34.5615 -34.4791 -34.4067 -12.2270 -11.7286  -4.3480  -3.3965
    -3.2018  -2.7371  -1.5221  -0.6985  -0.2560   2.3657   2.9992   3.2466
     4.6925

          k = 0.1875 0.3969 0.0000 ( 10029 PWs)   bands (ev):

   -60.3707 -34.6001 -34.4682 -34.4351 -11.9115 -11.5866  -4.5008  -3.8990
    -3.1219  -2.7606  -1.8335  -0.9476  -0.1455   2.5428   3.1095   3.4485
     4.8235

          k = 0.1875 0.4691 0.0000 ( 10023 PWs)   bands (ev):

   -60.3664 -34.6282 -34.4598 -34.4581 -11.6494 -11.4689  -4.6309  -4.2963
    -3.1917  -2.6778  -1.9979  -1.2342   0.0497   2.6661   3.2996   3.6369
     4.8784

          k = 0.1875 0.5413 0.0000 ( 10050 PWs)   bands (ev):

   -60.3641 -34.6430 -34.4709 -34.4552 -11.4984 -11.4013  -4.6969  -4.5114
    -3.3187  -2.5833  -2.0311  -1.4402   0.2345   2.6226   3.5350   3.7459
     4.8905

          k = 0.2500 0.4330 0.0000 ( 10000 PWs)   bands (ev):

   -60.3664 -34.6148 -34.4718 -34.4598 -11.6537 -11.4662  -4.5069  -4.3014
    -3.0441  -2.7108  -2.3435  -1.1871   0.0368   2.6347   3.3175   3.4960
     4.9711

          k = 0.2500 0.5052 0.0000 ( 10029 PWs)   bands (ev):

   -60.3636 -34.6192 -34.5018 -34.4542 -11.4714 -11.3795  -4.5857  -4.4358
    -3.1667  -2.6237  -2.5693  -1.4527   0.2715   2.5146   3.5178   3.6322
     5.0897

          k = 0.2500 0.5774 0.0000 ( 10060 PWs)   bands (ev):

   -60.3626 -34.6190 -34.5141 -34.4522 -11.4053 -11.3477  -4.6871  -4.3755
    -3.3100  -2.6651  -2.4816  -1.5845   0.3963   2.4140   3.5216   3.7895
     5.1364

          k = 0.3125 0.5413 0.0000 ( 10054 PWs)   bands (ev):

   -60.3620 -34.5995 -34.5404 -34.4512 -11.3728 -11.3280  -4.7524  -4.1417
    -3.3674  -2.9491  -2.4182  -1.6605   0.4737   2.3053   3.4360   3.8903
     5.2386

     the Fermi energy is     1.3587 ev

!    total energy              =    -496.69576402 Ry
     total all-electron energy =     -9695.025979 Ry
     estimated scf accuracy    <       0.00000040 Ry
     smearing contrib. (-TS)   =      -0.00000193 Ry
     internal energy E=F+TS    =    -496.69576210 Ry

     The total energy is F=E-TS. E is the sum of the following terms:
     one-electron contribution =    -740.33126718 Ry
     hartree contribution      =     374.06105841 Ry
     xc contribution           =     -29.64906729 Ry
     ewald contribution        =     218.85262295 Ry
     one-center paw contrib.   =    -319.62910900 Ry

     convergence has been achieved in   7 iterations

     negative rho (up, down):  1.881E-04 0.000E+00

     Forces acting on atoms (cartesian axes, Ry/au):

     atom    1 type  1   force =     0.00000000   -0.00000000    0.00000000
     atom    2 type  2   force =     0.00000000   -0.00000000   -0.02089593
     atom    3 type  2   force =     0.00000000    0.00000000    0.02089593
     The non-local contrib.  to forces
     atom    1 type  1   force =     0.00000000    0.00000000    0.00000000
     atom    2 type  2   force =     0.00000000    0.00000000   -0.27779028
     atom    3 type  2   force =     0.00000000    0.00000000    0.27779028
     The ionic contribution  to forces
     atom    1 type  1   force =     0.00000000   -0.00000000    0.00000000
     atom    2 type  2   force =    -0.00000000    0.00000000   32.99976195
     atom    3 type  2   force =    -0.00000000    0.00000000  -32.99976195
     The local contribution  to forces
     atom    1 type  1   force =     0.00000000   -0.00000000    0.00000000
     atom    2 type  2   force =    -0.00000000    0.00000000  -32.74520678
     atom    3 type  2   force =    -0.00000000    0.00000000   32.74520678
     The core correction contribution to forces
     atom    1 type  1   force =     0.00000000    0.00000000   -0.00000000
     atom    2 type  2   force =     0.00000000   -0.00000000    0.00269076
     atom    3 type  2   force =     0.00000000   -0.00000000   -0.00269076
     The Hubbard contrib.    to forces
     atom    1 type  1   force =     0.00000000    0.00000000    0.00000000
     atom    2 type  2   force =     0.00000000    0.00000000    0.00000000
     atom    3 type  2   force =     0.00000000    0.00000000    0.00000000
     The SCF correction term to forces
     atom    1 type  1   force =    -0.00000000   -0.00000000    0.00000000
     atom    2 type  2   force =    -0.00000000   -0.00000000   -0.00035159
     atom    3 type  2   force =    -0.00000000   -0.00000000    0.00035159

     Total force =     0.029551     Total SCF correction =     0.000497


     Computing stress (Cartesian axis) and pressure


     negative rho (up, down):  1.881E-04 0.000E+00
          total   stress  (Ry/bohr**3)                   (kbar)     P=       -9.81
  -0.00003194   0.00000000   0.00000000           -4.70        0.00        0.00
   0.00000000  -0.00003194   0.00000000            0.00       -4.70        0.00
   0.00000000  -0.00000000  -0.00013625            0.00       -0.00      -20.04


     Writing all to output data dir ./tmp/scf.save/
 
     init_run     :      0.55s CPU      0.63s WALL (       1 calls)
     electrons    :      5.70s CPU      5.97s WALL (       1 calls)
     forces       :      0.19s CPU      0.19s WALL (       1 calls)
     stress       :      1.01s CPU      1.02s WALL (       1 calls)

     Called by init_run:
     wfcinit      :      0.18s CPU      0.21s WALL (       1 calls)
     potinit      :      0.12s CPU      0.12s WALL (       1 calls)
     hinit0       :      0.16s CPU      0.20s WALL (       1 calls)

     Called by electrons:
     c_bands      :      4.20s CPU      4.42s WALL (       8 calls)
     sum_band     :      0.78s CPU      0.82s WALL (       8 calls)
     v_of_rho     :      0.04s CPU      0.04s WALL (       8 calls)
     newd         :      0.27s CPU      0.28s WALL (       8 calls)
     PAW_pot      :      0.51s CPU      0.53s WALL (       8 calls)
     mix_rho      :      0.01s CPU      0.01s WALL (       8 calls)

     Called by c_bands:
     init_us_2    :      0.12s CPU      0.12s WALL (     570 calls)
     init_us_2:cp :      0.12s CPU      0.12s WALL (     570 calls)
     cegterg      :      2.93s CPU      3.14s WALL (     240 calls)

     Called by *egterg:
     cdiaghg      :      0.24s CPU      0.26s WALL (     826 calls)
     h_psi        :      2.43s CPU      2.63s WALL (     886 calls)
     s_psi        :      0.07s CPU      0.07s WALL (     886 calls)
     g_psi        :      0.01s CPU      0.01s WALL (     616 calls)

     Called by h_psi:
     h_psi:calbec :      0.15s CPU      0.16s WALL (     886 calls)
     vloc_psi     :      2.18s CPU      2.36s WALL (     886 calls)
     add_vuspsi   :      0.08s CPU      0.09s WALL (     886 calls)

     General routines
     calbec       :      0.23s CPU      0.25s WALL (    1276 calls)
     fft          :      0.05s CPU      0.10s WALL (     114 calls)
     ffts         :      0.00s CPU      0.00s WALL (       8 calls)
     fftw         :      2.22s CPU      2.41s WALL (   26310 calls)
 
     Parallel routines
 
     PWSCF        :      7.77s CPU      8.29s WALL

 
   This run was terminated on:  12:55:28   6Jun2025            

=------------------------------------------------------------------------------=
   JOB DONE.
=------------------------------------------------------------------------------=
