
     Program PWSCF v.7.2 starts on  6Jun2025 at 12:54:53 

     This program is part of the open-source Quantum ESPRESSO suite
     for quantum simulation of materials; please cite
         "P. Giannozzi et al., J. Phys.:Condens. Matter 21 395502 (2009);
         "P. Giannozzi et al., J. Phys.:Condens. Matter 29 465901 (2017);
         "P. Giannozzi et al., J. Chem. Phys. 152 154105 (2020);
          URL http://www.quantum-espresso.org", 
     in publications or presentations arising from this work. More details at
     http://www.quantum-espresso.org/quote

     Parallel version (MPI), running on    16 processors

     MPI processes distributed on     1 nodes
     39595 MiB available memory on the printing compute node when the environment starts
 
     Waiting for input...
     Reading input from standard input

     Current dimensions of program PWSCF are:
     Max number of different atomic species (ntypx) = 10
     Max number of k-points (npk) =  40000
     Max angular momentum in pseudopotentials (lmaxx) =  4
     file Mo.pbe-spn-kjpaw_psl.1.0.0.UPF: wavefunction(s)  4S 4D renormalized
     file S.pbe-n-kjpaw_psl.1.0.0.UPF: wavefunction(s)  3S 3P renormalized
     Message from routine setup:
     using ibrav=0 with symmetry is DISCOURAGED, use correct ibrav instead
 
     R & G space division:  proc/nbgrp/npool/nimage =      16
     Subspace diagonalization in iterative solution of the eigenvalue problem:
     a serial algorithm will be used

 
     Parallelization info
     --------------------
     sticks:   dense  smooth     PW     G-vecs:    dense   smooth      PW
     Min          27      27      8                 2319     2319     377
     Max          28      28     10                 2346     2346     386
     Sum         439     439    139                37259    37259    6123
 
     Using Slab Decomposition
 


     bravais-lattice index     =            0
     lattice parameter (alat)  =       6.0093  a.u.
     unit-cell volume          =     915.4463 (a.u.)^3
     number of atoms/cell      =            3
     number of atomic types    =            2
     number of electrons       =        26.00
     number of Kohn-Sham states=           17
     kinetic-energy cutoff     =      45.0000  Ry
     charge density cutoff     =     180.0000  Ry
     scf convergence threshold =      1.0E-06
     mixing beta               =       0.7000
     number of iterations used =            8  plain     mixing
     Exchange-correlation= SLA  PW   PBX  PBC
                           (   1   4   3   4   0   0   0)

     celldm(1)=   6.009329  celldm(2)=   0.000000  celldm(3)=   0.000000
     celldm(4)=   0.000000  celldm(5)=   0.000000  celldm(6)=   0.000000

     crystal axes: (cart. coord. in units of alat)
               a(1) = (   1.000000   0.000000   0.000000 )  
               a(2) = (  -0.500000   0.866025   0.000000 )  
               a(3) = (   0.000000   0.000000   4.871069 )  

     reciprocal axes: (cart. coord. in units 2 pi/alat)
               b(1) = (  1.000000  0.577350  0.000000 )  
               b(2) = (  0.000000  1.154701  0.000000 )  
               b(3) = (  0.000000  0.000000  0.205294 )  


     PseudoPot. # 1 for Mo read from file:
     /shared/ESPRESSO/PSLIBRARY/1.0.0/pbe/PSEUDOPOTENTIALS/Mo.pbe-spn-kjpaw_psl.1.0.0.UPF
     MD5 check sum: 4396e0c640fcce5c25f020efccf1ab12
     Pseudo is Projector augmented-wave + core cor, Zval = 14.0
     Generated using &quot;atomic&quot; code by A. Dal Corso  v.6.3
     Shape of augmentation charge: PSQ
     Using radial grid of 1229 points,  6 beta functions with: 
                l(1) =   0
                l(2) =   0
                l(3) =   1
                l(4) =   1
                l(5) =   2
                l(6) =   2
     Q(r) pseudized with 0 coefficients 


     PseudoPot. # 2 for S  read from file:
     /shared/ESPRESSO/PSLIBRARY/1.0.0/pbe/PSEUDOPOTENTIALS/S.pbe-n-kjpaw_psl.1.0.0.UPF
     MD5 check sum: c08f931834bcc19553f8bde8f1a3adc5
     Pseudo is Projector augmented-wave + core cor, Zval =  6.0
     Generated using "atomic" code by A. Dal Corso  (Quantum ESPRESSO distribution)
     Shape of augmentation charge: PSQ
     Using radial grid of 1151 points,  6 beta functions with: 
                l(1) =   0
                l(2) =   0
                l(3) =   1
                l(4) =   1
                l(5) =   2
                l(6) =   2
     Q(r) pseudized with 0 coefficients 


     atomic species   valence    mass     pseudopotential
        Mo            14.00    95.94000     Mo( 1.00)
        S              6.00    32.06500     S ( 1.00)

     12 Sym. Ops. (no inversion) found



   Cartesian axes

     site n.     atom                  positions (alat units)
         1           Mo  tau(   1) = (   0.0000000   0.0000000   2.4355346  )
         2           S   tau(   2) = (   0.5000000   0.2886751   2.9371069  )
         3           S   tau(   3) = (   0.5000000   0.2886751   1.9339623  )

     number of k points=    30  Fermi-Dirac smearing, width (Ry)=  0.0070
                       cart. coord. in units 2pi/alat
        k(    1) = (   0.0000000   0.0000000   0.0000000), wk =   0.0078125
        k(    2) = (   0.0000000   0.0721688   0.0000000), wk =   0.0468750
        k(    3) = (   0.0000000   0.1443376   0.0000000), wk =   0.0468750
        k(    4) = (   0.0000000   0.2165064   0.0000000), wk =   0.0468750
        k(    5) = (   0.0000000   0.2886751   0.0000000), wk =   0.0468750
        k(    6) = (   0.0000000   0.3608439   0.0000000), wk =   0.0468750
        k(    7) = (   0.0000000   0.4330127   0.0000000), wk =   0.0468750
        k(    8) = (   0.0000000   0.5051815   0.0000000), wk =   0.0468750
        k(    9) = (   0.0000000  -0.5773503   0.0000000), wk =   0.0234375
        k(   10) = (   0.0625000   0.1082532   0.0000000), wk =   0.0468750
        k(   11) = (   0.0625000   0.1804220   0.0000000), wk =   0.0937500
        k(   12) = (   0.0625000   0.2525907   0.0000000), wk =   0.0937500
        k(   13) = (   0.0625000   0.3247595   0.0000000), wk =   0.0937500
        k(   14) = (   0.0625000   0.3969283   0.0000000), wk =   0.0937500
        k(   15) = (   0.0625000   0.4690971   0.0000000), wk =   0.0937500
        k(   16) = (   0.0625000   0.5412659   0.0000000), wk =   0.0937500
        k(   17) = (   0.1250000   0.2165064   0.0000000), wk =   0.0468750
        k(   18) = (   0.1250000   0.2886751   0.0000000), wk =   0.0937500
        k(   19) = (   0.1250000   0.3608439   0.0000000), wk =   0.0937500
        k(   20) = (   0.1250000   0.4330127   0.0000000), wk =   0.0937500
        k(   21) = (   0.1250000   0.5051815   0.0000000), wk =   0.0937500
        k(   22) = (   0.1250000   0.5773503   0.0000000), wk =   0.0468750
        k(   23) = (   0.1875000   0.3247595   0.0000000), wk =   0.0468750
        k(   24) = (   0.1875000   0.3969283   0.0000000), wk =   0.0937500
        k(   25) = (   0.1875000   0.4690971   0.0000000), wk =   0.0937500
        k(   26) = (   0.1875000   0.5412659   0.0000000), wk =   0.0937500
        k(   27) = (   0.2500000   0.4330127   0.0000000), wk =   0.0468750
        k(   28) = (   0.2500000   0.5051815   0.0000000), wk =   0.0937500
        k(   29) = (   0.2500000   0.5773503   0.0000000), wk =   0.0468750
        k(   30) = (   0.3125000   0.5412659   0.0000000), wk =   0.0468750

     Dense  grid:    37259 G-vectors     FFT dimensions: (  25,  25, 125)

     Estimated max dynamical RAM per process >      13.25 MB

     Estimated total dynamical RAM >     212.06 MB

     Check: negative core charge=   -0.000002

     Initial potential from superposition of free atoms

     starting charge      25.9991, renormalised to      26.0000

     negative rho (up, down):  2.453E-03 0.000E+00
     Starting wfcs are   18 randomized atomic wfcs
     Checking if some PAW data can be deallocated... 

     total cpu time spent up to now is        0.6 secs

     Self-consistent Calculation

     iteration #  1     ecut=    45.00 Ry     beta= 0.70
     Davidson diagonalization with overlap
     ethr =  1.00E-02,  avg # of iterations =  2.3

     Threshold (ethr) on eigenvalues was too large:
     Diagonalizing with lowered threshold

     Davidson diagonalization with overlap
     ethr =  2.84E-04,  avg # of iterations =  3.6

     negative rho (up, down):  3.045E-03 0.000E+00

     total cpu time spent up to now is        1.4 secs

     total energy              =    -496.64872929 Ry
     estimated scf accuracy    <       0.11103245 Ry

     iteration #  2     ecut=    45.00 Ry     beta= 0.70
     Davidson diagonalization with overlap
     ethr =  4.27E-04,  avg # of iterations =  3.0

     negative rho (up, down):  2.969E-03 0.000E+00

     total cpu time spent up to now is        1.9 secs

     total energy              =    -496.61929927 Ry
     estimated scf accuracy    <       0.29578349 Ry

     iteration #  3     ecut=    45.00 Ry     beta= 0.70
     Davidson diagonalization with overlap
     ethr =  4.27E-04,  avg # of iterations =  2.5

     negative rho (up, down):  2.997E-03 0.000E+00

     total cpu time spent up to now is        2.5 secs

     total energy              =    -496.67187449 Ry
     estimated scf accuracy    <       0.14162075 Ry

     iteration #  4     ecut=    45.00 Ry     beta= 0.70
     Davidson diagonalization with overlap
     ethr =  4.27E-04,  avg # of iterations =  1.4

     negative rho (up, down):  3.116E-03 0.000E+00

     total cpu time spent up to now is        2.9 secs

     total energy              =    -496.69038982 Ry
     estimated scf accuracy    <       0.00061341 Ry

     iteration #  5     ecut=    45.00 Ry     beta= 0.70
     Davidson diagonalization with overlap
     ethr =  2.36E-06,  avg # of iterations =  3.4

     negative rho (up, down):  3.126E-03 0.000E+00

     total cpu time spent up to now is        3.5 secs

     total energy              =    -496.69067831 Ry
     estimated scf accuracy    <       0.00011093 Ry

     iteration #  6     ecut=    45.00 Ry     beta= 0.70
     Davidson diagonalization with overlap
     ethr =  4.27E-07,  avg # of iterations =  2.0

     negative rho (up, down):  3.133E-03 0.000E+00

     total cpu time spent up to now is        4.0 secs

     total energy              =    -496.69068715 Ry
     estimated scf accuracy    <       0.00001101 Ry

     iteration #  7     ecut=    45.00 Ry     beta= 0.70
     Davidson diagonalization with overlap
     ethr =  4.23E-08,  avg # of iterations =  2.2

     negative rho (up, down):  3.134E-03 0.000E+00

     total cpu time spent up to now is        4.5 secs

     End of self-consistent calculation

          k = 0.0000 0.0000 0.0000 (  4647 PWs)   bands (ev):

   -60.3937 -34.5356 -34.3200 -34.3200 -13.4988 -12.2997  -5.0271  -1.9310
    -1.9310  -1.3638  -0.8642  -0.8642   0.3731   3.2484   3.2484   3.4160
     3.4160

          k = 0.0000 0.0722 0.0000 (  4691 PWs)   bands (ev):

   -60.3925 -34.5329 -34.3345 -34.3234 -13.4414 -12.2741  -4.9589  -2.0672
    -1.8713  -1.6149  -0.9588  -0.7044   0.3524   3.1595   3.2436   3.3474
     3.3519

          k = 0.0000 0.1443 0.0000 (  4705 PWs)   bands (ev):

   -60.3885 -34.5250 -34.3750 -34.3327 -13.2740 -12.1993  -4.7698  -2.4206
    -2.0491  -1.6994  -1.2039  -0.5788   0.2616   2.8894   3.0335   3.1864
     3.5986

          k = 0.0000 0.2165 0.0000 (  4713 PWs)   bands (ev):

   -60.3825 -34.5132 -34.4351 -34.3466 -13.0114 -12.0823  -4.5191  -2.8628
    -2.5238  -1.5210  -1.4383  -0.6611   0.0467   2.6165   2.9818   3.0852
     3.9079

          k = 0.0000 0.2887 0.0000 (  4697 PWs)   bands (ev):

   -60.3753 -34.5053 -34.4993 -34.3629 -12.6790 -11.9352  -4.3627  -3.2171
    -3.0128  -1.8427  -1.1276  -0.8871  -0.2546   2.5577   2.8046   3.3445
     4.1950

          k = 0.0000 0.3608 0.0000 (  4685 PWs)   bands (ev):

   -60.3681 -34.5746 -34.4853 -34.3791 -12.3149 -11.7765  -4.5076  -3.4856
    -3.3302  -2.1248  -1.1273  -0.8219  -0.4586   2.6808   2.7047   3.6964
     4.4164

          k = 0.0000 0.4330 0.0000 (  4663 PWs)   bands (ev):

   -60.3619 -34.6328 -34.4734 -34.3928 -11.9731 -11.6311  -4.8246  -3.8896
    -3.3715  -2.3409  -1.3083  -0.5773  -0.4208   2.6964   2.8999   4.0134
     4.5624

          k = 0.0000 0.5052 0.0000 (  4641 PWs)   bands (ev):

   -60.3578 -34.6714 -34.4655 -34.4019 -11.7219 -11.5273  -5.0905  -4.1641
    -3.4484  -2.4757  -1.4134  -0.4278  -0.2386   2.7420   3.1273   4.2131
     4.6419

          k = 0.0000-0.5774 0.0000 (  4662 PWs)   bands (ev):

   -60.3564 -34.6850 -34.4627 -34.4051 -11.6283 -11.4894  -5.1921  -4.2616
    -3.4878  -2.5215  -1.4473  -0.3790  -0.1410   2.7697   3.2345   4.2774
     4.6667

          k = 0.0625 0.1083 0.0000 (  4689 PWs)   bands (ev):

   -60.3897 -34.5275 -34.3615 -34.3301 -13.3290 -12.2239  -4.8297  -2.3096
    -1.9150  -1.7578  -1.1711  -0.5579   0.2968   2.9897   3.0358   3.2303
     3.5372

          k = 0.0625 0.1804 0.0000 (  4684 PWs)   bands (ev):

   -60.3847 -34.5177 -34.4106 -34.3427 -13.1138 -12.1278  -4.6046  -2.7002
    -2.3109  -1.5518  -1.5340  -0.5014   0.1427   2.6852   2.9686   3.0437
     3.8422

          k = 0.0625 0.2526 0.0000 (  4695 PWs)   bands (ev):

   -60.3781 -34.5048 -34.4743 -34.3594 -12.8157 -11.9951  -4.3820  -3.0920
    -2.7596  -1.9049  -1.2979  -0.6311  -0.1195   2.5056   2.8861   3.1054
     4.1557

          k = 0.0625 0.3248 0.0000 (  4686 PWs)   bands (ev):

   -60.3710 -34.5424 -34.4909 -34.3773 -12.4660 -11.8409  -4.3741  -3.2917
    -3.2460  -2.1932  -1.0786  -0.8743  -0.3428   2.4883   2.8315   3.4083
     4.4077

          k = 0.0625 0.3969 0.0000 (  4676 PWs)   bands (ev):

   -60.3643 -34.6047 -34.4780 -34.3937 -12.1100 -11.6867  -4.6327  -3.7092
    -3.3195  -2.3835  -1.1253  -0.9542  -0.3271   2.5810   2.8994   3.7614
     4.5605

          k = 0.0625 0.4691 0.0000 (  4650 PWs)   bands (ev):

   -60.3591 -34.6519 -34.4680 -34.4063 -11.8090 -11.5595  -4.9282  -4.0711
    -3.3835  -2.4940  -1.3179  -0.8353  -0.1549   2.7030   3.0625   4.0754
     4.5971

          k = 0.0625 0.5413 0.0000 (  4658 PWs)   bands (ev):

   -60.3564 -34.6774 -34.4627 -34.4131 -11.6328 -11.4867  -5.1108  -4.2695
    -3.4557  -2.5438  -1.4206  -0.7464  -0.0005   2.7692   3.2333   4.3050
     4.5332

          k = 0.1250 0.2165 0.0000 (  4683 PWs)   bands (ev):

   -60.3791 -34.5068 -34.4614 -34.3601 -12.8628 -12.0156  -4.3928  -3.0313
    -2.5980  -2.0513  -1.3774  -0.4614  -0.0644   2.4786   2.9144   2.9583
     4.1721

          k = 0.1250 0.2887 0.0000 (  4681 PWs)   bands (ev):

   -60.3725 -34.5196 -34.4939 -34.3816 -12.5457 -11.8743  -4.2894  -3.2425
    -2.9956  -2.4476  -1.2898  -0.5879  -0.2582   2.3635   2.8997   3.1179
     4.4596

          k = 0.1250 0.3608 0.0000 (  4670 PWs)   bands (ev):

   -60.3658 -34.5769 -34.4810 -34.4034 -12.2002 -11.7214  -4.4378  -3.5153
    -3.2462  -2.6016  -1.3546  -0.8386  -0.2722   2.4230   2.9691   3.4059
     4.6440

          k = 0.1250 0.4330 0.0000 (  4655 PWs)   bands (ev):

   -60.3602 -34.6249 -34.4700 -34.4221 -11.8781 -11.5809  -4.6910  -3.9773
    -3.2639  -2.6318  -1.3999  -1.1181  -0.1323   2.6113   3.0776   3.7231
     4.7037

          k = 0.1250 0.5052 0.0000 (  4642 PWs)   bands (ev):

   -60.3564 -34.6567 -34.4627 -34.4345 -11.6435 -11.4802  -4.8935  -4.2866
    -3.3600  -2.6078  -1.3678  -1.3395   0.0575   2.7298   3.2561   3.9904
     4.6562

          k = 0.1250 0.5774 0.0000 (  4638 PWs)   bands (ev):

   -60.3550 -34.6679 -34.4601 -34.4389 -11.5566 -11.4434  -4.9698  -4.3951
    -3.4118  -2.5888  -1.4262  -1.3461   0.1531   2.7404   3.3738   4.1133
     4.6016

          k = 0.1875 0.3248 0.0000 (  4687 PWs)   bands (ev):

   -60.3664 -34.5644 -34.4821 -34.4097 -12.2316 -11.7332  -4.3526  -3.4011
    -3.2060  -2.7416  -1.5266  -0.7028  -0.2602   2.3610   2.9954   3.2421
     4.6881

          k = 0.1875 0.3969 0.0000 (  4659 PWs)   bands (ev):

   -60.3607 -34.6030 -34.4711 -34.4380 -11.9161 -11.5913  -4.5053  -3.9036
    -3.1261  -2.7651  -1.8380  -0.9519  -0.1498   2.5384   3.1060   3.4444
     4.8193

          k = 0.1875 0.4691 0.0000 (  4648 PWs)   bands (ev):

   -60.3564 -34.6311 -34.4627 -34.4610 -11.6541 -11.4737  -4.6352  -4.3009
    -3.1960  -2.6823  -2.0023  -1.2384   0.0455   2.6622   3.2960   3.6332
     4.8745

          k = 0.1875 0.5413 0.0000 (  4627 PWs)   bands (ev):

   -60.3540 -34.6458 -34.4738 -34.4581 -11.5032 -11.4061  -4.7011  -4.5160
    -3.3231  -2.5877  -2.0354  -1.4444   0.2303   2.6190   3.5314   3.7424
     4.8867

          k = 0.2500 0.4330 0.0000 (  4660 PWs)   bands (ev):

   -60.3564 -34.6177 -34.4748 -34.4628 -11.6584 -11.4709  -4.5113  -4.3060
    -3.0483  -2.7152  -2.3479  -1.1913   0.0326   2.6308   3.3139   3.4923
     4.9672

          k = 0.2500 0.5052 0.0000 (  4646 PWs)   bands (ev):

   -60.3535 -34.6220 -34.5048 -34.4571 -11.4762 -11.3843  -4.5904  -4.4400
    -3.1711  -2.6280  -2.5736  -1.4569   0.2673   2.5109   3.5142   3.6286
     5.0861

          k = 0.2500 0.5774 0.0000 (  4650 PWs)   bands (ev):

   -60.3525 -34.6219 -34.5170 -34.4552 -11.4101 -11.3525  -4.6918  -4.3797
    -3.3145  -2.6694  -2.4859  -1.5886   0.3922   2.4103   3.5181   3.7860
     5.1329

          k = 0.3125 0.5413 0.0000 (  4656 PWs)   bands (ev):

   -60.3520 -34.6024 -34.5433 -34.4541 -11.3776 -11.3329  -4.7571  -4.1459
    -3.3718  -2.9535  -2.4225  -1.6647   0.4695   2.3017   3.4325   3.8868
     5.2352

     the Fermi energy is     1.3543 ev

!    total energy              =    -496.69069039 Ry
     total all-electron energy =     -9695.020905 Ry
     estimated scf accuracy    <       0.00000036 Ry
     smearing contrib. (-TS)   =      -0.00000193 Ry
     internal energy E=F+TS    =    -496.69068846 Ry

     The total energy is F=E-TS. E is the sum of the following terms:
     one-electron contribution =    -740.30921802 Ry
     hartree contribution      =     374.04905003 Ry
     xc contribution           =     -29.64793168 Ry
     ewald contribution        =     218.85262293 Ry
     one-center paw contrib.   =    -319.63521172 Ry

     convergence has been achieved in   7 iterations

     negative rho (up, down):  3.134E-03 0.000E+00

     Forces acting on atoms (cartesian axes, Ry/au):

     atom    1 type  1   force =     0.00000000    0.00000000    0.00000000
     atom    2 type  2   force =     0.00000000    0.00000000   -0.02086586
     atom    3 type  2   force =     0.00000000    0.00000000    0.02086586
     The non-local contrib.  to forces
     atom    1 type  1   force =     0.00000000    0.00000000    0.00000000
     atom    2 type  2   force =     0.00000000    0.00000000   -0.27766626
     atom    3 type  2   force =     0.00000000   -0.00000000    0.27766626
     The ionic contribution  to forces
     atom    1 type  1   force =     0.00000000   -0.00000000    0.00000000
     atom    2 type  2   force =    -0.00000000    0.00000000   32.99976195
     atom    3 type  2   force =    -0.00000000    0.00000000  -32.99976195
     The local contribution  to forces
     atom    1 type  1   force =     0.00000000   -0.00000000    0.00000000
     atom    2 type  2   force =    -0.00000000    0.00000000  -32.74537336
     atom    3 type  2   force =    -0.00000000    0.00000000   32.74537336
     The core correction contribution to forces
     atom    1 type  1   force =     0.00000000    0.00000000   -0.00000000
     atom    2 type  2   force =     0.00000000   -0.00000000    0.00268702
     atom    3 type  2   force =     0.00000000   -0.00000000   -0.00268702
     The Hubbard contrib.    to forces
     atom    1 type  1   force =     0.00000000    0.00000000    0.00000000
     atom    2 type  2   force =     0.00000000    0.00000000    0.00000000
     atom    3 type  2   force =     0.00000000    0.00000000    0.00000000
     The SCF correction term to forces
     atom    1 type  1   force =    -0.00000000   -0.00000000    0.00000000
     atom    2 type  2   force =    -0.00000000   -0.00000000   -0.00027522
     atom    3 type  2   force =    -0.00000000   -0.00000000    0.00027522

     Total force =     0.029509     Total SCF correction =     0.000389


     Computing stress (Cartesian axis) and pressure


     negative rho (up, down):  3.134E-03 0.000E+00
          total   stress  (Ry/bohr**3)                   (kbar)     P=      -10.57
  -0.00003733   0.00000000   0.00000000           -5.49        0.00        0.00
   0.00000000  -0.00003733  -0.00000000            0.00       -5.49       -0.00
   0.00000000   0.00000000  -0.00014099            0.00        0.00      -20.74


     Writing all to output data dir ./tmp/scf.save/
 
     init_run     :      0.30s CPU      0.37s WALL (       1 calls)
     electrons    :      3.44s CPU      3.85s WALL (       1 calls)
     forces       :      0.11s CPU      0.11s WALL (       1 calls)
     stress       :      0.43s CPU      0.44s WALL (       1 calls)

     Called by init_run:
     wfcinit      :      0.09s CPU      0.11s WALL (       1 calls)
     potinit      :      0.08s CPU      0.09s WALL (       1 calls)
     hinit0       :      0.09s CPU      0.14s WALL (       1 calls)

     Called by electrons:
     c_bands      :      2.46s CPU      2.75s WALL (       8 calls)
     sum_band     :      0.40s CPU      0.50s WALL (       8 calls)
     v_of_rho     :      0.01s CPU      0.02s WALL (       8 calls)
     newd         :      0.13s CPU      0.14s WALL (       8 calls)
     PAW_pot      :      0.51s CPU      0.53s WALL (       8 calls)
     mix_rho      :      0.00s CPU      0.00s WALL (       8 calls)

     Called by c_bands:
     init_us_2    :      0.04s CPU      0.04s WALL (     570 calls)
     init_us_2:cp :      0.04s CPU      0.04s WALL (     570 calls)
     cegterg      :      1.86s CPU      2.13s WALL (     240 calls)

     Called by *egterg:
     cdiaghg      :      0.19s CPU      0.21s WALL (     819 calls)
     h_psi        :      1.52s CPU      1.76s WALL (     879 calls)
     s_psi        :      0.02s CPU      0.03s WALL (     879 calls)
     g_psi        :      0.00s CPU      0.00s WALL (     609 calls)

     Called by h_psi:
     h_psi:calbec :      0.08s CPU      0.09s WALL (     879 calls)
     vloc_psi     :      1.41s CPU      1.63s WALL (     879 calls)
     add_vuspsi   :      0.03s CPU      0.03s WALL (     879 calls)

     General routines
     calbec       :      0.24s CPU      0.25s WALL (    1269 calls)
     fft          :      0.03s CPU      0.08s WALL (     114 calls)
     ffts         :      0.00s CPU      0.00s WALL (       8 calls)
     fftw         :      1.56s CPU      1.82s WALL (   26266 calls)
 
     Parallel routines
 
     PWSCF        :      4.56s CPU      5.10s WALL

 
   This run was terminated on:  12:54:58   6Jun2025            

=------------------------------------------------------------------------------=
   JOB DONE.
=------------------------------------------------------------------------------=
