
     Program PWSCF v.7.2 starts on 14Jul2025 at 12: 1:29 

     This program is part of the open-source Quantum ESPRESSO suite
     for quantum simulation of materials; please cite
         "P. Giannozzi et al., J. Phys.:Condens. Matter 21 395502 (2009);
         "P. Giannozzi et al., J. Phys.:Condens. Matter 29 465901 (2017);
         "P. Giannozzi et al., J. Chem. Phys. 152 154105 (2020);
          URL http://www.quantum-espresso.org", 
     in publications or presentations arising from this work. More details at
     http://www.quantum-espresso.org/quote

     Parallel version (MPI), running on     4 processors

     MPI processes distributed on     1 nodes
     27841 MiB available memory on the printing compute node when the environment starts
 
     Waiting for input...
     Reading input from standard input

     Current dimensions of program PWSCF are:
     Max number of different atomic species (ntypx) = 10
     Max number of k-points (npk) =  40000
     Max angular momentum in pseudopotentials (lmaxx) =  4
     file Co.pbe-n-kjpaw_psl.1.0.0.UPF: wavefunction(s)  4S 3D renormalized
     Message from routine setup:
     using ibrav=0 with symmetry is DISCOURAGED, use correct ibrav instead
 
     R & G space division:  proc/nbgrp/npool/nimage =       4
     Subspace diagonalization in iterative solution of the eigenvalue problem:
     a serial algorithm will be used

 
     Parallelization info
     --------------------
     sticks:   dense  smooth     PW     G-vecs:    dense   smooth      PW
     Min         256     105     30                54348    13761    2368
     Max         257     106     31                54377    13776    2407
     Sum        1027     421    121               217477    55065    9521
 
     Using Slab Decomposition
 


     bravais-lattice index     =            0
     lattice parameter (alat)  =       4.6068  a.u.
     unit-cell volume          =     694.6297 (a.u.)^3
     number of atoms/cell      =            1
     number of atomic types    =            1
     number of electrons       =         9.00
     number of Kohn-Sham states=            9
     kinetic-energy cutoff     =      70.0000  Ry
     charge density cutoff     =     700.0000  Ry
     scf convergence threshold =      1.0E-06
     mixing beta               =       0.7000
     number of iterations used =            8  plain     mixing
     Exchange-correlation= SLA  PW   PBX  PBC
                           (   1   4   3   4   0   0   0)

     celldm(1)=   4.606774  celldm(2)=   0.000000  celldm(3)=   0.000000
     celldm(4)=   0.000000  celldm(5)=   0.000000  celldm(6)=   0.000000

     crystal axes: (cart. coord. in units of alat)
               a(1) = (   1.000000   0.000000   0.000000 )  
               a(2) = (   0.500000   0.866025   0.000000 )  
               a(3) = (   0.000000   0.000000   8.204118 )  

     reciprocal axes: (cart. coord. in units 2 pi/alat)
               b(1) = (  1.000000 -0.577350  0.000000 )  
               b(2) = (  0.000000  1.154701  0.000000 )  
               b(3) = (  0.000000  0.000000  0.121890 )  


     PseudoPot. # 1 for Co read from file:
     /shared/ESPRESSO/PSLIBRARY/1.0.0/pbe/PSEUDOPOTENTIALS/Co.pbe-n-kjpaw_psl.1.0.0.UPF
     MD5 check sum: 17e7ab8db721b244d1352252ea6cb8e7
     Pseudo is Projector augmented-wave + core cor, Zval =  9.0
     Generated using "atomic" code by A. Dal Corso  (Quantum ESPRESSO distribution)
     Shape of augmentation charge: PSQ
     Using radial grid of 1193 points,  6 beta functions with: 
                l(1) =   0
                l(2) =   0
                l(3) =   1
                l(4) =   1
                l(5) =   2
                l(6) =   2
     Q(r) pseudized with 0 coefficients 


     atomic species   valence    mass     pseudopotential
        Co             9.00    58.93320     Co( 1.00)

     24 Sym. Ops., with inversion, found



   Cartesian axes

     site n.     atom                  positions (alat units)
         1           Co  tau(   1) = (   0.0000000   0.0000000   4.1020592  )

     --------------------------------------------
     DFT-D3 Dispersion Correction (3-body terms):
     --------------------------------------------
       Reference C6 values for interpolation: 

         atom   Coordination number   C6
         Co         0.000          1065.56
         Co         1.715           373.09
         Co         2.926           296.13
         Co         7.779           236.57

       Values used:

         atom   Coordination number  R0_AB[au]  C6      C8
         Co         4.930            3.243    296.13  26037.62

         Molecular C6 ( Ry / a.u.^6 ) =       296.13


     number of k points=    85  Gaussian smearing, width (Ry)=  0.0073
                       cart. coord. in units 2pi/alat
        k(    1) = (   0.0000000   0.0000000   0.0000000), wk =   0.0023781
        k(    2) = (   0.0000000   0.0398173   0.0000000), wk =   0.0142687
        k(    3) = (   0.0000000   0.0796345   0.0000000), wk =   0.0142687
        k(    4) = (   0.0000000   0.1194518   0.0000000), wk =   0.0142687
        k(    5) = (   0.0000000   0.1592690   0.0000000), wk =   0.0142687
        k(    6) = (   0.0000000   0.1990863   0.0000000), wk =   0.0142687
        k(    7) = (   0.0000000   0.2389036   0.0000000), wk =   0.0142687
        k(    8) = (   0.0000000   0.2787208   0.0000000), wk =   0.0142687
        k(    9) = (   0.0000000   0.3185381   0.0000000), wk =   0.0142687
        k(   10) = (   0.0000000   0.3583553   0.0000000), wk =   0.0142687
        k(   11) = (   0.0000000   0.3981726   0.0000000), wk =   0.0142687
        k(   12) = (   0.0000000   0.4379899   0.0000000), wk =   0.0142687
        k(   13) = (   0.0000000   0.4778071   0.0000000), wk =   0.0142687
        k(   14) = (   0.0000000   0.5176244   0.0000000), wk =   0.0142687
        k(   15) = (   0.0000000   0.5574416   0.0000000), wk =   0.0142687
        k(   16) = (   0.0344828   0.0597259   0.0000000), wk =   0.0142687
        k(   17) = (   0.0344828   0.0995431   0.0000000), wk =   0.0285375
        k(   18) = (   0.0344828   0.1393604   0.0000000), wk =   0.0285375
        k(   19) = (   0.0344828   0.1791777   0.0000000), wk =   0.0285375
        k(   20) = (   0.0344828   0.2189949   0.0000000), wk =   0.0285375
        k(   21) = (   0.0344828   0.2588122   0.0000000), wk =   0.0285375
        k(   22) = (   0.0344828   0.2986294   0.0000000), wk =   0.0285375
        k(   23) = (   0.0344828   0.3384467   0.0000000), wk =   0.0285375
        k(   24) = (   0.0344828   0.3782640   0.0000000), wk =   0.0285375
        k(   25) = (   0.0344828   0.4180812   0.0000000), wk =   0.0285375
        k(   26) = (   0.0344828   0.4578985   0.0000000), wk =   0.0285375
        k(   27) = (   0.0344828   0.4977157   0.0000000), wk =   0.0285375
        k(   28) = (   0.0344828   0.5375330   0.0000000), wk =   0.0285375
        k(   29) = (   0.0344828  -0.5773503   0.0000000), wk =   0.0142687
        k(   30) = (   0.0689655   0.1194518   0.0000000), wk =   0.0142687
        k(   31) = (   0.0689655   0.1592690   0.0000000), wk =   0.0285375
        k(   32) = (   0.0689655   0.1990863   0.0000000), wk =   0.0285375
        k(   33) = (   0.0689655   0.2389036   0.0000000), wk =   0.0285375
        k(   34) = (   0.0689655   0.2787208   0.0000000), wk =   0.0285375
        k(   35) = (   0.0689655   0.3185381   0.0000000), wk =   0.0285375
        k(   36) = (   0.0689655   0.3583553   0.0000000), wk =   0.0285375
        k(   37) = (   0.0689655   0.3981726   0.0000000), wk =   0.0285375
        k(   38) = (   0.0689655   0.4379899   0.0000000), wk =   0.0285375
        k(   39) = (   0.0689655   0.4778071   0.0000000), wk =   0.0285375
        k(   40) = (   0.0689655   0.5176244   0.0000000), wk =   0.0285375
        k(   41) = (   0.0689655  -0.5972589   0.0000000), wk =   0.0285375
        k(   42) = (   0.1034483   0.1791777   0.0000000), wk =   0.0142687
        k(   43) = (   0.1034483   0.2189949   0.0000000), wk =   0.0285375
        k(   44) = (   0.1034483   0.2588122   0.0000000), wk =   0.0285375
        k(   45) = (   0.1034483   0.2986294   0.0000000), wk =   0.0285375
        k(   46) = (   0.1034483   0.3384467   0.0000000), wk =   0.0285375
        k(   47) = (   0.1034483   0.3782640   0.0000000), wk =   0.0285375
        k(   48) = (   0.1034483   0.4180812   0.0000000), wk =   0.0285375
        k(   49) = (   0.1034483   0.4578985   0.0000000), wk =   0.0285375
        k(   50) = (   0.1034483   0.4977157   0.0000000), wk =   0.0285375
        k(   51) = (   0.1034483  -0.6171675   0.0000000), wk =   0.0285375
        k(   52) = (   0.1034483  -0.5773503   0.0000000), wk =   0.0142687
        k(   53) = (   0.1379310   0.2389036   0.0000000), wk =   0.0142687
        k(   54) = (   0.1379310   0.2787208   0.0000000), wk =   0.0285375
        k(   55) = (   0.1379310   0.3185381   0.0000000), wk =   0.0285375
        k(   56) = (   0.1379310   0.3583553   0.0000000), wk =   0.0285375
        k(   57) = (   0.1379310   0.3981726   0.0000000), wk =   0.0285375
        k(   58) = (   0.1379310   0.4379899   0.0000000), wk =   0.0285375
        k(   59) = (   0.1379310   0.4778071   0.0000000), wk =   0.0285375
        k(   60) = (   0.1379310  -0.6370762   0.0000000), wk =   0.0285375
        k(   61) = (   0.1379310  -0.5972589   0.0000000), wk =   0.0285375
        k(   62) = (   0.1724138   0.2986294   0.0000000), wk =   0.0142687
        k(   63) = (   0.1724138   0.3384467   0.0000000), wk =   0.0285375
        k(   64) = (   0.1724138   0.3782640   0.0000000), wk =   0.0285375
        k(   65) = (   0.1724138   0.4180812   0.0000000), wk =   0.0285375
        k(   66) = (   0.1724138   0.4578985   0.0000000), wk =   0.0285375
        k(   67) = (   0.1724138  -0.6569848   0.0000000), wk =   0.0285375
        k(   68) = (   0.1724138  -0.6171675   0.0000000), wk =   0.0285375
        k(   69) = (   0.1724138  -0.5773503   0.0000000), wk =   0.0142687
        k(   70) = (   0.2068966   0.3583553   0.0000000), wk =   0.0142687
        k(   71) = (   0.2068966   0.3981726   0.0000000), wk =   0.0285375
        k(   72) = (   0.2068966   0.4379899   0.0000000), wk =   0.0285375
        k(   73) = (   0.2068966  -0.6768934   0.0000000), wk =   0.0285375
        k(   74) = (   0.2068966  -0.6370762   0.0000000), wk =   0.0285375
        k(   75) = (   0.2068966  -0.5972589   0.0000000), wk =   0.0285375
        k(   76) = (   0.2413793   0.4180812   0.0000000), wk =   0.0142687
        k(   77) = (   0.2413793  -0.6968020   0.0000000), wk =   0.0285375
        k(   78) = (   0.2413793  -0.6569848   0.0000000), wk =   0.0285375
        k(   79) = (   0.2413793  -0.6171675   0.0000000), wk =   0.0285375
        k(   80) = (   0.2413793  -0.5773503   0.0000000), wk =   0.0142687
        k(   81) = (   0.2758621  -0.6768934   0.0000000), wk =   0.0142687
        k(   82) = (   0.2758621  -0.6370762   0.0000000), wk =   0.0285375
        k(   83) = (   0.2758621  -0.5972589   0.0000000), wk =   0.0285375
        k(   84) = (   0.3103448  -0.6171675   0.0000000), wk =   0.0142687
        k(   85) = (   0.3103448  -0.5773503   0.0000000), wk =   0.0142687

     Dense  grid:   217477 G-vectors     FFT dimensions: (  40,  40, 320)

     Smooth grid:    55065 G-vectors     FFT dimensions: (  25,  25, 216)

     Estimated max dynamical RAM per process >     220.74 MB

     Estimated total dynamical RAM >     882.95 MB

     Initial potential from superposition of free atoms

     starting charge       8.9997, renormalised to       9.0000

     negative rho (up, down):  1.684E-05 0.000E+00
     Starting wfcs are    9 randomized atomic wfcs
     Checking if some PAW data can be deallocated... 

     total cpu time spent up to now is        3.2 secs

     Self-consistent Calculation

     iteration #  1     ecut=    70.00 Ry     beta= 0.70
     Davidson diagonalization with overlap
     ethr =  1.00E-02,  avg # of iterations =  5.5

     negative rho (up, down):  1.269E-06 0.000E+00

     total cpu time spent up to now is       11.5 secs

     total energy              =    -161.83962804 Ry
     estimated scf accuracy    <       0.13802085 Ry

     iteration #  2     ecut=    70.00 Ry     beta= 0.70
     Davidson diagonalization with overlap
     ethr =  1.53E-03,  avg # of iterations =  3.7

     negative rho (up, down):  4.090E-06 0.000E+00

     total cpu time spent up to now is       19.5 secs

     total energy              =    -161.74408327 Ry
     estimated scf accuracy    <       1.38961299 Ry

     iteration #  3     ecut=    70.00 Ry     beta= 0.70
     Davidson diagonalization with overlap
     ethr =  1.53E-03,  avg # of iterations =  2.0

     negative rho (up, down):  1.075E-06 0.000E+00

     total cpu time spent up to now is       26.7 secs

     total energy              =    -161.92047227 Ry
     estimated scf accuracy    <       0.00300396 Ry

     iteration #  4     ecut=    70.00 Ry     beta= 0.70
     Davidson diagonalization with overlap
     ethr =  3.34E-05,  avg # of iterations =  7.4

     negative rho (up, down):  2.860E-06 0.000E+00

     total cpu time spent up to now is       35.5 secs

     total energy              =    -161.92109908 Ry
     estimated scf accuracy    <       0.00011723 Ry

     iteration #  5     ecut=    70.00 Ry     beta= 0.70
     Davidson diagonalization with overlap
     c_bands:  1 eigenvalues not converged
     ethr =  1.30E-06,  avg # of iterations =  6.6

     negative rho (up, down):  5.712E-06 0.000E+00

     total cpu time spent up to now is       42.4 secs

     total energy              =    -161.92113256 Ry
     estimated scf accuracy    <       0.00003763 Ry

     iteration #  6     ecut=    70.00 Ry     beta= 0.70
     Davidson diagonalization with overlap
     ethr =  4.18E-07,  avg # of iterations =  1.2

     negative rho (up, down):  6.934E-06 0.000E+00

     total cpu time spent up to now is       46.5 secs

     total energy              =    -161.92113776 Ry
     estimated scf accuracy    <       0.00000201 Ry

     iteration #  7     ecut=    70.00 Ry     beta= 0.70
     Davidson diagonalization with overlap
     ethr =  2.23E-08,  avg # of iterations =  2.2

     negative rho (up, down):  6.751E-06 0.000E+00

     total cpu time spent up to now is       50.3 secs

     End of self-consistent calculation

          k = 0.0000 0.0000 0.0000 (  6845 PWs)   bands (ev):

    -8.9822  -4.7786  -4.6988  -4.6988  -3.1419  -3.1419  -2.5290   1.6550
     2.1689

          k = 0.0000 0.0398 0.0000 (  6829 PWs)   bands (ev):

    -8.9365  -4.7645  -4.7152  -4.6776  -3.2792  -3.1464  -2.3667   1.6937
     2.2109

          k = 0.0000 0.0796 0.0000 (  6833 PWs)   bands (ev):

    -8.8006  -4.7647  -4.7207  -4.6147  -3.5303  -3.1596  -2.0399   1.8091
     2.3366

          k = 0.0000 0.1195 0.0000 (  6841 PWs)   bands (ev):

    -8.5780  -4.8376  -4.6525  -4.5122  -3.7918  -3.1809  -1.6489   2.0008
     2.5451

          k = 0.0000 0.1593 0.0000 (  6829 PWs)   bands (ev):

    -8.2758  -4.9254  -4.5604  -4.3732  -4.0436  -3.2092  -1.2102   2.2702
     2.8359

          k = 0.0000 0.1991 0.0000 (  6839 PWs)   bands (ev):

    -7.9077  -5.0096  -4.4486  -4.2798  -4.2026  -3.2432  -0.7247   2.6161
     3.2091

          k = 0.0000 0.2389 0.0000 (  6843 PWs)   bands (ev):

    -7.5007  -5.0591  -4.4978  -4.3217  -4.0063  -3.2812  -0.1898   3.0393
     3.6588

          k = 0.0000 0.2787 0.0000 (  6849 PWs)   bands (ev):

    -7.1080  -5.0180  -4.6959  -4.1844  -3.7920  -3.3214   0.3972   3.5394
     4.1905

          k = 0.0000 0.3185 0.0000 (  6873 PWs)   bands (ev):

    -6.8131  -4.8726  -4.8039  -4.0395  -3.5684  -3.3619   1.0389   4.1150
     4.7981

          k = 0.0000 0.3584 0.0000 (  6867 PWs)   bands (ev):

    -6.6703  -5.0265  -4.3803  -3.8765  -3.4008  -3.3459   1.7367   4.7635
     5.4823

          k = 0.0000 0.3982 0.0000 (  6872 PWs)   bands (ev):

    -6.6449  -5.1565  -3.9393  -3.5503  -3.4363  -3.1353   2.4903   5.4706
     6.2218

          k = 0.0000 0.4380 0.0000 (  6868 PWs)   bands (ev):

    -6.6745  -5.2616  -3.7586  -3.4668  -2.9483  -2.8671   3.2960   6.1151
     6.9480

          k = 0.0000 0.4778 0.0000 (  6880 PWs)   bands (ev):

    -6.7187  -5.3412  -3.6594  -3.4909  -2.7960  -2.0867   4.1417   5.7280
     7.4212

          k = 0.0000 0.5176 0.0000 (  6890 PWs)   bands (ev):

    -6.7566  -5.3945  -3.5961  -3.5077  -2.6882  -1.3617   4.8241   4.9875
     8.3178

          k = 0.0000 0.5574 0.0000 (  6896 PWs)   bands (ev):

    -6.7778  -5.4213  -3.5645  -3.5162  -2.6323  -0.8829   4.2290   5.6688
     8.1357

          k = 0.0345 0.0597 0.0000 (  6833 PWs)   bands (ev):

    -8.8457  -4.7479  -4.7367  -4.6347  -3.4601  -3.1555  -2.1352   1.7702
     2.2947

          k = 0.0345 0.0995 0.0000 (  6838 PWs)   bands (ev):

    -8.6663  -4.8103  -4.6818  -4.5498  -3.6991  -3.1735  -1.7928   1.9239
     2.4617

          k = 0.0345 0.1394 0.0000 (  6843 PWs)   bands (ev):

    -8.4033  -4.8940  -4.6016  -4.4263  -3.9445  -3.1994  -1.3882   2.1546
     2.7111

          k = 0.0345 0.1792 0.0000 (  6838 PWs)   bands (ev):

    -8.0664  -4.9854  -4.4994  -4.2679  -4.1808  -3.2321  -0.9321   2.4623
     3.0420

          k = 0.0345 0.2190 0.0000 (  6838 PWs)   bands (ev):

    -7.6743  -5.0621  -4.4024  -4.3795  -4.0794  -3.2698  -0.4257   2.8470
     3.4534

          k = 0.0345 0.2588 0.0000 (  6840 PWs)   bands (ev):

    -7.2647  -5.0836  -4.6060  -4.2467  -3.8665  -3.3108   0.1329   3.3086
     3.9493

          k = 0.0345 0.2986 0.0000 (  6844 PWs)   bands (ev):

    -6.9083  -4.9800  -4.7898  -4.1056  -3.6352  -3.3531   0.7458   3.8470
     4.5166

          k = 0.0345 0.3384 0.0000 (  6867 PWs)   bands (ev):

    -6.6885  -4.9520  -4.6778  -3.9573  -3.3948  -3.3892   1.4149   4.4599
     5.1660

          k = 0.0345 0.3783 0.0000 (  6862 PWs)   bands (ev):

    -6.6150  -5.0913  -4.2147  -3.7811  -3.4340  -3.1216   2.1406   5.1416
     5.8864

          k = 0.0345 0.4181 0.0000 (  6868 PWs)   bands (ev):

    -6.6265  -5.2067  -3.8585  -3.4687  -3.4516  -2.7787   2.9212   5.8557
     6.6380

          k = 0.0345 0.4579 0.0000 (  6875 PWs)   bands (ev):

    -6.6691  -5.2973  -3.7099  -3.4975  -3.0910  -2.2317   3.7498   6.1348
     7.1370

          k = 0.0345 0.4977 0.0000 (  6893 PWs)   bands (ev):

    -6.7132  -5.3625  -3.6246  -3.5191  -2.8827  -1.5395   4.6052   5.2826
     7.8751

          k = 0.0345 0.5375 0.0000 (  6882 PWs)   bands (ev):

    -6.7442  -5.4018  -3.5755  -3.5324  -2.7727  -0.9318   4.4820   5.4093
     8.4687

          k = 0.0345-0.5774 0.0000 (  6896 PWs)   bands (ev):

    -6.7553  -5.4149  -3.5592  -3.5369  -2.7374  -0.6747   4.1574   5.8285
     8.0334

          k = 0.0690 0.1195 0.0000 (  6834 PWs)   bands (ev):

    -8.4460  -4.8847  -4.6171  -4.4408  -3.9075  -3.1974  -1.4499   2.1164
     2.6700

          k = 0.0690 0.1593 0.0000 (  6840 PWs)   bands (ev):

    -8.1465  -4.9781  -4.5277  -4.2925  -4.1241  -3.2300  -1.0388   2.3856
     2.9594

          k = 0.0690 0.1991 0.0000 (  6841 PWs)   bands (ev):

    -7.7804  -5.0743  -4.4174  -4.3350  -4.1087  -3.2694  -0.5695   2.7317
     3.3303

          k = 0.0690 0.2389 0.0000 (  6839 PWs)   bands (ev):

    -7.3724  -5.1463  -4.5332  -4.2912  -3.8931  -3.3138  -0.0444   3.1552
     3.7865

          k = 0.0690 0.2787 0.0000 (  6834 PWs)   bands (ev):

    -6.9740  -5.1442  -4.7150  -4.1545  -3.6481  -3.3610   0.5368   3.6556
     4.3126

          k = 0.0690 0.3185 0.0000 (  6858 PWs)   bands (ev):

    -6.6738  -4.9884  -4.8777  -4.0123  -3.4088  -3.3724   1.1753   4.2323
     4.9198

          k = 0.0690 0.3584 0.0000 (  6868 PWs)   bands (ev):

    -6.5369  -5.0196  -4.6391  -3.8673  -3.4550  -3.0549   1.8717   4.8820
     5.6052

          k = 0.0690 0.3982 0.0000 (  6874 PWs)   bands (ev):

    -6.5232  -5.1394  -4.1977  -3.7121  -3.4973  -2.6639   2.6251   5.5910
     6.3536

          k = 0.0690 0.4380 0.0000 (  6875 PWs)   bands (ev):

    -6.5626  -5.2362  -3.8514  -3.5338  -3.5099  -2.1508   3.4320   6.2393
     7.0634

          k = 0.0690 0.4778 0.0000 (  6889 PWs)   bands (ev):

    -6.6133  -5.3094  -3.6811  -3.5627  -3.2735  -1.5135   4.2807   5.8257
     7.5310

          k = 0.0690 0.5176 0.0000 (  6881 PWs)   bands (ev):

    -6.6548  -5.3584  -3.5976  -3.5828  -3.1005  -0.8562   4.8979   5.1326
     8.4335

          k = 0.0690-0.5973 0.0000 (  6889 PWs)   bands (ev):

    -6.6776  -5.3829  -3.5931  -3.5598  -3.0149  -0.3940   4.2819   5.8255
     8.2368

          k = 0.1034 0.1792 0.0000 (  6844 PWs)   bands (ev):

    -7.8160  -5.0803  -4.4307  -4.3104  -4.1158  -3.2708  -0.6179   2.6933
     3.2896

          k = 0.1034 0.2190 0.0000 (  6841 PWs)   bands (ev):

    -7.4272  -5.1830  -4.4918  -4.3146  -3.8996  -3.3197  -0.1333   3.0786
     3.7005

          k = 0.1034 0.2588 0.0000 (  6835 PWs)   bands (ev):

    -7.0119  -5.2557  -4.6617  -4.1850  -3.6444  -3.3739   0.4119   3.5415
     4.1899

          k = 0.1034 0.2986 0.0000 (  6838 PWs)   bands (ev):

    -6.6392  -5.2368  -4.8161  -4.0485  -3.4308  -3.3473   1.0170   4.0804
     4.7637

          k = 0.1034 0.3384 0.0000 (  6861 PWs)   bands (ev):

    -6.4157  -5.0374  -4.9526  -3.9114  -3.4875  -2.9981   1.6820   4.6954
     5.4058

          k = 0.1034 0.3783 0.0000 (  6859 PWs)   bands (ev):

    -6.3636  -5.0695  -4.6682  -3.7797  -3.5414  -2.5765   2.4064   5.3797
     6.1291

          k = 0.1034 0.4181 0.0000 (  6867 PWs)   bands (ev):

    -6.3986  -5.1660  -4.2600  -3.6580  -3.5897  -2.0565   3.1881   6.1002
     6.8875

          k = 0.1034 0.4579 0.0000 (  6875 PWs)   bands (ev):

    -6.4572  -5.2413  -3.9189  -3.6300  -3.5477  -1.4304   4.0206   6.3628
     7.3466

          k = 0.1034 0.4977 0.0000 (  6885 PWs)   bands (ev):

    -6.5109  -5.2953  -3.6929  -3.6604  -3.4461  -0.7442   4.8843   5.4547
     8.1015

          k = 0.1034-0.6172 0.0000 (  6871 PWs)   bands (ev):

    -6.5469  -5.3277  -3.6793  -3.5808  -3.3629  -0.1328   4.6084   5.7055
     8.6890

          k = 0.1034-0.5774 0.0000 (  6874 PWs)   bands (ev):

    -6.5594  -5.3385  -3.6857  -3.5492  -3.3300   0.1370   4.2567   6.1446
     8.2273

          k = 0.1379 0.2389 0.0000 (  6834 PWs)   bands (ev):

    -7.0242  -5.2948  -4.6422  -4.1954  -3.6416  -3.3799   0.3703   3.5032
     4.1522

          k = 0.1379 0.2787 0.0000 (  6835 PWs)   bands (ev):

    -6.6090  -5.3773  -4.7807  -4.0668  -3.4467  -3.3317   0.9384   4.0063
     4.6796

          k = 0.1379 0.3185 0.0000 (  6842 PWs)   bands (ev):

    -6.2746  -5.3500  -4.9040  -3.9361  -3.5165  -2.9618   1.5694   4.5831
     5.2860

          k = 0.1379 0.3584 0.0000 (  6869 PWs)   bands (ev):

    -6.1493  -5.1062  -5.0101  -3.8113  -3.5857  -2.5178   2.2625   5.2357
     5.9708

          k = 0.1379 0.3982 0.0000 (  6860 PWs)   bands (ev):

    -6.1770  -5.0983  -4.7301  -3.7003  -3.6506  -1.9836   3.0162   5.9511
     6.7058

          k = 0.1379 0.4380 0.0000 (  6868 PWs)   bands (ev):

    -6.2470  -5.1681  -4.3592  -3.7076  -3.6106  -1.3520   3.8267   6.6110
     7.4136

          k = 0.1379 0.4778 0.0000 (  6873 PWs)   bands (ev):

    -6.3154  -5.2200  -4.0516  -3.7536  -3.5501  -0.6433   4.6835   6.1210
     7.8593

          k = 0.1379-0.6371 0.0000 (  6878 PWs)   bands (ev):

    -6.3666  -5.2542  -3.8249  -3.7859  -3.5254   0.0678   5.1264   5.5525
     8.7764

          k = 0.1379-0.5973 0.0000 (  6874 PWs)   bands (ev):

    -6.3935  -5.2712  -3.8026  -3.6877  -3.5359   0.5863   4.4460   6.2784
     8.5407

          k = 0.1724 0.2986 0.0000 (  6862 PWs)   bands (ev):

    -6.1962  -5.4862  -4.8860  -3.9443  -3.5282  -2.9494   1.5321   4.5455
     5.2476

          k = 0.1724 0.3384 0.0000 (  6853 PWs)   bands (ev):

    -5.8981  -5.4713  -4.9753  -3.8259  -3.6137  -2.4884   2.1913   5.1630
     5.8863

          k = 0.1724 0.3783 0.0000 (  6866 PWs)   bands (ev):

    -5.8995  -5.1656  -5.0478  -3.7197  -3.6986  -1.9388   2.9143   5.8522
     6.5940

          k = 0.1724 0.4181 0.0000 (  6876 PWs)   bands (ev):

    -5.9888  -5.1038  -4.7988  -3.7777  -3.6330  -1.2961   3.6984   6.5842
     7.3609

          k = 0.1724 0.4579 0.0000 (  6888 PWs)   bands (ev):

    -6.0757  -5.1445  -4.4750  -3.8461  -3.5721  -0.5694   4.5379   6.8177
     7.7571

          k = 0.1724-0.6570 0.0000 (  6890 PWs)   bands (ev):

    -6.1434  -5.1716  -4.2204  -3.8990  -3.5399   0.2030   5.4160   5.8085
     8.5431

          k = 0.1724-0.6172 0.0000 (  6898 PWs)   bands (ev):

    -6.1859  -5.1869  -4.0519  -3.9326  -3.5325   0.9084   4.8744   6.2677
     9.1277

          k = 0.1724-0.5774 0.0000 (  6896 PWs)   bands (ev):

    -6.2004  -5.1918  -3.9909  -3.9441  -3.5343   1.2409   4.4621   6.7448
     8.6164

          k = 0.2069 0.3584 0.0000 (  6874 PWs)   bands (ev):

    -5.6164  -5.5023  -5.0289  -3.7257  -3.7170  -1.9238   2.8805   5.8185
     6.5637

          k = 0.2069 0.3982 0.0000 (  6894 PWs)   bands (ev):

    -5.7164  -5.1659  -5.0651  -3.8202  -3.6425  -1.2675   3.6346   6.5401
     7.3121

          k = 0.2069 0.4380 0.0000 (  6892 PWs)   bands (ev):

    -5.8145  -5.0860  -4.8553  -3.9166  -3.5813  -0.5253   4.4501   7.2251
     7.9854

          k = 0.2069-0.6769 0.0000 (  6896 PWs)   bands (ev):

    -5.8931  -5.0949  -4.5979  -3.9990  -3.5446   0.2832   5.3179   6.6162
     8.3680

          k = 0.2069-0.6371 0.0000 (  6908 PWs)   bands (ev):

    -5.9477  -5.0966  -4.4097  -4.0597  -3.5296   1.1028   5.5241   6.2098
     9.2117

          k = 0.2069-0.5973 0.0000 (  6896 PWs)   bands (ev):

    -5.9756  -5.0958  -4.3082  -4.0922  -3.5274   1.7457   4.7302   6.9839
     9.0482

          k = 0.2414 0.4181 0.0000 (  6882 PWs)   bands (ev):

    -5.6546  -5.0634  -5.0559  -3.9434  -3.5841  -0.5108   4.4207   7.2763
     8.0771

          k = 0.2414-0.6968 0.0000 (  6892 PWs)   bands (ev):

    -5.6728  -5.0463  -4.8841  -4.0601  -3.5466   0.3200   5.2673   7.4834
     8.1487

          k = 0.2414-0.6570 0.0000 (  6902 PWs)   bands (ev):

    -5.7082  -5.0206  -4.7235  -4.1596  -3.5281   1.1998   6.1606   6.3355
     8.4371

          k = 0.2414-0.6172 0.0000 (  6920 PWs)   bands (ev):

    -5.7352  -4.9967  -4.6127  -4.2288  -3.5227   2.0458   5.2826   7.0465
     8.4124

          k = 0.2414-0.5774 0.0000 (  6912 PWs)   bands (ev):

    -5.7450  -4.9868  -4.5731  -4.2541  -3.5223   2.4983   4.7587   7.5735
     8.3872

          k = 0.2759-0.6769 0.0000 (  6910 PWs)   bands (ev):

    -5.5787  -4.9892  -4.8783  -4.1993  -3.5277   1.2286   6.1423   7.0192
     7.6909

          k = 0.2759-0.6371 0.0000 (  6922 PWs)   bands (ev):

    -5.5308  -4.9245  -4.8497  -4.3207  -3.5204   2.1711   5.9949   7.0515
     7.4160

          k = 0.2759-0.5973 0.0000 (  6930 PWs)   bands (ev):

    -5.5133  -4.8751  -4.8253  -4.3991  -3.5191   3.0058   5.0589   7.3151
     7.8682

          k = 0.3103-0.6172 0.0000 (  6940 PWs)   bands (ev):

    -5.3752  -4.9703  -4.8147  -4.4708  -3.5180   3.1676   5.3880   6.7348
     7.9359

          k = 0.3103-0.5774 0.0000 (  6936 PWs)   bands (ev):

    -5.2940  -5.0390  -4.7400  -4.5592  -3.5177   3.8820   4.7513   6.5567
     8.4641

     the Fermi energy is    -3.5120 ev

!    total energy              =    -161.92113801 Ry
     total all-electron energy =     -2786.764814 Ry
     estimated scf accuracy    <       0.00000016 Ry
     smearing contrib. (-TS)   =      -0.00281468 Ry
     internal energy E=F+TS    =    -161.91832333 Ry

     The total energy is F=E-TS. E is the sum of the following terms:
     one-electron contribution =    -301.59880768 Ry
     hartree contribution      =     158.32267764 Ry
     xc contribution           =     -32.43950663 Ry
     ewald contribution        =     100.34494294 Ry
     DFT-D3 Dispersion         =      -0.00687431 Ry
     one-center paw contrib.   =     -86.54075528 Ry

     convergence has been achieved in   7 iterations

     negative rho (up, down):  6.751E-06 0.000E+00

     Forces acting on atoms (cartesian axes, Ry/au):

     atom    1 type  1   force =     0.00000000    0.00000000    0.00000000
     The non-local contrib.  to forces
     atom    1 type  1   force =     0.00000000   -0.00000000    0.00000000
     The ionic contribution  to forces
     atom    1 type  1   force =     0.00000000    0.00000000   -0.00000000
     The local contribution  to forces
     atom    1 type  1   force =    -0.00000000   -0.00000000    0.00000000
     The core correction contribution to forces
     atom    1 type  1   force =    -0.00000000   -0.00000000    0.00000000
     The Hubbard contrib.    to forces
     atom    1 type  1   force =     0.00000000    0.00000000    0.00000000
     The SCF correction term to forces
     atom    1 type  1   force =     0.00000000   -0.00000000    0.00000000

     DFT-D3 dispersion contribution to forces:
     atom    1 type  1   force =     0.00000000    0.00000000    0.00000000

     Total force =     0.000000     Total SCF correction =     0.000000


     Computing stress (Cartesian axis) and pressure


     negative rho (up, down):  6.751E-06 0.000E+00
          total   stress  (Ry/bohr**3)                   (kbar)     P=      -26.76
  -0.00026883  -0.00000000  -0.00000000          -39.55       -0.00       -0.00
  -0.00000000  -0.00026883   0.00000000           -0.00      -39.55        0.00
   0.00000000   0.00000000  -0.00000802            0.00        0.00       -1.18


     Writing all to output data dir ./tmp/scf.save/
 
     init_run     :      2.58s CPU      2.97s WALL (       1 calls)
     electrons    :     42.35s CPU     47.09s WALL (       1 calls)
     forces       :      0.36s CPU      0.45s WALL (       1 calls)
     force_dftd3  :      0.01s CPU      0.01s WALL (       1 calls)
     stress       :      1.53s CPU      1.79s WALL (       1 calls)
     stres_dftd3  :      0.01s CPU      0.01s WALL (       1 calls)

     Called by init_run:
     wfcinit      :      1.49s CPU      1.59s WALL (       1 calls)
     potinit      :      0.36s CPU      0.48s WALL (       1 calls)
     hinit0       :      0.35s CPU      0.39s WALL (       1 calls)

     Called by electrons:
     c_bands      :     31.11s CPU     33.42s WALL (       7 calls)
     sum_band     :      7.98s CPU      9.36s WALL (       7 calls)
     v_of_rho     :      0.70s CPU      0.80s WALL (       8 calls)
     newd         :      2.07s CPU      3.16s WALL (       8 calls)
     PAW_pot      :      0.85s CPU      0.93s WALL (       8 calls)
     mix_rho      :      0.11s CPU      0.11s WALL (       7 calls)
     energy_dftd3 :      0.01s CPU      0.01s WALL (       1 calls)

     Called by c_bands:
     init_us_2    :      0.65s CPU      0.67s WALL (    1445 calls)
     init_us_2:cp :      0.64s CPU      0.67s WALL (    1445 calls)
     cegterg      :     28.58s CPU     30.85s WALL (     595 calls)

     Called by *egterg:
     cdiaghg      :      0.58s CPU      0.61s WALL (    3025 calls)
     h_psi        :     26.12s CPU     28.31s WALL (    3110 calls)
     s_psi        :      0.22s CPU      0.23s WALL (    3110 calls)
     g_psi        :      0.08s CPU      0.08s WALL (    2430 calls)

     Called by h_psi:
     h_psi:calbec :      0.94s CPU      1.00s WALL (    3110 calls)
     vloc_psi     :     24.64s CPU     26.74s WALL (    3110 calls)
     add_vuspsi   :      0.36s CPU      0.38s WALL (    3110 calls)

     General routines
     calbec       :      1.22s CPU      1.30s WALL (    4130 calls)
     fft          :      0.67s CPU      0.80s WALL (     127 calls)
     ffts         :      0.02s CPU      0.02s WALL (      15 calls)
     fftw         :     17.32s CPU     19.11s WALL (   36391 calls)
     interpolate  :      0.06s CPU      0.06s WALL (       8 calls)
 
     Parallel routines
 
     PWSCF        :     47.11s CPU     52.72s WALL

 
   This run was terminated on:  12: 2:21  14Jul2025            

=------------------------------------------------------------------------------=
   JOB DONE.
=------------------------------------------------------------------------------=
