
     Program PWSCF v.7.2 starts on 14Jul2025 at 12: 1:29 

     This program is part of the open-source Quantum ESPRESSO suite
     for quantum simulation of materials; please cite
         "P. Giannozzi et al., J. Phys.:Condens. Matter 21 395502 (2009);
         "P. Giannozzi et al., J. Phys.:Condens. Matter 29 465901 (2017);
         "P. Giannozzi et al., J. Chem. Phys. 152 154105 (2020);
          URL http://www.quantum-espresso.org", 
     in publications or presentations arising from this work. More details at
     http://www.quantum-espresso.org/quote

     Parallel version (MPI), running on     4 processors

     MPI processes distributed on     1 nodes
     28123 MiB available memory on the printing compute node when the environment starts
 
     Waiting for input...
     Reading input from standard input

     Current dimensions of program PWSCF are:
     Max number of different atomic species (ntypx) = 10
     Max number of k-points (npk) =  40000
     Max angular momentum in pseudopotentials (lmaxx) =  4
     file Co.pbe-n-kjpaw_psl.1.0.0.UPF: wavefunction(s)  4S 3D renormalized
     Message from routine setup:
     using ibrav=0 with symmetry is DISCOURAGED, use correct ibrav instead
 
     R & G space division:  proc/nbgrp/npool/nimage =       4
     Subspace diagonalization in iterative solution of the eigenvalue problem:
     a serial algorithm will be used

 
     Parallelization info
     --------------------
     sticks:   dense  smooth     PW     G-vecs:    dense   smooth      PW
     Min         256     105     30                54348    13761    2388
     Max         257     106     31                54377    13776    2427
     Sum        1027     421    121               217477    55065    9605
 
     Using Slab Decomposition
 


     bravais-lattice index     =            0
     lattice parameter (alat)  =       4.6068  a.u.
     unit-cell volume          =     694.6297 (a.u.)^3
     number of atoms/cell      =            1
     number of atomic types    =            1
     number of electrons       =         9.00
     number of Kohn-Sham states=            9
     kinetic-energy cutoff     =      70.0000  Ry
     charge density cutoff     =     700.0000  Ry
     scf convergence threshold =      1.0E-06
     mixing beta               =       0.7000
     number of iterations used =            8  plain     mixing
     Exchange-correlation= SLA  PW   PBX  PBC
                           (   1   4   3   4   0   0   0)

     celldm(1)=   4.606774  celldm(2)=   0.000000  celldm(3)=   0.000000
     celldm(4)=   0.000000  celldm(5)=   0.000000  celldm(6)=   0.000000

     crystal axes: (cart. coord. in units of alat)
               a(1) = (   1.000000   0.000000   0.000000 )  
               a(2) = (   0.500000   0.866025   0.000000 )  
               a(3) = (   0.000000   0.000000   8.204118 )  

     reciprocal axes: (cart. coord. in units 2 pi/alat)
               b(1) = (  1.000000 -0.577350  0.000000 )  
               b(2) = (  0.000000  1.154701  0.000000 )  
               b(3) = (  0.000000  0.000000  0.121890 )  


     PseudoPot. # 1 for Co read from file:
     /shared/ESPRESSO/PSLIBRARY/1.0.0/pbe/PSEUDOPOTENTIALS/Co.pbe-n-kjpaw_psl.1.0.0.UPF
     MD5 check sum: 17e7ab8db721b244d1352252ea6cb8e7
     Pseudo is Projector augmented-wave + core cor, Zval =  9.0
     Generated using "atomic" code by A. Dal Corso  (Quantum ESPRESSO distribution)
     Shape of augmentation charge: PSQ
     Using radial grid of 1193 points,  6 beta functions with: 
                l(1) =   0
                l(2) =   0
                l(3) =   1
                l(4) =   1
                l(5) =   2
                l(6) =   2
     Q(r) pseudized with 0 coefficients 


     atomic species   valence    mass     pseudopotential
        Co             9.00    58.93320     Co( 1.00)

     24 Sym. Ops., with inversion, found



   Cartesian axes

     site n.     atom                  positions (alat units)
         1           Co  tau(   1) = (   0.0000000   0.0000000   4.1020592  )

     --------------------------------------------
     DFT-D3 Dispersion Correction (3-body terms):
     --------------------------------------------
       Reference C6 values for interpolation: 

         atom   Coordination number   C6
         Co         0.000          1065.56
         Co         1.715           373.09
         Co         2.926           296.13
         Co         7.779           236.57

       Values used:

         atom   Coordination number  R0_AB[au]  C6      C8
         Co         4.930            3.243    296.13  26037.62

         Molecular C6 ( Ry / a.u.^6 ) =       296.13


     number of k points=    91  Gaussian smearing, width (Ry)=  0.0073
                       cart. coord. in units 2pi/alat
        k(    1) = (   0.0000000   0.0000000   0.0000000), wk =   0.0022222
        k(    2) = (   0.0000000   0.0384900   0.0000000), wk =   0.0133333
        k(    3) = (   0.0000000   0.0769800   0.0000000), wk =   0.0133333
        k(    4) = (   0.0000000   0.1154701   0.0000000), wk =   0.0133333
        k(    5) = (   0.0000000   0.1539601   0.0000000), wk =   0.0133333
        k(    6) = (   0.0000000   0.1924501   0.0000000), wk =   0.0133333
        k(    7) = (   0.0000000   0.2309401   0.0000000), wk =   0.0133333
        k(    8) = (   0.0000000   0.2694301   0.0000000), wk =   0.0133333
        k(    9) = (   0.0000000   0.3079201   0.0000000), wk =   0.0133333
        k(   10) = (   0.0000000   0.3464102   0.0000000), wk =   0.0133333
        k(   11) = (   0.0000000   0.3849002   0.0000000), wk =   0.0133333
        k(   12) = (   0.0000000   0.4233902   0.0000000), wk =   0.0133333
        k(   13) = (   0.0000000   0.4618802   0.0000000), wk =   0.0133333
        k(   14) = (   0.0000000   0.5003702   0.0000000), wk =   0.0133333
        k(   15) = (   0.0000000   0.5388603   0.0000000), wk =   0.0133333
        k(   16) = (   0.0000000  -0.5773503   0.0000000), wk =   0.0066667
        k(   17) = (   0.0333333   0.0577350   0.0000000), wk =   0.0133333
        k(   18) = (   0.0333333   0.0962250   0.0000000), wk =   0.0266667
        k(   19) = (   0.0333333   0.1347151   0.0000000), wk =   0.0266667
        k(   20) = (   0.0333333   0.1732051   0.0000000), wk =   0.0266667
        k(   21) = (   0.0333333   0.2116951   0.0000000), wk =   0.0266667
        k(   22) = (   0.0333333   0.2501851   0.0000000), wk =   0.0266667
        k(   23) = (   0.0333333   0.2886751   0.0000000), wk =   0.0266667
        k(   24) = (   0.0333333   0.3271652   0.0000000), wk =   0.0266667
        k(   25) = (   0.0333333   0.3656552   0.0000000), wk =   0.0266667
        k(   26) = (   0.0333333   0.4041452   0.0000000), wk =   0.0266667
        k(   27) = (   0.0333333   0.4426352   0.0000000), wk =   0.0266667
        k(   28) = (   0.0333333   0.4811252   0.0000000), wk =   0.0266667
        k(   29) = (   0.0333333   0.5196152   0.0000000), wk =   0.0266667
        k(   30) = (   0.0333333  -0.5965953   0.0000000), wk =   0.0266667
        k(   31) = (   0.0666667   0.1154701   0.0000000), wk =   0.0133333
        k(   32) = (   0.0666667   0.1539601   0.0000000), wk =   0.0266667
        k(   33) = (   0.0666667   0.1924501   0.0000000), wk =   0.0266667
        k(   34) = (   0.0666667   0.2309401   0.0000000), wk =   0.0266667
        k(   35) = (   0.0666667   0.2694301   0.0000000), wk =   0.0266667
        k(   36) = (   0.0666667   0.3079201   0.0000000), wk =   0.0266667
        k(   37) = (   0.0666667   0.3464102   0.0000000), wk =   0.0266667
        k(   38) = (   0.0666667   0.3849002   0.0000000), wk =   0.0266667
        k(   39) = (   0.0666667   0.4233902   0.0000000), wk =   0.0266667
        k(   40) = (   0.0666667   0.4618802   0.0000000), wk =   0.0266667
        k(   41) = (   0.0666667   0.5003702   0.0000000), wk =   0.0266667
        k(   42) = (   0.0666667  -0.6158403   0.0000000), wk =   0.0266667
        k(   43) = (   0.0666667  -0.5773503   0.0000000), wk =   0.0133333
        k(   44) = (   0.1000000   0.1732051   0.0000000), wk =   0.0133333
        k(   45) = (   0.1000000   0.2116951   0.0000000), wk =   0.0266667
        k(   46) = (   0.1000000   0.2501851   0.0000000), wk =   0.0266667
        k(   47) = (   0.1000000   0.2886751   0.0000000), wk =   0.0266667
        k(   48) = (   0.1000000   0.3271652   0.0000000), wk =   0.0266667
        k(   49) = (   0.1000000   0.3656552   0.0000000), wk =   0.0266667
        k(   50) = (   0.1000000   0.4041452   0.0000000), wk =   0.0266667
        k(   51) = (   0.1000000   0.4426352   0.0000000), wk =   0.0266667
        k(   52) = (   0.1000000   0.4811252   0.0000000), wk =   0.0266667
        k(   53) = (   0.1000000  -0.6350853   0.0000000), wk =   0.0266667
        k(   54) = (   0.1000000  -0.5965953   0.0000000), wk =   0.0266667
        k(   55) = (   0.1333333   0.2309401   0.0000000), wk =   0.0133333
        k(   56) = (   0.1333333   0.2694301   0.0000000), wk =   0.0266667
        k(   57) = (   0.1333333   0.3079201   0.0000000), wk =   0.0266667
        k(   58) = (   0.1333333   0.3464102   0.0000000), wk =   0.0266667
        k(   59) = (   0.1333333   0.3849002   0.0000000), wk =   0.0266667
        k(   60) = (   0.1333333   0.4233902   0.0000000), wk =   0.0266667
        k(   61) = (   0.1333333   0.4618802   0.0000000), wk =   0.0266667
        k(   62) = (   0.1333333  -0.6543303   0.0000000), wk =   0.0266667
        k(   63) = (   0.1333333  -0.6158403   0.0000000), wk =   0.0266667
        k(   64) = (   0.1333333  -0.5773503   0.0000000), wk =   0.0133333
        k(   65) = (   0.1666667   0.2886751   0.0000000), wk =   0.0133333
        k(   66) = (   0.1666667   0.3271652   0.0000000), wk =   0.0266667
        k(   67) = (   0.1666667   0.3656552   0.0000000), wk =   0.0266667
        k(   68) = (   0.1666667   0.4041452   0.0000000), wk =   0.0266667
        k(   69) = (   0.1666667   0.4426352   0.0000000), wk =   0.0266667
        k(   70) = (   0.1666667  -0.6735753   0.0000000), wk =   0.0266667
        k(   71) = (   0.1666667  -0.6350853   0.0000000), wk =   0.0266667
        k(   72) = (   0.1666667  -0.5965953   0.0000000), wk =   0.0266667
        k(   73) = (   0.2000000   0.3464102   0.0000000), wk =   0.0133333
        k(   74) = (   0.2000000   0.3849002   0.0000000), wk =   0.0266667
        k(   75) = (   0.2000000   0.4233902   0.0000000), wk =   0.0266667
        k(   76) = (   0.2000000  -0.6928203   0.0000000), wk =   0.0266667
        k(   77) = (   0.2000000  -0.6543303   0.0000000), wk =   0.0266667
        k(   78) = (   0.2000000  -0.6158403   0.0000000), wk =   0.0266667
        k(   79) = (   0.2000000  -0.5773503   0.0000000), wk =   0.0133333
        k(   80) = (   0.2333333   0.4041452   0.0000000), wk =   0.0133333
        k(   81) = (   0.2333333  -0.7120653   0.0000000), wk =   0.0266667
        k(   82) = (   0.2333333  -0.6735753   0.0000000), wk =   0.0266667
        k(   83) = (   0.2333333  -0.6350853   0.0000000), wk =   0.0266667
        k(   84) = (   0.2333333  -0.5965953   0.0000000), wk =   0.0266667
        k(   85) = (   0.2666667  -0.6928203   0.0000000), wk =   0.0133333
        k(   86) = (   0.2666667  -0.6543303   0.0000000), wk =   0.0266667
        k(   87) = (   0.2666667  -0.6158403   0.0000000), wk =   0.0266667
        k(   88) = (   0.2666667  -0.5773503   0.0000000), wk =   0.0133333
        k(   89) = (   0.3000000  -0.6350853   0.0000000), wk =   0.0133333
        k(   90) = (   0.3000000  -0.5965953   0.0000000), wk =   0.0266667
        k(   91) = (   0.3333333  -0.5773503   0.0000000), wk =   0.0044444

     Dense  grid:   217477 G-vectors     FFT dimensions: (  40,  40, 320)

     Smooth grid:    55065 G-vectors     FFT dimensions: (  25,  25, 216)

     Estimated max dynamical RAM per process >     222.15 MB

     Estimated total dynamical RAM >     888.60 MB

     Initial potential from superposition of free atoms

     starting charge       8.9997, renormalised to       9.0000

     negative rho (up, down):  1.684E-05 0.000E+00
     Starting wfcs are    9 randomized atomic wfcs
     Checking if some PAW data can be deallocated... 

     total cpu time spent up to now is        3.1 secs

     Self-consistent Calculation

     iteration #  1     ecut=    70.00 Ry     beta= 0.70
     Davidson diagonalization with overlap
     ethr =  1.00E-02,  avg # of iterations =  5.4

     negative rho (up, down):  1.296E-06 0.000E+00

     total cpu time spent up to now is       10.1 secs

     total energy              =    -161.83890897 Ry
     estimated scf accuracy    <       0.13884159 Ry

     iteration #  2     ecut=    70.00 Ry     beta= 0.70
     Davidson diagonalization with overlap
     ethr =  1.54E-03,  avg # of iterations =  3.7

     negative rho (up, down):  3.961E-06 0.000E+00

     total cpu time spent up to now is       14.6 secs

     total energy              =    -161.74171957 Ry
     estimated scf accuracy    <       1.40888115 Ry

     iteration #  3     ecut=    70.00 Ry     beta= 0.70
     Davidson diagonalization with overlap
     ethr =  1.54E-03,  avg # of iterations =  2.1

     negative rho (up, down):  9.142E-07 0.000E+00

     total cpu time spent up to now is       18.7 secs

     total energy              =    -161.92049767 Ry
     estimated scf accuracy    <       0.00258032 Ry

     iteration #  4     ecut=    70.00 Ry     beta= 0.70
     Davidson diagonalization with overlap
     ethr =  2.87E-05,  avg # of iterations =  7.6

     negative rho (up, down):  2.903E-06 0.000E+00

     total cpu time spent up to now is       24.2 secs

     total energy              =    -161.92111618 Ry
     estimated scf accuracy    <       0.00012635 Ry

     iteration #  5     ecut=    70.00 Ry     beta= 0.70
     Davidson diagonalization with overlap
     ethr =  1.40E-06,  avg # of iterations =  6.0

     negative rho (up, down):  5.478E-06 0.000E+00

     total cpu time spent up to now is       29.0 secs

     total energy              =    -161.92114628 Ry
     estimated scf accuracy    <       0.00005844 Ry

     iteration #  6     ecut=    70.00 Ry     beta= 0.70
     Davidson diagonalization with overlap
     ethr =  6.49E-07,  avg # of iterations =  1.1

     negative rho (up, down):  6.935E-06 0.000E+00

     total cpu time spent up to now is       32.5 secs

     total energy              =    -161.92115437 Ry
     estimated scf accuracy    <       0.00000214 Ry

     iteration #  7     ecut=    70.00 Ry     beta= 0.70
     Davidson diagonalization with overlap
     ethr =  2.38E-08,  avg # of iterations =  2.2

     negative rho (up, down):  6.752E-06 0.000E+00

     total cpu time spent up to now is       36.6 secs

     End of self-consistent calculation

          k = 0.0000 0.0000 0.0000 (  6845 PWs)   bands (ev):

    -8.9873  -4.7850  -4.7109  -4.7109  -3.1517  -3.1517  -2.5294   1.6557
     2.1698

          k = 0.0000 0.0385 0.0000 (  6829 PWs)   bands (ev):

    -8.9446  -4.7718  -4.7262  -4.6911  -3.2804  -3.1559  -2.3774   1.6916
     2.2091

          k = 0.0000 0.0770 0.0000 (  6833 PWs)   bands (ev):

    -8.8175  -4.7725  -4.7309  -4.6323  -3.5206  -3.1682  -2.0663   1.7994
     2.3265

          k = 0.0000 0.1155 0.0000 (  6839 PWs)   bands (ev):

    -8.6091  -4.8413  -4.6670  -4.5363  -3.7735  -3.1882  -1.6927   1.9793
     2.5213

          k = 0.0000 0.1540 0.0000 (  6835 PWs)   bands (ev):

    -8.3254  -4.9252  -4.5805  -4.4059  -4.0184  -3.2149  -1.2738   2.2310
     2.7933

          k = 0.0000 0.1925 0.0000 (  6825 PWs)   bands (ev):

    -7.9780  -5.0085  -4.4750  -4.2492  -4.2452  -3.2470  -0.8111   2.5540
     3.1401

          k = 0.0000 0.2309 0.0000 (  6845 PWs)   bands (ev):

    -7.5887  -5.0655  -4.4634  -4.3548  -4.0596  -3.2831  -0.3029   2.9493
     3.5629

          k = 0.0000 0.2694 0.0000 (  6847 PWs)   bands (ev):

    -7.2003  -5.0506  -4.6593  -4.2239  -3.8556  -3.3216   0.2537   3.4170
     4.0626

          k = 0.0000 0.3079 0.0000 (  6861 PWs)   bands (ev):

    -6.8846  -4.8919  -4.8355  -4.0857  -3.6409  -3.3609   0.8608   3.9551
     4.6385

          k = 0.0000 0.3464 0.0000 (  6875 PWs)   bands (ev):

    -6.7062  -4.9907  -4.5342  -3.9364  -3.4245  -3.3990   1.5201   4.5626
     5.2719

          k = 0.0000 0.3849 0.0000 (  6878 PWs)   bands (ev):

    -6.6538  -5.1239  -4.0660  -3.7085  -3.4346  -3.2162   2.2319   5.2313
     5.9781

          k = 0.0000 0.4234 0.0000 (  6858 PWs)   bands (ev):

    -6.6701  -5.2341  -3.8172  -3.4659  -3.1452  -3.0262   2.9941   5.9143
     6.7061

          k = 0.0000 0.4619 0.0000 (  6882 PWs)   bands (ev):

    -6.7110  -5.3206  -3.7025  -3.4917  -2.8650  -2.4051   3.7993   6.0466
     7.1573

          k = 0.0000 0.5004 0.0000 (  6874 PWs)   bands (ev):

    -6.7520  -5.3828  -3.6279  -3.5110  -2.7419  -1.6640   4.6256   5.1951
     7.9084

          k = 0.0000 0.5389 0.0000 (  6888 PWs)   bands (ev):

    -6.7807  -5.4202  -3.5836  -3.5229  -2.6646  -1.0643   4.4413   5.3943
     8.4179

          k = 0.0000-0.5774 0.0000 (  6896 PWs)   bands (ev):

    -6.7908  -5.4328  -3.5688  -3.5269  -2.6382  -0.8188   4.1398   5.7878
     8.0084

          k = 0.0333 0.0577 0.0000 (  6833 PWs)   bands (ev):

    -8.8597  -4.7568  -4.7458  -4.6510  -3.4531  -3.1644  -2.1574   1.7635
     2.2874

          k = 0.0333 0.0962 0.0000 (  6838 PWs)   bands (ev):

    -8.6918  -4.8153  -4.6945  -4.5717  -3.6837  -3.1812  -1.8303   1.9076
     2.4434

          k = 0.0333 0.1347 0.0000 (  6842 PWs)   bands (ev):

    -8.4453  -4.8945  -4.6192  -4.4560  -3.9220  -3.2055  -1.4436   2.1229
     2.6766

          k = 0.0333 0.1732 0.0000 (  6840 PWs)   bands (ev):

    -8.1284  -4.9827  -4.5231  -4.3073  -4.1526  -3.2362  -1.0087   2.4103
     2.9860

          k = 0.0333 0.2117 0.0000 (  6840 PWs)   bands (ev):

    -7.7564  -5.0609  -4.4098  -4.3698  -4.1299  -3.2718  -0.5269   2.7697
     3.3716

          k = 0.0333 0.2502 0.0000 (  6838 PWs)   bands (ev):

    -7.3598  -5.0961  -4.5708  -4.2836  -3.9289  -3.3109   0.0031   3.2015
     3.8300

          k = 0.0333 0.2887 0.0000 (  6843 PWs)   bands (ev):

    -6.9961  -5.0304  -4.7534  -4.1488  -3.7096  -3.3515   0.5835   3.7042
     4.3629

          k = 0.0333 0.3272 0.0000 (  6867 PWs)   bands (ev):

    -6.7443  -4.9162  -4.7907  -4.0075  -3.4765  -3.3921   1.2159   4.2778
     4.9751

          k = 0.0333 0.3657 0.0000 (  6868 PWs)   bands (ev):

    -6.6368  -5.0579  -4.3719  -3.8506  -3.4307  -3.2281   1.9013   4.9181
     5.6470

          k = 0.0333 0.4041 0.0000 (  6862 PWs)   bands (ev):

    -6.6284  -5.1775  -3.9552  -3.5932  -3.4658  -2.9357   2.6387   5.6074
     6.3685

          k = 0.0333 0.4426 0.0000 (  6869 PWs)   bands (ev):

    -6.6632  -5.2741  -3.7633  -3.4958  -3.2093  -2.4899   3.4242   6.1809
     7.0214

          k = 0.0333 0.4811 0.0000 (  6883 PWs)   bands (ev):

    -6.7077  -5.3471  -3.6635  -3.5195  -2.9573  -1.8481   4.2452   5.6692
     7.5135

          k = 0.0333 0.5196 0.0000 (  6893 PWs)   bands (ev):

    -6.7444  -5.3961  -3.6018  -3.5358  -2.8171  -1.1933   4.7958   5.0617
     8.3945

          k = 0.0333-0.5966 0.0000 (  6898 PWs)   bands (ev):

    -6.7646  -5.4206  -3.5713  -3.5442  -2.7513  -0.7519   4.2305   5.7128
     8.1508

          k = 0.0667 0.1155 0.0000 (  6839 PWs)   bands (ev):

    -8.4855  -4.8853  -4.6338  -4.4699  -3.8861  -3.2035  -1.5026   2.0868
     2.6379

          k = 0.0667 0.1540 0.0000 (  6840 PWs)   bands (ev):

    -8.2043  -4.9739  -4.5498  -4.3312  -4.0976  -3.2338  -1.1105   2.3388
     2.9092

          k = 0.0667 0.1925 0.0000 (  6845 PWs)   bands (ev):

    -7.8587  -5.0672  -4.4459  -4.3044  -4.1593  -3.2707  -0.6639   2.6622
     3.2557

          k = 0.0667 0.2309 0.0000 (  6843 PWs)   bands (ev):

    -7.4691  -5.1426  -4.4999  -4.3262  -3.9574  -3.3125  -0.1653   3.0586
     3.6775

          k = 0.0667 0.2694 0.0000 (  6834 PWs)   bands (ev):

    -7.0764  -5.1596  -4.6804  -4.1958  -3.7282  -3.3573   0.3853   3.5262
     4.1744

          k = 0.0667 0.3079 0.0000 (  6847 PWs)   bands (ev):

    -6.7549  -5.0499  -4.8435  -4.0592  -3.4718  -3.4031   0.9890   4.0643
     4.7565

          k = 0.0667 0.3464 0.0000 (  6862 PWs)   bands (ev):

    -6.5788  -4.9874  -4.7571  -3.9194  -3.4478  -3.1818   1.6466   4.6730
     5.3852

          k = 0.0667 0.3849 0.0000 (  6865 PWs)   bands (ev):

    -6.5364  -5.1109  -4.3372  -3.7730  -3.4896  -2.8358   2.3579   5.3431
     6.0989

          k = 0.0667 0.4234 0.0000 (  6875 PWs)   bands (ev):

    -6.5626  -5.2130  -3.9525  -3.5926  -3.5267  -2.3894   3.1207   6.0293
     6.8222

          k = 0.0667 0.4619 0.0000 (  6891 PWs)   bands (ev):

    -6.6104  -5.2930  -3.7383  -3.5573  -3.3563  -1.8137   3.9279   6.1498
     7.2550

          k = 0.0667 0.5004 0.0000 (  6893 PWs)   bands (ev):

    -6.6556  -5.3505  -3.6346  -3.5801  -3.1554  -1.1659   4.7582   5.2734
     8.0147

          k = 0.0667-0.6158 0.0000 (  6897 PWs)   bands (ev):

    -6.6865  -5.3851  -3.5943  -3.5810  -3.0352  -0.6002   4.4988   5.5351
     8.5202

          k = 0.0667-0.5774 0.0000 (  6870 PWs)   bands (ev):

    -6.6974  -5.3967  -3.5990  -3.5638  -2.9958  -0.3591   4.1857   5.9376
     8.0990

          k = 0.1000 0.1732 0.0000 (  6844 PWs)   bands (ev):

    -7.8931  -5.0709  -4.4585  -4.2806  -4.1667  -3.2717  -0.7100   2.6260
     3.2199

          k = 0.1000 0.2117 0.0000 (  6841 PWs)   bands (ev):

    -7.5247  -5.1705  -4.4599  -4.3487  -3.9654  -3.3171  -0.2499   2.9860
     3.6012

          k = 0.1000 0.2502 0.0000 (  6827 PWs)   bands (ev):

    -7.1248  -5.2474  -4.6291  -4.2252  -3.7287  -3.3678   0.2666   3.4181
     4.0624

          k = 0.1000 0.2887 0.0000 (  6836 PWs)   bands (ev):

    -6.7478  -5.2524  -4.7843  -4.0939  -3.4548  -3.4214   0.8388   3.9219
     4.6099

          k = 0.1000 0.3272 0.0000 (  6861 PWs)   bands (ev):

    -6.4871  -5.1053  -4.9230  -3.9605  -3.4755  -3.1367   1.4667   4.4972
     5.1986

          k = 0.1000 0.3657 0.0000 (  6859 PWs)   bands (ev):

    -6.3942  -5.0436  -4.7810  -3.8302  -3.5275  -2.7585   2.1501   5.1397
     5.8737

          k = 0.1000 0.4041 0.0000 (  6877 PWs)   bands (ev):

    -6.4081  -5.1450  -4.3815  -3.7071  -3.5752  -2.2957   2.8879   5.8333
     6.6043

          k = 0.1000 0.4426 0.0000 (  6875 PWs)   bands (ev):

    -6.4599  -5.2267  -4.0209  -3.6163  -3.5924  -1.7305   3.6758   6.4121
     7.2321

          k = 0.1000 0.4811 0.0000 (  6881 PWs)   bands (ev):

    -6.5151  -5.2881  -3.7634  -3.6490  -3.4820  -1.0826   4.5024   5.8480
     7.7200

          k = 0.1000-0.6351 0.0000 (  6874 PWs)   bands (ev):

    -6.5580  -5.3292  -3.6716  -3.6219  -3.3798  -0.4379   4.9331   5.3303
     8.6106

          k = 0.1000-0.5966 0.0000 (  6866 PWs)   bands (ev):

    -6.5809  -5.3497  -3.6832  -3.5647  -3.3163   0.0141   4.3301   6.0022
     8.3396

          k = 0.1333 0.2309 0.0000 (  6836 PWs)   bands (ev):

    -7.1409  -5.2782  -4.6105  -4.2353  -3.7273  -3.3728   0.2271   3.3823
     4.0612

          k = 0.1333 0.2694 0.0000 (  6830 PWs)   bands (ev):

    -6.7377  -5.3636  -4.7506  -4.1116  -3.4431  -3.4349   0.7641   3.8520
     4.5175

          k = 0.1333 0.3079 0.0000 (  6836 PWs)   bands (ev):

    -6.3863  -5.3651  -4.8769  -3.9843  -3.5003  -3.1066   1.3598   4.3923
     5.0876

          k = 0.1333 0.3464 0.0000 (  6865 PWs)   bands (ev):

    -6.2067  -5.1805  -4.9874  -3.8603  -3.5657  -2.7062   2.0134   5.0025
     5.7232

          k = 0.1333 0.3849 0.0000 (  6866 PWs)   bands (ev):

    -6.1992  -5.0810  -4.8350  -3.7464  -3.6281  -2.2263   2.7239   5.6770
     6.4286

          k = 0.1333 0.4234 0.0000 (  6874 PWs)   bands (ev):

    -6.2573  -5.1574  -4.4624  -3.6843  -3.6498  -1.6549   3.4888   6.3726
     7.1634

          k = 0.1333 0.4619 0.0000 (  6872 PWs)   bands (ev):

    -6.3251  -5.2163  -4.1372  -3.7315  -3.5773  -0.9988   4.3015   6.4588
     7.5499

          k = 0.1333-0.6543 0.0000 (  6879 PWs)   bands (ev):

    -6.3819  -5.2581  -3.8852  -3.7671  -3.5359  -0.3028   5.1432   5.5133
     8.3311

          k = 0.1333-0.6158 0.0000 (  6876 PWs)   bands (ev):

    -6.4186  -5.2830  -3.7893  -3.7114  -3.5318   0.3123   4.6776   5.9433
     8.8274

          k = 0.1333-0.5774 0.0000 (  6870 PWs)   bands (ev):

    -6.4312  -5.2912  -3.7968  -3.6325  -3.5512   0.5860   4.3271   6.3721
     8.3712

          k = 0.1667 0.2887 0.0000 (  6858 PWs)   bands (ev):

    -6.3359  -5.4690  -4.8600  -3.9923  -3.5102  -3.0962   1.3244   4.3568
     5.0498

          k = 0.1667 0.3272 0.0000 (  6856 PWs)   bands (ev):

    -6.0072  -5.4877  -4.9550  -3.8745  -3.5898  -2.6798   1.9456   4.9340
     5.6494

          k = 0.1667 0.3657 0.0000 (  6860 PWs)   bands (ev):

    -5.9362  -5.2512  -5.0343  -3.7657  -3.6697  -2.1841   2.6266   5.5800
     6.3299

          k = 0.1667 0.4041 0.0000 (  6866 PWs)   bands (ev):

    -6.0061  -5.0979  -4.8945  -3.7454  -3.6730  -1.6015   3.3653   6.2809
     7.0436

          k = 0.1667 0.4426 0.0000 (  6880 PWs)   bands (ev):

    -6.0912  -5.1463  -4.5585  -3.8127  -3.6025  -0.9343   4.1579   6.8729
     7.6456

          k = 0.1667-0.6736 0.0000 (  6886 PWs)   bands (ev):

    -6.1639  -5.1809  -4.2804  -3.8675  -3.5587  -0.2051   4.9944   6.2105
     8.1274

          k = 0.1667-0.6351 0.0000 (  6886 PWs)   bands (ev):

    -6.2156  -5.2028  -4.0766  -3.9063  -3.5420   0.5190   5.2194   5.8423
     9.0289

          k = 0.1667-0.5966 0.0000 (  6888 PWs)   bands (ev):

    -6.2423  -5.2135  -3.9638  -3.9265  -3.5430   1.0525   4.5377   6.5529
     8.7174

          k = 0.2000 0.3464 0.0000 (  6874 PWs)   bands (ev):

    -5.6309  -5.6081  -5.0170  -3.7718  -3.6855  -2.1701   2.5943   5.5469
     6.2797

          k = 0.2000 0.3849 0.0000 (  6878 PWs)   bands (ev):

    -5.7284  -5.2658  -5.0627  -3.7820  -3.6830  -1.5743   3.3040   6.2262
     6.9927

          k = 0.2000 0.4234 0.0000 (  6894 PWs)   bands (ev):

    -5.8323  -5.0935  -4.9380  -3.8738  -3.6136  -0.8948   4.0720   6.9364
     7.7316

          k = 0.2000-0.6928 0.0000 (  6894 PWs)   bands (ev):

    -5.9183  -5.1116  -4.6582  -3.9548  -3.5671  -0.1435   4.8925   6.9719
     8.0195

          k = 0.2000-0.6543 0.0000 (  6900 PWs)   bands (ev):

    -5.9824  -5.1204  -4.4397  -4.0188  -3.5435   0.6454   5.7497   5.9246
     8.8129

          k = 0.2000-0.6158 0.0000 (  6894 PWs)   bands (ev):

    -6.0220  -5.1237  -4.2972  -4.0601  -3.5371   1.3706   4.9912   6.5824
     9.3333

          k = 0.2000-0.5774 0.0000 (  6888 PWs)   bands (ev):

    -6.0354  -5.1243  -4.2470  -4.0744  -3.5372   1.7212   4.5685   7.0527
     8.8260

          k = 0.2333 0.4041 0.0000 (  6890 PWs)   bands (ev):

    -5.6663  -5.1452  -5.0735  -3.8969  -3.6170  -0.8815   4.0434   6.9305
     7.7161

          k = 0.2333-0.7121 0.0000 (  6888 PWs)   bands (ev):

    -5.6993  -5.0690  -4.9458  -4.0072  -3.5706  -0.1140   4.8409   7.5574
     8.1597

          k = 0.2333-0.6736 0.0000 (  6898 PWs)   bands (ev):

    -5.7481  -5.0541  -4.7554  -4.1048  -3.5441   0.7113   5.6882   6.7476
     8.4885

          k = 0.2333-0.6351 0.0000 (  6912 PWs)   bands (ev):

    -5.7871  -5.0359  -4.6104  -4.1795  -3.5336   1.5477   5.6599   6.5586
     8.6811

          k = 0.2333-0.5966 0.0000 (  6916 PWs)   bands (ev):

    -5.8080  -5.0234  -4.5317  -4.2208  -3.5318   2.2214   4.8516   7.3174
     8.6605

          k = 0.2667-0.6928 0.0000 (  6892 PWs)   bands (ev):

    -5.6219  -5.0277  -4.9092  -4.1380  -3.5443   0.7315   5.6669   7.4699
     7.8825

          k = 0.2667-0.6543 0.0000 (  6906 PWs)   bands (ev):

    -5.5912  -4.9764  -4.8462  -4.2557  -3.5320   1.6224   6.4311   6.5367
     7.7161

          k = 0.2667-0.6158 0.0000 (  6926 PWs)   bands (ev):

    -5.5841  -4.9292  -4.7907  -4.3438  -3.5285   2.4923   5.4005   7.3988
     7.6067

          k = 0.2667-0.5774 0.0000 (  6930 PWs)   bands (ev):

    -5.5835  -4.9087  -4.7691  -4.3781  -3.5282   2.9849   4.8498   7.5689
     7.9136

          k = 0.3000-0.6351 0.0000 (  6918 PWs)   bands (ev):

    -5.4609  -4.9257  -4.8852  -4.3976  -3.5274   2.5710   5.8578   6.9916
     7.4133

          k = 0.3000-0.5966 0.0000 (  6936 PWs)   bands (ev):

    -5.3790  -4.9798  -4.8030  -4.5058  -3.5265   3.4553   5.0354   6.7419
     8.1907

          k = 0.3333-0.5774 0.0000 (  6942 PWs)   bands (ev):

    -5.1765  -5.1765  -4.6605  -4.6605  -3.5260   4.3639   4.3639   6.4137
     8.5981

     the Fermi energy is    -3.5213 ev

!    total energy              =    -161.92115467 Ry
     total all-electron energy =     -2786.764831 Ry
     estimated scf accuracy    <       0.00000022 Ry
     smearing contrib. (-TS)   =      -0.00286050 Ry
     internal energy E=F+TS    =    -161.91829418 Ry

     The total energy is F=E-TS. E is the sum of the following terms:
     one-electron contribution =    -301.59335091 Ry
     hartree contribution      =     158.31651166 Ry
     xc contribution           =     -32.43854344 Ry
     ewald contribution        =     100.34494294 Ry
     DFT-D3 Dispersion         =      -0.00687431 Ry
     one-center paw contrib.   =     -86.54098011 Ry

     convergence has been achieved in   7 iterations

     negative rho (up, down):  6.752E-06 0.000E+00

     Forces acting on atoms (cartesian axes, Ry/au):

     atom    1 type  1   force =     0.00000000    0.00000000    0.00000000
     The non-local contrib.  to forces
     atom    1 type  1   force =     0.00000000    0.00000000    0.00000000
     The ionic contribution  to forces
     atom    1 type  1   force =     0.00000000    0.00000000   -0.00000000
     The local contribution  to forces
     atom    1 type  1   force =    -0.00000000   -0.00000000    0.00000000
     The core correction contribution to forces
     atom    1 type  1   force =    -0.00000000   -0.00000000    0.00000000
     The Hubbard contrib.    to forces
     atom    1 type  1   force =     0.00000000    0.00000000    0.00000000
     The SCF correction term to forces
     atom    1 type  1   force =     0.00000000   -0.00000000    0.00000000

     DFT-D3 dispersion contribution to forces:
     atom    1 type  1   force =     0.00000000    0.00000000    0.00000000

     Total force =     0.000000     Total SCF correction =     0.000000


     Computing stress (Cartesian axis) and pressure


     negative rho (up, down):  6.752E-06 0.000E+00
          total   stress  (Ry/bohr**3)                   (kbar)     P=      -26.76
  -0.00026873   0.00000000   0.00000000          -39.53        0.00        0.00
   0.00000000  -0.00026873   0.00000000            0.00      -39.53        0.00
   0.00000000   0.00000000  -0.00000824            0.00        0.00       -1.21


     Writing all to output data dir ./tmp/scf.save/
 
     init_run     :      2.44s CPU      2.88s WALL (       1 calls)
     electrons    :     30.66s CPU     33.48s WALL (       1 calls)
     forces       :      0.47s CPU      0.61s WALL (       1 calls)
     force_dftd3  :      0.01s CPU      0.01s WALL (       1 calls)
     stress       :      1.75s CPU      2.15s WALL (       1 calls)
     stres_dftd3  :      0.01s CPU      0.01s WALL (       1 calls)

     Called by init_run:
     wfcinit      :      1.36s CPU      1.40s WALL (       1 calls)
     potinit      :      0.45s CPU      0.65s WALL (       1 calls)
     hinit0       :      0.32s CPU      0.35s WALL (       1 calls)

     Called by electrons:
     c_bands      :     23.23s CPU     24.39s WALL (       7 calls)
     sum_band     :      5.40s CPU      6.24s WALL (       7 calls)
     v_of_rho     :      0.57s CPU      0.66s WALL (       8 calls)
     newd         :      1.22s CPU      2.13s WALL (       8 calls)
     PAW_pot      :      0.68s CPU      0.84s WALL (       8 calls)
     mix_rho      :      0.07s CPU      0.07s WALL (       7 calls)
     energy_dftd3 :      0.01s CPU      0.01s WALL (       1 calls)

     Called by c_bands:
     init_us_2    :      0.54s CPU      0.55s WALL (    1547 calls)
     init_us_2:cp :      0.54s CPU      0.55s WALL (    1547 calls)
     cegterg      :     21.60s CPU     22.73s WALL (     637 calls)

     Called by *egterg:
     cdiaghg      :      0.52s CPU      0.53s WALL (    3199 calls)
     h_psi        :     20.16s CPU     21.28s WALL (    3290 calls)
     s_psi        :      0.16s CPU      0.17s WALL (    3290 calls)
     g_psi        :      0.06s CPU      0.06s WALL (    2562 calls)

     Called by h_psi:
     h_psi:calbec :      0.76s CPU      0.78s WALL (    3290 calls)
     vloc_psi     :     18.96s CPU     20.06s WALL (    3290 calls)
     add_vuspsi   :      0.27s CPU      0.28s WALL (    3290 calls)

     General routines
     calbec       :      1.00s CPU      1.03s WALL (    4382 calls)
     fft          :      0.45s CPU      0.53s WALL (     127 calls)
     ffts         :      0.01s CPU      0.01s WALL (      15 calls)
     fftw         :     11.50s CPU     12.42s WALL (   38997 calls)
     interpolate  :      0.04s CPU      0.04s WALL (       8 calls)
 
     Parallel routines
 
     PWSCF        :     35.56s CPU     39.57s WALL

 
   This run was terminated on:  12: 2: 8  14Jul2025            

=------------------------------------------------------------------------------=
   JOB DONE.
=------------------------------------------------------------------------------=
