
     Program PWSCF v.7.2 starts on 14Jul2025 at 12: 1:29 

     This program is part of the open-source Quantum ESPRESSO suite
     for quantum simulation of materials; please cite
         "P. Giannozzi et al., J. Phys.:Condens. Matter 21 395502 (2009);
         "P. Giannozzi et al., J. Phys.:Condens. Matter 29 465901 (2017);
         "P. Giannozzi et al., J. Chem. Phys. 152 154105 (2020);
          URL http://www.quantum-espresso.org", 
     in publications or presentations arising from this work. More details at
     http://www.quantum-espresso.org/quote

     Parallel version (MPI), running on     4 processors

     MPI processes distributed on     1 nodes
     28108 MiB available memory on the printing compute node when the environment starts
 
     Waiting for input...
     Reading input from standard input

     Current dimensions of program PWSCF are:
     Max number of different atomic species (ntypx) = 10
     Max number of k-points (npk) =  40000
     Max angular momentum in pseudopotentials (lmaxx) =  4
     file Co.pbe-n-kjpaw_psl.1.0.0.UPF: wavefunction(s)  4S 3D renormalized
     Message from routine setup:
     using ibrav=0 with symmetry is DISCOURAGED, use correct ibrav instead
 
     R & G space division:  proc/nbgrp/npool/nimage =       4
     Subspace diagonalization in iterative solution of the eigenvalue problem:
     a serial algorithm will be used

 
     Parallelization info
     --------------------
     sticks:   dense  smooth     PW     G-vecs:    dense   smooth      PW
     Min         256     105     30                54348    13761    2388
     Max         257     106     31                54377    13776    2427
     Sum        1027     421    121               217477    55065    9605
 
     Using Slab Decomposition
 


     bravais-lattice index     =            0
     lattice parameter (alat)  =       4.6068  a.u.
     unit-cell volume          =     694.6297 (a.u.)^3
     number of atoms/cell      =            1
     number of atomic types    =            1
     number of electrons       =         9.00
     number of Kohn-Sham states=            9
     kinetic-energy cutoff     =      70.0000  Ry
     charge density cutoff     =     700.0000  Ry
     scf convergence threshold =      1.0E-06
     mixing beta               =       0.7000
     number of iterations used =            8  plain     mixing
     Exchange-correlation= SLA  PW   PBX  PBC
                           (   1   4   3   4   0   0   0)

     celldm(1)=   4.606774  celldm(2)=   0.000000  celldm(3)=   0.000000
     celldm(4)=   0.000000  celldm(5)=   0.000000  celldm(6)=   0.000000

     crystal axes: (cart. coord. in units of alat)
               a(1) = (   1.000000   0.000000   0.000000 )  
               a(2) = (   0.500000   0.866025   0.000000 )  
               a(3) = (   0.000000   0.000000   8.204118 )  

     reciprocal axes: (cart. coord. in units 2 pi/alat)
               b(1) = (  1.000000 -0.577350  0.000000 )  
               b(2) = (  0.000000  1.154701  0.000000 )  
               b(3) = (  0.000000  0.000000  0.121890 )  


     PseudoPot. # 1 for Co read from file:
     /shared/ESPRESSO/PSLIBRARY/1.0.0/pbe/PSEUDOPOTENTIALS/Co.pbe-n-kjpaw_psl.1.0.0.UPF
     MD5 check sum: 17e7ab8db721b244d1352252ea6cb8e7
     Pseudo is Projector augmented-wave + core cor, Zval =  9.0
     Generated using "atomic" code by A. Dal Corso  (Quantum ESPRESSO distribution)
     Shape of augmentation charge: PSQ
     Using radial grid of 1193 points,  6 beta functions with: 
                l(1) =   0
                l(2) =   0
                l(3) =   1
                l(4) =   1
                l(5) =   2
                l(6) =   2
     Q(r) pseudized with 0 coefficients 


     atomic species   valence    mass     pseudopotential
        Co             9.00    58.93320     Co( 1.00)

     24 Sym. Ops., with inversion, found



   Cartesian axes

     site n.     atom                  positions (alat units)
         1           Co  tau(   1) = (   0.0000000   0.0000000   4.1020592  )

     --------------------------------------------
     DFT-D3 Dispersion Correction (3-body terms):
     --------------------------------------------
       Reference C6 values for interpolation: 

         atom   Coordination number   C6
         Co         0.000          1065.56
         Co         1.715           373.09
         Co         2.926           296.13
         Co         7.779           236.57

       Values used:

         atom   Coordination number  R0_AB[au]  C6      C8
         Co         4.930            3.243    296.13  26037.62

         Molecular C6 ( Ry / a.u.^6 ) =       296.13


     number of k points=    75  Gaussian smearing, width (Ry)=  0.0073
                       cart. coord. in units 2pi/alat
        k(    1) = (   0.0000000   0.0000000   0.0000000), wk =   0.0027435
        k(    2) = (   0.0000000   0.0427667   0.0000000), wk =   0.0164609
        k(    3) = (   0.0000000   0.0855334   0.0000000), wk =   0.0164609
        k(    4) = (   0.0000000   0.1283001   0.0000000), wk =   0.0164609
        k(    5) = (   0.0000000   0.1710667   0.0000000), wk =   0.0164609
        k(    6) = (   0.0000000   0.2138334   0.0000000), wk =   0.0164609
        k(    7) = (   0.0000000   0.2566001   0.0000000), wk =   0.0164609
        k(    8) = (   0.0000000   0.2993668   0.0000000), wk =   0.0164609
        k(    9) = (   0.0000000   0.3421335   0.0000000), wk =   0.0164609
        k(   10) = (   0.0000000   0.3849002   0.0000000), wk =   0.0164609
        k(   11) = (   0.0000000   0.4276669   0.0000000), wk =   0.0164609
        k(   12) = (   0.0000000   0.4704336   0.0000000), wk =   0.0164609
        k(   13) = (   0.0000000   0.5132002   0.0000000), wk =   0.0164609
        k(   14) = (   0.0000000   0.5559669   0.0000000), wk =   0.0164609
        k(   15) = (   0.0370370   0.0641500   0.0000000), wk =   0.0164609
        k(   16) = (   0.0370370   0.1069167   0.0000000), wk =   0.0329218
        k(   17) = (   0.0370370   0.1496834   0.0000000), wk =   0.0329218
        k(   18) = (   0.0370370   0.1924501   0.0000000), wk =   0.0329218
        k(   19) = (   0.0370370   0.2352168   0.0000000), wk =   0.0329218
        k(   20) = (   0.0370370   0.2779835   0.0000000), wk =   0.0329218
        k(   21) = (   0.0370370   0.3207501   0.0000000), wk =   0.0329218
        k(   22) = (   0.0370370   0.3635168   0.0000000), wk =   0.0329218
        k(   23) = (   0.0370370   0.4062835   0.0000000), wk =   0.0329218
        k(   24) = (   0.0370370   0.4490502   0.0000000), wk =   0.0329218
        k(   25) = (   0.0370370   0.4918169   0.0000000), wk =   0.0329218
        k(   26) = (   0.0370370   0.5345836   0.0000000), wk =   0.0329218
        k(   27) = (   0.0370370  -0.5773503   0.0000000), wk =   0.0164609
        k(   28) = (   0.0740741   0.1283001   0.0000000), wk =   0.0164609
        k(   29) = (   0.0740741   0.1710667   0.0000000), wk =   0.0329218
        k(   30) = (   0.0740741   0.2138334   0.0000000), wk =   0.0329218
        k(   31) = (   0.0740741   0.2566001   0.0000000), wk =   0.0329218
        k(   32) = (   0.0740741   0.2993668   0.0000000), wk =   0.0329218
        k(   33) = (   0.0740741   0.3421335   0.0000000), wk =   0.0329218
        k(   34) = (   0.0740741   0.3849002   0.0000000), wk =   0.0329218
        k(   35) = (   0.0740741   0.4276669   0.0000000), wk =   0.0329218
        k(   36) = (   0.0740741   0.4704336   0.0000000), wk =   0.0329218
        k(   37) = (   0.0740741   0.5132002   0.0000000), wk =   0.0329218
        k(   38) = (   0.0740741  -0.5987336   0.0000000), wk =   0.0329218
        k(   39) = (   0.1111111   0.1924501   0.0000000), wk =   0.0164609
        k(   40) = (   0.1111111   0.2352168   0.0000000), wk =   0.0329218
        k(   41) = (   0.1111111   0.2779835   0.0000000), wk =   0.0329218
        k(   42) = (   0.1111111   0.3207501   0.0000000), wk =   0.0329218
        k(   43) = (   0.1111111   0.3635168   0.0000000), wk =   0.0329218
        k(   44) = (   0.1111111   0.4062835   0.0000000), wk =   0.0329218
        k(   45) = (   0.1111111   0.4490502   0.0000000), wk =   0.0329218
        k(   46) = (   0.1111111   0.4918169   0.0000000), wk =   0.0329218
        k(   47) = (   0.1111111  -0.6201170   0.0000000), wk =   0.0329218
        k(   48) = (   0.1111111  -0.5773503   0.0000000), wk =   0.0164609
        k(   49) = (   0.1481481   0.2566001   0.0000000), wk =   0.0164609
        k(   50) = (   0.1481481   0.2993668   0.0000000), wk =   0.0329218
        k(   51) = (   0.1481481   0.3421335   0.0000000), wk =   0.0329218
        k(   52) = (   0.1481481   0.3849002   0.0000000), wk =   0.0329218
        k(   53) = (   0.1481481   0.4276669   0.0000000), wk =   0.0329218
        k(   54) = (   0.1481481   0.4704336   0.0000000), wk =   0.0329218
        k(   55) = (   0.1481481  -0.6415003   0.0000000), wk =   0.0329218
        k(   56) = (   0.1481481  -0.5987336   0.0000000), wk =   0.0329218
        k(   57) = (   0.1851852   0.3207501   0.0000000), wk =   0.0164609
        k(   58) = (   0.1851852   0.3635168   0.0000000), wk =   0.0329218
        k(   59) = (   0.1851852   0.4062835   0.0000000), wk =   0.0329218
        k(   60) = (   0.1851852   0.4490502   0.0000000), wk =   0.0329218
        k(   61) = (   0.1851852  -0.6628836   0.0000000), wk =   0.0329218
        k(   62) = (   0.1851852  -0.6201170   0.0000000), wk =   0.0329218
        k(   63) = (   0.1851852  -0.5773503   0.0000000), wk =   0.0164609
        k(   64) = (   0.2222222   0.3849002   0.0000000), wk =   0.0164609
        k(   65) = (   0.2222222   0.4276669   0.0000000), wk =   0.0329218
        k(   66) = (   0.2222222  -0.6842670   0.0000000), wk =   0.0329218
        k(   67) = (   0.2222222  -0.6415003   0.0000000), wk =   0.0329218
        k(   68) = (   0.2222222  -0.5987336   0.0000000), wk =   0.0329218
        k(   69) = (   0.2592593  -0.7056503   0.0000000), wk =   0.0164609
        k(   70) = (   0.2592593  -0.6628836   0.0000000), wk =   0.0329218
        k(   71) = (   0.2592593  -0.6201170   0.0000000), wk =   0.0329218
        k(   72) = (   0.2592593  -0.5773503   0.0000000), wk =   0.0164609
        k(   73) = (   0.2962963  -0.6415003   0.0000000), wk =   0.0164609
        k(   74) = (   0.2962963  -0.5987336   0.0000000), wk =   0.0329218
        k(   75) = (   0.3333333  -0.5773503   0.0000000), wk =   0.0054870

     Dense  grid:   217477 G-vectors     FFT dimensions: (  40,  40, 320)

     Smooth grid:    55065 G-vectors     FFT dimensions: (  25,  25, 216)

     Estimated max dynamical RAM per process >     218.38 MB

     Estimated total dynamical RAM >     873.51 MB

     Initial potential from superposition of free atoms

     starting charge       8.9997, renormalised to       9.0000

     negative rho (up, down):  1.684E-05 0.000E+00
     Starting wfcs are    9 randomized atomic wfcs
     Checking if some PAW data can be deallocated... 

     total cpu time spent up to now is        2.7 secs

     Self-consistent Calculation

     iteration #  1     ecut=    70.00 Ry     beta= 0.70
     Davidson diagonalization with overlap
     ethr =  1.00E-02,  avg # of iterations =  5.4

     negative rho (up, down):  1.219E-06 0.000E+00

     total cpu time spent up to now is        9.3 secs

     total energy              =    -161.83880234 Ry
     estimated scf accuracy    <       0.13890676 Ry

     iteration #  2     ecut=    70.00 Ry     beta= 0.70
     Davidson diagonalization with overlap
     ethr =  1.54E-03,  avg # of iterations =  3.7

     negative rho (up, down):  3.996E-06 0.000E+00

     total cpu time spent up to now is       16.0 secs

     total energy              =    -161.74270199 Ry
     estimated scf accuracy    <       1.40334717 Ry

     iteration #  3     ecut=    70.00 Ry     beta= 0.70
     Davidson diagonalization with overlap
     ethr =  1.54E-03,  avg # of iterations =  2.0

     negative rho (up, down):  1.352E-06 0.000E+00

     total cpu time spent up to now is       21.8 secs

     total energy              =    -161.92047420 Ry
     estimated scf accuracy    <       0.00246062 Ry

     iteration #  4     ecut=    70.00 Ry     beta= 0.70
     Davidson diagonalization with overlap
     ethr =  2.73E-05,  avg # of iterations =  7.9

     negative rho (up, down):  3.349E-06 0.000E+00

     total cpu time spent up to now is       29.7 secs

     total energy              =    -161.92106832 Ry
     estimated scf accuracy    <       0.00011692 Ry

     iteration #  5     ecut=    70.00 Ry     beta= 0.70
     Davidson diagonalization with overlap
     ethr =  1.30E-06,  avg # of iterations =  5.4

     negative rho (up, down):  5.325E-06 0.000E+00

     total cpu time spent up to now is       36.3 secs

     total energy              =    -161.92109456 Ry
     estimated scf accuracy    <       0.00008208 Ry

     iteration #  6     ecut=    70.00 Ry     beta= 0.70
     Davidson diagonalization with overlap
     ethr =  9.12E-07,  avg # of iterations =  1.1

     negative rho (up, down):  6.956E-06 0.000E+00

     total cpu time spent up to now is       41.0 secs

     total energy              =    -161.92110612 Ry
     estimated scf accuracy    <       0.00000250 Ry

     iteration #  7     ecut=    70.00 Ry     beta= 0.70
     Davidson diagonalization with overlap
     ethr =  2.77E-08,  avg # of iterations =  2.2

     negative rho (up, down):  6.755E-06 0.000E+00

     total cpu time spent up to now is       45.5 secs

     End of self-consistent calculation

          k = 0.0000 0.0000 0.0000 (  6845 PWs)   bands (ev):

    -8.9895  -4.7865  -4.7143  -4.7143  -3.1539  -3.1539  -2.5301   1.6560
     2.1702

          k = 0.0000 0.0428 0.0000 (  6827 PWs)   bands (ev):

    -8.9368  -4.7703  -4.7332  -4.6899  -3.3067  -3.1590  -2.3484   1.7007
     2.2187

          k = 0.0000 0.0855 0.0000 (  6837 PWs)   bands (ev):

    -8.7803  -4.7892  -4.7205  -4.6176  -3.5788  -3.1742  -1.9886   1.8338
     2.3634

          k = 0.0000 0.1283 0.0000 (  6839 PWs)   bands (ev):

    -8.5247  -4.8716  -4.6420  -4.4999  -3.8583  -3.1986  -1.5588   2.0554
     2.6039

          k = 0.0000 0.1711 0.0000 (  6833 PWs)   bands (ev):

    -8.1801  -4.9669  -4.5373  -4.3414  -4.1248  -3.2307  -1.0746   2.3658
     2.9382

          k = 0.0000 0.2138 0.0000 (  6857 PWs)   bands (ev):

    -7.7670  -5.0491  -4.4114  -4.3723  -4.1483  -3.2688  -0.5354   2.7651
     3.3659

          k = 0.0000 0.2566 0.0000 (  6847 PWs)   bands (ev):

    -7.3281  -5.0708  -4.5981  -4.2701  -3.9287  -3.3108   0.0618   3.2532
     3.8873

          k = 0.0000 0.2994 0.0000 (  6849 PWs)   bands (ev):

    -6.9468  -4.9466  -4.8001  -4.1186  -3.6926  -3.3543   0.7206   3.8296
     4.4956

          k = 0.0000 0.3421 0.0000 (  6875 PWs)   bands (ev):

    -6.7217  -4.9765  -4.5860  -3.9558  -3.4519  -3.3971   1.4435   4.4921
     5.1998

          k = 0.0000 0.3849 0.0000 (  6878 PWs)   bands (ev):

    -6.6567  -5.1259  -4.0685  -3.7102  -3.4367  -3.2197   2.2312   5.2319
     5.9699

          k = 0.0000 0.4277 0.0000 (  6862 PWs)   bands (ev):

    -6.6771  -5.2469  -3.8033  -3.4712  -3.0690  -3.0102   3.0810   5.9814
     6.7873

          k = 0.0000 0.4704 0.0000 (  6884 PWs)   bands (ev):

    -6.7238  -5.3386  -3.6849  -3.4988  -2.8375  -2.2385   3.9818   5.8845
     7.2858

          k = 0.0000 0.5132 0.0000 (  6894 PWs)   bands (ev):

    -6.7665  -5.4001  -3.6117  -3.5180  -2.7142  -1.4415   4.8952   4.9090
     8.2116

          k = 0.0000 0.5560 0.0000 (  6896 PWs)   bands (ev):

    -6.7908  -5.4310  -3.5752  -3.5278  -2.6499  -0.9000   4.2345   5.6506
     8.1528

          k = 0.0370 0.0642 0.0000 (  6825 PWs)   bands (ev):

    -8.8322  -4.7708  -4.7383  -4.6403  -3.5032  -3.1696  -2.0933   1.7890
     2.3151

          k = 0.0370 0.1069 0.0000 (  6844 PWs)   bands (ev):

    -8.6259  -4.8417  -4.6755  -4.5426  -3.7594  -3.1903  -1.7171   1.9667
     2.5078

          k = 0.0370 0.1497 0.0000 (  6847 PWs)   bands (ev):

    -8.3248  -4.9350  -4.5840  -4.4008  -4.0198  -3.2201  -1.2712   2.2325
     2.7951

          k = 0.0370 0.1925 0.0000 (  6842 PWs)   bands (ev):

    -7.9430  -5.0317  -4.4682  -4.2683  -4.2201  -3.2571  -0.7660   2.5878
     3.1760

          k = 0.0370 0.2352 0.0000 (  6840 PWs)   bands (ev):

    -7.5093  -5.0988  -4.4987  -4.3338  -4.0066  -3.2994  -0.2017   3.0314
     3.6494

          k = 0.0370 0.2780 0.0000 (  6846 PWs)   bands (ev):

    -7.0842  -5.0737  -4.7076  -4.1868  -3.7672  -3.3446   0.4240   3.5638
     4.2144

          k = 0.0370 0.3208 0.0000 (  6857 PWs)   bands (ev):

    -6.7709  -4.8927  -4.8586  -4.0317  -3.5080  -3.3902   1.1136   4.1847
     4.8726

          k = 0.0370 0.3635 0.0000 (  6864 PWs)   bands (ev):

    -6.6352  -5.0521  -4.4169  -3.8622  -3.4339  -3.2273   1.8685   4.8878
     5.6097

          k = 0.0370 0.4063 0.0000 (  6868 PWs)   bands (ev):

    -6.6261  -5.1844  -3.9532  -3.5925  -3.4732  -2.8871   2.6879   5.6527
     6.4137

          k = 0.0370 0.4491 0.0000 (  6873 PWs)   bands (ev):

    -6.6676  -5.2884  -3.7474  -3.5062  -3.1936  -2.3555   3.5660   6.2010
     7.0729

          k = 0.0370 0.4918 0.0000 (  6893 PWs)   bands (ev):

    -6.7166  -5.3634  -3.6453  -3.5310  -2.9413  -1.6277   4.4827   5.4185
     7.7474

          k = 0.0370 0.5346 0.0000 (  6883 PWs)   bands (ev):

    -6.7521  -5.4085  -3.5880  -3.5464  -2.8109  -0.9552   4.5241   5.3605
     8.5233

          k = 0.0370-0.5774 0.0000 (  6900 PWs)   bands (ev):

    -6.7649  -5.4236  -3.5691  -3.5517  -2.7693  -0.6619   4.1521   5.8337
     8.0357

          k = 0.0741 0.1283 0.0000 (  6832 PWs)   bands (ev):

    -8.3734  -4.9262  -4.6015  -4.4166  -3.9803  -3.2182  -1.3392   2.1881
     2.7474

          k = 0.0741 0.1711 0.0000 (  6850 PWs)   bands (ev):

    -8.0322  -5.0298  -4.4998  -4.2457  -4.2079  -3.2559  -0.8841   2.4988
     3.0811

          k = 0.0741 0.2138 0.0000 (  6847 PWs)   bands (ev):

    -7.6207  -5.1300  -4.4270  -4.3754  -4.0344  -3.3011  -0.3617   2.8986
     3.5081

          k = 0.0741 0.2566 0.0000 (  6829 PWs)   bands (ev):

    -7.1782  -5.1867  -4.6303  -4.2349  -3.7864  -3.3514   0.2259   3.3871
     4.0272

          k = 0.0741 0.2994 0.0000 (  6841 PWs)   bands (ev):

    -6.7883  -5.1218  -4.8136  -4.0852  -3.5022  -3.4039   0.8793   3.9642
     4.6391

          k = 0.0741 0.3421 0.0000 (  6864 PWs)   bands (ev):

    -6.5636  -4.9741  -4.8426  -3.9318  -3.4557  -3.1743   1.5995   4.6280
     5.3373

          k = 0.0741 0.3849 0.0000 (  6867 PWs)   bands (ev):

    -6.5122  -5.1100  -4.3924  -3.7755  -3.5041  -2.7752   2.3864   5.3696
     6.1244

          k = 0.0741 0.4277 0.0000 (  6870 PWs)   bands (ev):

    -6.5459  -5.2200  -3.9649  -3.5962  -3.5463  -2.2532   3.2371   6.1239
     6.9232

          k = 0.0741 0.4704 0.0000 (  6885 PWs)   bands (ev):

    -6.6014  -5.3032  -3.7238  -3.5802  -3.3677  -1.5868   4.1410   6.0033
     7.4103

          k = 0.0741 0.5132 0.0000 (  6879 PWs)   bands (ev):

    -6.6490  -5.3589  -3.6161  -3.6039  -3.1760  -0.8720   4.9972   5.0613
     8.3445

          k = 0.0741-0.5987 0.0000 (  6891 PWs)   bands (ev):

    -6.6755  -5.3869  -3.6161  -3.5701  -3.0779  -0.3498   4.2963   5.8305
     8.2701

          k = 0.1111 0.1925 0.0000 (  6840 PWs)   bands (ev):

    -7.6582  -5.1429  -4.4005  -4.3899  -4.0404  -3.3037  -0.4153   2.8543
     3.4612

          k = 0.1111 0.2352 0.0000 (  6839 PWs)   bands (ev):

    -7.2258  -5.2504  -4.5854  -4.2601  -3.7877  -3.3605   0.1269   3.2991
     3.9352

          k = 0.1111 0.2780 0.0000 (  6833 PWs)   bands (ev):

    -6.7869  -5.3050  -4.7556  -4.1179  -3.4863  -3.4228   0.7396   3.8324
     4.4978

          k = 0.1111 0.3208 0.0000 (  6855 PWs)   bands (ev):

    -6.4551  -5.2075  -4.9070  -3.9718  -3.4869  -3.1280   1.4223   4.4543
     5.1548

          k = 0.1111 0.3635 0.0000 (  6857 PWs)   bands (ev):

    -6.3357  -5.0370  -4.8835  -3.8302  -3.5492  -2.6938   2.1744   5.1608
     5.8888

          k = 0.1111 0.4063 0.0000 (  6863 PWs)   bands (ev):

    -6.3575  -5.1442  -4.4514  -3.7008  -3.6060  -2.1553   2.9942   5.9319
     6.6927

          k = 0.1111 0.4491 0.0000 (  6875 PWs)   bands (ev):

    -6.4214  -5.2280  -4.0585  -3.6542  -3.5904  -1.4966   3.8760   6.4798
     7.3169

          k = 0.1111 0.4918 0.0000 (  6883 PWs)   bands (ev):

    -6.4834  -5.2879  -3.7723  -3.6909  -3.5034  -0.7553   4.8017   5.6251
     8.0066

          k = 0.1111-0.6201 0.0000 (  6873 PWs)   bands (ev):

    -6.5255  -5.3238  -3.7138  -3.6084  -3.4431  -0.0716   4.6744   5.6991
     8.7812

          k = 0.1111-0.5774 0.0000 (  6868 PWs)   bands (ev):

    -6.5402  -5.3358  -3.7216  -3.5578  -3.4193   0.2411   4.2671   6.1970
     8.2597

          k = 0.1481 0.2566 0.0000 (  6834 PWs)   bands (ev):

    -6.7835  -5.3706  -4.7341  -4.1291  -3.4793  -3.4314   0.6933   3.7890
     4.4528

          k = 0.1481 0.2994 0.0000 (  6850 PWs)   bands (ev):

    -6.3553  -5.4389  -4.8673  -3.9914  -3.5092  -3.1027   1.3345   4.3678
     5.0603

          k = 0.1481 0.3421 0.0000 (  6851 PWs)   bands (ev):

    -6.1054  -5.3109  -4.9820  -3.8570  -3.5891  -2.6444   2.0488   5.0343
     5.7575

          k = 0.1481 0.3849 0.0000 (  6868 PWs)   bands (ev):

    -6.1023  -5.0767  -4.9472  -3.7358  -3.6660  -2.0869   2.8346   5.7810
     6.5255

          k = 0.1481 0.4277 0.0000 (  6874 PWs)   bands (ev):

    -6.1796  -5.1511  -4.5448  -3.7352  -3.6374  -1.4191   3.6884   6.5491
     7.3419

          k = 0.1481 0.4704 0.0000 (  6870 PWs)   bands (ev):

    -6.2596  -5.2057  -4.2014  -3.7918  -3.5708  -0.6559   4.6008   6.3613
     7.7823

          k = 0.1481-0.6415 0.0000 (  6886 PWs)   bands (ev):

    -6.3197  -5.2414  -3.9470  -3.8321  -3.5423   0.1308   5.2708   5.5396
     8.7370

          k = 0.1481-0.5987 0.0000 (  6884 PWs)   bands (ev):

    -6.3515  -5.2590  -3.8530  -3.7992  -3.5466   0.7282   4.4888   6.3479
     8.6225

          k = 0.1852 0.3208 0.0000 (  6846 PWs)   bands (ev):

    -5.9247  -5.5581  -4.9613  -3.8656  -3.6051  -2.6278   2.0073   4.9917
     5.7118

          k = 0.1852 0.3635 0.0000 (  6871 PWs)   bands (ev):

    -5.7820  -5.3922  -5.0358  -3.7507  -3.7042  -2.0522   2.7556   5.7023
     6.4502

          k = 0.1852 0.4063 0.0000 (  6870 PWs)   bands (ev):

    -5.8872  -5.0912  -5.0001  -3.7998  -3.6557  -1.3701   3.5768   6.4832
     7.2462

          k = 0.1852 0.4491 0.0000 (  6882 PWs)   bands (ev):

    -5.9895  -5.1290  -4.6484  -3.8848  -3.5882  -0.5885   4.4654   7.0370
     7.7891

          k = 0.1852-0.6629 0.0000 (  6898 PWs)   bands (ev):

    -6.0684  -5.1524  -4.3704  -3.9522  -3.5515   0.2582   5.4061   6.0483
     8.5069

          k = 0.1852-0.6201 0.0000 (  6902 PWs)   bands (ev):

    -6.1177  -5.1645  -4.1865  -3.9957  -3.5413   1.0581   4.9918   6.3373
     9.2922

          k = 0.1852-0.5774 0.0000 (  6886 PWs)   bands (ev):

    -6.1345  -5.1682  -4.1204  -4.0107  -3.5419   1.4545   4.5048   6.8822
     8.7086

          k = 0.2222 0.3849 0.0000 (  6882 PWs)   bands (ev):

    -5.6607  -5.2823  -5.0681  -3.8248  -3.6612  -1.3536   3.5397   6.4530
     7.2176

          k = 0.2222 0.4277 0.0000 (  6896 PWs)   bands (ev):

    -5.7252  -5.0807  -5.0061  -3.9425  -3.5950  -0.5550   4.3975   7.2411
     8.0388

          k = 0.2222-0.6843 0.0000 (  6900 PWs)   bands (ev):

    -5.8004  -5.0785  -4.7493  -4.0471  -3.5549   0.3259   5.3206   6.9535
     8.3195

          k = 0.2222-0.6415 0.0000 (  6900 PWs)   bands (ev):

    -5.8566  -5.0687  -4.5555  -4.1274  -3.5382   1.2392   5.7436   6.2833
     8.9683

          k = 0.2222-0.5987 0.0000 (  6910 PWs)   bands (ev):

    -5.8860  -5.0604  -4.4498  -4.1717  -3.5352   1.9932   4.8205   7.1462
     9.0386

          k = 0.2593-0.7057 0.0000 (  6890 PWs)   bands (ev):

    -5.6447  -5.0486  -4.9430  -4.0845  -3.5560   0.3469   5.2914   7.8423
     7.8790

          k = 0.2593-0.6629 0.0000 (  6900 PWs)   bands (ev):

    -5.6275  -5.0022  -4.8401  -4.2131  -3.5368   1.3147   6.2461   6.6357
     7.9382

          k = 0.2593-0.6201 0.0000 (  6920 PWs)   bands (ev):

    -5.6328  -4.9568  -4.7531  -4.3094  -3.5311   2.2773   5.4590   7.2112
     7.8378

          k = 0.2593-0.5774 0.0000 (  6932 PWs)   bands (ev):

    -5.6368  -4.9367  -4.7198  -4.3468  -3.5306   2.8363   4.8239   7.7965
     7.8125

          k = 0.2963-0.6415 0.0000 (  6922 PWs)   bands (ev):

    -5.4881  -4.9147  -4.9075  -4.3704  -3.5298   2.3575   6.0288   7.0926
     7.2185

          k = 0.2963-0.5987 0.0000 (  6934 PWs)   bands (ev):

    -5.4050  -4.9616  -4.8199  -4.4902  -3.5284   3.3466   5.0860   6.8152
     8.1110

          k = 0.3333-0.5774 0.0000 (  6942 PWs)   bands (ev):

    -5.1798  -5.1798  -4.6626  -4.6626  -3.5278   4.3616   4.3616   6.4125
     8.5975

     the Fermi energy is    -3.5234 ev

!    total energy              =    -161.92110643 Ry
     total all-electron energy =     -2786.764783 Ry
     estimated scf accuracy    <       0.00000026 Ry
     smearing contrib. (-TS)   =      -0.00296135 Ry
     internal energy E=F+TS    =    -161.91814507 Ry

     The total energy is F=E-TS. E is the sum of the following terms:
     one-electron contribution =    -301.59104604 Ry
     hartree contribution      =     158.31419828 Ry
     xc contribution           =     -32.43835143 Ry
     ewald contribution        =     100.34494294 Ry
     DFT-D3 Dispersion         =      -0.00687431 Ry
     one-center paw contrib.   =     -86.54101450 Ry

     convergence has been achieved in   7 iterations

     negative rho (up, down):  6.755E-06 0.000E+00

     Forces acting on atoms (cartesian axes, Ry/au):

     atom    1 type  1   force =     0.00000000    0.00000000    0.00000000
     The non-local contrib.  to forces
     atom    1 type  1   force =     0.00000000   -0.00000000    0.00000000
     The ionic contribution  to forces
     atom    1 type  1   force =     0.00000000    0.00000000   -0.00000000
     The local contribution  to forces
     atom    1 type  1   force =    -0.00000000   -0.00000000    0.00000000
     The core correction contribution to forces
     atom    1 type  1   force =    -0.00000000   -0.00000000    0.00000000
     The Hubbard contrib.    to forces
     atom    1 type  1   force =     0.00000000    0.00000000    0.00000000
     The SCF correction term to forces
     atom    1 type  1   force =    -0.00000000    0.00000000    0.00000000

     DFT-D3 dispersion contribution to forces:
     atom    1 type  1   force =     0.00000000    0.00000000    0.00000000

     Total force =     0.000000     Total SCF correction =     0.000000


     Computing stress (Cartesian axis) and pressure


     negative rho (up, down):  6.755E-06 0.000E+00
          total   stress  (Ry/bohr**3)                   (kbar)     P=      -26.84
  -0.00026910   0.00000000  -0.00000000          -39.59        0.00       -0.00
   0.00000000  -0.00026910   0.00000000            0.00      -39.59        0.00
   0.00000000   0.00000000  -0.00000918            0.00        0.00       -1.35


     Writing all to output data dir ./tmp/scf.save/
