
     Program PWSCF v.7.2 starts on 30May2025 at 13:35:54 

     This program is part of the open-source Quantum ESPRESSO suite
     for quantum simulation of materials; please cite
         "P. Giannozzi et al., J. Phys.:Condens. Matter 21 395502 (2009);
         "P. Giannozzi et al., J. Phys.:Condens. Matter 29 465901 (2017);
         "P. Giannozzi et al., J. Chem. Phys. 152 154105 (2020);
          URL http://www.quantum-espresso.org", 
     in publications or presentations arising from this work. More details at
     http://www.quantum-espresso.org/quote

     Parallel version (MPI), running on    16 processors

     MPI processes distributed on     1 nodes
     23417 MiB available memory on the printing compute node when the environment starts
 
     Waiting for input...
     Reading input from standard input

     Current dimensions of program PWSCF are:
     Max number of different atomic species (ntypx) = 10
     Max number of k-points (npk) =  40000
     Max angular momentum in pseudopotentials (lmaxx) =  4
     file Co.pbe-n-kjpaw_psl.1.0.0.UPF: wavefunction(s)  4S 3D renormalized
     Message from routine setup:
     using ibrav=0 with symmetry is DISCOURAGED, use correct ibrav instead
 
     R & G space division:  proc/nbgrp/npool/nimage =      16
     Subspace diagonalization in iterative solution of the eigenvalue problem:
     a serial algorithm will be used

 
     Parallelization info
     --------------------
     sticks:   dense  smooth     PW     G-vecs:    dense   smooth      PW
     Min          23      23      7                  627      627     107
     Max          24      24      8                  636      636     114
     Sum         379     379    121                10137    10137    1785
 
     Using Slab Decomposition
 


     bravais-lattice index     =            0
     lattice parameter (alat)  =       4.6676  a.u.
     unit-cell volume          =     143.3333 (a.u.)^3
     number of atoms/cell      =            2
     number of atomic types    =            1
     number of electrons       =        18.00
     number of Kohn-Sham states=           13
     kinetic-energy cutoff     =      65.0000  Ry
     charge density cutoff     =     260.0000  Ry
     scf convergence threshold =      1.0E-06
     mixing beta               =       0.7000
     number of iterations used =            8  plain     mixing
     Exchange-correlation= SLA  PW   PBX  PBC
                           (   1   4   3   4   0   0   0)

     celldm(1)=   4.667624  celldm(2)=   0.000000  celldm(3)=   0.000000
     celldm(4)=   0.000000  celldm(5)=   0.000000  celldm(6)=   0.000000

     crystal axes: (cart. coord. in units of alat)
               a(1) = (   1.000000   0.000000   0.000000 )  
               a(2) = (  -0.500000   0.866025   0.000000 )  
               a(3) = (   0.000000   0.000000   1.627530 )  

     reciprocal axes: (cart. coord. in units 2 pi/alat)
               b(1) = (  1.000000  0.577350  0.000000 )  
               b(2) = (  0.000000  1.154701  0.000000 )  
               b(3) = (  0.000000  0.000000  0.614428 )  


     PseudoPot. # 1 for Co read from file:
     /shared/ESPRESSO/PSLIBRARY/1.0.0/pbe/PSEUDOPOTENTIALS/Co.pbe-n-kjpaw_psl.1.0.0.UPF
     MD5 check sum: 17e7ab8db721b244d1352252ea6cb8e7
     Pseudo is Projector augmented-wave + core cor, Zval =  9.0
     Generated using "atomic" code by A. Dal Corso  (Quantum ESPRESSO distribution)
     Shape of augmentation charge: PSQ
     Using radial grid of 1193 points,  6 beta functions with: 
                l(1) =   0
                l(2) =   0
                l(3) =   1
                l(4) =   1
                l(5) =   2
                l(6) =   2
     Q(r) pseudized with 0 coefficients 


     atomic species   valence    mass     pseudopotential
        Co             9.00    58.93320     Co( 1.00)

     24 Sym. Ops., with inversion, found (12 have fractional translation)



   Cartesian axes

     site n.     atom                  positions (alat units)
         1           Co  tau(   1) = (   0.0000000   0.0000000   0.0000000  )
         2           Co  tau(   2) = (  -0.0000000   0.5773503   0.8137652  )

     number of k points=    60  Fermi-Dirac smearing, width (Ry)=  0.0070
                       cart. coord. in units 2pi/alat
        k(    1) = (   0.0000000   0.0000000   0.0000000), wk =   0.0027435
        k(    2) = (   0.0000000   0.0000000   0.0682698), wk =   0.0054870
        k(    3) = (   0.0000000   0.0000000   0.1365395), wk =   0.0054870
        k(    4) = (   0.0000000   0.0000000   0.2048093), wk =   0.0054870
        k(    5) = (   0.0000000   0.0000000   0.2730790), wk =   0.0054870
        k(    6) = (   0.0000000   0.1283001   0.0000000), wk =   0.0164609
        k(    7) = (   0.0000000   0.1283001   0.0682698), wk =   0.0329218
        k(    8) = (   0.0000000   0.1283001   0.1365395), wk =   0.0329218
        k(    9) = (   0.0000000   0.1283001   0.2048093), wk =   0.0329218
        k(   10) = (   0.0000000   0.1283001   0.2730790), wk =   0.0329218
        k(   11) = (   0.0000000   0.2566001   0.0000000), wk =   0.0164609
        k(   12) = (   0.0000000   0.2566001   0.0682698), wk =   0.0329218
        k(   13) = (   0.0000000   0.2566001   0.1365395), wk =   0.0329218
        k(   14) = (   0.0000000   0.2566001   0.2048093), wk =   0.0329218
        k(   15) = (   0.0000000   0.2566001   0.2730790), wk =   0.0329218
        k(   16) = (   0.0000000   0.3849002   0.0000000), wk =   0.0164609
        k(   17) = (   0.0000000   0.3849002   0.0682698), wk =   0.0329218
        k(   18) = (   0.0000000   0.3849002   0.1365395), wk =   0.0329218
        k(   19) = (   0.0000000   0.3849002   0.2048093), wk =   0.0329218
        k(   20) = (   0.0000000   0.3849002   0.2730790), wk =   0.0329218
        k(   21) = (   0.0000000   0.5132002   0.0000000), wk =   0.0164609
        k(   22) = (   0.0000000   0.5132002   0.0682698), wk =   0.0329218
        k(   23) = (   0.0000000   0.5132002   0.1365395), wk =   0.0329218
        k(   24) = (   0.0000000   0.5132002   0.2048093), wk =   0.0329218
        k(   25) = (   0.0000000   0.5132002   0.2730790), wk =   0.0329218
        k(   26) = (   0.1111111   0.1924501   0.0000000), wk =   0.0164609
        k(   27) = (   0.1111111   0.1924501   0.0682698), wk =   0.0329218
        k(   28) = (   0.1111111   0.1924501   0.1365395), wk =   0.0329218
        k(   29) = (   0.1111111   0.1924501   0.2048093), wk =   0.0329218
        k(   30) = (   0.1111111   0.1924501   0.2730790), wk =   0.0329218
        k(   31) = (   0.1111111   0.3207501   0.0000000), wk =   0.0329218
        k(   32) = (   0.1111111   0.3207501   0.0682698), wk =   0.0658436
        k(   33) = (   0.1111111   0.3207501   0.1365395), wk =   0.0658436
        k(   34) = (   0.1111111   0.3207501   0.2048093), wk =   0.0658436
        k(   35) = (   0.1111111   0.3207501   0.2730790), wk =   0.0658436
        k(   36) = (   0.1111111   0.4490502   0.0000000), wk =   0.0329218
        k(   37) = (   0.1111111   0.4490502   0.0682698), wk =   0.0658436
        k(   38) = (   0.1111111   0.4490502   0.1365395), wk =   0.0658436
        k(   39) = (   0.1111111   0.4490502   0.2048093), wk =   0.0658436
        k(   40) = (   0.1111111   0.4490502   0.2730790), wk =   0.0658436
        k(   41) = (   0.1111111   0.5773503   0.0000000), wk =   0.0164609
        k(   42) = (   0.1111111   0.5773503   0.0682698), wk =   0.0329218
        k(   43) = (   0.1111111   0.5773503   0.1365395), wk =   0.0329218
        k(   44) = (   0.1111111   0.5773503   0.2048093), wk =   0.0329218
        k(   45) = (   0.1111111   0.5773503   0.2730790), wk =   0.0329218
        k(   46) = (   0.2222222   0.3849002   0.0000000), wk =   0.0164609
        k(   47) = (   0.2222222   0.3849002   0.0682698), wk =   0.0329218
        k(   48) = (   0.2222222   0.3849002   0.1365395), wk =   0.0329218
        k(   49) = (   0.2222222   0.3849002   0.2048093), wk =   0.0329218
        k(   50) = (   0.2222222   0.3849002   0.2730790), wk =   0.0329218
        k(   51) = (   0.2222222   0.5132002   0.0000000), wk =   0.0329218
        k(   52) = (   0.2222222   0.5132002   0.0682698), wk =   0.0658436
        k(   53) = (   0.2222222   0.5132002   0.1365395), wk =   0.0658436
        k(   54) = (   0.2222222   0.5132002   0.2048093), wk =   0.0658436
        k(   55) = (   0.2222222   0.5132002   0.2730790), wk =   0.0658436
        k(   56) = (   0.3333333   0.5773503   0.0000000), wk =   0.0054870
        k(   57) = (   0.3333333   0.5773503   0.0682698), wk =   0.0109739
        k(   58) = (   0.3333333   0.5773503   0.1365395), wk =   0.0109739
        k(   59) = (   0.3333333   0.5773503   0.2048093), wk =   0.0109739
        k(   60) = (   0.3333333   0.5773503   0.2730790), wk =   0.0109739

     Dense  grid:    10137 G-vectors     FFT dimensions: (  24,  24,  40)

     Estimated max dynamical RAM per process >       4.60 MB

     Estimated total dynamical RAM >      73.65 MB

     Initial potential from superposition of free atoms

     starting charge      17.9994, renormalised to      18.0000
     Starting wfcs are   18 randomized atomic wfcs
     Checking if some PAW data can be deallocated... 

     total cpu time spent up to now is        0.4 secs

     Self-consistent Calculation

     iteration #  1     ecut=    65.00 Ry     beta= 0.70
     Davidson diagonalization with overlap
     ethr =  1.00E-02,  avg # of iterations =  2.3

     Threshold (ethr) on eigenvalues was too large:
     Diagonalizing with lowered threshold

     Davidson diagonalization with overlap
     c_bands:  1 eigenvalues not converged
     ethr =  3.34E-05,  avg # of iterations =  7.3

     total cpu time spent up to now is        1.0 secs

     total energy              =    -324.07980629 Ry
     estimated scf accuracy    <       0.02407715 Ry

     iteration #  2     ecut=    65.00 Ry     beta= 0.70
     Davidson diagonalization with overlap
     ethr =  1.34E-04,  avg # of iterations =  2.3

     total cpu time spent up to now is        1.2 secs

     total energy              =    -324.08065698 Ry
     estimated scf accuracy    <       0.06400709 Ry

     iteration #  3     ecut=    65.00 Ry     beta= 0.70
     Davidson diagonalization with overlap
     ethr =  1.34E-04,  avg # of iterations =  2.0

     total cpu time spent up to now is        1.4 secs

     total energy              =    -324.09179838 Ry
     estimated scf accuracy    <       0.00005684 Ry

     iteration #  4     ecut=    65.00 Ry     beta= 0.70
     Davidson diagonalization with overlap
     c_bands:  1 eigenvalues not converged
     ethr =  3.16E-07,  avg # of iterations =  6.2

     total cpu time spent up to now is        1.8 secs

     total energy              =    -324.09187766 Ry
     estimated scf accuracy    <       0.00015404 Ry

     iteration #  5     ecut=    65.00 Ry     beta= 0.70
     Davidson diagonalization with overlap
     ethr =  3.16E-07,  avg # of iterations =  2.1

     total cpu time spent up to now is        2.1 secs

     total energy              =    -324.09189528 Ry
     estimated scf accuracy    <       0.00000305 Ry

     iteration #  6     ecut=    65.00 Ry     beta= 0.70
     Davidson diagonalization with overlap
     ethr =  1.69E-08,  avg # of iterations =  3.6

     total cpu time spent up to now is        2.3 secs

     total energy              =    -324.09189672 Ry
     estimated scf accuracy    <       0.00000683 Ry

     iteration #  7     ecut=    65.00 Ry     beta= 0.70
     Davidson diagonalization with overlap
     ethr =  1.69E-08,  avg # of iterations =  2.0

     total cpu time spent up to now is        2.5 secs

     End of self-consistent calculation

          k = 0.0000 0.0000 0.0000 (  1261 PWs)   bands (ev):

     5.1593   9.4722  12.3886  12.4633  12.4633  12.8069  12.8069  13.2244
    13.2244  14.0121  14.4014  14.4014  21.1807

          k = 0.0000 0.0000 0.0683 (  1261 PWs)   bands (ev):

     5.2845   9.4171  12.3514  12.4293  12.4293  12.7704  12.7704  13.3062
    13.3062  13.6062  14.3947  14.3947  21.8624

          k = 0.0000 0.0000 0.1365 (  1249 PWs)   bands (ev):

     5.6541   9.1941  12.2489  12.3712  12.3712  12.6753  12.6753  12.8056
    13.5012  13.5012  14.3641  14.3641  23.5421

          k = 0.0000 0.0000 0.2048 (  1232 PWs)   bands (ev):

     6.2478   8.6789  12.1089  12.1941  12.3439  12.3439  12.5548  12.5548
    13.7370  13.7370  14.2888  14.2888  25.7412

          k = 0.0000 0.0000 0.2731 (  1244 PWs)   bands (ev):

     7.0222   7.8886  11.9619  11.9831  12.3683  12.3683  12.4436  12.4436
    13.9655  13.9655  14.1553  14.1553  28.2188

          k = 0.0000 0.1283 0.0000 (  1263 PWs)   bands (ev):

     5.5968   9.7510  12.0821  12.5894  12.6428  12.6818  12.7604  13.0006
    13.0891  13.1876  14.4562  16.1409  21.2359

          k = 0.0000 0.1283 0.0683 (  1259 PWs)   bands (ev):

     5.7188   9.7087  12.0882  12.3556  12.5562  12.6261  12.8312  12.9523
    13.2079  13.2704  14.4431  15.7762  21.9919

          k = 0.0000 0.1283 0.1365 (  1256 PWs)   bands (ev):

     6.0787   9.5153  11.9861  12.1139  12.3363  12.5479  12.7833  12.8545
    13.4350  13.4861  14.3958  15.1628  23.7620

          k = 0.0000 0.1283 0.2048 (  1244 PWs)   bands (ev):

     6.6564   9.0241  11.7200  12.0830  12.1818  12.5155  12.6243  12.7334
    13.6899  13.7615  14.2989  14.6976  26.0084

          k = 0.0000 0.1283 0.2731 (  1242 PWs)   bands (ev):

     7.4095   8.2532  11.7015  11.8559  12.2880  12.4427  12.5416  12.6201
    13.9350  14.0541  14.1438  14.3557  28.5094

          k = 0.0000 0.2566 0.0000 (  1262 PWs)   bands (ev):

     6.8274  10.3173  11.4596  11.6875  12.4260  12.7944  12.9200  13.2302
    13.2695  13.5145  14.5493  18.4127  21.4561

          k = 0.0000 0.2566 0.0683 (  1262 PWs)   bands (ev):

     6.9354  10.3140  11.3581  11.7138  12.3658  12.7888  12.8457  13.3149
    13.3538  13.4928  14.5246  17.6688  22.4788

          k = 0.0000 0.2566 0.1365 (  1263 PWs)   bands (ev):

     7.2526  10.2093  11.1748  11.7817  12.2033  12.7285  12.7944  13.3203
    13.5409  13.5959  14.4488  16.5112  24.4684

          k = 0.0000 0.2566 0.2048 (  1258 PWs)   bands (ev):

     7.7569   9.7897  11.1763  11.8230  12.0506  12.5709  12.8389  13.1994
    13.7263  13.9079  14.3209  15.5464  26.7795

          k = 0.0000 0.2566 0.2731 (  1269 PWs)   bands (ev):

     8.4053   9.1240  11.3658  11.6217  12.1608  12.3668  12.9292  13.0563
    13.9409  14.1468  14.3072  14.8317  29.1711

          k = 0.0000 0.3849 0.0000 (  1272 PWs)   bands (ev):

     8.4956  10.3751  10.7106  11.6411  12.5063  12.5134  12.6393  14.0030
    14.0996  14.1564  14.6119  20.9731  21.5566

          k = 0.0000 0.3849 0.0683 (  1271 PWs)   bands (ev):

     8.5559  10.3799  10.7152  11.6021  12.4364  12.5505  12.7922  14.0162
    14.0794  14.1086  14.5841  19.4736  23.0660

          k = 0.0000 0.3849 0.1365 (  1263 PWs)   bands (ev):

     8.7298  10.3029  10.7751  11.5598  12.3838  12.6798  13.0092  13.9478
    14.0615  14.0725  14.5136  17.8927  24.2373

          k = 0.0000 0.3849 0.2048 (  1264 PWs)   bands (ev):

     8.9983  10.0497  10.9466  11.5229  12.4437  12.8837  13.0891  13.7163
    14.1399  14.2087  14.4228  16.5394  24.9127

          k = 0.0000 0.3849 0.2731 (  1259 PWs)   bands (ev):

     9.3333   9.6999  11.1746  11.3898  12.6626  12.9328  13.1440  13.4337
    14.2276  14.3247  14.6769  15.4592  25.6217

          k = 0.0000 0.5132 0.0000 (  1266 PWs)   bands (ev):

     9.6782  10.0978  10.3433  11.9590  12.3350  12.4603  12.7838  14.4997
    14.6381  14.6488  15.5845  19.0508  23.5753

          k = 0.0000 0.5132 0.0683 (  1268 PWs)   bands (ev):

     9.6022  10.0823  10.5420  11.5858  12.3908  12.7717  12.9434  14.4728
    14.5547  14.6753  15.4876  18.8383  22.9351

          k = 0.0000 0.5132 0.1365 (  1268 PWs)   bands (ev):

     9.5041  10.0775  10.8477  11.2373  12.5544  12.7871  13.6840  14.2562
    14.5428  14.6705  15.1972  18.2076  22.3722

          k = 0.0000 0.5132 0.2048 (  1270 PWs)   bands (ev):

     9.4930   9.9734  10.9403  11.2385  12.8143  12.9874  13.9180  14.4968
    14.5639  14.6503  14.7288  17.2991  22.2611

          k = 0.0000 0.5132 0.2731 (  1269 PWs)   bands (ev):

     9.5877   9.7695  11.0561  11.2035  13.1503  13.4734  13.5320  14.1096
    14.5923  14.6226  15.3847  16.3228  22.4965

          k = 0.1111 0.1925 0.0000 (  1262 PWs)   bands (ev):

     6.4352  10.2056  11.7229  11.7550  12.5238  12.7222  12.9299  13.1240
    13.1400  13.4350  14.5008  17.7815  21.3867

          k = 0.1111 0.1925 0.0683 (  1260 PWs)   bands (ev):

     6.5489  10.1913  11.6181  11.7431  12.5596  12.5662  12.9479  13.0643
    13.3277  13.4351  14.4832  17.1638  22.3122

          k = 0.1111 0.1925 0.1365 (  1260 PWs)   bands (ev):

     6.8839  10.0605  11.3659  11.8048  12.3066  12.5998  12.8093  13.1362
    13.5286  13.5469  14.4252  16.1521  24.2397

          k = 0.1111 0.1925 0.2048 (  1262 PWs)   bands (ev):

     7.4194   9.6106  11.2929  11.8824  12.0585  12.4934  12.7898  13.0557
    13.7400  13.8319  14.3197  15.3132  26.5498

          k = 0.1111 0.1925 0.2731 (  1274 PWs)   bands (ev):

     8.1137   8.8906  11.4440  11.6959  12.1161  12.3044  12.8477  12.9432
    13.9529  14.1212  14.2513  14.6949  29.0644

          k = 0.1111 0.3208 0.0000 (  1277 PWs)   bands (ev):

     7.9295  10.6138  10.9868  11.3858  12.3933  12.4428  12.8974  13.3732
    13.8430  14.2013  14.5395  20.0766  21.7885

          k = 0.1111 0.3208 0.0683 (  1267 PWs)   bands (ev):

     8.0169  10.6435  10.9147  11.4212  12.2918  12.5391  12.8454  13.4036
    13.8959  14.1321  14.5497  18.9572  23.1218

          k = 0.1111 0.3208 0.1365 (  1263 PWs)   bands (ev):

     8.2709  10.5620  10.8737  11.5107  12.1584  12.5979  12.7754  13.4944
    13.9942  14.0226  14.5479  17.5026  25.1927

          k = 0.1111 0.3208 0.2048 (  1267 PWs)   bands (ev):

     8.6661  10.1848  11.0567  11.6059  12.0274  12.4522  12.8834  13.4997
    14.0305  14.1817  14.5146  16.2638  27.0615

          k = 0.1111 0.3208 0.2731 (  1267 PWs)   bands (ev):

     9.1588   9.6888  11.3049  11.5381  12.0518  12.2403  13.0744  13.3019
    14.2521  14.3481  14.6229  15.2923  27.9461

          k = 0.1111 0.4491 0.0000 (  1266 PWs)   bands (ev):

     9.4651  10.3985  10.5121  11.5309  12.2305  12.5788  12.6994  14.0586
    14.4352  14.5609  15.2765  20.8911  22.6966

          k = 0.1111 0.4491 0.0683 (  1273 PWs)   bands (ev):

     9.4669  10.3947  10.5941  11.4503  12.2766  12.6425  12.7418  14.0433
    14.4584  14.4688  15.2843  20.1616  22.6860

          k = 0.1111 0.4491 0.1365 (  1270 PWs)   bands (ev):

     9.4944  10.3543  10.7522  11.4066  12.2721  12.7543  12.9460  13.9875
    14.2408  14.5564  15.2945  18.8231  22.9085

          k = 0.1111 0.4491 0.2048 (  1270 PWs)   bands (ev):

     9.5808  10.1873  10.9450  11.4733  12.2898  12.8539  13.1567  13.7576
    14.2305  14.6525  15.3564  17.5176  23.3423

          k = 0.1111 0.4491 0.2731 (  1273 PWs)   bands (ev):

     9.7377   9.9532  11.1780  11.3937  12.5141  12.7952  13.2819  13.4757
    14.4522  14.6346  15.6827  16.4297  23.9545

          k = 0.1111 0.5774 0.0000 (  1274 PWs)   bands (ev):

    10.0674  10.1834  10.3549  11.8060  12.2308  12.3925  12.8613  14.5287
    14.5638  14.5664  16.6501  18.4517  24.6930

          k = 0.1111 0.5774 0.0683 (  1269 PWs)   bands (ev):

     9.9024  10.2098  10.6194  11.4998  12.2267  12.7307  12.8919  14.4520
    14.5231  14.5970  16.6124  18.3882  24.1850

          k = 0.1111 0.5774 0.1365 (  1273 PWs)   bands (ev):

     9.7562  10.2501  11.0292  11.1307  12.2037  13.0224  13.1837  14.1853
    14.5083  14.6480  16.5316  18.1849  23.3166

          k = 0.1111 0.5774 0.2048 (  1276 PWs)   bands (ev):

     9.7234  10.1750  11.0047  11.3306  12.2620  13.2818  13.3727  13.9127
    14.4920  14.6666  16.5463  17.8211  22.6698

          k = 0.1111 0.5774 0.2731 (  1269 PWs)   bands (ev):

     9.8042   9.9772  11.1301  11.3106  12.6001  13.0627  13.6026  13.8207
    14.4983  14.5766  16.8333  17.3263  22.2835

          k = 0.2222 0.3849 0.0000 (  1266 PWs)   bands (ev):

     9.4197  10.6477  10.8989  10.9653  12.0956  12.6655  12.6701  13.6159
    14.4385  14.4830  15.3234  22.4009  22.4205

          k = 0.2222 0.3849 0.0683 (  1273 PWs)   bands (ev):

     9.4621  10.5942  10.9870  10.9919  12.1301  12.5760  12.6852  13.6374
    14.3699  14.4832  15.3705  20.6592  24.1334

          k = 0.2222 0.3849 0.1365 (  1274 PWs)   bands (ev):

     9.5819  10.4917  11.0781  11.1731  12.1812  12.3817  12.7106  13.7135
    14.1321  14.5834  15.4678  19.0634  24.8788

          k = 0.2222 0.3849 0.2048 (  1267 PWs)   bands (ev):

     9.7593  10.3544  11.2292  11.3889  12.1412  12.1521  12.8027  13.6081
    14.1670  14.6719  15.6056  17.6880  25.4381

          k = 0.2222 0.3849 0.2731 (  1271 PWs)   bands (ev):

     9.9672  10.1750  11.4227  11.5318  11.9659  12.0312  12.9978  13.2874
    14.4872  14.6722  15.9112  16.6020  26.1346

          k = 0.2222 0.5132 0.0000 (  1272 PWs)   bands (ev):

    10.4082  10.4905  10.6527  11.2294  12.0547  12.3468  12.9514  14.0743
    14.4447  14.5473  17.0334  20.1935  23.2642

          k = 0.2222 0.5132 0.0683 (  1271 PWs)   bands (ev):

    10.2964  10.6491  10.6953  11.1945  12.0760  12.3325  12.9650  14.0824
    14.3324  14.5753  17.0967  20.1469  23.1228

          k = 0.2222 0.5132 0.1365 (  1278 PWs)   bands (ev):

    10.2257  10.7327  10.8315  11.2469  12.0171  12.3441  13.0140  14.0046
    14.1696  14.6309  17.2718  19.8968  22.6608

          k = 0.2222 0.5132 0.2048 (  1282 PWs)   bands (ev):

    10.2329  10.6127  11.0429  11.5266  11.8279  12.3301  13.0976  13.6715
    14.2730  14.6540  17.5564  19.3119  22.5427

          k = 0.2222 0.5132 0.2731 (  1281 PWs)   bands (ev):

    10.3124  10.4488  11.3001  11.5736  11.8778  12.1762  13.2087  13.3864
    14.4437  14.5923  17.9884  18.5964  22.8906

          k = 0.3333 0.5774 0.0000 (  1290 PWs)   bands (ev):

    10.5237  10.8135  10.8135  11.0572  12.1012  12.1012  13.1229  14.2656
    14.2656  14.3897  19.2346  20.0858  20.0858

          k = 0.3333 0.5774 0.0683 (  1272 PWs)   bands (ev):

    10.5643  10.8341  10.8341  11.0687  12.0766  12.0766  13.1106  14.2692
    14.2882  14.2882  19.4222  20.1137  20.1137

          k = 0.3333 0.5774 0.1365 (  1284 PWs)   bands (ev):

    10.6770  10.8881  10.8881  11.0952  12.0143  12.0143  13.0845  13.9697
    14.3434  14.3434  19.9321  20.1923  20.1923

          k = 0.3333 0.5774 0.2048 (  1284 PWs)   bands (ev):

    10.8335  10.9539  10.9539  11.1125  11.9428  11.9428  13.0767  13.6158
    14.4031  14.4031  20.3000  20.3000  20.6675

          k = 0.3333 0.5774 0.2731 (  1281 PWs)   bands (ev):

    10.9860  11.0000  11.0000  11.0845  11.8948  11.8948  13.1383  13.3175
    14.4405  14.4405  20.3848  20.3848  21.5591

     the Fermi energy is    14.2785 ev

!    total energy              =    -324.09189694 Ry
     total all-electron energy =     -5573.779249 Ry
     estimated scf accuracy    <       0.00000049 Ry
     smearing contrib. (-TS)   =      -0.01203365 Ry
     internal energy E=F+TS    =    -324.07986329 Ry

     The total energy is F=E-TS. E is the sum of the following terms:
     one-electron contribution =       0.92281031 Ry
     hartree contribution      =      25.95404613 Ry
     xc contribution           =     -65.21080285 Ry
     ewald contribution        =    -112.64113270 Ry
     one-center paw contrib.   =    -173.10478418 Ry

     convergence has been achieved in   7 iterations

     Forces acting on atoms (cartesian axes, Ry/au):

     atom    1 type  1   force =     0.00000000    0.00000000    0.00000000
     atom    2 type  1   force =     0.00000000    0.00000000    0.00000000
     The non-local contrib.  to forces
     atom    1 type  1   force =     0.00000000    0.00000000    0.00000000
     atom    2 type  1   force =     0.00000000    0.00000000    0.00000000
     The ionic contribution  to forces
     atom    1 type  1   force =    -0.00000000    0.00000000   -0.00000000
     atom    2 type  1   force =    -0.00000000    0.00000000    0.00000000
     The local contribution  to forces
     atom    1 type  1   force =    -0.00000000   -0.00000000   -0.00000000
     atom    2 type  1   force =     0.00000000   -0.00000000    0.00000000
     The core correction contribution to forces
     atom    1 type  1   force =    -0.00000000    0.00000000   -0.00000000
     atom    2 type  1   force =     0.00000000   -0.00000000   -0.00000000
     The Hubbard contrib.    to forces
     atom    1 type  1   force =     0.00000000    0.00000000    0.00000000
     atom    2 type  1   force =     0.00000000    0.00000000    0.00000000
     The SCF correction term to forces
     atom    1 type  1   force =     0.00000000   -0.00000000    0.00000000
     atom    2 type  1   force =    -0.00000000    0.00000000    0.00000000

     Total force =     0.000000     Total SCF correction =     0.000000


     Computing stress (Cartesian axis) and pressure

          total   stress  (Ry/bohr**3)                   (kbar)     P=      -44.48
  -0.00023680  -0.00000000   0.00000000          -34.83       -0.00        0.00
  -0.00000000  -0.00023680   0.00000000           -0.00      -34.83        0.00
   0.00000000   0.00000000  -0.00043343            0.00        0.00      -63.76


     Writing all to output data dir ./tmp/scf.save/
 
     init_run     :      0.14s CPU      0.19s WALL (       1 calls)
     electrons    :      1.92s CPU      2.14s WALL (       1 calls)
     forces       :      0.02s CPU      0.02s WALL (       1 calls)
     stress       :      0.06s CPU      0.06s WALL (       1 calls)

     Called by init_run:
     wfcinit      :      0.05s CPU      0.07s WALL (       1 calls)
     potinit      :      0.04s CPU      0.05s WALL (       1 calls)
     hinit0       :      0.05s CPU      0.07s WALL (       1 calls)

     Called by electrons:
     c_bands      :      1.44s CPU      1.61s WALL (       8 calls)
     sum_band     :      0.17s CPU      0.19s WALL (       8 calls)
     v_of_rho     :      0.00s CPU      0.00s WALL (       8 calls)
     newd         :      0.01s CPU      0.02s WALL (       8 calls)
     PAW_pot      :      0.32s CPU      0.36s WALL (       8 calls)
     mix_rho      :      0.00s CPU      0.00s WALL (       8 calls)

     Called by c_bands:
     init_us_2    :      0.02s CPU      0.02s WALL (    1140 calls)
     init_us_2:cp :      0.02s CPU      0.02s WALL (    1140 calls)
     cegterg      :      1.19s CPU      1.33s WALL (     480 calls)

     Called by *egterg:
     cdiaghg      :      0.27s CPU      0.30s WALL (    2092 calls)
     h_psi        :      0.85s CPU      0.96s WALL (    2212 calls)
     s_psi        :      0.02s CPU      0.02s WALL (    2212 calls)
     g_psi        :      0.00s CPU      0.00s WALL (    1672 calls)

     Called by h_psi:
     h_psi:calbec :      0.03s CPU      0.03s WALL (    2212 calls)
     vloc_psi     :      0.80s CPU      0.90s WALL (    2212 calls)
     add_vuspsi   :      0.02s CPU      0.02s WALL (    2212 calls)

     General routines
     calbec       :      0.04s CPU      0.05s WALL (    2992 calls)
     fft          :      0.04s CPU      0.06s WALL (     114 calls)
     ffts         :      0.00s CPU      0.00s WALL (       8 calls)
     fftw         :      0.86s CPU      0.97s WALL (   48094 calls)
 
     Parallel routines
 
     PWSCF        :      2.33s CPU      2.66s WALL

 
   This run was terminated on:  13:35:56  30May2025            

=------------------------------------------------------------------------------=
   JOB DONE.
=------------------------------------------------------------------------------=
