
     Program PWSCF v.7.2 starts on  5Jun2025 at 16:44: 2 

     This program is part of the open-source Quantum ESPRESSO suite
     for quantum simulation of materials; please cite
         "P. Giannozzi et al., J. Phys.:Condens. Matter 21 395502 (2009);
         "P. Giannozzi et al., J. Phys.:Condens. Matter 29 465901 (2017);
         "P. Giannozzi et al., J. Chem. Phys. 152 154105 (2020);
          URL http://www.quantum-espresso.org", 
     in publications or presentations arising from this work. More details at
     http://www.quantum-espresso.org/quote

     Parallel version (MPI), running on    16 processors

     MPI processes distributed on     1 nodes
     37807 MiB available memory on the printing compute node when the environment starts
 
     Waiting for input...
     Reading input from standard input

     Current dimensions of program PWSCF are:
     Max number of different atomic species (ntypx) = 10
     Max number of k-points (npk) =  40000
     Max angular momentum in pseudopotentials (lmaxx) =  4
     file Co.pbe-n-kjpaw_psl.1.0.0.UPF: wavefunction(s)  4S 3D renormalized
     Message from routine setup:
     using ibrav=0 with symmetry is DISCOURAGED, use correct ibrav instead
 
     R & G space division:  proc/nbgrp/npool/nimage =      16
     Subspace diagonalization in iterative solution of the eigenvalue problem:
     a serial algorithm will be used

 
     Parallelization info
     --------------------
     sticks:   dense  smooth     PW     G-vecs:    dense   smooth      PW
     Min          21      21      6                 2343     2343     410
     Max          22      22      7                 2366     2366     435
     Sum         349     349    109                37639    37639    6765
 
     Using Slab Decomposition
 


     bravais-lattice index     =            0
     lattice parameter (alat)  =       4.3842  a.u.
     unit-cell volume          =     531.2265 (a.u.)^3
     number of atoms/cell      =            2
     number of atomic types    =            1
     number of electrons       =        18.00
     number of Kohn-Sham states=           13
     kinetic-energy cutoff     =      65.0000  Ry
     charge density cutoff     =     260.0000  Ry
     scf convergence threshold =      1.0E-06
     mixing beta               =       0.7000
     number of iterations used =            8  plain     mixing
     Exchange-correlation= SLA  PW   PBX  PBC
                           (   1   4   3   4   0   0   0)

     celldm(1)=   4.384165  celldm(2)=   0.000000  celldm(3)=   0.000000
     celldm(4)=   0.000000  celldm(5)=   0.000000  celldm(6)=   0.000000

     crystal axes: (cart. coord. in units of alat)
               a(1) = (   1.000000   0.000000   0.000000 )  
               a(2) = (   0.500000   0.866025   0.000000 )  
               a(3) = (   0.000000   0.000000   7.279282 )  

     reciprocal axes: (cart. coord. in units 2 pi/alat)
               b(1) = (  1.000000 -0.577350  0.000000 )  
               b(2) = (  0.000000  1.154701  0.000000 )  
               b(3) = (  0.000000  0.000000  0.137376 )  


     PseudoPot. # 1 for Co read from file:
     /shared/ESPRESSO/PSLIBRARY/1.0.0/pbe/PSEUDOPOTENTIALS/Co.pbe-n-kjpaw_psl.1.0.0.UPF
     MD5 check sum: 17e7ab8db721b244d1352252ea6cb8e7
     Pseudo is Projector augmented-wave + core cor, Zval =  9.0
     Generated using "atomic" code by A. Dal Corso  (Quantum ESPRESSO distribution)
     Shape of augmentation charge: PSQ
     Using radial grid of 1193 points,  6 beta functions with: 
                l(1) =   0
                l(2) =   0
                l(3) =   1
                l(4) =   1
                l(5) =   2
                l(6) =   2
     Q(r) pseudized with 0 coefficients 


     atomic species   valence    mass     pseudopotential
        Co             9.00    58.93320     Co( 1.00)

     12 Sym. Ops., with inversion, found ( 6 have fractional translation)



   Cartesian axes

     site n.     atom                  positions (alat units)
         1           Co  tau(   1) = (   1.0000000   0.5773503   3.2327586  )
         2           Co  tau(   2) = (   0.0000000   0.0000000   4.0465236  )

     number of k points=    14  Fermi-Dirac smearing, width (Ry)=  0.0070
                       cart. coord. in units 2pi/alat
        k(    1) = (   0.0000000   0.0000000   0.0000000), wk =   0.0200000
        k(    2) = (   0.0000000   0.1154701   0.0000000), wk =   0.1200000
        k(    3) = (   0.0000000   0.2309401   0.0000000), wk =   0.1200000
        k(    4) = (   0.0000000   0.3464102   0.0000000), wk =   0.1200000
        k(    5) = (   0.0000000   0.4618802   0.0000000), wk =   0.1200000
        k(    6) = (   0.0000000  -0.5773503   0.0000000), wk =   0.0600000
        k(    7) = (   0.1000000   0.1732051   0.0000000), wk =   0.1200000
        k(    8) = (   0.1000000   0.2886751   0.0000000), wk =   0.2400000
        k(    9) = (   0.1000000   0.4041452   0.0000000), wk =   0.2400000
        k(   10) = (   0.1000000  -0.6350853   0.0000000), wk =   0.2400000
        k(   11) = (   0.2000000   0.3464102   0.0000000), wk =   0.1200000
        k(   12) = (   0.2000000  -0.6928203   0.0000000), wk =   0.2400000
        k(   13) = (   0.2000000  -0.5773503   0.0000000), wk =   0.1200000
        k(   14) = (   0.3000000  -0.6350853   0.0000000), wk =   0.1200000

     Dense  grid:    37639 G-vectors     FFT dimensions: (  24,  24, 180)

     Estimated max dynamical RAM per process >      10.97 MB

     Estimated total dynamical RAM >     175.51 MB

     Check: negative core charge=   -0.000002

     Initial potential from superposition of free atoms

     starting charge      17.9994, renormalised to      18.0000

     negative rho (up, down):  1.640E-04 0.000E+00
     Starting wfcs are   18 randomized atomic wfcs
     Checking if some PAW data can be deallocated... 

     total cpu time spent up to now is        0.6 secs

     Self-consistent Calculation

     iteration #  1     ecut=    65.00 Ry     beta= 0.70
     Davidson diagonalization with overlap
     ethr =  1.00E-02,  avg # of iterations =  2.5

     negative rho (up, down):  1.273E-04 0.000E+00

     total cpu time spent up to now is        0.8 secs

     total energy              =    -323.77984419 Ry
     estimated scf accuracy    <       0.31524352 Ry

     iteration #  2     ecut=    65.00 Ry     beta= 0.70
     Davidson diagonalization with overlap
     ethr =  1.75E-03,  avg # of iterations =  6.1

     total cpu time spent up to now is        1.1 secs

     total energy              =    -323.44228885 Ry
     estimated scf accuracy    <       3.37552341 Ry

     iteration #  3     ecut=    65.00 Ry     beta= 0.70
     Davidson diagonalization with overlap
     ethr =  1.75E-03,  avg # of iterations =  3.9

     total cpu time spent up to now is        1.3 secs

     total energy              =    -323.97549927 Ry
     estimated scf accuracy    <       0.03388876 Ry

     iteration #  4     ecut=    65.00 Ry     beta= 0.70
     Davidson diagonalization with overlap
     ethr =  1.88E-04,  avg # of iterations =  4.1

     total cpu time spent up to now is        1.6 secs

     total energy              =    -323.97640737 Ry
     estimated scf accuracy    <       0.01274659 Ry

     iteration #  5     ecut=    65.00 Ry     beta= 0.70
     Davidson diagonalization with overlap
     ethr =  7.08E-05,  avg # of iterations =  2.4

     total cpu time spent up to now is        1.8 secs

     total energy              =    -323.97518717 Ry
     estimated scf accuracy    <       0.00576862 Ry

     iteration #  6     ecut=    65.00 Ry     beta= 0.70
     Davidson diagonalization with overlap
     ethr =  3.20E-05,  avg # of iterations =  3.6

     negative rho (up, down):  6.888E-08 0.000E+00

     total cpu time spent up to now is        2.0 secs

     total energy              =    -323.97543817 Ry
     estimated scf accuracy    <       0.00075857 Ry

     iteration #  7     ecut=    65.00 Ry     beta= 0.70
     Davidson diagonalization with overlap
     ethr =  4.21E-06,  avg # of iterations =  5.4

     negative rho (up, down):  7.767E-04 0.000E+00

     total cpu time spent up to now is        2.2 secs

     total energy              =    -323.97548686 Ry
     estimated scf accuracy    <       0.00010974 Ry

     iteration #  8     ecut=    65.00 Ry     beta= 0.70
     Davidson diagonalization with overlap
     ethr =  6.10E-07,  avg # of iterations =  3.0

     negative rho (up, down):  2.370E-04 0.000E+00

     total cpu time spent up to now is        2.4 secs

     total energy              =    -323.97551224 Ry
     estimated scf accuracy    <       0.00001720 Ry

     iteration #  9     ecut=    65.00 Ry     beta= 0.70
     Davidson diagonalization with overlap
     ethr =  9.55E-08,  avg # of iterations =  1.6

     negative rho (up, down):  2.148E-04 0.000E+00

     total cpu time spent up to now is        2.6 secs

     End of self-consistent calculation

          k = 0.0000 0.0000 0.0000 (  4749 PWs)   bands (ev):

    -8.3596  -5.6724  -2.2306  -1.9190  -1.9190  -1.7532  -1.7532  -1.4773
    -0.2801  -0.2801   0.2273   0.4381   0.4381

          k = 0.0000 0.1155 0.0000 (  4727 PWs)   bands (ev):

    -7.9663  -5.3113  -2.2500  -2.1371  -2.0015  -1.7066  -1.5618  -1.4346
    -0.7385  -0.3541  -0.0515   0.4468   1.7454

          k = 0.0000 0.2309 0.0000 (  4726 PWs)   bands (ev):

    -6.9067  -4.4535  -2.7916  -2.4575  -2.0923  -1.6559  -1.2225  -1.0459
    -1.0282  -0.4158   0.4479   0.6024   3.4274

          k = 0.0000 0.3464 0.0000 (  4702 PWs)   bands (ev):

    -5.6878  -4.1235  -3.4762  -2.2420  -1.8803  -1.6038  -1.1305  -0.5925
    -0.2876   0.0257   0.4427   1.6748   5.4608

          k = 0.0000 0.4619 0.0000 (  4688 PWs)   bands (ev):

    -5.0627  -4.4455  -3.9611  -2.4267  -1.2591  -1.0178  -0.6734   0.2128
     0.5842   0.6086   0.6552   3.1928   7.8638

          k = 0.0000-0.5774 0.0000 (  4696 PWs)   bands (ev):

    -4.8988  -4.6563  -4.1343  -2.5184  -1.3180  -0.7388  -0.2823   0.2610
     0.8248   0.9320   2.0962   3.8569   8.7698

          k = 0.1000 0.1732 0.0000 (  4747 PWs)   bands (ev):

    -7.2320  -4.6662  -2.5279  -2.4615  -2.2190  -1.5981  -1.2403  -1.2150
    -1.0780  -0.2944   0.1365   0.6005   2.9533

          k = 0.1000 0.2887 0.0000 (  4729 PWs)   bands (ev):

    -6.0303  -3.8698  -3.1179  -2.6415  -2.3404  -1.8553  -1.1436  -0.7815
    -0.4385   0.0146   0.2660   1.3695   4.7183

          k = 0.1000 0.4041 0.0000 (  4693 PWs)   bands (ev):

    -5.0804  -4.0293  -3.6675  -2.3141  -1.7933  -1.6157  -1.1679  -0.3950
     0.0673   0.4398   1.0396   2.8728   6.9419

          k = 0.1000-0.6351 0.0000 (  4692 PWs)   bands (ev):

    -4.7537  -4.3673  -3.9765  -2.4241  -1.5252  -1.0103  -0.7529   0.1038
     0.2654   0.6292   2.6207   4.4887   8.8923

          k = 0.2000 0.3464 0.0000 (  4708 PWs)   bands (ev):

    -5.0071  -3.4054  -3.3634  -2.6946  -2.4373  -2.0392  -1.3421  -0.4528
    -0.1305   0.4040   1.1990   2.8672   6.6436

          k = 0.2000-0.6928 0.0000 (  4679 PWs)   bands (ev):

    -4.4470  -3.7049  -3.5734  -2.2967  -1.9598  -1.9063  -1.5181  -0.2184
    -0.1311   0.5709   3.0391   5.1040   9.0782

          k = 0.2000-0.5774 0.0000 (  4678 PWs)   bands (ev):

    -4.3024  -3.8696  -3.6738  -2.2405  -1.9997  -1.4975  -1.4428  -0.2019
     0.2238   0.3471   4.9148   6.0781   9.4697

          k = 0.3000-0.6351 0.0000 (  4678 PWs)   bands (ev):

    -4.0651  -3.4355  -3.3747  -2.2476  -2.1390  -1.9226  -1.8912  -0.3907
     0.0689   0.3616   5.7117   7.7004   9.2080

     the Fermi energy is     0.1165 ev

!    total energy              =    -323.97551381 Ry
     total all-electron energy =     -5573.662866 Ry
     estimated scf accuracy    <       0.00000050 Ry
     smearing contrib. (-TS)   =      -0.01084702 Ry
     internal energy E=F+TS    =    -323.96466679 Ry

     The total energy is F=E-TS. E is the sum of the following terms:
     one-electron contribution =    -806.69863786 Ry
     hartree contribution      =     420.39836383 Ry
     xc contribution           =     -65.28201713 Ry
     ewald contribution        =     300.73493348 Ry
     one-center paw contrib.   =    -173.11730912 Ry

     convergence has been achieved in   9 iterations

     negative rho (up, down):  2.148E-04 0.000E+00

     Forces acting on atoms (cartesian axes, Ry/au):

     atom    1 type  1   force =     0.00000000    0.00000000   -0.03680683
     atom    2 type  1   force =    -0.00000000    0.00000000    0.03680683
     The non-local contrib.  to forces
     atom    1 type  1   force =     0.00000000   -0.00000000   -0.05084610
     atom    2 type  1   force =     0.00000000    0.00000000    0.05084610
     The ionic contribution  to forces
     atom    1 type  1   force =     0.00000000   -0.00000000  -46.98854371
     atom    2 type  1   force =     0.00000000    0.00000000   46.98854371
     The local contribution  to forces
     atom    1 type  1   force =    -0.00000000   -0.00000000   46.97836227
     atom    2 type  1   force =     0.00000000    0.00000000  -46.97836227
     The core correction contribution to forces
     atom    1 type  1   force =    -0.00000000   -0.00000000    0.02240605
     atom    2 type  1   force =     0.00000000    0.00000000   -0.02240605
     The Hubbard contrib.    to forces
     atom    1 type  1   force =     0.00000000    0.00000000    0.00000000
     atom    2 type  1   force =     0.00000000    0.00000000    0.00000000
     The SCF correction term to forces
     atom    1 type  1   force =     0.00000000    0.00000000    0.00181466
     atom    2 type  1   force =    -0.00000000    0.00000000   -0.00181466

     Total force =     0.052053     Total SCF correction =     0.002566


     Computing stress (Cartesian axis) and pressure


     negative rho (up, down):  2.148E-04 0.000E+00
          total   stress  (Ry/bohr**3)                   (kbar)     P=       52.48
   0.00041627   0.00000000   0.00000000           61.24        0.00        0.00
   0.00000000   0.00041627   0.00000000            0.00       61.24        0.00
   0.00000000   0.00000000   0.00023781            0.00        0.00       34.98


     Writing all to output data dir ./tmp/scf.save/
 
     init_run     :      0.19s CPU      0.27s WALL (       1 calls)
     electrons    :      1.92s CPU      1.99s WALL (       1 calls)
     forces       :      0.05s CPU      0.05s WALL (       1 calls)
     stress       :      0.15s CPU      0.17s WALL (       1 calls)

     Called by init_run:
     wfcinit      :      0.04s CPU      0.04s WALL (       1 calls)
     potinit      :      0.08s CPU      0.09s WALL (       1 calls)
     hinit0       :      0.05s CPU      0.10s WALL (       1 calls)

     Called by electrons:
     c_bands      :      1.02s CPU      1.06s WALL (       9 calls)
     sum_band     :      0.23s CPU      0.25s WALL (       9 calls)
     v_of_rho     :      0.02s CPU      0.03s WALL (      10 calls)
     newd         :      0.09s CPU      0.10s WALL (      10 calls)
     PAW_pot      :      0.62s CPU      0.64s WALL (      10 calls)
     mix_rho      :      0.01s CPU      0.01s WALL (       9 calls)

     Called by c_bands:
     init_us_2    :      0.03s CPU      0.03s WALL (     294 calls)
     init_us_2:cp :      0.03s CPU      0.03s WALL (     294 calls)
     cegterg      :      0.77s CPU      0.80s WALL (     126 calls)

     Called by *egterg:
     cdiaghg      :      0.10s CPU      0.11s WALL (     583 calls)
     h_psi        :      0.59s CPU      0.62s WALL (     597 calls)
     s_psi        :      0.02s CPU      0.02s WALL (     597 calls)
     g_psi        :      0.00s CPU      0.00s WALL (     457 calls)

     Called by h_psi:
     h_psi:calbec :      0.03s CPU      0.04s WALL (     597 calls)
     vloc_psi     :      0.53s CPU      0.56s WALL (     597 calls)
     add_vuspsi   :      0.02s CPU      0.02s WALL (     597 calls)

     General routines
     calbec       :      0.05s CPU      0.05s WALL (     793 calls)
     fft          :      0.02s CPU      0.06s WALL (     135 calls)
     ffts         :      0.00s CPU      0.00s WALL (       9 calls)
     fftw         :      0.53s CPU      0.56s WALL (   10584 calls)
 
     Parallel routines
 
     PWSCF        :      2.65s CPU      2.87s WALL

 
   This run was terminated on:  16:44: 5   5Jun2025            

=------------------------------------------------------------------------------=
   JOB DONE.
=------------------------------------------------------------------------------=
