
     Program PWSCF v.7.2 starts on  5Jun2025 at 16:44:24 

     This program is part of the open-source Quantum ESPRESSO suite
     for quantum simulation of materials; please cite
         "P. Giannozzi et al., J. Phys.:Condens. Matter 21 395502 (2009);
         "P. Giannozzi et al., J. Phys.:Condens. Matter 29 465901 (2017);
         "P. Giannozzi et al., J. Chem. Phys. 152 154105 (2020);
          URL http://www.quantum-espresso.org", 
     in publications or presentations arising from this work. More details at
     http://www.quantum-espresso.org/quote

     Parallel version (MPI), running on    16 processors

     MPI processes distributed on     1 nodes
     38134 MiB available memory on the printing compute node when the environment starts
 
     Waiting for input...
     Reading input from standard input

     Current dimensions of program PWSCF are:
     Max number of different atomic species (ntypx) = 10
     Max number of k-points (npk) =  40000
     Max angular momentum in pseudopotentials (lmaxx) =  4
     file Co.pbe-n-kjpaw_psl.1.0.0.UPF: wavefunction(s)  4S 3D renormalized
     Message from routine setup:
     using ibrav=0 with symmetry is DISCOURAGED, use correct ibrav instead
 
     R & G space division:  proc/nbgrp/npool/nimage =      16
     Subspace diagonalization in iterative solution of the eigenvalue problem:
     a serial algorithm will be used

 
     Parallelization info
     --------------------
     sticks:   dense  smooth     PW     G-vecs:    dense   smooth      PW
     Min          22      22      7                 2510     2510     445
     Max          23      23      8                 2533     2533     462
     Sum         367     367    121                40455    40455    7257
 
     Using Slab Decomposition
 


     bravais-lattice index     =            0
     lattice parameter (alat)  =       4.5353  a.u.
     unit-cell volume          =     570.6860 (a.u.)^3
     number of atoms/cell      =            2
     number of atomic types    =            1
     number of electrons       =        18.00
     number of Kohn-Sham states=           13
     kinetic-energy cutoff     =      65.0000  Ry
     charge density cutoff     =     260.0000  Ry
     scf convergence threshold =      1.0E-06
     mixing beta               =       0.7000
     number of iterations used =            8  plain     mixing
     Exchange-correlation= SLA  PW   PBX  PBC
                           (   1   4   3   4   0   0   0)

     celldm(1)=   4.535343  celldm(2)=   0.000000  celldm(3)=   0.000000
     celldm(4)=   0.000000  celldm(5)=   0.000000  celldm(6)=   0.000000

     crystal axes: (cart. coord. in units of alat)
               a(1) = (   1.000000   0.000000   0.000000 )  
               a(2) = (   0.500000   0.866025   0.000000 )  
               a(3) = (   0.000000   0.000000   7.063765 )  

     reciprocal axes: (cart. coord. in units 2 pi/alat)
               b(1) = (  1.000000 -0.577350  0.000000 )  
               b(2) = (  0.000000  1.154701  0.000000 )  
               b(3) = (  0.000000  0.000000  0.141568 )  


     PseudoPot. # 1 for Co read from file:
     /shared/ESPRESSO/PSLIBRARY/1.0.0/pbe/PSEUDOPOTENTIALS/Co.pbe-n-kjpaw_psl.1.0.0.UPF
     MD5 check sum: 17e7ab8db721b244d1352252ea6cb8e7
     Pseudo is Projector augmented-wave + core cor, Zval =  9.0
     Generated using "atomic" code by A. Dal Corso  (Quantum ESPRESSO distribution)
     Shape of augmentation charge: PSQ
     Using radial grid of 1193 points,  6 beta functions with: 
                l(1) =   0
                l(2) =   0
                l(3) =   1
                l(4) =   1
                l(5) =   2
                l(6) =   2
     Q(r) pseudized with 0 coefficients 


     atomic species   valence    mass     pseudopotential
        Co             9.00    58.93320     Co( 1.00)

     12 Sym. Ops., with inversion, found ( 6 have fractional translation)



   Cartesian axes

     site n.     atom                  positions (alat units)
         1           Co  tau(   1) = (   1.0000000   0.5773503   3.1250000  )
         2           Co  tau(   2) = (   0.0000000   0.0000000   3.9387650  )

     number of k points=    14  Fermi-Dirac smearing, width (Ry)=  0.0070
                       cart. coord. in units 2pi/alat
        k(    1) = (   0.0000000   0.0000000   0.0000000), wk =   0.0200000
        k(    2) = (   0.0000000   0.1154701   0.0000000), wk =   0.1200000
        k(    3) = (   0.0000000   0.2309401   0.0000000), wk =   0.1200000
        k(    4) = (   0.0000000   0.3464102   0.0000000), wk =   0.1200000
        k(    5) = (   0.0000000   0.4618802   0.0000000), wk =   0.1200000
        k(    6) = (   0.0000000  -0.5773503   0.0000000), wk =   0.0600000
        k(    7) = (   0.1000000   0.1732051   0.0000000), wk =   0.1200000
        k(    8) = (   0.1000000   0.2886751   0.0000000), wk =   0.2400000
        k(    9) = (   0.1000000   0.4041452   0.0000000), wk =   0.2400000
        k(   10) = (   0.1000000  -0.6350853   0.0000000), wk =   0.2400000
        k(   11) = (   0.2000000   0.3464102   0.0000000), wk =   0.1200000
        k(   12) = (   0.2000000  -0.6928203   0.0000000), wk =   0.2400000
        k(   13) = (   0.2000000  -0.5773503   0.0000000), wk =   0.1200000
        k(   14) = (   0.3000000  -0.6350853   0.0000000), wk =   0.1200000

     Dense  grid:    40455 G-vectors     FFT dimensions: (  24,  24, 180)

     Estimated max dynamical RAM per process >      11.69 MB

     Estimated total dynamical RAM >     187.11 MB

     Check: negative core charge=   -0.000002

     Initial potential from superposition of free atoms

     starting charge      17.9994, renormalised to      18.0000

     negative rho (up, down):  1.553E-04 0.000E+00
     Starting wfcs are   18 randomized atomic wfcs
     Checking if some PAW data can be deallocated... 

     total cpu time spent up to now is        0.3 secs

     Self-consistent Calculation

     iteration #  1     ecut=    65.00 Ry     beta= 0.70
     Davidson diagonalization with overlap
     ethr =  1.00E-02,  avg # of iterations =  2.3

     negative rho (up, down):  1.230E-04 0.000E+00

     total cpu time spent up to now is        0.5 secs

     total energy              =    -323.79117340 Ry
     estimated scf accuracy    <       0.30231498 Ry

     iteration #  2     ecut=    65.00 Ry     beta= 0.70
     Davidson diagonalization with overlap
     ethr =  1.68E-03,  avg # of iterations =  6.1

     total cpu time spent up to now is        0.8 secs

     total energy              =    -323.46154670 Ry
     estimated scf accuracy    <       3.46997631 Ry

     iteration #  3     ecut=    65.00 Ry     beta= 0.70
     Davidson diagonalization with overlap
     ethr =  1.68E-03,  avg # of iterations =  3.3

     total cpu time spent up to now is        1.1 secs

     total energy              =    -323.98264216 Ry
     estimated scf accuracy    <       0.02586521 Ry

     iteration #  4     ecut=    65.00 Ry     beta= 0.70
     Davidson diagonalization with overlap
     ethr =  1.44E-04,  avg # of iterations =  4.5

     total cpu time spent up to now is        1.3 secs

     total energy              =    -323.98297854 Ry
     estimated scf accuracy    <       0.01089526 Ry

     iteration #  5     ecut=    65.00 Ry     beta= 0.70
     Davidson diagonalization with overlap
     ethr =  6.05E-05,  avg # of iterations =  3.2

     total cpu time spent up to now is        1.5 secs

     total energy              =    -323.98305836 Ry
     estimated scf accuracy    <       0.00280327 Ry

     iteration #  6     ecut=    65.00 Ry     beta= 0.70
     Davidson diagonalization with overlap
     ethr =  1.56E-05,  avg # of iterations =  2.0

     negative rho (up, down):  4.435E-07 0.000E+00

     total cpu time spent up to now is        1.7 secs

     total energy              =    -323.98324021 Ry
     estimated scf accuracy    <       0.00055905 Ry

     iteration #  7     ecut=    65.00 Ry     beta= 0.70
     Davidson diagonalization with overlap
     ethr =  3.11E-06,  avg # of iterations =  5.7

     negative rho (up, down):  4.766E-04 0.000E+00

     total cpu time spent up to now is        1.9 secs

     total energy              =    -323.98327059 Ry
     estimated scf accuracy    <       0.00009163 Ry

     iteration #  8     ecut=    65.00 Ry     beta= 0.70
     Davidson diagonalization with overlap
     ethr =  5.09E-07,  avg # of iterations =  3.4

     negative rho (up, down):  2.258E-04 0.000E+00

     total cpu time spent up to now is        2.1 secs

     total energy              =    -323.98329283 Ry
     estimated scf accuracy    <       0.00000848 Ry

     iteration #  9     ecut=    65.00 Ry     beta= 0.70
     Davidson diagonalization with overlap
     ethr =  4.71E-08,  avg # of iterations =  2.6

     negative rho (up, down):  2.037E-04 0.000E+00

     total cpu time spent up to now is        2.3 secs

     End of self-consistent calculation

          k = 0.0000 0.0000 0.0000 (  5033 PWs)   bands (ev):

    -8.1284  -5.4695  -2.2279  -1.9586  -1.9586  -1.8184  -1.8184  -1.5507
    -0.5463  -0.5463   0.0715   0.0715   0.0929

          k = 0.0000 0.1155 0.0000 (  5014 PWs)   bands (ev):

    -7.7625  -5.1351  -2.2459  -2.1452  -2.0311  -1.7745  -1.6525  -1.5274
    -0.8914  -0.6096  -0.3275   0.0786   1.3862

          k = 0.0000 0.2309 0.0000 (  5042 PWs)   bands (ev):

    -6.7599  -4.3199  -2.7076  -2.4366  -2.1200  -1.7306  -1.3536  -1.2057
    -1.1662  -0.6640   0.0792   0.2629   2.9736

          k = 0.0000 0.3464 0.0000 (  5054 PWs)   bands (ev):

    -5.5318  -3.9297  -3.3024  -2.2393  -1.9670  -1.7270  -1.2715  -0.8070
    -0.5516  -0.2851   0.0750   1.2282   4.9015

          k = 0.0000 0.4619 0.0000 (  5094 PWs)   bands (ev):

    -4.8033  -4.1944  -3.7268  -2.3934  -1.3822  -1.1990  -0.9068  -0.1231
     0.1986   0.2184   0.2569   2.6369   7.1669

          k = 0.0000-0.5774 0.0000 (  5064 PWs)   bands (ev):

    -4.5672  -4.4156  -3.8792  -2.4725  -1.4330  -0.9518  -0.5535  -0.0817
     0.4032   0.4947   1.6202   3.2125   7.7363

          k = 0.1000 0.1732 0.0000 (  5042 PWs)   bands (ev):

    -7.0724  -4.5323  -2.4806  -2.4317  -2.2231  -1.6742  -1.3676  -1.3516
    -1.2161  -0.5536  -0.1667   0.2316   2.5238

          k = 0.1000 0.2887 0.0000 (  5033 PWs)   bands (ev):

    -5.9064  -3.7457  -2.9923  -2.6141  -2.3400  -1.9032  -1.2840  -0.9665
    -0.6825  -0.2962  -0.0718   0.9437   4.1956

          k = 0.1000 0.4041 0.0000 (  5071 PWs)   bands (ev):

    -4.8866  -3.8262  -3.4723  -2.3000  -1.8817  -1.7318  -1.3171  -0.6376
    -0.2456   0.0736   0.5881   2.3236   6.2989

          k = 0.1000-0.6351 0.0000 (  5061 PWs)   bands (ev):

    -4.4681  -4.1408  -3.7436  -2.3912  -1.6134  -1.1895  -0.9703  -0.2144
    -0.0753   0.2358   2.0358   3.8135   7.8141

          k = 0.2000 0.3464 0.0000 (  5062 PWs)   bands (ev):

    -4.8599  -3.2548  -3.2200  -2.6933  -2.4421  -2.0603  -1.4574  -0.6859
    -0.4118   0.0421   0.7250   2.3106   6.0142

          k = 0.2000-0.6928 0.0000 (  5050 PWs)   bands (ev):

    -4.2205  -3.5433  -3.4010  -2.2910  -2.0239  -1.9644  -1.6227  -0.4867
    -0.4137   0.1844   2.3765   4.3858   8.2975

          k = 0.2000-0.5774 0.0000 (  5032 PWs)   bands (ev):

    -4.0334  -3.7127  -3.4902  -2.2351  -2.0260  -1.6146  -1.5683  -0.4733
    -0.1115  -0.0068   4.1642   5.2030   8.3884

          k = 0.3000-0.6351 0.0000 (  5042 PWs)   bands (ev):

    -3.8229  -3.3145  -3.2428  -2.2566  -2.1550  -1.9835  -1.9440  -0.6327
    -0.2442   0.0054   4.8524   6.7906   8.1346

     the Fermi energy is    -0.2026 ev

!    total energy              =    -323.98329395 Ry
     total all-electron energy =     -5573.670646 Ry
     estimated scf accuracy    <       0.00000042 Ry
     smearing contrib. (-TS)   =      -0.01245833 Ry
     internal energy E=F+TS    =    -323.97083562 Ry

     The total energy is F=E-TS. E is the sum of the following terms:
     one-electron contribution =    -750.94227183 Ry
     hartree contribution      =     392.39723226 Ry
     xc contribution           =     -65.13866659 Ry
     ewald contribution        =     272.81251129 Ry
     one-center paw contrib.   =    -173.09964074 Ry

     convergence has been achieved in   9 iterations

     negative rho (up, down):  2.037E-04 0.000E+00

     Forces acting on atoms (cartesian axes, Ry/au):

     atom    1 type  1   force =     0.00000000    0.00000000    0.00484795
     atom    2 type  1   force =     0.00000000    0.00000000   -0.00484795
     The non-local contrib.  to forces
     atom    1 type  1   force =     0.00000000   -0.00000000   -0.07838596
     atom    2 type  1   force =     0.00000000   -0.00000000    0.07838596
     The ionic contribution  to forces
     atom    1 type  1   force =    -0.00000000   -0.00000000  -43.51839402
     atom    2 type  1   force =     0.00000000    0.00000000   43.51839402
     The local contribution  to forces
     atom    1 type  1   force =    -0.00000000   -0.00000000   43.58233731
     atom    2 type  1   force =     0.00000000    0.00000000  -43.58233731
     The core correction contribution to forces
     atom    1 type  1   force =    -0.00000000   -0.00000000    0.01730881
     atom    2 type  1   force =     0.00000000    0.00000000   -0.01730881
     The Hubbard contrib.    to forces
     atom    1 type  1   force =     0.00000000    0.00000000    0.00000000
     atom    2 type  1   force =     0.00000000    0.00000000    0.00000000
     The SCF correction term to forces
     atom    1 type  1   force =    -0.00000000    0.00000000    0.00198180
     atom    2 type  1   force =    -0.00000000    0.00000000   -0.00198180

     Total force =     0.006856     Total SCF correction =     0.002803
     SCF correction compared to forces is large: reduce conv_thr to get better values


     Computing stress (Cartesian axis) and pressure


     negative rho (up, down):  2.037E-04 0.000E+00
          total   stress  (Ry/bohr**3)                   (kbar)     P=      -10.72
  -0.00008832   0.00000000   0.00000000          -12.99        0.00        0.00
   0.00000000  -0.00008832   0.00000000            0.00      -12.99        0.00
   0.00000000  -0.00000000  -0.00004197            0.00       -0.00       -6.17


     Writing all to output data dir ./tmp/scf.save/
 
     init_run     :      0.18s CPU      0.26s WALL (       1 calls)
     electrons    :      1.81s CPU      1.97s WALL (       1 calls)
     forces       :      0.05s CPU      0.05s WALL (       1 calls)
     stress       :      0.17s CPU      0.18s WALL (       1 calls)

     Called by init_run:
     wfcinit      :      0.04s CPU      0.06s WALL (       1 calls)
     potinit      :      0.07s CPU      0.07s WALL (       1 calls)
     hinit0       :      0.06s CPU      0.10s WALL (       1 calls)

     Called by electrons:
     c_bands      :      0.95s CPU      1.05s WALL (       9 calls)
     sum_band     :      0.20s CPU      0.23s WALL (       9 calls)
     v_of_rho     :      0.02s CPU      0.03s WALL (      10 calls)
     newd         :      0.09s CPU      0.11s WALL (      10 calls)
     PAW_pot      :      0.60s CPU      0.61s WALL (      10 calls)
     mix_rho      :      0.00s CPU      0.01s WALL (       9 calls)

     Called by c_bands:
     init_us_2    :      0.01s CPU      0.02s WALL (     294 calls)
     init_us_2:cp :      0.01s CPU      0.02s WALL (     294 calls)
     cegterg      :      0.71s CPU      0.80s WALL (     126 calls)

     Called by *egterg:
     cdiaghg      :      0.08s CPU      0.09s WALL (     589 calls)
     h_psi        :      0.57s CPU      0.65s WALL (     603 calls)
     s_psi        :      0.01s CPU      0.01s WALL (     603 calls)
     g_psi        :      0.00s CPU      0.00s WALL (     463 calls)

     Called by h_psi:
     h_psi:calbec :      0.03s CPU      0.04s WALL (     603 calls)
     vloc_psi     :      0.52s CPU      0.60s WALL (     603 calls)
     add_vuspsi   :      0.01s CPU      0.01s WALL (     603 calls)

     General routines
     calbec       :      0.08s CPU      0.08s WALL (     799 calls)
     fft          :      0.04s CPU      0.08s WALL (     135 calls)
     ffts         :      0.00s CPU      0.00s WALL (       9 calls)
     fftw         :      0.56s CPU      0.64s WALL (   10698 calls)
 
     Parallel routines
 
     PWSCF        :      2.30s CPU      2.58s WALL

 
   This run was terminated on:  16:44:26   5Jun2025            

=------------------------------------------------------------------------------=
   JOB DONE.
=------------------------------------------------------------------------------=
