
     Program PWSCF v.7.2 starts on  5Jun2025 at 16:44:13 

     This program is part of the open-source Quantum ESPRESSO suite
     for quantum simulation of materials; please cite
         "P. Giannozzi et al., J. Phys.:Condens. Matter 21 395502 (2009);
         "P. Giannozzi et al., J. Phys.:Condens. Matter 29 465901 (2017);
         "P. Giannozzi et al., J. Chem. Phys. 152 154105 (2020);
          URL http://www.quantum-espresso.org", 
     in publications or presentations arising from this work. More details at
     http://www.quantum-espresso.org/quote

     Parallel version (MPI), running on    16 processors

     MPI processes distributed on     1 nodes
     37909 MiB available memory on the printing compute node when the environment starts
 
     Waiting for input...
     Reading input from standard input

     Current dimensions of program PWSCF are:
     Max number of different atomic species (ntypx) = 10
     Max number of k-points (npk) =  40000
     Max angular momentum in pseudopotentials (lmaxx) =  4
     file Co.pbe-n-kjpaw_psl.1.0.0.UPF: wavefunction(s)  4S 3D renormalized
     Message from routine setup:
     using ibrav=0 with symmetry is DISCOURAGED, use correct ibrav instead
 
     R & G space division:  proc/nbgrp/npool/nimage =      16
     Subspace diagonalization in iterative solution of the eigenvalue problem:
     a serial algorithm will be used

 
     Parallelization info
     --------------------
     sticks:   dense  smooth     PW     G-vecs:    dense   smooth      PW
     Min          22      22      7                 2438     2438     433
     Max          23      23      9                 2449     2449     441
     Sum         361     361    121                39153    39153    6993
 
     Using Slab Decomposition
 


     bravais-lattice index     =            0
     lattice parameter (alat)  =       4.4598  a.u.
     unit-cell volume          =     550.7621 (a.u.)^3
     number of atoms/cell      =            2
     number of atomic types    =            1
     number of electrons       =        18.00
     number of Kohn-Sham states=           13
     kinetic-energy cutoff     =      65.0000  Ry
     charge density cutoff     =     260.0000  Ry
     scf convergence threshold =      1.0E-06
     mixing beta               =       0.7000
     number of iterations used =            8  plain     mixing
     Exchange-correlation= SLA  PW   PBX  PBC
                           (   1   4   3   4   0   0   0)

     celldm(1)=   4.459754  celldm(2)=   0.000000  celldm(3)=   0.000000
     celldm(4)=   0.000000  celldm(5)=   0.000000  celldm(6)=   0.000000

     crystal axes: (cart. coord. in units of alat)
               a(1) = (   1.000000   0.000000   0.000000 )  
               a(2) = (   0.500000   0.866025   0.000000 )  
               a(3) = (   0.000000   0.000000   7.169697 )  

     reciprocal axes: (cart. coord. in units 2 pi/alat)
               b(1) = (  1.000000 -0.577350  0.000000 )  
               b(2) = (  0.000000  1.154701  0.000000 )  
               b(3) = (  0.000000  0.000000  0.139476 )  


     PseudoPot. # 1 for Co read from file:
     /shared/ESPRESSO/PSLIBRARY/1.0.0/pbe/PSEUDOPOTENTIALS/Co.pbe-n-kjpaw_psl.1.0.0.UPF
     MD5 check sum: 17e7ab8db721b244d1352252ea6cb8e7
     Pseudo is Projector augmented-wave + core cor, Zval =  9.0
     Generated using "atomic" code by A. Dal Corso  (Quantum ESPRESSO distribution)
     Shape of augmentation charge: PSQ
     Using radial grid of 1193 points,  6 beta functions with: 
                l(1) =   0
                l(2) =   0
                l(3) =   1
                l(4) =   1
                l(5) =   2
                l(6) =   2
     Q(r) pseudized with 0 coefficients 


     atomic species   valence    mass     pseudopotential
        Co             9.00    58.93320     Co( 1.00)

     12 Sym. Ops., with inversion, found ( 6 have fractional translation)



   Cartesian axes

     site n.     atom                  positions (alat units)
         1           Co  tau(   1) = (   1.0000000   0.5773503   3.1779661  )
         2           Co  tau(   2) = (   0.0000000   0.0000000   3.9917311  )

     number of k points=    14  Fermi-Dirac smearing, width (Ry)=  0.0070
                       cart. coord. in units 2pi/alat
        k(    1) = (   0.0000000   0.0000000   0.0000000), wk =   0.0200000
        k(    2) = (   0.0000000   0.1154701   0.0000000), wk =   0.1200000
        k(    3) = (   0.0000000   0.2309401   0.0000000), wk =   0.1200000
        k(    4) = (   0.0000000   0.3464102   0.0000000), wk =   0.1200000
        k(    5) = (   0.0000000   0.4618802   0.0000000), wk =   0.1200000
        k(    6) = (   0.0000000  -0.5773503   0.0000000), wk =   0.0600000
        k(    7) = (   0.1000000   0.1732051   0.0000000), wk =   0.1200000
        k(    8) = (   0.1000000   0.2886751   0.0000000), wk =   0.2400000
        k(    9) = (   0.1000000   0.4041452   0.0000000), wk =   0.2400000
        k(   10) = (   0.1000000  -0.6350853   0.0000000), wk =   0.2400000
        k(   11) = (   0.2000000   0.3464102   0.0000000), wk =   0.1200000
        k(   12) = (   0.2000000  -0.6928203   0.0000000), wk =   0.2400000
        k(   13) = (   0.2000000  -0.5773503   0.0000000), wk =   0.1200000
        k(   14) = (   0.3000000  -0.6350853   0.0000000), wk =   0.1200000

     Dense  grid:    39153 G-vectors     FFT dimensions: (  24,  24, 180)

     Estimated max dynamical RAM per process >      11.35 MB

     Estimated total dynamical RAM >     181.64 MB

     Check: negative core charge=   -0.000002

     Initial potential from superposition of free atoms

     starting charge      17.9994, renormalised to      18.0000

     negative rho (up, down):  1.640E-04 0.000E+00
     Starting wfcs are   18 randomized atomic wfcs
     Checking if some PAW data can be deallocated... 

     total cpu time spent up to now is        0.5 secs

     Self-consistent Calculation

     iteration #  1     ecut=    65.00 Ry     beta= 0.70
     Davidson diagonalization with overlap
     ethr =  1.00E-02,  avg # of iterations =  2.5

     negative rho (up, down):  1.260E-04 0.000E+00

     total cpu time spent up to now is        0.7 secs

     total energy              =    -323.78915759 Ry
     estimated scf accuracy    <       0.30776764 Ry

     iteration #  2     ecut=    65.00 Ry     beta= 0.70
     Davidson diagonalization with overlap
     ethr =  1.71E-03,  avg # of iterations =  6.1

     total cpu time spent up to now is        1.0 secs

     total energy              =    -323.45824937 Ry
     estimated scf accuracy    <       3.40560406 Ry

     iteration #  3     ecut=    65.00 Ry     beta= 0.70
     Davidson diagonalization with overlap
     ethr =  1.71E-03,  avg # of iterations =  3.4

     total cpu time spent up to now is        1.2 secs

     total energy              =    -323.98166797 Ry
     estimated scf accuracy    <       0.02834328 Ry

     iteration #  4     ecut=    65.00 Ry     beta= 0.70
     Davidson diagonalization with overlap
     ethr =  1.57E-04,  avg # of iterations =  4.1

     total cpu time spent up to now is        1.4 secs

     total energy              =    -323.98268916 Ry
     estimated scf accuracy    <       0.01191398 Ry

     iteration #  5     ecut=    65.00 Ry     beta= 0.70
     Davidson diagonalization with overlap
     ethr =  6.62E-05,  avg # of iterations =  1.7

     total cpu time spent up to now is        1.6 secs

     total energy              =    -323.98205531 Ry
     estimated scf accuracy    <       0.00437732 Ry

     iteration #  6     ecut=    65.00 Ry     beta= 0.70
     Davidson diagonalization with overlap
     ethr =  2.43E-05,  avg # of iterations =  3.1

     negative rho (up, down):  2.110E-07 0.000E+00

     total cpu time spent up to now is        1.8 secs

     total energy              =    -323.98228275 Ry
     estimated scf accuracy    <       0.00066091 Ry

     iteration #  7     ecut=    65.00 Ry     beta= 0.70
     Davidson diagonalization with overlap
     ethr =  3.67E-06,  avg # of iterations =  5.6

     negative rho (up, down):  4.814E-04 0.000E+00

     total cpu time spent up to now is        2.0 secs

     total energy              =    -323.98233980 Ry
     estimated scf accuracy    <       0.00009967 Ry

     iteration #  8     ecut=    65.00 Ry     beta= 0.70
     Davidson diagonalization with overlap
     ethr =  5.54E-07,  avg # of iterations =  2.4

     negative rho (up, down):  2.251E-04 0.000E+00

     total cpu time spent up to now is        2.2 secs

     total energy              =    -323.98235771 Ry
     estimated scf accuracy    <       0.00000425 Ry

     iteration #  9     ecut=    65.00 Ry     beta= 0.70
     Davidson diagonalization with overlap
     ethr =  2.36E-08,  avg # of iterations =  3.0

     negative rho (up, down):  2.166E-04 0.000E+00

     total cpu time spent up to now is        2.5 secs

     End of self-consistent calculation

          k = 0.0000 0.0000 0.0000 (  4871 PWs)   bands (ev):

    -8.2458  -5.5682  -2.2279  -1.9379  -1.9379  -1.7855  -1.7855  -1.5153
    -0.4176  -0.4176   0.1558   0.2481   0.2481

          k = 0.0000 0.1155 0.0000 (  4884 PWs)   bands (ev):

    -7.8666  -5.2210  -2.2465  -2.1399  -2.0156  -1.7403  -1.6075  -1.4820
    -0.8169  -0.4859  -0.1940   0.2560   1.5571

          k = 0.0000 0.2309 0.0000 (  4872 PWs)   bands (ev):

    -6.8357  -4.3845  -2.7463  -2.4457  -2.1064  -1.6937  -1.2892  -1.1276
    -1.0987  -0.5438   0.2568   0.4271   3.1914

          k = 0.0000 0.3464 0.0000 (  4896 PWs)   bands (ev):

    -5.6088  -4.0219  -3.3843  -2.2394  -1.9259  -1.6689  -1.2024  -0.7030
    -0.4238  -0.1351   0.2521   1.4437   5.1713

          k = 0.0000 0.4619 0.0000 (  4882 PWs)   bands (ev):

    -4.9269  -4.3148  -3.8378  -2.4079  -1.3216  -1.1121  -0.7954   0.0389
     0.3828   0.4064   0.4487   2.9037   7.5046

          k = 0.0000-0.5774 0.0000 (  4904 PWs)   bands (ev):

    -4.7250  -4.5309  -4.0002  -2.4930  -1.3763  -0.8494  -0.4234   0.0835
     0.6061   0.7051   1.8470   3.5210   8.2404

          k = 0.1000 0.1732 0.0000 (  4869 PWs)   bands (ev):

    -7.1548  -4.5975  -2.5015  -2.4449  -2.2204  -1.6364  -1.3049  -1.2847
    -1.1489  -0.4282  -0.0199   0.4092   2.7295

          k = 0.1000 0.2887 0.0000 (  4874 PWs)   bands (ev):

    -5.9698  -3.8047  -3.0511  -2.6273  -2.3400  -1.8790  -1.2153  -0.8765
    -0.5644  -0.1463   0.0912   1.1491   4.4473

          k = 0.1000 0.4041 0.0000 (  4875 PWs)   bands (ev):

    -4.9799  -3.9231  -3.5646  -2.3054  -1.8395  -1.6762  -1.2451  -0.5201
    -0.0946   0.2500   0.8048   2.5882   6.6098

          k = 0.1000-0.6351 0.0000 (  4887 PWs)   bands (ev):

    -4.6035  -4.2500  -3.8540  -2.4055  -1.5695  -1.1035  -0.8665  -0.0608
     0.0889   0.4252   2.3161   4.1372   8.3389

          k = 0.2000 0.3464 0.0000 (  4868 PWs)   bands (ev):

    -4.9317  -3.3257  -3.2880  -2.6943  -2.4403  -2.0487  -1.4007  -0.5729
    -0.2758   0.2165   0.9524   2.5791   6.3183

          k = 0.2000-0.6928 0.0000 (  4859 PWs)   bands (ev):

    -4.3283  -3.6210  -3.4826  -2.2924  -1.9931  -1.9359  -1.5722  -0.3568
    -0.2771   0.3705   2.6945   4.7319   8.6761

          k = 0.2000-0.5774 0.0000 (  4866 PWs)   bands (ev):

    -4.1614  -3.7881  -3.5773  -2.2363  -2.0118  -1.5586  -1.5081  -0.3420
     0.0502   0.1637   4.5246   5.6240   8.9138

          k = 0.3000-0.6351 0.0000 (  4824 PWs)   bands (ev):

    -3.9380  -3.3726  -3.3056  -2.2514  -2.1462  -1.9541  -1.9180  -0.5153
    -0.0931   0.1770   5.2659   7.2291   8.6522

     the Fermi energy is    -0.0485 ev

!    total energy              =    -323.98235849 Ry
     total all-electron energy =     -5573.669711 Ry
     estimated scf accuracy    <       0.00000048 Ry
     smearing contrib. (-TS)   =      -0.01163066 Ry
     internal energy E=F+TS    =    -323.97072783 Ry

     The total energy is F=E-TS. E is the sum of the following terms:
     one-electron contribution =    -778.04251614 Ry
     hartree contribution      =     406.00913562 Ry
     xc contribution           =     -65.20663974 Ry
     ewald contribution        =     286.37734809 Ry
     one-center paw contrib.   =    -173.10805565 Ry

     convergence has been achieved in   9 iterations

     negative rho (up, down):  2.166E-04 0.000E+00

     Forces acting on atoms (cartesian axes, Ry/au):

     atom    1 type  1   force =     0.00000000    0.00000000   -0.01363914
     atom    2 type  1   force =     0.00000000    0.00000000    0.01363914
     The non-local contrib.  to forces
     atom    1 type  1   force =     0.00000000    0.00000000   -0.06535186
     atom    2 type  1   force =     0.00000000    0.00000000    0.06535186
     The ionic contribution  to forces
     atom    1 type  1   force =     0.00000000   -0.00000000  -45.20726516
     atom    2 type  1   force =     0.00000000    0.00000000   45.20726516
     The local contribution  to forces
     atom    1 type  1   force =    -0.00000000   -0.00000000   45.23699324
     atom    2 type  1   force =     0.00000000    0.00000000  -45.23699324
     The core correction contribution to forces
     atom    1 type  1   force =    -0.00000000   -0.00000000    0.01970350
     atom    2 type  1   force =     0.00000000    0.00000000   -0.01970350
     The Hubbard contrib.    to forces
     atom    1 type  1   force =     0.00000000    0.00000000    0.00000000
     atom    2 type  1   force =     0.00000000    0.00000000    0.00000000
     The SCF correction term to forces
     atom    1 type  1   force =    -0.00000000    0.00000000    0.00228115
     atom    2 type  1   force =    -0.00000000    0.00000000   -0.00228115

     Total force =     0.019289     Total SCF correction =     0.003226
     SCF correction compared to forces is large: reduce conv_thr to get better values


     Computing stress (Cartesian axis) and pressure


     negative rho (up, down):  2.166E-04 0.000E+00
          total   stress  (Ry/bohr**3)                   (kbar)     P=       18.53
   0.00014385  -0.00000000   0.00000000           21.16       -0.00        0.00
  -0.00000000   0.00014385   0.00000000           -0.00       21.16        0.00
  -0.00000000  -0.00000000   0.00009024           -0.00       -0.00       13.28


     Writing all to output data dir ./tmp/scf.save/
 
     init_run     :      0.21s CPU      0.38s WALL (       1 calls)
     electrons    :      1.79s CPU      1.96s WALL (       1 calls)
     forces       :      0.05s CPU      0.05s WALL (       1 calls)
     stress       :      0.17s CPU      0.17s WALL (       1 calls)

     Called by init_run:
     wfcinit      :      0.04s CPU      0.04s WALL (       1 calls)
     potinit      :      0.08s CPU      0.20s WALL (       1 calls)
     hinit0       :      0.07s CPU      0.11s WALL (       1 calls)

     Called by electrons:
     c_bands      :      0.94s CPU      1.02s WALL (       9 calls)
     sum_band     :      0.21s CPU      0.26s WALL (       9 calls)
     v_of_rho     :      0.02s CPU      0.03s WALL (      10 calls)
     newd         :      0.09s CPU      0.09s WALL (      10 calls)
     PAW_pot      :      0.59s CPU      0.74s WALL (      10 calls)
     mix_rho      :      0.00s CPU      0.01s WALL (       9 calls)

     Called by c_bands:
     init_us_2    :      0.01s CPU      0.02s WALL (     294 calls)
     init_us_2:cp :      0.01s CPU      0.02s WALL (     294 calls)
     cegterg      :      0.68s CPU      0.75s WALL (     126 calls)

     Called by *egterg:
     cdiaghg      :      0.08s CPU      0.09s WALL (     574 calls)
     h_psi        :      0.54s CPU      0.59s WALL (     588 calls)
     s_psi        :      0.01s CPU      0.01s WALL (     588 calls)
     g_psi        :      0.00s CPU      0.00s WALL (     448 calls)

     Called by h_psi:
     h_psi:calbec :      0.03s CPU      0.03s WALL (     588 calls)
     vloc_psi     :      0.49s CPU      0.54s WALL (     588 calls)
     add_vuspsi   :      0.01s CPU      0.01s WALL (     588 calls)

     General routines
     calbec       :      0.07s CPU      0.08s WALL (     784 calls)
     fft          :      0.05s CPU      0.09s WALL (     135 calls)
     ffts         :      0.00s CPU      0.00s WALL (       9 calls)
     fftw         :      0.53s CPU      0.60s WALL (   10702 calls)
 
     Parallel routines
 
     PWSCF        :      2.33s CPU      2.72s WALL

 
   This run was terminated on:  16:44:15   5Jun2025            

=------------------------------------------------------------------------------=
   JOB DONE.
=------------------------------------------------------------------------------=
