
     Program PWSCF v.7.2 starts on  5Jun2025 at 16:43:56 

     This program is part of the open-source Quantum ESPRESSO suite
     for quantum simulation of materials; please cite
         "P. Giannozzi et al., J. Phys.:Condens. Matter 21 395502 (2009);
         "P. Giannozzi et al., J. Phys.:Condens. Matter 29 465901 (2017);
         "P. Giannozzi et al., J. Chem. Phys. 152 154105 (2020);
          URL http://www.quantum-espresso.org", 
     in publications or presentations arising from this work. More details at
     http://www.quantum-espresso.org/quote

     Parallel version (MPI), running on    16 processors

     MPI processes distributed on     1 nodes
     37486 MiB available memory on the printing compute node when the environment starts
 
     Waiting for input...
     Reading input from standard input

     Current dimensions of program PWSCF are:
     Max number of different atomic species (ntypx) = 10
     Max number of k-points (npk) =  40000
     Max angular momentum in pseudopotentials (lmaxx) =  4
     file Co.pbe-n-kjpaw_psl.1.0.0.UPF: wavefunction(s)  4S 3D renormalized
     Message from routine setup:
     using ibrav=0 with symmetry is DISCOURAGED, use correct ibrav instead
 
     R & G space division:  proc/nbgrp/npool/nimage =      16
     Subspace diagonalization in iterative solution of the eigenvalue problem:
     a serial algorithm will be used

 
     Parallelization info
     --------------------
     sticks:   dense  smooth     PW     G-vecs:    dense   smooth      PW
     Min          21      21      6                 2307     2307     406
     Max          23      23      7                 2316     2316     429
     Sum         349     349    109                36979    36979    6681
 
     Using Slab Decomposition
 


     bravais-lattice index     =            0
     lattice parameter (alat)  =       4.3464  a.u.
     unit-cell volume          =     521.6038 (a.u.)^3
     number of atoms/cell      =            2
     number of atomic types    =            1
     number of electrons       =        18.00
     number of Kohn-Sham states=           13
     kinetic-energy cutoff     =      65.0000  Ry
     charge density cutoff     =     260.0000  Ry
     scf convergence threshold =      1.0E-06
     mixing beta               =       0.7000
     number of iterations used =            8  plain     mixing
     Exchange-correlation= SLA  PW   PBX  PBC
                           (   1   4   3   4   0   0   0)

     celldm(1)=   4.346370  celldm(2)=   0.000000  celldm(3)=   0.000000
     celldm(4)=   0.000000  celldm(5)=   0.000000  celldm(6)=   0.000000

     crystal axes: (cart. coord. in units of alat)
               a(1) = (   1.000000   0.000000   0.000000 )  
               a(2) = (   0.500000   0.866025   0.000000 )  
               a(3) = (   0.000000   0.000000   7.335504 )  

     reciprocal axes: (cart. coord. in units 2 pi/alat)
               b(1) = (  1.000000 -0.577350  0.000000 )  
               b(2) = (  0.000000  1.154701  0.000000 )  
               b(3) = (  0.000000  0.000000  0.136323 )  


     PseudoPot. # 1 for Co read from file:
     /shared/ESPRESSO/PSLIBRARY/1.0.0/pbe/PSEUDOPOTENTIALS/Co.pbe-n-kjpaw_psl.1.0.0.UPF
     MD5 check sum: 17e7ab8db721b244d1352252ea6cb8e7
     Pseudo is Projector augmented-wave + core cor, Zval =  9.0
     Generated using "atomic" code by A. Dal Corso  (Quantum ESPRESSO distribution)
     Shape of augmentation charge: PSQ
     Using radial grid of 1193 points,  6 beta functions with: 
                l(1) =   0
                l(2) =   0
                l(3) =   1
                l(4) =   1
                l(5) =   2
                l(6) =   2
     Q(r) pseudized with 0 coefficients 


     atomic species   valence    mass     pseudopotential
        Co             9.00    58.93320     Co( 1.00)

     12 Sym. Ops., with inversion, found ( 6 have fractional translation)



   Cartesian axes

     site n.     atom                  positions (alat units)
         1           Co  tau(   1) = (   1.0000000   0.5773503   3.2608696  )
         2           Co  tau(   2) = (   0.0000000   0.0000000   4.0746346  )

     number of k points=    14  Fermi-Dirac smearing, width (Ry)=  0.0070
                       cart. coord. in units 2pi/alat
        k(    1) = (   0.0000000   0.0000000   0.0000000), wk =   0.0200000
        k(    2) = (   0.0000000   0.1154701   0.0000000), wk =   0.1200000
        k(    3) = (   0.0000000   0.2309401   0.0000000), wk =   0.1200000
        k(    4) = (   0.0000000   0.3464102   0.0000000), wk =   0.1200000
        k(    5) = (   0.0000000   0.4618802   0.0000000), wk =   0.1200000
        k(    6) = (   0.0000000  -0.5773503   0.0000000), wk =   0.0600000
        k(    7) = (   0.1000000   0.1732051   0.0000000), wk =   0.1200000
        k(    8) = (   0.1000000   0.2886751   0.0000000), wk =   0.2400000
        k(    9) = (   0.1000000   0.4041452   0.0000000), wk =   0.2400000
        k(   10) = (   0.1000000  -0.6350853   0.0000000), wk =   0.2400000
        k(   11) = (   0.2000000   0.3464102   0.0000000), wk =   0.1200000
        k(   12) = (   0.2000000  -0.6928203   0.0000000), wk =   0.2400000
        k(   13) = (   0.2000000  -0.5773503   0.0000000), wk =   0.1200000
        k(   14) = (   0.3000000  -0.6350853   0.0000000), wk =   0.1200000

     Dense  grid:    36979 G-vectors     FFT dimensions: (  24,  24, 180)

     Estimated max dynamical RAM per process >      10.85 MB

     Estimated total dynamical RAM >     173.61 MB

     Check: negative core charge=   -0.000002

     Initial potential from superposition of free atoms

     starting charge      17.9994, renormalised to      18.0000

     negative rho (up, down):  1.565E-04 0.000E+00
     Starting wfcs are   18 randomized atomic wfcs
     Checking if some PAW data can be deallocated... 

     total cpu time spent up to now is        0.7 secs

     Self-consistent Calculation

     iteration #  1     ecut=    65.00 Ry     beta= 0.70
     Davidson diagonalization with overlap
     ethr =  1.00E-02,  avg # of iterations =  2.5

     negative rho (up, down):  1.091E-04 0.000E+00

     total cpu time spent up to now is        0.9 secs

     total energy              =    -323.77035635 Ry
     estimated scf accuracy    <       0.32120294 Ry

     iteration #  2     ecut=    65.00 Ry     beta= 0.70
     Davidson diagonalization with overlap
     ethr =  1.78E-03,  avg # of iterations =  6.2

     total cpu time spent up to now is        1.1 secs

     total energy              =    -323.42314778 Ry
     estimated scf accuracy    <       3.43907349 Ry

     iteration #  3     ecut=    65.00 Ry     beta= 0.70
     Davidson diagonalization with overlap
     ethr =  1.78E-03,  avg # of iterations =  3.6

     total cpu time spent up to now is        1.3 secs

     total energy              =    -323.96978500 Ry
     estimated scf accuracy    <       0.03487240 Ry

     iteration #  4     ecut=    65.00 Ry     beta= 0.70
     Davidson diagonalization with overlap
     ethr =  1.94E-04,  avg # of iterations =  4.0

     total cpu time spent up to now is        1.5 secs

     total energy              =    -323.97022177 Ry
     estimated scf accuracy    <       0.01321919 Ry

     iteration #  5     ecut=    65.00 Ry     beta= 0.70
     Davidson diagonalization with overlap
     ethr =  7.34E-05,  avg # of iterations =  2.7

     total cpu time spent up to now is        1.7 secs

     total energy              =    -323.96916771 Ry
     estimated scf accuracy    <       0.00590221 Ry

     iteration #  6     ecut=    65.00 Ry     beta= 0.70
     Davidson diagonalization with overlap
     ethr =  3.28E-05,  avg # of iterations =  2.9

     negative rho (up, down):  2.204E-07 0.000E+00

     total cpu time spent up to now is        1.9 secs

     total energy              =    -323.96943078 Ry
     estimated scf accuracy    <       0.00075249 Ry

     iteration #  7     ecut=    65.00 Ry     beta= 0.70
     Davidson diagonalization with overlap
     ethr =  4.18E-06,  avg # of iterations =  5.5

     negative rho (up, down):  9.650E-04 0.000E+00

     total cpu time spent up to now is        2.1 secs

     total energy              =    -323.96949236 Ry
     estimated scf accuracy    <       0.00009852 Ry

     iteration #  8     ecut=    65.00 Ry     beta= 0.70
     Davidson diagonalization with overlap
     ethr =  5.47E-07,  avg # of iterations =  2.9

     negative rho (up, down):  2.667E-04 0.000E+00

     total cpu time spent up to now is        2.3 secs

     total energy              =    -323.96951803 Ry
     estimated scf accuracy    <       0.00002648 Ry

     iteration #  9     ecut=    65.00 Ry     beta= 0.70
     Davidson diagonalization with overlap
     ethr =  1.47E-07,  avg # of iterations =  1.4

     negative rho (up, down):  2.063E-04 0.000E+00

     total cpu time spent up to now is        2.5 secs

     End of self-consistent calculation

          k = 0.0000 0.0000 0.0000 (  4689 PWs)   bands (ev):

    -8.4127  -5.7250  -2.2318  -1.9091  -1.9091  -1.7360  -1.7360  -1.4558
    -0.2067  -0.2067   0.2681   0.5397   0.5397

          k = 0.0000 0.1155 0.0000 (  4673 PWs)   bands (ev):

    -8.0120  -5.3567  -2.2518  -2.1354  -1.9938  -1.6888  -1.5376  -1.4087
    -0.6963  -0.2837   0.0246   0.5488   1.8476

          k = 0.0000 0.2309 0.0000 (  4650 PWs)   bands (ev):

    -6.9380  -4.4882  -2.8155  -2.4630  -2.0837  -1.6353  -1.1871  -1.0024
    -0.9905  -0.3475   0.5501   0.6959   3.5536

          k = 0.0000 0.3464 0.0000 (  4614 PWs)   bands (ev):

    -5.7263  -4.1767  -3.5248  -2.2430  -1.8541  -1.5667  -1.0923  -0.5333
    -0.2150   0.1116   0.5445   1.7981   5.6141

          k = 0.0000 0.4619 0.0000 (  4600 PWs)   bands (ev):

    -5.1341  -4.5135  -4.0263  -2.4366  -1.2259  -0.9662  -0.6066   0.3057
     0.6935   0.7166   0.7655   3.3479   8.0527

          k = 0.0000-0.5774 0.0000 (  4620 PWs)   bands (ev):

    -4.9907  -4.7215  -4.2052  -2.5319  -1.2870  -0.6788  -0.2058   0.3560
     0.9416   1.0532   2.2317   4.0378   9.0449

          k = 0.1000 0.1732 0.0000 (  4641 PWs)   bands (ev):

    -7.2662  -4.7003  -2.5421  -2.4698  -2.2175  -1.5775  -1.2060  -1.1778
    -1.0398  -0.2229   0.2198   0.7029   3.0732

          k = 0.1000 0.2887 0.0000 (  4630 PWs)   bands (ev):

    -6.0573  -3.9034  -3.1533  -2.6475  -2.3394  -1.8424  -1.1054  -0.7306
    -0.3712   0.1007   0.3594   1.4870   4.8621

          k = 0.1000 0.4041 0.0000 (  4610 PWs)   bands (ev):

    -5.1319  -4.0846  -3.7220  -2.3186  -1.7671  -1.5820  -1.1257  -0.3282
     0.1538   0.5411   1.1656   3.0248   7.1171

          k = 0.1000-0.6351 0.0000 (  4587 PWs)   bands (ev):

    -4.8334  -4.4277  -4.0413  -2.4340  -1.5016  -0.9594  -0.6906   0.1918
     0.3599   0.7383   2.7845   4.6774   9.1815

          k = 0.2000 0.3464 0.0000 (  4601 PWs)   bands (ev):

    -5.0445  -3.4475  -3.4027  -2.6930  -2.4337  -2.0340  -1.3109  -0.3887
    -0.0529   0.5042   1.3312   3.0207   6.8154

          k = 0.2000-0.6928 0.0000 (  4598 PWs)   bands (ev):

    -4.5093  -3.7479  -3.6210  -2.2988  -1.9409  -1.8895  -1.4882  -0.1445
    -0.0530   0.6782   3.2235   5.3021   9.2894

          k = 0.2000-0.5774 0.0000 (  4602 PWs)   bands (ev):

    -4.3767  -3.9114  -3.7245  -2.2426  -1.9932  -1.4635  -1.4066  -0.1272
     0.3167   0.4452   5.1236   6.3201   9.7618

          k = 0.3000-0.6351 0.0000 (  4592 PWs)   bands (ev):

    -4.1321  -3.4674  -3.4103  -2.2449  -2.1347  -1.9046  -1.8761  -0.3243
     0.1555   0.4604   5.9491   7.9502   9.5023

     the Fermi energy is     0.2045 ev

!    total energy              =    -323.96952020 Ry
     total all-electron energy =     -5573.656873 Ry
     estimated scf accuracy    <       0.00000081 Ry
     smearing contrib. (-TS)   =      -0.01046831 Ry
     internal energy E=F+TS    =    -323.95905190 Ry

     The total energy is F=E-TS. E is the sum of the following terms:
     one-electron contribution =    -821.64578570 Ry
     hartree contribution      =     427.90293206 Ry
     xc contribution           =     -65.32319274 Ry
     ewald contribution        =     308.22929800 Ry
     one-center paw contrib.   =    -173.12230351 Ry

     convergence has been achieved in   9 iterations

     negative rho (up, down):  2.063E-04 0.000E+00

     Forces acting on atoms (cartesian axes, Ry/au):

     atom    1 type  1   force =     0.00000000    0.00000000   -0.05001916
     atom    2 type  1   force =     0.00000000    0.00000000    0.05001916
     The non-local contrib.  to forces
     atom    1 type  1   force =     0.00000000    0.00000000   -0.04262533
     atom    2 type  1   force =     0.00000000   -0.00000000    0.04262533
     The ionic contribution  to forces
     atom    1 type  1   force =    -0.00000000    0.00000000  -47.91590586
     atom    2 type  1   force =     0.00000000    0.00000000   47.91590586
     The local contribution  to forces
     atom    1 type  1   force =    -0.00000000   -0.00000000   47.88280726
     atom    2 type  1   force =     0.00000000    0.00000000  -47.88280726
     The core correction contribution to forces
     atom    1 type  1   force =    -0.00000000   -0.00000000    0.02386955
     atom    2 type  1   force =     0.00000000    0.00000000   -0.02386955
     The Hubbard contrib.    to forces
     atom    1 type  1   force =     0.00000000    0.00000000    0.00000000
     atom    2 type  1   force =     0.00000000    0.00000000    0.00000000
     The SCF correction term to forces
     atom    1 type  1   force =    -0.00000000    0.00000000    0.00183522
     atom    2 type  1   force =     0.00000000   -0.00000000   -0.00183522

     Total force =     0.070738     Total SCF correction =     0.002595


     Computing stress (Cartesian axis) and pressure


     negative rho (up, down):  2.063E-04 0.000E+00
          total   stress  (Ry/bohr**3)                   (kbar)     P=       71.79
   0.00057177   0.00000000   0.00000000           84.11        0.00        0.00
   0.00000000   0.00057177   0.00000000            0.00       84.11        0.00
   0.00000000   0.00000000   0.00032056            0.00        0.00       47.16


     Writing all to output data dir ./tmp/scf.save/
 
     init_run     :      0.19s CPU      0.27s WALL (       1 calls)
     electrons    :      1.72s CPU      1.89s WALL (       1 calls)
     forces       :      0.04s CPU      0.05s WALL (       1 calls)
     stress       :      0.16s CPU      0.17s WALL (       1 calls)

     Called by init_run:
     wfcinit      :      0.04s CPU      0.04s WALL (       1 calls)
     potinit      :      0.07s CPU      0.07s WALL (       1 calls)
     hinit0       :      0.06s CPU      0.12s WALL (       1 calls)

     Called by electrons:
     c_bands      :      0.89s CPU      1.00s WALL (       9 calls)
     sum_band     :      0.19s CPU      0.22s WALL (       9 calls)
     v_of_rho     :      0.02s CPU      0.03s WALL (      10 calls)
     newd         :      0.09s CPU      0.10s WALL (      10 calls)
     PAW_pot      :      0.59s CPU      0.60s WALL (      10 calls)
     mix_rho      :      0.00s CPU      0.01s WALL (       9 calls)

     Called by c_bands:
     init_us_2    :      0.02s CPU      0.02s WALL (     294 calls)
     init_us_2:cp :      0.02s CPU      0.02s WALL (     294 calls)
     cegterg      :      0.68s CPU      0.78s WALL (     126 calls)

     Called by *egterg:
     cdiaghg      :      0.08s CPU      0.09s WALL (     571 calls)
     h_psi        :      0.54s CPU      0.63s WALL (     585 calls)
     s_psi        :      0.01s CPU      0.01s WALL (     585 calls)
     g_psi        :      0.00s CPU      0.00s WALL (     445 calls)

     Called by h_psi:
     h_psi:calbec :      0.03s CPU      0.03s WALL (     585 calls)
     vloc_psi     :      0.50s CPU      0.57s WALL (     585 calls)
     add_vuspsi   :      0.01s CPU      0.01s WALL (     585 calls)

     General routines
     calbec       :      0.07s CPU      0.08s WALL (     781 calls)
     fft          :      0.03s CPU      0.05s WALL (     135 calls)
     ffts         :      0.00s CPU      0.00s WALL (       9 calls)
     fftw         :      0.53s CPU      0.62s WALL (   10594 calls)
 
     Parallel routines
 
     PWSCF        :      2.39s CPU      2.79s WALL

 
   This run was terminated on:  16:43:59   5Jun2025            

=------------------------------------------------------------------------------=
   JOB DONE.
=------------------------------------------------------------------------------=
