
     Program PWSCF v.7.2 starts on  5Jun2025 at 16:43:56 

     This program is part of the open-source Quantum ESPRESSO suite
     for quantum simulation of materials; please cite
         "P. Giannozzi et al., J. Phys.:Condens. Matter 21 395502 (2009);
         "P. Giannozzi et al., J. Phys.:Condens. Matter 29 465901 (2017);
         "P. Giannozzi et al., J. Chem. Phys. 152 154105 (2020);
          URL http://www.quantum-espresso.org", 
     in publications or presentations arising from this work. More details at
     http://www.quantum-espresso.org/quote

     Parallel version (MPI), running on    16 processors

     MPI processes distributed on     1 nodes
     37411 MiB available memory on the printing compute node when the environment starts
 
     Waiting for input...
     Reading input from standard input

     Current dimensions of program PWSCF are:
     Max number of different atomic species (ntypx) = 10
     Max number of k-points (npk) =  40000
     Max angular momentum in pseudopotentials (lmaxx) =  4
     file Co.pbe-n-kjpaw_psl.1.0.0.UPF: wavefunction(s)  4S 3D renormalized
     Message from routine setup:
     using ibrav=0 with symmetry is DISCOURAGED, use correct ibrav instead
 
     R & G space division:  proc/nbgrp/npool/nimage =      16
     Subspace diagonalization in iterative solution of the eigenvalue problem:
     a serial algorithm will be used

 
     Parallelization info
     --------------------
     sticks:   dense  smooth     PW     G-vecs:    dense   smooth      PW
     Min          21      21      6                 2321     2321     406
     Max          23      23      7                 2338     2338     429
     Sum         349     349    109                37279    37279    6693
 
     Using Slab Decomposition
 


     bravais-lattice index     =            0
     lattice parameter (alat)  =       4.3653  a.u.
     unit-cell volume          =     526.4031 (a.u.)^3
     number of atoms/cell      =            2
     number of atomic types    =            1
     number of electrons       =        18.00
     number of Kohn-Sham states=           13
     kinetic-energy cutoff     =      65.0000  Ry
     charge density cutoff     =     260.0000  Ry
     scf convergence threshold =      1.0E-06
     mixing beta               =       0.7000
     number of iterations used =            8  plain     mixing
     Exchange-correlation= SLA  PW   PBX  PBC
                           (   1   4   3   4   0   0   0)

     celldm(1)=   4.365267  celldm(2)=   0.000000  celldm(3)=   0.000000
     celldm(4)=   0.000000  celldm(5)=   0.000000  celldm(6)=   0.000000

     crystal axes: (cart. coord. in units of alat)
               a(1) = (   1.000000   0.000000   0.000000 )  
               a(2) = (   0.500000   0.866025   0.000000 )  
               a(3) = (   0.000000   0.000000   7.307271 )  

     reciprocal axes: (cart. coord. in units 2 pi/alat)
               b(1) = (  1.000000 -0.577350  0.000000 )  
               b(2) = (  0.000000  1.154701  0.000000 )  
               b(3) = (  0.000000  0.000000  0.136850 )  


     PseudoPot. # 1 for Co read from file:
     /shared/ESPRESSO/PSLIBRARY/1.0.0/pbe/PSEUDOPOTENTIALS/Co.pbe-n-kjpaw_psl.1.0.0.UPF
     MD5 check sum: 17e7ab8db721b244d1352252ea6cb8e7
     Pseudo is Projector augmented-wave + core cor, Zval =  9.0
     Generated using "atomic" code by A. Dal Corso  (Quantum ESPRESSO distribution)
     Shape of augmentation charge: PSQ
     Using radial grid of 1193 points,  6 beta functions with: 
                l(1) =   0
                l(2) =   0
                l(3) =   1
                l(4) =   1
                l(5) =   2
                l(6) =   2
     Q(r) pseudized with 0 coefficients 


     atomic species   valence    mass     pseudopotential
        Co             9.00    58.93320     Co( 1.00)

     12 Sym. Ops., with inversion, found ( 6 have fractional translation)



   Cartesian axes

     site n.     atom                  positions (alat units)
         1           Co  tau(   1) = (   1.0000000   0.5773503   3.2467532  )
         2           Co  tau(   2) = (   0.0000000   0.0000000   4.0605182  )

     number of k points=    14  Fermi-Dirac smearing, width (Ry)=  0.0070
                       cart. coord. in units 2pi/alat
        k(    1) = (   0.0000000   0.0000000   0.0000000), wk =   0.0200000
        k(    2) = (   0.0000000   0.1154701   0.0000000), wk =   0.1200000
        k(    3) = (   0.0000000   0.2309401   0.0000000), wk =   0.1200000
        k(    4) = (   0.0000000   0.3464102   0.0000000), wk =   0.1200000
        k(    5) = (   0.0000000   0.4618802   0.0000000), wk =   0.1200000
        k(    6) = (   0.0000000  -0.5773503   0.0000000), wk =   0.0600000
        k(    7) = (   0.1000000   0.1732051   0.0000000), wk =   0.1200000
        k(    8) = (   0.1000000   0.2886751   0.0000000), wk =   0.2400000
        k(    9) = (   0.1000000   0.4041452   0.0000000), wk =   0.2400000
        k(   10) = (   0.1000000  -0.6350853   0.0000000), wk =   0.2400000
        k(   11) = (   0.2000000   0.3464102   0.0000000), wk =   0.1200000
        k(   12) = (   0.2000000  -0.6928203   0.0000000), wk =   0.2400000
        k(   13) = (   0.2000000  -0.5773503   0.0000000), wk =   0.1200000
        k(   14) = (   0.3000000  -0.6350853   0.0000000), wk =   0.1200000

     Dense  grid:    37279 G-vectors     FFT dimensions: (  24,  24, 180)

     Estimated max dynamical RAM per process >      10.88 MB

     Estimated total dynamical RAM >     174.11 MB

     Check: negative core charge=   -0.000002

     Initial potential from superposition of free atoms

     starting charge      17.9994, renormalised to      18.0000

     negative rho (up, down):  1.678E-04 0.000E+00
     Starting wfcs are   18 randomized atomic wfcs
     Checking if some PAW data can be deallocated... 

     total cpu time spent up to now is        0.7 secs

     Self-consistent Calculation

     iteration #  1     ecut=    65.00 Ry     beta= 0.70
     Davidson diagonalization with overlap
     ethr =  1.00E-02,  avg # of iterations =  2.6

     negative rho (up, down):  1.331E-04 0.000E+00

     total cpu time spent up to now is        0.9 secs

     total energy              =    -323.77758157 Ry
     estimated scf accuracy    <       0.31729790 Ry

     iteration #  2     ecut=    65.00 Ry     beta= 0.70
     Davidson diagonalization with overlap
     ethr =  1.76E-03,  avg # of iterations =  6.4

     total cpu time spent up to now is        1.2 secs

     total energy              =    -323.39127194 Ry
     estimated scf accuracy    <       3.66059232 Ry

     iteration #  3     ecut=    65.00 Ry     beta= 0.70
     Davidson diagonalization with overlap
     ethr =  1.76E-03,  avg # of iterations =  3.6

     total cpu time spent up to now is        1.4 secs

     total energy              =    -323.97398787 Ry
     estimated scf accuracy    <       0.03648489 Ry

     iteration #  4     ecut=    65.00 Ry     beta= 0.70
     Davidson diagonalization with overlap
     ethr =  2.03E-04,  avg # of iterations =  4.1

     total cpu time spent up to now is        1.6 secs

     total energy              =    -323.97440994 Ry
     estimated scf accuracy    <       0.01556312 Ry

     iteration #  5     ecut=    65.00 Ry     beta= 0.70
     Davidson diagonalization with overlap
     ethr =  8.65E-05,  avg # of iterations =  2.4

     total cpu time spent up to now is        1.8 secs

     total energy              =    -323.97248564 Ry
     estimated scf accuracy    <       0.00812263 Ry

     iteration #  6     ecut=    65.00 Ry     beta= 0.70
     Davidson diagonalization with overlap
     ethr =  4.51E-05,  avg # of iterations =  2.1

     negative rho (up, down):  2.249E-08 0.000E+00

     total cpu time spent up to now is        2.0 secs

     total energy              =    -323.97265937 Ry
     estimated scf accuracy    <       0.00123057 Ry

     iteration #  7     ecut=    65.00 Ry     beta= 0.70
     Davidson diagonalization with overlap
     ethr =  6.84E-06,  avg # of iterations =  4.9

     negative rho (up, down):  9.740E-04 0.000E+00

     total cpu time spent up to now is        2.2 secs

     total energy              =    -323.97269308 Ry
     estimated scf accuracy    <       0.00022985 Ry

     iteration #  8     ecut=    65.00 Ry     beta= 0.70
     Davidson diagonalization with overlap
     ethr =  1.28E-06,  avg # of iterations =  5.1

     negative rho (up, down):  3.156E-04 0.000E+00

     total cpu time spent up to now is        2.4 secs

     total energy              =    -323.97274529 Ry
     estimated scf accuracy    <       0.00003184 Ry

     iteration #  9     ecut=    65.00 Ry     beta= 0.70
     Davidson diagonalization with overlap
     ethr =  1.77E-07,  avg # of iterations =  1.9

     negative rho (up, down):  2.353E-04 0.000E+00

     total cpu time spent up to now is        2.6 secs

     total energy              =    -323.97275282 Ry
     estimated scf accuracy    <       0.00000120 Ry

     iteration # 10     ecut=    65.00 Ry     beta= 0.70
     Davidson diagonalization with overlap
     ethr =  6.64E-09,  avg # of iterations =  3.7

     negative rho (up, down):  2.210E-04 0.000E+00

     total cpu time spent up to now is        2.8 secs

     End of self-consistent calculation

          k = 0.0000 0.0000 0.0000 (  4725 PWs)   bands (ev):

    -8.3955  -5.7069  -2.2386  -1.9216  -1.9216  -1.7521  -1.7521  -1.4731
    -0.2510  -0.2510   0.2408   0.4813   0.4813

          k = 0.0000 0.1155 0.0000 (  4697 PWs)   bands (ev):

    -7.9986  -5.3422  -2.2584  -2.1437  -2.0051  -1.7052  -1.5573  -1.4286
    -0.7244  -0.3265  -0.0207   0.4902   1.7892

          k = 0.0000 0.2309 0.0000 (  4694 PWs)   bands (ev):

    -6.9318  -4.4790  -2.8110  -2.4679  -2.0955  -1.6529  -1.2124  -1.0318
    -1.0164  -0.3892   0.4914   0.6420   3.4835

          k = 0.0000 0.3464 0.0000 (  4660 PWs)   bands (ev):

    -5.7160  -4.1578  -3.5080  -2.2500  -1.8750  -1.5931  -1.1189  -0.5703
    -0.2590   0.0610   0.4859   1.7291   5.5307

          k = 0.0000 0.4619 0.0000 (  4638 PWs)   bands (ev):

    -5.1065  -4.4873  -4.0012  -2.4390  -1.2500  -0.9997  -0.6479   0.2516
     0.6304   0.6548   0.7026   3.2621   7.9516

          k = 0.0000-0.5774 0.0000 (  4656 PWs)   bands (ev):

    -4.9524  -4.6968  -4.1773  -2.5325  -1.3100  -0.7164  -0.2518   0.3009
     0.8754   0.9848   2.1549   3.9380   8.9002

          k = 0.1000 0.1732 0.0000 (  4691 PWs)   bands (ev):

    -7.2586  -4.6914  -2.5425  -2.4730  -2.2259  -1.5950  -1.2306  -1.2040
    -1.0661  -0.2662   0.1708   0.6442   3.0062

          k = 0.1000 0.2887 0.0000 (  4681 PWs)   bands (ev):

    -6.0531  -3.8945  -3.1431  -2.6523  -2.3474  -1.8563  -1.1319  -0.7634
    -0.4125   0.0499   0.3051   1.4209   4.7834

          k = 0.1000 0.4041 0.0000 (  4655 PWs)   bands (ev):

    -5.1146  -4.0647  -3.7022  -2.3237  -1.7881  -1.6066  -1.1545  -0.3690
     0.1029   0.4828   1.0944   2.9410   7.0228

          k = 0.1000-0.6351 0.0000 (  4636 PWs)   bands (ev):

    -4.8014  -4.4054  -4.0164  -2.4364  -1.5209  -0.9926  -0.7297   0.1403
     0.3050   0.6760   2.6938   4.5742   9.0291

          k = 0.2000 0.3464 0.0000 (  4636 PWs)   bands (ev):

    -5.0346  -3.4341  -3.3908  -2.7016  -2.4432  -2.0441  -1.3340  -0.4281
    -0.0992   0.4465   1.2569   2.9363   6.7228

          k = 0.2000-0.6928 0.0000 (  4642 PWs)   bands (ev):

    -4.4862  -3.7343  -3.6048  -2.3052  -1.9581  -1.9057  -1.5108  -0.1890
    -0.0995   0.6169   3.1226   5.1948   9.1772

          k = 0.2000-0.5774 0.0000 (  4634 PWs)   bands (ev):

    -4.3473  -3.8985  -3.7067  -2.2490  -2.0039  -1.4884  -1.4325  -0.1721
     0.2627   0.3885   5.0102   6.1899   9.6081

          k = 0.3000-0.6351 0.0000 (  4636 PWs)   bands (ev):

    -4.1065  -3.4594  -3.4003  -2.2538  -2.1443  -1.9214  -1.8913  -0.3650
     0.1047   0.4034   5.8213   7.8165   9.3456

     the Fermi energy is     0.1529 ev

!    total energy              =    -323.97275332 Ry
     total all-electron energy =     -5573.660106 Ry
     estimated scf accuracy    <       0.00000001 Ry
     smearing contrib. (-TS)   =      -0.01065573 Ry
     internal energy E=F+TS    =    -323.96209758 Ry

     The total energy is F=E-TS. E is the sum of the following terms:
     one-electron contribution =    -814.12605089 Ry
     hartree contribution      =     424.13027349 Ry
     xc contribution           =     -65.30163408 Ry
     ewald contribution        =     304.45501759 Ry
     one-center paw contrib.   =    -173.11970369 Ry

     convergence has been achieved in  10 iterations

     negative rho (up, down):  2.210E-04 0.000E+00

     Forces acting on atoms (cartesian axes, Ry/au):

     atom    1 type  1   force =     0.00000000    0.00000000   -0.04413656
     atom    2 type  1   force =     0.00000000    0.00000000    0.04413656
     The non-local contrib.  to forces
     atom    1 type  1   force =     0.00000000   -0.00000000   -0.04738714
     atom    2 type  1   force =     0.00000000    0.00000000    0.04738714
     The ionic contribution  to forces
     atom    1 type  1   force =    -0.00000000    0.00000000  -47.44907402
     atom    2 type  1   force =     0.00000000    0.00000000   47.44907402
     The local contribution  to forces
     atom    1 type  1   force =    -0.00000000   -0.00000000   47.42921344
     atom    2 type  1   force =     0.00000000    0.00000000  -47.42921344
     The core correction contribution to forces
     atom    1 type  1   force =    -0.00000000   -0.00000000    0.02313046
     atom    2 type  1   force =     0.00000000    0.00000000   -0.02313046
     The Hubbard contrib.    to forces
     atom    1 type  1   force =     0.00000000    0.00000000    0.00000000
     atom    2 type  1   force =     0.00000000    0.00000000    0.00000000
     The SCF correction term to forces
     atom    1 type  1   force =     0.00000000    0.00000000   -0.00001929
     atom    2 type  1   force =    -0.00000000    0.00000000    0.00001929

     Total force =     0.062419     Total SCF correction =     0.000027


     Computing stress (Cartesian axis) and pressure


     negative rho (up, down):  2.210E-04 0.000E+00
          total   stress  (Ry/bohr**3)                   (kbar)     P=       63.80
   0.00050412   0.00000000   0.00000000           74.16        0.00        0.00
   0.00000000   0.00050412   0.00000000            0.00       74.16        0.00
   0.00000000   0.00000000   0.00029290            0.00        0.00       43.09


     Writing all to output data dir ./tmp/scf.save/
 
     init_run     :      0.30s CPU      0.49s WALL (       1 calls)
     electrons    :      1.92s CPU      2.08s WALL (       1 calls)
     forces       :      0.03s CPU      0.03s WALL (       1 calls)
     stress       :      0.11s CPU      0.11s WALL (       1 calls)

     Called by init_run:
     wfcinit      :      0.04s CPU      0.04s WALL (       1 calls)
     potinit      :      0.19s CPU      0.33s WALL (       1 calls)
     hinit0       :      0.06s CPU      0.09s WALL (       1 calls)

     Called by electrons:
     c_bands      :      1.02s CPU      1.11s WALL (      10 calls)
     sum_band     :      0.23s CPU      0.27s WALL (      10 calls)
     v_of_rho     :      0.03s CPU      0.03s WALL (      11 calls)
     newd         :      0.08s CPU      0.09s WALL (      11 calls)
     PAW_pot      :      0.73s CPU      0.89s WALL (      11 calls)
     mix_rho      :      0.00s CPU      0.01s WALL (      10 calls)

     Called by c_bands:
     init_us_2    :      0.02s CPU      0.02s WALL (     322 calls)
     init_us_2:cp :      0.02s CPU      0.02s WALL (     322 calls)
     cegterg      :      0.74s CPU      0.81s WALL (     140 calls)

     Called by *egterg:
     cdiaghg      :      0.09s CPU      0.10s WALL (     655 calls)
     h_psi        :      0.58s CPU      0.63s WALL (     669 calls)
     s_psi        :      0.01s CPU      0.01s WALL (     669 calls)
     g_psi        :      0.00s CPU      0.00s WALL (     515 calls)

     Called by h_psi:
     h_psi:calbec :      0.03s CPU      0.04s WALL (     669 calls)
     vloc_psi     :      0.53s CPU      0.57s WALL (     669 calls)
     add_vuspsi   :      0.01s CPU      0.01s WALL (     669 calls)

     General routines
     calbec       :      0.05s CPU      0.05s WALL (     879 calls)
     fft          :      0.04s CPU      0.08s WALL (     146 calls)
     ffts         :      0.00s CPU      0.00s WALL (      10 calls)
     fftw         :      0.57s CPU      0.63s WALL (   11828 calls)
 
     Parallel routines
 
     PWSCF        :      2.53s CPU      2.96s WALL

 
   This run was terminated on:  16:43:59   5Jun2025            

=------------------------------------------------------------------------------=
   JOB DONE.
=------------------------------------------------------------------------------=
