
     Program PWSCF v.7.2 starts on  5Jun2025 at 16:44: 7 

     This program is part of the open-source Quantum ESPRESSO suite
     for quantum simulation of materials; please cite
         "P. Giannozzi et al., J. Phys.:Condens. Matter 21 395502 (2009);
         "P. Giannozzi et al., J. Phys.:Condens. Matter 29 465901 (2017);
         "P. Giannozzi et al., J. Chem. Phys. 152 154105 (2020);
          URL http://www.quantum-espresso.org", 
     in publications or presentations arising from this work. More details at
     http://www.quantum-espresso.org/quote

     Parallel version (MPI), running on    16 processors

     MPI processes distributed on     1 nodes
     37498 MiB available memory on the printing compute node when the environment starts
 
     Waiting for input...
     Reading input from standard input

     Current dimensions of program PWSCF are:
     Max number of different atomic species (ntypx) = 10
     Max number of k-points (npk) =  40000
     Max angular momentum in pseudopotentials (lmaxx) =  4
     file Co.pbe-n-kjpaw_psl.1.0.0.UPF: wavefunction(s)  4S 3D renormalized
     Message from routine setup:
     using ibrav=0 with symmetry is DISCOURAGED, use correct ibrav instead
 
     R & G space division:  proc/nbgrp/npool/nimage =      16
     Subspace diagonalization in iterative solution of the eigenvalue problem:
     a serial algorithm will be used

 
     Parallelization info
     --------------------
     sticks:   dense  smooth     PW     G-vecs:    dense   smooth      PW
     Min          22      22      6                 2415     2415     412
     Max          23      23      7                 2428     2428     441
     Sum         361     361    109                38757    38757    6909
 
     Using Slab Decomposition
 


     bravais-lattice index     =            0
     lattice parameter (alat)  =       4.4409  a.u.
     unit-cell volume          =     545.8419 (a.u.)^3
     number of atoms/cell      =            2
     number of atomic types    =            1
     number of electrons       =        18.00
     number of Kohn-Sham states=           13
     kinetic-energy cutoff     =      65.0000  Ry
     charge density cutoff     =     260.0000  Ry
     scf convergence threshold =      1.0E-06
     mixing beta               =       0.7000
     number of iterations used =            8  plain     mixing
     Exchange-correlation= SLA  PW   PBX  PBC
                           (   1   4   3   4   0   0   0)

     celldm(1)=   4.440856  celldm(2)=   0.000000  celldm(3)=   0.000000
     celldm(4)=   0.000000  celldm(5)=   0.000000  celldm(6)=   0.000000

     crystal axes: (cart. coord. in units of alat)
               a(1) = (   1.000000   0.000000   0.000000 )  
               a(2) = (   0.500000   0.866025   0.000000 )  
               a(3) = (   0.000000   0.000000   7.196744 )  

     reciprocal axes: (cart. coord. in units 2 pi/alat)
               b(1) = (  1.000000 -0.577350  0.000000 )  
               b(2) = (  0.000000  1.154701  0.000000 )  
               b(3) = (  0.000000  0.000000  0.138952 )  


     PseudoPot. # 1 for Co read from file:
     /shared/ESPRESSO/PSLIBRARY/1.0.0/pbe/PSEUDOPOTENTIALS/Co.pbe-n-kjpaw_psl.1.0.0.UPF
     MD5 check sum: 17e7ab8db721b244d1352252ea6cb8e7
     Pseudo is Projector augmented-wave + core cor, Zval =  9.0
     Generated using "atomic" code by A. Dal Corso  (Quantum ESPRESSO distribution)
     Shape of augmentation charge: PSQ
     Using radial grid of 1193 points,  6 beta functions with: 
                l(1) =   0
                l(2) =   0
                l(3) =   1
                l(4) =   1
                l(5) =   2
                l(6) =   2
     Q(r) pseudized with 0 coefficients 


     atomic species   valence    mass     pseudopotential
        Co             9.00    58.93320     Co( 1.00)

     12 Sym. Ops., with inversion, found ( 6 have fractional translation)



   Cartesian axes

     site n.     atom                  positions (alat units)
         1           Co  tau(   1) = (   1.0000000   0.5773503   3.1914894  )
         2           Co  tau(   2) = (   0.0000000   0.0000000   4.0052544  )

     number of k points=    14  Fermi-Dirac smearing, width (Ry)=  0.0070
                       cart. coord. in units 2pi/alat
        k(    1) = (   0.0000000   0.0000000   0.0000000), wk =   0.0200000
        k(    2) = (   0.0000000   0.1154701   0.0000000), wk =   0.1200000
        k(    3) = (   0.0000000   0.2309401   0.0000000), wk =   0.1200000
        k(    4) = (   0.0000000   0.3464102   0.0000000), wk =   0.1200000
        k(    5) = (   0.0000000   0.4618802   0.0000000), wk =   0.1200000
        k(    6) = (   0.0000000  -0.5773503   0.0000000), wk =   0.0600000
        k(    7) = (   0.1000000   0.1732051   0.0000000), wk =   0.1200000
        k(    8) = (   0.1000000   0.2886751   0.0000000), wk =   0.2400000
        k(    9) = (   0.1000000   0.4041452   0.0000000), wk =   0.2400000
        k(   10) = (   0.1000000  -0.6350853   0.0000000), wk =   0.2400000
        k(   11) = (   0.2000000   0.3464102   0.0000000), wk =   0.1200000
        k(   12) = (   0.2000000  -0.6928203   0.0000000), wk =   0.2400000
        k(   13) = (   0.2000000  -0.5773503   0.0000000), wk =   0.1200000
        k(   14) = (   0.3000000  -0.6350853   0.0000000), wk =   0.1200000

     Dense  grid:    38757 G-vectors     FFT dimensions: (  24,  24, 180)

     Estimated max dynamical RAM per process >      11.29 MB

     Estimated total dynamical RAM >     180.58 MB

     Check: negative core charge=   -0.000002

     Initial potential from superposition of free atoms

     starting charge      17.9994, renormalised to      18.0000

     negative rho (up, down):  1.670E-04 0.000E+00
     Starting wfcs are   18 randomized atomic wfcs
     Checking if some PAW data can be deallocated... 

     total cpu time spent up to now is        0.5 secs

     Self-consistent Calculation

     iteration #  1     ecut=    65.00 Ry     beta= 0.70
     Davidson diagonalization with overlap
     ethr =  1.00E-02,  avg # of iterations =  2.6

     negative rho (up, down):  1.468E-04 0.000E+00

     total cpu time spent up to now is        0.7 secs

     total energy              =    -323.79020871 Ry
     estimated scf accuracy    <       0.30825819 Ry

     iteration #  2     ecut=    65.00 Ry     beta= 0.70
     Davidson diagonalization with overlap
     ethr =  1.71E-03,  avg # of iterations =  6.4

     total cpu time spent up to now is        0.9 secs

     total energy              =    -323.43090913 Ry
     estimated scf accuracy    <       3.53672904 Ry

     iteration #  3     ecut=    65.00 Ry     beta= 0.70
     Davidson diagonalization with overlap
     ethr =  1.71E-03,  avg # of iterations =  3.2

     total cpu time spent up to now is        1.1 secs

     total energy              =    -323.98151941 Ry
     estimated scf accuracy    <       0.03301972 Ry

     iteration #  4     ecut=    65.00 Ry     beta= 0.70
     Davidson diagonalization with overlap
     ethr =  1.83E-04,  avg # of iterations =  4.4

     total cpu time spent up to now is        1.4 secs

     total energy              =    -323.98196760 Ry
     estimated scf accuracy    <       0.01366457 Ry

     iteration #  5     ecut=    65.00 Ry     beta= 0.70
     Davidson diagonalization with overlap
     ethr =  7.59E-05,  avg # of iterations =  2.4

     total cpu time spent up to now is        1.6 secs

     total energy              =    -323.98099840 Ry
     estimated scf accuracy    <       0.00556361 Ry

     iteration #  6     ecut=    65.00 Ry     beta= 0.70
     Davidson diagonalization with overlap
     ethr =  3.09E-05,  avg # of iterations =  3.1

     negative rho (up, down):  3.369E-08 0.000E+00

     total cpu time spent up to now is        1.8 secs

     total energy              =    -323.98115981 Ry
     estimated scf accuracy    <       0.00091732 Ry

     iteration #  7     ecut=    65.00 Ry     beta= 0.70
     Davidson diagonalization with overlap
     ethr =  5.10E-06,  avg # of iterations =  4.3

     negative rho (up, down):  7.559E-04 0.000E+00

     total cpu time spent up to now is        2.0 secs

     total energy              =    -323.98121092 Ry
     estimated scf accuracy    <       0.00013390 Ry

     iteration #  8     ecut=    65.00 Ry     beta= 0.70
     Davidson diagonalization with overlap
     ethr =  7.44E-07,  avg # of iterations =  3.6

     negative rho (up, down):  2.927E-04 0.000E+00

     total cpu time spent up to now is        2.2 secs

     total energy              =    -323.98124391 Ry
     estimated scf accuracy    <       0.00001810 Ry

     iteration #  9     ecut=    65.00 Ry     beta= 0.70
     Davidson diagonalization with overlap
     ethr =  1.01E-07,  avg # of iterations =  2.0

     negative rho (up, down):  2.210E-04 0.000E+00

     total cpu time spent up to now is        2.4 secs

     End of self-consistent calculation

          k = 0.0000 0.0000 0.0000 (  4847 PWs)   bands (ev):

    -8.2668  -5.5857  -2.2204  -1.9249  -1.9249  -1.7693  -1.7693  -1.4987
    -0.3761  -0.3761   0.1797   0.3023   0.3023

          k = 0.0000 0.1155 0.0000 (  4844 PWs)   bands (ev):

    -7.8841  -5.2351  -2.2391  -2.1310  -2.0040  -1.7237  -1.5881  -1.4627
    -0.7901  -0.4458  -0.1515   0.3103   1.6097

          k = 0.0000 0.2309 0.0000 (  4846 PWs)   bands (ev):

    -6.8461  -4.3932  -2.7490  -2.4404  -2.0950  -1.6764  -1.2647  -1.0995
    -1.0736  -0.5045   0.3113   0.4774   3.2555

          k = 0.0000 0.3464 0.0000 (  4836 PWs)   bands (ev):

    -5.6205  -4.0383  -3.3983  -2.2318  -1.9070  -1.6454  -1.1767  -0.6681
    -0.3825  -0.0878   0.3065   1.5075   5.2485

          k = 0.0000 0.4619 0.0000 (  4852 PWs)   bands (ev):

    -4.9518  -4.3384  -3.8595  -2.4042  -1.2982  -1.0813  -0.7580   0.0892
     0.4395   0.4636   0.5069   2.9815   7.5990

          k = 0.0000-0.5774 0.0000 (  4832 PWs)   bands (ev):

    -4.7589  -4.5533  -4.0245  -2.4909  -1.3539  -0.8146  -0.3812   0.1347
     0.6673   0.7683   1.9151   3.6102   8.3778

          k = 0.1000 0.1732 0.0000 (  4847 PWs)   bands (ev):

    -7.1669  -4.6063  -2.4995  -2.4408  -2.2120  -1.6189  -1.2809  -1.2595
    -1.1237  -0.3876   0.0261   0.4635   2.7907

          k = 0.1000 0.2887 0.0000 (  4833 PWs)   bands (ev):

    -5.9774  -3.8123  -3.0590  -2.6227  -2.3321  -1.8651  -1.1897  -0.8454
    -0.5256  -0.0991   0.1417   1.2104   4.5199

          k = 0.1000 0.4041 0.0000 (  4815 PWs)   bands (ev):

    -4.9965  -3.9407  -3.5813  -2.2993  -1.8203  -1.6536  -1.2183  -0.4816
    -0.0472   0.3042   0.8698   2.6650   6.6974

          k = 0.1000-0.6351 0.0000 (  4842 PWs)   bands (ev):

    -4.6316  -4.2705  -3.8755  -2.4017  -1.5505  -1.0729  -0.8310  -0.0128
     0.1398   0.4828   2.3978   4.2301   8.4820

          k = 0.2000 0.3464 0.0000 (  4832 PWs)   bands (ev):

    -4.9424  -3.3368  -3.2982  -2.6864  -2.4316  -2.0381  -1.3783  -0.5357
    -0.2323   0.2701   1.0202   2.6568   6.4041

          k = 0.2000-0.6928 0.0000 (  4821 PWs)   bands (ev):

    -4.3490  -3.6334  -3.4965  -2.2852  -1.9769  -1.9206  -1.5510  -0.3150
    -0.2336   0.4272   2.7860   4.8301   8.7810

          k = 0.2000-0.5774 0.0000 (  4822 PWs)   bands (ev):

    -4.1874  -3.7999  -3.5926  -2.2290  -2.0006  -1.5358  -1.4842  -0.2998
     0.1004   0.2162   4.6271   5.7422   9.0573

          k = 0.3000-0.6351 0.0000 (  4794 PWs)   bands (ev):

    -3.9607  -3.3799  -3.3143  -2.2422  -2.1362  -1.9383  -1.9034  -0.4768
    -0.0457   0.2299   5.3821   7.3516   8.7955

     the Fermi energy is    -0.0003 ev

!    total energy              =    -323.98124571 Ry
     total all-electron energy =     -5573.668598 Ry
     estimated scf accuracy    <       0.00000097 Ry
     smearing contrib. (-TS)   =      -0.01143105 Ry
     internal energy E=F+TS    =    -323.96981466 Ry

     The total energy is F=E-TS. E is the sum of the following terms:
     one-electron contribution =    -785.05015551 Ry
     hartree contribution      =     409.52478577 Ry
     xc contribution           =     -65.22437354 Ry
     ewald contribution        =     289.89020049 Ry
     one-center paw contrib.   =    -173.11027187 Ry

     convergence has been achieved in   9 iterations

     negative rho (up, down):  2.210E-04 0.000E+00

     Forces acting on atoms (cartesian axes, Ry/au):

     atom    1 type  1   force =     0.00000000    0.00000000   -0.01901360
     atom    2 type  1   force =    -0.00000000    0.00000000    0.01901360
     The non-local contrib.  to forces
     atom    1 type  1   force =     0.00000000    0.00000000   -0.06174037
     atom    2 type  1   force =     0.00000000   -0.00000000    0.06174037
     The ionic contribution  to forces
     atom    1 type  1   force =    -0.00000000   -0.00000000  -45.64366982
     atom    2 type  1   force =     0.00000000   -0.00000000   45.64366982
     The local contribution  to forces
     atom    1 type  1   force =    -0.00000000   -0.00000000   45.66352833
     atom    2 type  1   force =     0.00000000    0.00000000  -45.66352833
     The core correction contribution to forces
     atom    1 type  1   force =    -0.00000000   -0.00000000    0.02034234
     atom    2 type  1   force =     0.00000000    0.00000000   -0.02034234
     The Hubbard contrib.    to forces
     atom    1 type  1   force =     0.00000000    0.00000000    0.00000000
     atom    2 type  1   force =     0.00000000    0.00000000    0.00000000
     The SCF correction term to forces
     atom    1 type  1   force =    -0.00000000   -0.00000000    0.00252592
     atom    2 type  1   force =     0.00000000   -0.00000000   -0.00252592

     Total force =     0.026889     Total SCF correction =     0.003572
     SCF correction compared to forces is large: reduce conv_thr to get better values


     Computing stress (Cartesian axis) and pressure


     negative rho (up, down):  2.210E-04 0.000E+00
          total   stress  (Ry/bohr**3)                   (kbar)     P=       23.67
   0.00018910   0.00000000   0.00000000           27.82        0.00        0.00
   0.00000000   0.00018910   0.00000000            0.00       27.82        0.00
   0.00000000  -0.00000000   0.00010448            0.00       -0.00       15.37


     Writing all to output data dir ./tmp/scf.save/
 
     init_run     :      0.27s CPU      0.38s WALL (       1 calls)
     electrons    :      1.73s CPU      1.90s WALL (       1 calls)
     forces       :      0.04s CPU      0.05s WALL (       1 calls)
     stress       :      0.17s CPU      0.17s WALL (       1 calls)

     Called by init_run:
     wfcinit      :      0.04s CPU      0.04s WALL (       1 calls)
     potinit      :      0.07s CPU      0.08s WALL (       1 calls)
     hinit0       :      0.14s CPU      0.24s WALL (       1 calls)

     Called by electrons:
     c_bands      :      0.90s CPU      1.01s WALL (       9 calls)
     sum_band     :      0.20s CPU      0.24s WALL (       9 calls)
     v_of_rho     :      0.02s CPU      0.03s WALL (      10 calls)
     newd         :      0.08s CPU      0.09s WALL (      10 calls)
     PAW_pot      :      0.59s CPU      0.61s WALL (      10 calls)
     mix_rho      :      0.00s CPU      0.01s WALL (       9 calls)

     Called by c_bands:
     init_us_2    :      0.02s CPU      0.02s WALL (     294 calls)
     init_us_2:cp :      0.02s CPU      0.02s WALL (     294 calls)
     cegterg      :      0.66s CPU      0.76s WALL (     126 calls)

     Called by *egterg:
     cdiaghg      :      0.08s CPU      0.09s WALL (     575 calls)
     h_psi        :      0.52s CPU      0.59s WALL (     589 calls)
     s_psi        :      0.01s CPU      0.01s WALL (     589 calls)
     g_psi        :      0.00s CPU      0.00s WALL (     449 calls)

     Called by h_psi:
     h_psi:calbec :      0.03s CPU      0.03s WALL (     589 calls)
     vloc_psi     :      0.47s CPU      0.54s WALL (     589 calls)
     add_vuspsi   :      0.01s CPU      0.01s WALL (     589 calls)

     General routines
     calbec       :      0.07s CPU      0.07s WALL (     785 calls)
     fft          :      0.11s CPU      0.21s WALL (     135 calls)
     ffts         :      0.00s CPU      0.00s WALL (       9 calls)
     fftw         :      0.52s CPU      0.60s WALL (   10648 calls)
 
     Parallel routines
 
     PWSCF        :      2.31s CPU      2.63s WALL

 
   This run was terminated on:  16:44:10   5Jun2025            

=------------------------------------------------------------------------------=
   JOB DONE.
=------------------------------------------------------------------------------=
