
     Program PWSCF v.7.2 starts on  5Jun2025 at 16:44:18 

     This program is part of the open-source Quantum ESPRESSO suite
     for quantum simulation of materials; please cite
         "P. Giannozzi et al., J. Phys.:Condens. Matter 21 395502 (2009);
         "P. Giannozzi et al., J. Phys.:Condens. Matter 29 465901 (2017);
         "P. Giannozzi et al., J. Chem. Phys. 152 154105 (2020);
          URL http://www.quantum-espresso.org", 
     in publications or presentations arising from this work. More details at
     http://www.quantum-espresso.org/quote

     Parallel version (MPI), running on    16 processors

     MPI processes distributed on     1 nodes
     37583 MiB available memory on the printing compute node when the environment starts
 
     Waiting for input...
     Reading input from standard input

     Current dimensions of program PWSCF are:
     Max number of different atomic species (ntypx) = 10
     Max number of k-points (npk) =  40000
     Max angular momentum in pseudopotentials (lmaxx) =  4
     file Co.pbe-n-kjpaw_psl.1.0.0.UPF: wavefunction(s)  4S 3D renormalized
     Message from routine setup:
     using ibrav=0 with symmetry is DISCOURAGED, use correct ibrav instead
 
     R & G space division:  proc/nbgrp/npool/nimage =      16
     Subspace diagonalization in iterative solution of the eigenvalue problem:
     a serial algorithm will be used

 
     Parallelization info
     --------------------
     sticks:   dense  smooth     PW     G-vecs:    dense   smooth      PW
     Min          22      22      7                 2496     2496     445
     Max          23      23      8                 2515     2515     458
     Sum         367     367    121                40167    40167    7209
 
     Using Slab Decomposition
 


     bravais-lattice index     =            0
     lattice parameter (alat)  =       4.5164  a.u.
     unit-cell volume          =     565.6685 (a.u.)^3
     number of atoms/cell      =            2
     number of atomic types    =            1
     number of electrons       =        18.00
     number of Kohn-Sham states=           13
     kinetic-energy cutoff     =      65.0000  Ry
     charge density cutoff     =     260.0000  Ry
     scf convergence threshold =      1.0E-06
     mixing beta               =       0.7000
     number of iterations used =            8  plain     mixing
     Exchange-correlation= SLA  PW   PBX  PBC
                           (   1   4   3   4   0   0   0)

     celldm(1)=   4.516445  celldm(2)=   0.000000  celldm(3)=   0.000000
     celldm(4)=   0.000000  celldm(5)=   0.000000  celldm(6)=   0.000000

     crystal axes: (cart. coord. in units of alat)
               a(1) = (   1.000000   0.000000   0.000000 )  
               a(2) = (   0.500000   0.866025   0.000000 )  
               a(3) = (   0.000000   0.000000   7.089916 )  

     reciprocal axes: (cart. coord. in units 2 pi/alat)
               b(1) = (  1.000000 -0.577350  0.000000 )  
               b(2) = (  0.000000  1.154701  0.000000 )  
               b(3) = (  0.000000  0.000000  0.141045 )  


     PseudoPot. # 1 for Co read from file:
     /shared/ESPRESSO/PSLIBRARY/1.0.0/pbe/PSEUDOPOTENTIALS/Co.pbe-n-kjpaw_psl.1.0.0.UPF
     MD5 check sum: 17e7ab8db721b244d1352252ea6cb8e7
     Pseudo is Projector augmented-wave + core cor, Zval =  9.0
     Generated using "atomic" code by A. Dal Corso  (Quantum ESPRESSO distribution)
     Shape of augmentation charge: PSQ
     Using radial grid of 1193 points,  6 beta functions with: 
                l(1) =   0
                l(2) =   0
                l(3) =   1
                l(4) =   1
                l(5) =   2
                l(6) =   2
     Q(r) pseudized with 0 coefficients 


     atomic species   valence    mass     pseudopotential
        Co             9.00    58.93320     Co( 1.00)

     12 Sym. Ops., with inversion, found ( 6 have fractional translation)



   Cartesian axes

     site n.     atom                  positions (alat units)
         1           Co  tau(   1) = (   1.0000000   0.5773503   3.1380753  )
         2           Co  tau(   2) = (   0.0000000   0.0000000   3.9518403  )

     number of k points=    14  Fermi-Dirac smearing, width (Ry)=  0.0070
                       cart. coord. in units 2pi/alat
        k(    1) = (   0.0000000   0.0000000   0.0000000), wk =   0.0200000
        k(    2) = (   0.0000000   0.1154701   0.0000000), wk =   0.1200000
        k(    3) = (   0.0000000   0.2309401   0.0000000), wk =   0.1200000
        k(    4) = (   0.0000000   0.3464102   0.0000000), wk =   0.1200000
        k(    5) = (   0.0000000   0.4618802   0.0000000), wk =   0.1200000
        k(    6) = (   0.0000000  -0.5773503   0.0000000), wk =   0.0600000
        k(    7) = (   0.1000000   0.1732051   0.0000000), wk =   0.1200000
        k(    8) = (   0.1000000   0.2886751   0.0000000), wk =   0.2400000
        k(    9) = (   0.1000000   0.4041452   0.0000000), wk =   0.2400000
        k(   10) = (   0.1000000  -0.6350853   0.0000000), wk =   0.2400000
        k(   11) = (   0.2000000   0.3464102   0.0000000), wk =   0.1200000
        k(   12) = (   0.2000000  -0.6928203   0.0000000), wk =   0.2400000
        k(   13) = (   0.2000000  -0.5773503   0.0000000), wk =   0.1200000
        k(   14) = (   0.3000000  -0.6350853   0.0000000), wk =   0.1200000

     Dense  grid:    40167 G-vectors     FFT dimensions: (  24,  24, 180)

     Estimated max dynamical RAM per process >      11.63 MB

     Estimated total dynamical RAM >     186.05 MB

     Check: negative core charge=   -0.000002

     Initial potential from superposition of free atoms

     starting charge      17.9994, renormalised to      18.0000

     negative rho (up, down):  1.548E-04 0.000E+00
     Starting wfcs are   18 randomized atomic wfcs
     Checking if some PAW data can be deallocated... 

     total cpu time spent up to now is        1.0 secs

     Self-consistent Calculation

     iteration #  1     ecut=    65.00 Ry     beta= 0.70
     Davidson diagonalization with overlap
     ethr =  1.00E-02,  avg # of iterations =  2.3

     negative rho (up, down):  1.160E-04 0.000E+00

     total cpu time spent up to now is        1.2 secs

     total energy              =    -323.79319759 Ry
     estimated scf accuracy    <       0.30193723 Ry

     iteration #  2     ecut=    65.00 Ry     beta= 0.70
     Davidson diagonalization with overlap
     ethr =  1.68E-03,  avg # of iterations =  6.2

     total cpu time spent up to now is        1.4 secs

     total energy              =    -323.46247501 Ry
     estimated scf accuracy    <       3.43724232 Ry

     iteration #  3     ecut=    65.00 Ry     beta= 0.70
     Davidson diagonalization with overlap
     ethr =  1.68E-03,  avg # of iterations =  3.4

     total cpu time spent up to now is        1.6 secs

     total energy              =    -323.98309978 Ry
     estimated scf accuracy    <       0.02771100 Ry

     iteration #  4     ecut=    65.00 Ry     beta= 0.70
     Davidson diagonalization with overlap
     ethr =  1.54E-04,  avg # of iterations =  4.8

     total cpu time spent up to now is        1.9 secs

     total energy              =    -323.98384881 Ry
     estimated scf accuracy    <       0.01120782 Ry

     iteration #  5     ecut=    65.00 Ry     beta= 0.70
     Davidson diagonalization with overlap
     ethr =  6.23E-05,  avg # of iterations =  1.9

     total cpu time spent up to now is        2.1 secs

     total energy              =    -323.98327272 Ry
     estimated scf accuracy    <       0.00410247 Ry

     iteration #  6     ecut=    65.00 Ry     beta= 0.70
     Davidson diagonalization with overlap
     ethr =  2.28E-05,  avg # of iterations =  2.4

     negative rho (up, down):  4.586E-08 0.000E+00

     total cpu time spent up to now is        2.3 secs

     total energy              =    -323.98349097 Ry
     estimated scf accuracy    <       0.00062479 Ry

     iteration #  7     ecut=    65.00 Ry     beta= 0.70
     Davidson diagonalization with overlap
     ethr =  3.47E-06,  avg # of iterations =  6.2

     negative rho (up, down):  3.239E-04 0.000E+00

     total cpu time spent up to now is        2.5 secs

     total energy              =    -323.98353018 Ry
     estimated scf accuracy    <       0.00011255 Ry

     iteration #  8     ecut=    65.00 Ry     beta= 0.70
     Davidson diagonalization with overlap
     ethr =  6.25E-07,  avg # of iterations =  2.6

     negative rho (up, down):  2.504E-04 0.000E+00

     total cpu time spent up to now is        2.7 secs

     total energy              =    -323.98355348 Ry
     estimated scf accuracy    <       0.00000443 Ry

     iteration #  9     ecut=    65.00 Ry     beta= 0.70
     Davidson diagonalization with overlap
     ethr =  2.46E-08,  avg # of iterations =  3.4

     negative rho (up, down):  2.044E-04 0.000E+00

     total cpu time spent up to now is        2.9 secs

     End of self-consistent calculation

          k = 0.0000 0.0000 0.0000 (  4961 PWs)   bands (ev):

    -8.1541  -5.4900  -2.2242  -1.9499  -1.9499  -1.8067  -1.8067  -1.5389
    -0.5115  -0.5115   0.1110   0.1178   0.1178

          k = 0.0000 0.1155 0.0000 (  4990 PWs)   bands (ev):

    -7.7850  -5.1524  -2.2423  -2.1402  -2.0237  -1.7625  -1.6379  -1.5130
    -0.8698  -0.5760  -0.2916   0.1251   1.4305

          k = 0.0000 0.2309 0.0000 (  4990 PWs)   bands (ev):

    -6.7753  -4.3320  -2.7133  -2.4352  -2.1132  -1.7181  -1.3343  -1.1832
    -1.1463  -0.6313   0.1258   0.3062   3.0294

          k = 0.0000 0.3464 0.0000 (  5008 PWs)   bands (ev):

    -5.5470  -3.9484  -3.3185  -2.2356  -1.9536  -1.7096  -1.2511  -0.7782
    -0.5171  -0.2452   0.1214   1.2839   4.9702

          k = 0.0000 0.4619 0.0000 (  5024 PWs)   bands (ev):

    -4.8295  -4.2200  -3.7500  -2.3932  -1.3638  -1.1745  -0.8764  -0.0803
     0.2467   0.2674   0.3068   2.7051   7.2524

          k = 0.0000-0.5774 0.0000 (  5036 PWs)   bands (ev):

    -4.6017  -4.4400  -3.9047  -2.4737  -1.4155  -0.9235  -0.5185  -0.0381
     0.4558   0.5491   1.6786   3.2909   7.8633

          k = 0.1000 0.1732 0.0000 (  4995 PWs)   bands (ev):

    -7.0895  -4.5446  -2.4819  -2.4313  -2.2188  -1.6614  -1.3487  -1.3317
    -1.1963  -0.5196  -0.1276   0.2781   2.5767

          k = 0.1000 0.2887 0.0000 (  4991 PWs)   bands (ev):

    -5.9186  -3.7563  -3.0028  -2.6138  -2.3365  -1.8937  -1.2637  -0.9411
    -0.6503  -0.2564  -0.0288   0.9969   4.2598

          k = 0.1000 0.4041 0.0000 (  5025 PWs)   bands (ev):

    -4.9055  -3.8460  -3.4909  -2.2976  -1.8680  -1.7149  -1.2961  -0.6056
    -0.2054   0.1198   0.6441   2.3913   6.3777

          k = 0.1000-0.6351 0.0000 (  5008 PWs)   bands (ev):

    -4.4970  -4.1638  -3.7666  -2.3910  -1.5991  -1.1652  -0.9417  -0.1737
    -0.0320   0.2851   2.1073   3.8954   7.9457

          k = 0.2000 0.3464 0.0000 (  4996 PWs)   bands (ev):

    -4.8737  -3.2683  -3.2329  -2.6901  -2.4382  -2.0538  -1.4400  -0.6550
    -0.3753   0.0879   0.7835   2.3792   6.0913

          k = 0.2000-0.6928 0.0000 (  5013 PWs)   bands (ev):

    -4.2428  -3.5586  -3.4171  -2.2876  -2.0130  -1.9539  -1.6070  -0.4516
    -0.3770   0.2329   2.4571   4.4734   8.3929

          k = 0.2000-0.5774 0.0000 (  4998 PWs)   bands (ev):

    -4.0606  -3.7274  -3.5076  -2.2317  -2.0188  -1.5976  -1.5502  -0.4379
    -0.0688   0.0380   4.2552   5.3089   8.5201

          k = 0.3000-0.6351 0.0000 (  4988 PWs)   bands (ev):

    -3.8469  -3.3250  -3.2544  -2.2517  -2.1493  -1.9729  -1.9341  -0.6006
    -0.2040   0.0505   4.9564   6.9008   8.2642

     the Fermi energy is    -0.1617 ev

!    total energy              =    -323.98355431 Ry
     total all-electron energy =     -5573.670907 Ry
     estimated scf accuracy    <       0.00000077 Ry
     smearing contrib. (-TS)   =      -0.01224767 Ry
     internal energy E=F+TS    =    -323.97130664 Ry

     The total energy is F=E-TS. E is the sum of the following terms:
     one-electron contribution =    -757.57659680 Ry
     hartree contribution      =     395.72992354 Ry
     xc contribution           =     -65.15536903 Ry
     ewald contribution        =     276.13244667 Ry
     one-center paw contrib.   =    -173.10171102 Ry

     convergence has been achieved in   9 iterations

     negative rho (up, down):  2.044E-04 0.000E+00

     Forces acting on atoms (cartesian axes, Ry/au):

     atom    1 type  1   force =     0.00000000    0.00000000    0.00082571
     atom    2 type  1   force =     0.00000000   -0.00000000   -0.00082571
     The non-local contrib.  to forces
     atom    1 type  1   force =     0.00000000   -0.00000000   -0.07508153
     atom    2 type  1   force =    -0.00000000    0.00000000    0.07508153
     The ionic contribution  to forces
     atom    1 type  1   force =    -0.00000000    0.00000000  -43.93229366
     atom    2 type  1   force =     0.00000000    0.00000000   43.93229366
     The local contribution  to forces
     atom    1 type  1   force =    -0.00000000   -0.00000000   43.98779454
     atom    2 type  1   force =     0.00000000    0.00000000  -43.98779454
     The core correction contribution to forces
     atom    1 type  1   force =    -0.00000000   -0.00000000    0.01788665
     atom    2 type  1   force =     0.00000000    0.00000000   -0.01788665
     The Hubbard contrib.    to forces
     atom    1 type  1   force =     0.00000000    0.00000000    0.00000000
     atom    2 type  1   force =     0.00000000    0.00000000    0.00000000
     The SCF correction term to forces
     atom    1 type  1   force =    -0.00000000    0.00000000    0.00251971
     atom    2 type  1   force =    -0.00000000    0.00000000   -0.00251971

     Total force =     0.001168     Total SCF correction =     0.003563
     SCF correction compared to forces is large: reduce conv_thr to get better values


     Computing stress (Cartesian axis) and pressure


     negative rho (up, down):  2.044E-04 0.000E+00
          total   stress  (Ry/bohr**3)                   (kbar)     P=       -4.20
  -0.00003621   0.00000000   0.00000000           -5.33        0.00        0.00
   0.00000000  -0.00003621   0.00000000            0.00       -5.33        0.00
   0.00000000   0.00000000  -0.00001326            0.00        0.00       -1.95


     Writing all to output data dir ./tmp/scf.save/
 
     init_run     :      0.21s CPU      0.64s WALL (       1 calls)
     electrons    :      1.72s CPU      1.90s WALL (       1 calls)
     forces       :      0.03s CPU      0.03s WALL (       1 calls)
     stress       :      0.11s CPU      0.11s WALL (       1 calls)

     Called by init_run:
     wfcinit      :      0.04s CPU      0.05s WALL (       1 calls)
     potinit      :      0.08s CPU      0.48s WALL (       1 calls)
     hinit0       :      0.07s CPU      0.09s WALL (       1 calls)

     Called by electrons:
     c_bands      :      0.94s CPU      1.06s WALL (       9 calls)
     sum_band     :      0.18s CPU      0.22s WALL (       9 calls)
     v_of_rho     :      0.02s CPU      0.03s WALL (      10 calls)
     newd         :      0.09s CPU      0.09s WALL (      10 calls)
     PAW_pot      :      0.56s CPU      0.97s WALL (      10 calls)
     mix_rho      :      0.00s CPU      0.01s WALL (       9 calls)

     Called by c_bands:
     init_us_2    :      0.02s CPU      0.02s WALL (     294 calls)
     init_us_2:cp :      0.02s CPU      0.02s WALL (     294 calls)
     cegterg      :      0.71s CPU      0.82s WALL (     126 calls)

     Called by *egterg:
     cdiaghg      :      0.09s CPU      0.09s WALL (     589 calls)
     h_psi        :      0.56s CPU      0.65s WALL (     603 calls)
     s_psi        :      0.01s CPU      0.01s WALL (     603 calls)
     g_psi        :      0.00s CPU      0.00s WALL (     463 calls)

     Called by h_psi:
     h_psi:calbec :      0.03s CPU      0.04s WALL (     603 calls)
     vloc_psi     :      0.51s CPU      0.60s WALL (     603 calls)
     add_vuspsi   :      0.01s CPU      0.01s WALL (     603 calls)

     General routines
     calbec       :      0.05s CPU      0.05s WALL (     799 calls)
     fft          :      0.04s CPU      0.06s WALL (     135 calls)
     ffts         :      0.00s CPU      0.00s WALL (       9 calls)
     fftw         :      0.54s CPU      0.63s WALL (   10776 calls)
 
     Parallel routines
 
     PWSCF        :      2.31s CPU      3.03s WALL

 
   This run was terminated on:  16:44:21   5Jun2025            

=------------------------------------------------------------------------------=
   JOB DONE.
=------------------------------------------------------------------------------=
