
     Program PWSCF v.7.2 starts on  5Jun2025 at 16:44:29 

     This program is part of the open-source Quantum ESPRESSO suite
     for quantum simulation of materials; please cite
         "P. Giannozzi et al., J. Phys.:Condens. Matter 21 395502 (2009);
         "P. Giannozzi et al., J. Phys.:Condens. Matter 29 465901 (2017);
         "P. Giannozzi et al., J. Chem. Phys. 152 154105 (2020);
          URL http://www.quantum-espresso.org", 
     in publications or presentations arising from this work. More details at
     http://www.quantum-espresso.org/quote

     Parallel version (MPI), running on    16 processors

     MPI processes distributed on     1 nodes
     38578 MiB available memory on the printing compute node when the environment starts
 
     Waiting for input...
     Reading input from standard input

     Current dimensions of program PWSCF are:
     Max number of different atomic species (ntypx) = 10
     Max number of k-points (npk) =  40000
     Max angular momentum in pseudopotentials (lmaxx) =  4
     file Co.pbe-n-kjpaw_psl.1.0.0.UPF: wavefunction(s)  4S 3D renormalized
     Message from routine setup:
     using ibrav=0 with symmetry is DISCOURAGED, use correct ibrav instead
 
     R & G space division:  proc/nbgrp/npool/nimage =      16
     Subspace diagonalization in iterative solution of the eigenvalue problem:
     a serial algorithm will be used

 
     Parallelization info
     --------------------
     sticks:   dense  smooth     PW     G-vecs:    dense   smooth      PW
     Min          22      22      7                 2524     2524     445
     Max          23      23      8                 2549     2549     464
     Sum         367     367    121                40731    40731    7293
 
     Using Slab Decomposition
 


     bravais-lattice index     =            0
     lattice parameter (alat)  =       4.5542  a.u.
     unit-cell volume          =     575.7278 (a.u.)^3
     number of atoms/cell      =            2
     number of atomic types    =            1
     number of electrons       =        18.00
     number of Kohn-Sham states=           13
     kinetic-energy cutoff     =      65.0000  Ry
     charge density cutoff     =     260.0000  Ry
     scf convergence threshold =      1.0E-06
     mixing beta               =       0.7000
     number of iterations used =            8  plain     mixing
     Exchange-correlation= SLA  PW   PBX  PBC
                           (   1   4   3   4   0   0   0)

     celldm(1)=   4.554240  celldm(2)=   0.000000  celldm(3)=   0.000000
     celldm(4)=   0.000000  celldm(5)=   0.000000  celldm(6)=   0.000000

     crystal axes: (cart. coord. in units of alat)
               a(1) = (   1.000000   0.000000   0.000000 )  
               a(2) = (   0.500000   0.866025   0.000000 )  
               a(3) = (   0.000000   0.000000   7.037831 )  

     reciprocal axes: (cart. coord. in units 2 pi/alat)
               b(1) = (  1.000000 -0.577350  0.000000 )  
               b(2) = (  0.000000  1.154701  0.000000 )  
               b(3) = (  0.000000  0.000000  0.142089 )  


     PseudoPot. # 1 for Co read from file:
     /shared/ESPRESSO/PSLIBRARY/1.0.0/pbe/PSEUDOPOTENTIALS/Co.pbe-n-kjpaw_psl.1.0.0.UPF
     MD5 check sum: 17e7ab8db721b244d1352252ea6cb8e7
     Pseudo is Projector augmented-wave + core cor, Zval =  9.0
     Generated using "atomic" code by A. Dal Corso  (Quantum ESPRESSO distribution)
     Shape of augmentation charge: PSQ
     Using radial grid of 1193 points,  6 beta functions with: 
                l(1) =   0
                l(2) =   0
                l(3) =   1
                l(4) =   1
                l(5) =   2
                l(6) =   2
     Q(r) pseudized with 0 coefficients 


     atomic species   valence    mass     pseudopotential
        Co             9.00    58.93320     Co( 1.00)

     12 Sym. Ops., with inversion, found ( 6 have fractional translation)



   Cartesian axes

     site n.     atom                  positions (alat units)
         1           Co  tau(   1) = (   1.0000000   0.5773503   3.1120332  )
         2           Co  tau(   2) = (   0.0000000   0.0000000   3.9257982  )

     number of k points=    14  Fermi-Dirac smearing, width (Ry)=  0.0070
                       cart. coord. in units 2pi/alat
        k(    1) = (   0.0000000   0.0000000   0.0000000), wk =   0.0200000
        k(    2) = (   0.0000000   0.1154701   0.0000000), wk =   0.1200000
        k(    3) = (   0.0000000   0.2309401   0.0000000), wk =   0.1200000
        k(    4) = (   0.0000000   0.3464102   0.0000000), wk =   0.1200000
        k(    5) = (   0.0000000   0.4618802   0.0000000), wk =   0.1200000
        k(    6) = (   0.0000000  -0.5773503   0.0000000), wk =   0.0600000
        k(    7) = (   0.1000000   0.1732051   0.0000000), wk =   0.1200000
        k(    8) = (   0.1000000   0.2886751   0.0000000), wk =   0.2400000
        k(    9) = (   0.1000000   0.4041452   0.0000000), wk =   0.2400000
        k(   10) = (   0.1000000  -0.6350853   0.0000000), wk =   0.2400000
        k(   11) = (   0.2000000   0.3464102   0.0000000), wk =   0.1200000
        k(   12) = (   0.2000000  -0.6928203   0.0000000), wk =   0.2400000
        k(   13) = (   0.2000000  -0.5773503   0.0000000), wk =   0.1200000
        k(   14) = (   0.3000000  -0.6350853   0.0000000), wk =   0.1200000

     Dense  grid:    40731 G-vectors     FFT dimensions: (  24,  24, 180)

     Estimated max dynamical RAM per process >      11.75 MB

     Estimated total dynamical RAM >     188.06 MB

     Check: negative core charge=   -0.000002

     Initial potential from superposition of free atoms

     starting charge      17.9994, renormalised to      18.0000

     negative rho (up, down):  1.641E-04 0.000E+00
     Starting wfcs are   18 randomized atomic wfcs
     Checking if some PAW data can be deallocated... 

     total cpu time spent up to now is        0.3 secs

     Self-consistent Calculation

     iteration #  1     ecut=    65.00 Ry     beta= 0.70
     Davidson diagonalization with overlap
     ethr =  1.00E-02,  avg # of iterations =  2.3

     negative rho (up, down):  1.369E-04 0.000E+00

     total cpu time spent up to now is        0.4 secs

     total energy              =    -323.79224930 Ry
     estimated scf accuracy    <       0.29967178 Ry

     iteration #  2     ecut=    65.00 Ry     beta= 0.70
     Davidson diagonalization with overlap
     ethr =  1.66E-03,  avg # of iterations =  5.9

     total cpu time spent up to now is        0.6 secs

     total energy              =    -323.45935004 Ry
     estimated scf accuracy    <       3.50035358 Ry

     iteration #  3     ecut=    65.00 Ry     beta= 0.70
     Davidson diagonalization with overlap
     ethr =  1.66E-03,  avg # of iterations =  3.4

     total cpu time spent up to now is        0.8 secs

     total energy              =    -323.98252929 Ry
     estimated scf accuracy    <       0.02574513 Ry

     iteration #  4     ecut=    65.00 Ry     beta= 0.70
     Davidson diagonalization with overlap
     ethr =  1.43E-04,  avg # of iterations =  4.3

     total cpu time spent up to now is        0.9 secs

     total energy              =    -323.98268872 Ry
     estimated scf accuracy    <       0.01067716 Ry

     iteration #  5     ecut=    65.00 Ry     beta= 0.70
     Davidson diagonalization with overlap
     ethr =  5.93E-05,  avg # of iterations =  2.6

     total cpu time spent up to now is        1.1 secs

     total energy              =    -323.98247095 Ry
     estimated scf accuracy    <       0.00351403 Ry

     iteration #  6     ecut=    65.00 Ry     beta= 0.70
     Davidson diagonalization with overlap
     ethr =  1.95E-05,  avg # of iterations =  3.1

     negative rho (up, down):  1.217E-07 0.000E+00

     total cpu time spent up to now is        1.2 secs

     total energy              =    -323.98268244 Ry
     estimated scf accuracy    <       0.00061168 Ry

     iteration #  7     ecut=    65.00 Ry     beta= 0.70
     Davidson diagonalization with overlap
     ethr =  3.40E-06,  avg # of iterations =  4.1

     negative rho (up, down):  4.085E-04 0.000E+00

     total cpu time spent up to now is        1.3 secs

     total energy              =    -323.98270340 Ry
     estimated scf accuracy    <       0.00011845 Ry

     iteration #  8     ecut=    65.00 Ry     beta= 0.70
     Davidson diagonalization with overlap
     ethr =  6.58E-07,  avg # of iterations =  3.6

     negative rho (up, down):  2.608E-04 0.000E+00

     total cpu time spent up to now is        1.5 secs

     total energy              =    -323.98272883 Ry
     estimated scf accuracy    <       0.00000717 Ry

     iteration #  9     ecut=    65.00 Ry     beta= 0.70
     Davidson diagonalization with overlap
     ethr =  3.98E-08,  avg # of iterations =  2.4

     negative rho (up, down):  2.153E-04 0.000E+00

     total cpu time spent up to now is        1.6 secs

     End of self-consistent calculation

          k = 0.0000 0.0000 0.0000 (  5069 PWs)   bands (ev):

    -8.0966  -5.4438  -2.2266  -1.9624  -1.9624  -1.8250  -1.8250  -1.5579
    -0.5756  -0.5756   0.0308   0.0308   0.0796

          k = 0.0000 0.1155 0.0000 (  5056 PWs)   bands (ev):

    -7.7339  -5.1124  -2.2445  -2.1452  -2.0336  -1.7815  -1.6620  -1.5370
    -0.9081  -0.6377  -0.3580   0.0377   1.3471

          k = 0.0000 0.2309 0.0000 (  5078 PWs)   bands (ev):

    -6.7382  -4.3026  -2.6972  -2.4330  -2.1218  -1.7381  -1.3677  -1.2231
    -1.1811  -0.6913   0.0384   0.2250   2.9226

          k = 0.0000 0.3464 0.0000 (  5090 PWs)   bands (ev):

    -5.5107  -3.9063  -3.2817  -2.2379  -1.9749  -1.7389  -1.2867  -0.8304
    -0.5807  -0.3195   0.0343   1.1780   4.8376

          k = 0.0000 0.4619 0.0000 (  5118 PWs)   bands (ev):

    -4.7722  -4.1641  -3.6991  -2.3887  -1.3954  -1.2180  -0.9315  -0.1602
     0.1567   0.1750   0.2126   2.5750   7.0862

          k = 0.0000-0.5774 0.0000 (  5104 PWs)   bands (ev):

    -4.5283  -4.3864  -3.8490  -2.4664  -1.4452  -0.9746  -0.5829  -0.1196
     0.3562   0.4460   1.5685   3.1412   7.6153

          k = 0.1000 0.1732 0.0000 (  5074 PWs)   bands (ev):

    -7.0491  -4.5147  -2.4745  -2.4273  -2.2222  -1.6820  -1.3814  -1.3662
    -1.2308  -0.5821  -0.2005   0.1907   2.4759

          k = 0.1000 0.2887 0.0000 (  5077 PWs)   bands (ev):

    -5.8881  -3.7300  -2.9771  -2.6093  -2.3384  -1.9077  -1.2992  -0.9867
    -0.7093  -0.3305  -0.1093   0.8959   4.1361

          k = 0.1000 0.4041 0.0000 (  5113 PWs)   bands (ev):

    -4.8622  -3.8016  -3.4491  -2.2974  -1.8900  -1.7433  -1.3327  -0.6643
    -0.2802   0.0329   0.5381   2.2619   6.2250

          k = 0.1000-0.6351 0.0000 (  5106 PWs)   bands (ev):

    -4.4345  -4.1130  -3.7159  -2.3867  -1.6226  -1.2083  -0.9932  -0.2496
    -0.1130   0.1921   1.9711   3.7383   7.6883

          k = 0.2000 0.3464 0.0000 (  5120 PWs)   bands (ev):

    -4.8404  -3.2366  -3.2024  -2.6913  -2.4407  -2.0618  -1.4696  -0.7115
    -0.4429   0.0020   0.6724   2.2478   5.9417

          k = 0.2000-0.6928 0.0000 (  5099 PWs)   bands (ev):

    -4.1933  -3.5231  -3.3801  -2.2894  -2.0296  -1.9696  -1.6333  -0.5163
    -0.4449   0.1415   2.3025   4.3046   8.2067

          k = 0.2000-0.5774 0.0000 (  5082 PWs)   bands (ev):

    -4.0015  -3.6930  -3.4680  -2.2336  -2.0282  -1.6262  -1.5809  -0.5033
    -0.1486  -0.0460   4.0803   5.1043   8.2632

          k = 0.3000-0.6351 0.0000 (  5102 PWs)   bands (ev):

    -3.7940  -3.2989  -3.2263  -2.2565  -2.1558  -1.9890  -1.9488  -0.6594
    -0.2788  -0.0340   4.7555   6.6875   8.0126

     the Fermi energy is    -0.2380 ev

!    total energy              =    -323.98272959 Ry
     total all-electron energy =     -5573.670082 Ry
     estimated scf accuracy    <       0.00000062 Ry
     smearing contrib. (-TS)   =      -0.01267242 Ry
     internal energy E=F+TS    =    -323.97005717 Ry

     The total energy is F=E-TS. E is the sum of the following terms:
     one-electron contribution =    -744.39839080 Ry
     hartree contribution      =     389.11043027 Ry
     xc contribution           =     -65.12312730 Ry
     ewald contribution        =     269.53871066 Ry
     one-center paw contrib.   =    -173.09767999 Ry

     convergence has been achieved in   9 iterations

     negative rho (up, down):  2.153E-04 0.000E+00

     Forces acting on atoms (cartesian axes, Ry/au):

     atom    1 type  1   force =     0.00000000    0.00000000    0.00932830
     atom    2 type  1   force =     0.00000000    0.00000000   -0.00932830
     The non-local contrib.  to forces
     atom    1 type  1   force =     0.00000000   -0.00000000   -0.08109208
     atom    2 type  1   force =     0.00000000    0.00000000    0.08109208
     The ionic contribution  to forces
     atom    1 type  1   force =     0.00000000   -0.00000000  -43.10988325
     atom    2 type  1   force =     0.00000000    0.00000000   43.10988325
     The local contribution  to forces
     atom    1 type  1   force =    -0.00000000   -0.00000000   43.18125310
     atom    2 type  1   force =     0.00000000    0.00000000  -43.18125310
     The core correction contribution to forces
     atom    1 type  1   force =    -0.00000000   -0.00000000    0.01677038
     atom    2 type  1   force =     0.00000000    0.00000000   -0.01677038
     The Hubbard contrib.    to forces
     atom    1 type  1   force =     0.00000000    0.00000000    0.00000000
     atom    2 type  1   force =     0.00000000    0.00000000    0.00000000
     The SCF correction term to forces
     atom    1 type  1   force =     0.00000000    0.00000000    0.00228015
     atom    2 type  1   force =    -0.00000000    0.00000000   -0.00228015

     Total force =     0.013192     Total SCF correction =     0.003225
     SCF correction compared to forces is large: reduce conv_thr to get better values


     Computing stress (Cartesian axis) and pressure


     negative rho (up, down):  2.153E-04 0.000E+00
          total   stress  (Ry/bohr**3)                   (kbar)     P=      -17.25
  -0.00013990  -0.00000000   0.00000000          -20.58       -0.00        0.00
  -0.00000000  -0.00013990   0.00000000           -0.00      -20.58        0.00
   0.00000000   0.00000000  -0.00007200            0.00        0.00      -10.59


     Writing all to output data dir ./tmp/scf.save/
 
     init_run     :      0.10s CPU      0.18s WALL (       1 calls)
     electrons    :      1.29s CPU      1.37s WALL (       1 calls)
     forces       :      0.03s CPU      0.03s WALL (       1 calls)
     stress       :      0.10s CPU      0.11s WALL (       1 calls)

     Called by init_run:
     wfcinit      :      0.02s CPU      0.03s WALL (       1 calls)
     potinit      :      0.03s CPU      0.05s WALL (       1 calls)
     hinit0       :      0.03s CPU      0.07s WALL (       1 calls)

     Called by electrons:
     c_bands      :      0.70s CPU      0.76s WALL (       9 calls)
     sum_band     :      0.16s CPU      0.16s WALL (       9 calls)
     v_of_rho     :      0.02s CPU      0.02s WALL (      10 calls)
     newd         :      0.07s CPU      0.07s WALL (      10 calls)
     PAW_pot      :      0.38s CPU      0.41s WALL (      10 calls)
     mix_rho      :      0.00s CPU      0.00s WALL (       9 calls)

     Called by c_bands:
     init_us_2    :      0.01s CPU      0.02s WALL (     294 calls)
     init_us_2:cp :      0.01s CPU      0.02s WALL (     294 calls)
     cegterg      :      0.47s CPU      0.52s WALL (     126 calls)

     Called by *egterg:
     cdiaghg      :      0.07s CPU      0.08s WALL (     568 calls)
     h_psi        :      0.36s CPU      0.41s WALL (     582 calls)
     s_psi        :      0.01s CPU      0.01s WALL (     582 calls)
     g_psi        :      0.00s CPU      0.00s WALL (     442 calls)

     Called by h_psi:
     h_psi:calbec :      0.02s CPU      0.02s WALL (     582 calls)
     vloc_psi     :      0.34s CPU      0.37s WALL (     582 calls)
     add_vuspsi   :      0.01s CPU      0.01s WALL (     582 calls)

     General routines
     calbec       :      0.03s CPU      0.03s WALL (     778 calls)
     fft          :      0.01s CPU      0.06s WALL (     135 calls)
     ffts         :      0.00s CPU      0.00s WALL (       9 calls)
     fftw         :      0.36s CPU      0.39s WALL (   10582 calls)
 
     Parallel routines
 
     PWSCF        :      1.64s CPU      1.82s WALL

 
   This run was terminated on:  16:44:30   5Jun2025            

=------------------------------------------------------------------------------=
   JOB DONE.
=------------------------------------------------------------------------------=
