
     Program PWSCF v.7.2 starts on  5Jun2025 at 16:44: 7 

     This program is part of the open-source Quantum ESPRESSO suite
     for quantum simulation of materials; please cite
         "P. Giannozzi et al., J. Phys.:Condens. Matter 21 395502 (2009);
         "P. Giannozzi et al., J. Phys.:Condens. Matter 29 465901 (2017);
         "P. Giannozzi et al., J. Chem. Phys. 152 154105 (2020);
          URL http://www.quantum-espresso.org", 
     in publications or presentations arising from this work. More details at
     http://www.quantum-espresso.org/quote

     Parallel version (MPI), running on    16 processors

     MPI processes distributed on     1 nodes
     37661 MiB available memory on the printing compute node when the environment starts
 
     Waiting for input...
     Reading input from standard input

     Current dimensions of program PWSCF are:
     Max number of different atomic species (ntypx) = 10
     Max number of k-points (npk) =  40000
     Max angular momentum in pseudopotentials (lmaxx) =  4
     file Co.pbe-n-kjpaw_psl.1.0.0.UPF: wavefunction(s)  4S 3D renormalized
     Message from routine setup:
     using ibrav=0 with symmetry is DISCOURAGED, use correct ibrav instead
 
     R & G space division:  proc/nbgrp/npool/nimage =      16
     Subspace diagonalization in iterative solution of the eigenvalue problem:
     a serial algorithm will be used

 
     Parallelization info
     --------------------
     sticks:   dense  smooth     PW     G-vecs:    dense   smooth      PW
     Min          21      21      6                 2377     2377     410
     Max          22      22      7                 2408     2408     437
     Sum         349     349    109                38287    38287    6825
 
     Using Slab Decomposition
 


     bravais-lattice index     =            0
     lattice parameter (alat)  =       4.4220  a.u.
     unit-cell volume          =     540.9459 (a.u.)^3
     number of atoms/cell      =            2
     number of atomic types    =            1
     number of electrons       =        18.00
     number of Kohn-Sham states=           13
     kinetic-energy cutoff     =      65.0000  Ry
     charge density cutoff     =     260.0000  Ry
     scf convergence threshold =      1.0E-06
     mixing beta               =       0.7000
     number of iterations used =            8  plain     mixing
     Exchange-correlation= SLA  PW   PBX  PBC
                           (   1   4   3   4   0   0   0)

     celldm(1)=   4.421959  celldm(2)=   0.000000  celldm(3)=   0.000000
     celldm(4)=   0.000000  celldm(5)=   0.000000  celldm(6)=   0.000000

     crystal axes: (cart. coord. in units of alat)
               a(1) = (   1.000000   0.000000   0.000000 )  
               a(2) = (   0.500000   0.866025   0.000000 )  
               a(3) = (   0.000000   0.000000   7.224021 )  

     reciprocal axes: (cart. coord. in units 2 pi/alat)
               b(1) = (  1.000000 -0.577350  0.000000 )  
               b(2) = (  0.000000  1.154701  0.000000 )  
               b(3) = (  0.000000  0.000000  0.138427 )  


     PseudoPot. # 1 for Co read from file:
     /shared/ESPRESSO/PSLIBRARY/1.0.0/pbe/PSEUDOPOTENTIALS/Co.pbe-n-kjpaw_psl.1.0.0.UPF
     MD5 check sum: 17e7ab8db721b244d1352252ea6cb8e7
     Pseudo is Projector augmented-wave + core cor, Zval =  9.0
     Generated using "atomic" code by A. Dal Corso  (Quantum ESPRESSO distribution)
     Shape of augmentation charge: PSQ
     Using radial grid of 1193 points,  6 beta functions with: 
                l(1) =   0
                l(2) =   0
                l(3) =   1
                l(4) =   1
                l(5) =   2
                l(6) =   2
     Q(r) pseudized with 0 coefficients 


     atomic species   valence    mass     pseudopotential
        Co             9.00    58.93320     Co( 1.00)

     12 Sym. Ops., with inversion, found ( 6 have fractional translation)



   Cartesian axes

     site n.     atom                  positions (alat units)
         1           Co  tau(   1) = (   1.0000000   0.5773503   3.2051282  )
         2           Co  tau(   2) = (   0.0000000   0.0000000   4.0188932  )

     number of k points=    14  Fermi-Dirac smearing, width (Ry)=  0.0070
                       cart. coord. in units 2pi/alat
        k(    1) = (   0.0000000   0.0000000   0.0000000), wk =   0.0200000
        k(    2) = (   0.0000000   0.1154701   0.0000000), wk =   0.1200000
        k(    3) = (   0.0000000   0.2309401   0.0000000), wk =   0.1200000
        k(    4) = (   0.0000000   0.3464102   0.0000000), wk =   0.1200000
        k(    5) = (   0.0000000   0.4618802   0.0000000), wk =   0.1200000
        k(    6) = (   0.0000000  -0.5773503   0.0000000), wk =   0.0600000
        k(    7) = (   0.1000000   0.1732051   0.0000000), wk =   0.1200000
        k(    8) = (   0.1000000   0.2886751   0.0000000), wk =   0.2400000
        k(    9) = (   0.1000000   0.4041452   0.0000000), wk =   0.2400000
        k(   10) = (   0.1000000  -0.6350853   0.0000000), wk =   0.2400000
        k(   11) = (   0.2000000   0.3464102   0.0000000), wk =   0.1200000
        k(   12) = (   0.2000000  -0.6928203   0.0000000), wk =   0.2400000
        k(   13) = (   0.2000000  -0.5773503   0.0000000), wk =   0.1200000
        k(   14) = (   0.3000000  -0.6350853   0.0000000), wk =   0.1200000

     Dense  grid:    38287 G-vectors     FFT dimensions: (  24,  24, 180)

     Estimated max dynamical RAM per process >      11.20 MB

     Estimated total dynamical RAM >     179.13 MB

     Check: negative core charge=   -0.000002

     Initial potential from superposition of free atoms

     starting charge      17.9994, renormalised to      18.0000

     negative rho (up, down):  1.574E-04 0.000E+00
     Starting wfcs are   18 randomized atomic wfcs
     Checking if some PAW data can be deallocated... 

     total cpu time spent up to now is        0.6 secs

     Self-consistent Calculation

     iteration #  1     ecut=    65.00 Ry     beta= 0.70
     Davidson diagonalization with overlap
     ethr =  1.00E-02,  avg # of iterations =  2.5

     negative rho (up, down):  1.218E-04 0.000E+00

     total cpu time spent up to now is        0.8 secs

     total energy              =    -323.78539510 Ry
     estimated scf accuracy    <       0.31105508 Ry

     iteration #  2     ecut=    65.00 Ry     beta= 0.70
     Davidson diagonalization with overlap
     ethr =  1.73E-03,  avg # of iterations =  6.1

     total cpu time spent up to now is        1.1 secs

     total energy              =    -323.44688580 Ry
     estimated scf accuracy    <       3.41873193 Ry

     iteration #  3     ecut=    65.00 Ry     beta= 0.70
     Davidson diagonalization with overlap
     ethr =  1.73E-03,  avg # of iterations =  3.3

     total cpu time spent up to now is        1.3 secs

     total energy              =    -323.97927229 Ry
     estimated scf accuracy    <       0.03119285 Ry

     iteration #  4     ecut=    65.00 Ry     beta= 0.70
     Davidson diagonalization with overlap
     ethr =  1.73E-04,  avg # of iterations =  4.7

     total cpu time spent up to now is        1.5 secs

     total energy              =    -323.98027523 Ry
     estimated scf accuracy    <       0.01269851 Ry

     iteration #  5     ecut=    65.00 Ry     beta= 0.70
     Davidson diagonalization with overlap
     ethr =  7.05E-05,  avg # of iterations =  2.3

     total cpu time spent up to now is        1.7 secs

     total energy              =    -323.97945475 Ry
     estimated scf accuracy    <       0.00499362 Ry

     iteration #  6     ecut=    65.00 Ry     beta= 0.70
     Davidson diagonalization with overlap
     ethr =  2.77E-05,  avg # of iterations =  2.1

     negative rho (up, down):  1.254E-07 0.000E+00

     total cpu time spent up to now is        1.9 secs

     total energy              =    -323.97967250 Ry
     estimated scf accuracy    <       0.00072590 Ry

     iteration #  7     ecut=    65.00 Ry     beta= 0.70
     Davidson diagonalization with overlap
     ethr =  4.03E-06,  avg # of iterations =  5.9

     negative rho (up, down):  7.211E-04 0.000E+00

     total cpu time spent up to now is        2.1 secs

     total energy              =    -323.97971041 Ry
     estimated scf accuracy    <       0.00012382 Ry

     iteration #  8     ecut=    65.00 Ry     beta= 0.70
     Davidson diagonalization with overlap
     ethr =  6.88E-07,  avg # of iterations =  2.9

     negative rho (up, down):  2.389E-04 0.000E+00

     total cpu time spent up to now is        2.3 secs

     total energy              =    -323.97973815 Ry
     estimated scf accuracy    <       0.00001638 Ry

     iteration #  9     ecut=    65.00 Ry     beta= 0.70
     Davidson diagonalization with overlap
     ethr =  9.10E-08,  avg # of iterations =  1.7

     negative rho (up, down):  2.087E-04 0.000E+00

     total cpu time spent up to now is        2.5 secs

     End of self-consistent calculation

          k = 0.0000 0.0000 0.0000 (  4785 PWs)   bands (ev):

    -8.3005  -5.6168  -2.2261  -1.9254  -1.9254  -1.7665  -1.7665  -1.4939
    -0.3472  -0.3472   0.1931   0.3442   0.3442

          k = 0.0000 0.1155 0.0000 (  4822 PWs)   bands (ev):

    -7.9144  -5.2627  -2.2451  -2.1354  -2.0056  -1.7206  -1.5820  -1.4558
    -0.7755  -0.4183  -0.1212   0.3524   1.6517

          k = 0.0000 0.2309 0.0000 (  4814 PWs)   bands (ev):

    -6.8692  -4.4156  -2.7653  -2.4485  -2.0966  -1.6722  -1.2534  -1.0845
    -1.0611  -0.4781   0.3534   0.5160   3.3098

          k = 0.0000 0.3464 0.0000 (  4790 PWs)   bands (ev):

    -5.6454  -4.0687  -3.4262  -2.2376  -1.9009  -1.6345  -1.1641  -0.6459
    -0.3540  -0.0533   0.3484   1.5600   5.3163

          k = 0.0000 0.4619 0.0000 (  4784 PWs)   bands (ev):

    -4.9905  -4.3760  -3.8951  -2.4139  -1.2878  -1.0631  -0.7330   0.1270
     0.4840   0.5084   0.5528   3.0481   7.6843

          k = 0.0000-0.5774 0.0000 (  4780 PWs)   bands (ev):

    -4.8071  -4.5896  -4.0628  -2.5023  -1.3446  -0.7924  -0.3515   0.1734
     0.7162   0.8191   1.9715   3.6881   8.5058

          k = 0.1000 0.1732 0.0000 (  4803 PWs)   bands (ev):

    -7.1915  -4.6286  -2.5112  -2.4500  -2.2168  -1.6145  -1.2700  -1.2475
    -1.1112  -0.3597   0.0598   0.5058   2.8418

          k = 0.1000 0.2887 0.0000 (  4797 PWs)   bands (ev):

    -5.9978  -3.8336  -3.0807  -2.6315  -2.3374  -1.8643  -1.1770  -0.8269
    -0.4997  -0.0646   0.1798   1.2601   4.5831

          k = 0.1000 0.4041 0.0000 (  4772 PWs)   bands (ev):

    -5.0265  -3.9722  -3.6119  -2.3065  -1.8141  -1.6438  -1.2044  -0.4558
    -0.0123   0.3459   0.9226   2.7306   6.7760

          k = 0.1000-0.6351 0.0000 (  4796 PWs)   bands (ev):

    -4.6739  -4.3048  -3.9110  -2.4114  -1.5446  -1.0551  -0.8082   0.0228
     0.1783   0.5280   2.4680   4.3120   8.6148

          k = 0.2000 0.3464 0.0000 (  4768 PWs)   bands (ev):

    -4.9662  -3.3617  -3.3220  -2.6917  -2.4361  -2.0409  -1.3689  -0.5111
    -0.2016   0.3113   1.0759   2.7233   6.4810

          k = 0.2000-0.6928 0.0000 (  4767 PWs)   bands (ev):

    -4.3835  -3.6594  -3.5241  -2.2914  -1.9740  -1.9185  -1.5429  -0.2859
    -0.2026   0.4716   2.8661   4.9174   8.8769

          k = 0.2000-0.5774 0.0000 (  4778 PWs)   bands (ev):

    -4.2275  -3.8253  -3.6216  -2.2352  -2.0027  -1.5259  -1.4733  -0.2704
     0.1382   0.2565   4.7185   5.8495   9.1912

          k = 0.3000-0.6351 0.0000 (  4762 PWs)   bands (ev):

    -3.9973  -3.4007  -3.3366  -2.2465  -2.1396  -1.9358  -1.9020  -0.4512
    -0.0108   0.2704   5.4873   7.4634   8.9279

     the Fermi energy is     0.0354 ev

!    total energy              =    -323.97973988 Ry
     total all-electron energy =     -5573.667092 Ry
     estimated scf accuracy    <       0.00000058 Ry
     smearing contrib. (-TS)   =      -0.01123376 Ry
     internal energy E=F+TS    =    -323.96850613 Ry

     The total energy is F=E-TS. E is the sum of the following terms:
     one-electron contribution =    -792.16946894 Ry
     hartree contribution      =     413.10349351 Ry
     xc contribution           =     -65.24342306 Ry
     ewald contribution        =     293.45346956 Ry
     one-center paw contrib.   =    -173.11257720 Ry

     convergence has been achieved in   9 iterations

     negative rho (up, down):  2.087E-04 0.000E+00

     Forces acting on atoms (cartesian axes, Ry/au):

     atom    1 type  1   force =     0.00000000    0.00000000   -0.02478434
     atom    2 type  1   force =     0.00000000    0.00000000    0.02478434
     The non-local contrib.  to forces
     atom    1 type  1   force =    -0.00000000    0.00000000   -0.05840262
     atom    2 type  1   force =     0.00000000    0.00000000    0.05840262
     The ionic contribution  to forces
     atom    1 type  1   force =     0.00000000   -0.00000000  -46.08594846
     atom    2 type  1   force =     0.00000000    0.00000000   46.08594846
     The local contribution  to forces
     atom    1 type  1   force =    -0.00000000   -0.00000000   46.09679014
     atom    2 type  1   force =     0.00000000    0.00000000  -46.09679014
     The core correction contribution to forces
     atom    1 type  1   force =    -0.00000000   -0.00000000    0.02100258
     atom    2 type  1   force =     0.00000000    0.00000000   -0.02100258
     The Hubbard contrib.    to forces
     atom    1 type  1   force =     0.00000000    0.00000000    0.00000000
     atom    2 type  1   force =     0.00000000    0.00000000    0.00000000
     The SCF correction term to forces
     atom    1 type  1   force =     0.00000000    0.00000000    0.00177402
     atom    2 type  1   force =     0.00000000   -0.00000000   -0.00177402

     Total force =     0.035050     Total SCF correction =     0.002509


     Computing stress (Cartesian axis) and pressure


     negative rho (up, down):  2.087E-04 0.000E+00
          total   stress  (Ry/bohr**3)                   (kbar)     P=       34.40
   0.00027118   0.00000000   0.00000000           39.89        0.00        0.00
   0.00000000   0.00027118   0.00000000            0.00       39.89        0.00
   0.00000000   0.00000000   0.00015912            0.00        0.00       23.41


     Writing all to output data dir ./tmp/scf.save/
 
     init_run     :      0.19s CPU      0.25s WALL (       1 calls)
     electrons    :      1.76s CPU      1.89s WALL (       1 calls)
     forces       :      0.04s CPU      0.04s WALL (       1 calls)
     stress       :      0.14s CPU      0.14s WALL (       1 calls)

     Called by init_run:
     wfcinit      :      0.04s CPU      0.04s WALL (       1 calls)
     potinit      :      0.07s CPU      0.08s WALL (       1 calls)
     hinit0       :      0.07s CPU      0.10s WALL (       1 calls)

     Called by electrons:
     c_bands      :      0.95s CPU      1.02s WALL (       9 calls)
     sum_band     :      0.19s CPU      0.22s WALL (       9 calls)
     v_of_rho     :      0.02s CPU      0.03s WALL (      10 calls)
     newd         :      0.08s CPU      0.09s WALL (      10 calls)
     PAW_pot      :      0.57s CPU      0.60s WALL (      10 calls)
     mix_rho      :      0.00s CPU      0.00s WALL (       9 calls)

     Called by c_bands:
     init_us_2    :      0.02s CPU      0.02s WALL (     294 calls)
     init_us_2:cp :      0.01s CPU      0.02s WALL (     294 calls)
     cegterg      :      0.69s CPU      0.75s WALL (     126 calls)

     Called by *egterg:
     cdiaghg      :      0.08s CPU      0.09s WALL (     566 calls)
     h_psi        :      0.55s CPU      0.59s WALL (     580 calls)
     s_psi        :      0.01s CPU      0.01s WALL (     580 calls)
     g_psi        :      0.00s CPU      0.00s WALL (     440 calls)

     Called by h_psi:
     h_psi:calbec :      0.03s CPU      0.04s WALL (     580 calls)
     vloc_psi     :      0.50s CPU      0.54s WALL (     580 calls)
     add_vuspsi   :      0.01s CPU      0.01s WALL (     580 calls)

     General routines
     calbec       :      0.05s CPU      0.06s WALL (     776 calls)
     fft          :      0.03s CPU      0.07s WALL (     135 calls)
     ffts         :      0.00s CPU      0.00s WALL (       9 calls)
     fftw         :      0.53s CPU      0.58s WALL (   10600 calls)
 
     Parallel routines
 
     PWSCF        :      2.48s CPU      2.74s WALL

 
   This run was terminated on:  16:44:10   5Jun2025            

=------------------------------------------------------------------------------=
   JOB DONE.
=------------------------------------------------------------------------------=
