
     Program PWSCF v.7.2 starts on 13Jun2025 at 10:33:47 

     This program is part of the open-source Quantum ESPRESSO suite
     for quantum simulation of materials; please cite
         "P. Giannozzi et al., J. Phys.:Condens. Matter 21 395502 (2009);
         "P. Giannozzi et al., J. Phys.:Condens. Matter 29 465901 (2017);
         "P. Giannozzi et al., J. Chem. Phys. 152 154105 (2020);
          URL http://www.quantum-espresso.org", 
     in publications or presentations arising from this work. More details at
     http://www.quantum-espresso.org/quote

     Parallel version (MPI), running on    16 processors

     MPI processes distributed on     1 nodes
     23348 MiB available memory on the printing compute node when the environment starts
 
     Waiting for input...
     Reading input from standard input

     Current dimensions of program PWSCF are:
     Max number of different atomic species (ntypx) = 10
     Max number of k-points (npk) =  40000
     Max angular momentum in pseudopotentials (lmaxx) =  4
     file Mo.pbe-spn-kjpaw_psl.1.0.0.UPF: wavefunction(s)  4S 4D renormalized
     file S.pbe-n-kjpaw_psl.1.0.0.UPF: wavefunction(s)  3S 3P renormalized
     file Co.pbe-n-kjpaw_psl.1.0.0.UPF: wavefunction(s)  4S 3D renormalized
     Message from routine setup:
     using ibrav=0 with symmetry is DISCOURAGED, use correct ibrav instead
 
     R & G space division:  proc/nbgrp/npool/nimage =      16
     Subspace diagonalization in iterative solution of the eigenvalue problem:
     a serial algorithm will be used

 
     Parallelization info
     --------------------
     sticks:   dense  smooth     PW     G-vecs:    dense   smooth      PW
     Min          49      49     13                 6439     6439     977
     Max          50      50     14                 6452     6452     996
     Sum         793     793    223               103119   103119   15819
 
     Using Slab Decomposition
 


     bravais-lattice index     =            0
     lattice parameter (alat)  =       5.9876  a.u.
     unit-cell volume          =    1067.2529 (a.u.)^3
     number of atoms/cell      =            4
     number of atomic types    =            3
     number of electrons       =        35.00
     number of Kohn-Sham states=           22
     kinetic-energy cutoff     =      80.0000  Ry
     charge density cutoff     =     320.0000  Ry
     scf convergence threshold =      1.0E-06
     mixing beta               =       0.7000
     number of iterations used =            8  plain     mixing
     energy convergence thresh.=      1.0E-04
     force convergence thresh. =      1.0E-03
     Exchange-correlation= SLA  PW   PBX  PBC
                           (   1   4   3   4   0   0   0)
     nstep                     =          100


     celldm(1)=   5.987597  celldm(2)=   0.000000  celldm(3)=   0.000000
     celldm(4)=   0.000000  celldm(5)=   0.000000  celldm(6)=   0.000000

     crystal axes: (cart. coord. in units of alat)
               a(1) = (   1.000000   0.000000   0.000000 )  
               a(2) = (  -0.500000   0.866025   0.000000 )  
               a(3) = (   0.000000   0.000000   5.740887 )  

     reciprocal axes: (cart. coord. in units 2 pi/alat)
               b(1) = (  1.000000  0.577350  0.000000 )  
               b(2) = (  0.000000  1.154701  0.000000 )  
               b(3) = (  0.000000  0.000000  0.174189 )  


     PseudoPot. # 1 for Mo read from file:
     /shared/ESPRESSO/PSLIBRARY/1.0.0/pbe/PSEUDOPOTENTIALS/Mo.pbe-spn-kjpaw_psl.1.0.0.UPF
     MD5 check sum: 4396e0c640fcce5c25f020efccf1ab12
     Pseudo is Projector augmented-wave + core cor, Zval = 14.0
     Generated using &quot;atomic&quot; code by A. Dal Corso  v.6.3
     Shape of augmentation charge: PSQ
     Using radial grid of 1229 points,  6 beta functions with: 
                l(1) =   0
                l(2) =   0
                l(3) =   1
                l(4) =   1
                l(5) =   2
                l(6) =   2
     Q(r) pseudized with 0 coefficients 


     PseudoPot. # 2 for S  read from file:
     /shared/ESPRESSO/PSLIBRARY/1.0.0/pbe/PSEUDOPOTENTIALS/S.pbe-n-kjpaw_psl.1.0.0.UPF
     MD5 check sum: c08f931834bcc19553f8bde8f1a3adc5
     Pseudo is Projector augmented-wave + core cor, Zval =  6.0
     Generated using "atomic" code by A. Dal Corso  (Quantum ESPRESSO distribution)
     Shape of augmentation charge: PSQ
     Using radial grid of 1151 points,  6 beta functions with: 
                l(1) =   0
                l(2) =   0
                l(3) =   1
                l(4) =   1
                l(5) =   2
                l(6) =   2
     Q(r) pseudized with 0 coefficients 


     PseudoPot. # 3 for Co read from file:
     /shared/ESPRESSO/PSLIBRARY/1.0.0/pbe/PSEUDOPOTENTIALS/Co.pbe-n-kjpaw_psl.1.0.0.UPF
     MD5 check sum: 17e7ab8db721b244d1352252ea6cb8e7
     Pseudo is Projector augmented-wave + core cor, Zval =  9.0
     Generated using "atomic" code by A. Dal Corso  (Quantum ESPRESSO distribution)
     Shape of augmentation charge: PSQ
     Using radial grid of 1193 points,  6 beta functions with: 
                l(1) =   0
                l(2) =   0
                l(3) =   1
                l(4) =   1
                l(5) =   2
                l(6) =   2
     Q(r) pseudized with 0 coefficients 


     atomic species   valence    mass     pseudopotential
        Mo            14.00    95.94000     Mo( 1.00)
        S              6.00    32.06500     S ( 1.00)
        Co             9.00    58.93320     Co( 1.00)

     Starting magnetic structure 
     atomic species   magnetization
        Mo           0.000
        S            0.000
        Co           0.800

      6 Sym. Ops. (no inversion) found



   Cartesian axes

     site n.     atom                  positions (alat units)
         1           Mo  tau(   1) = (   0.0000000   0.0000000   2.8704434  )
         2           S   tau(   2) = (   0.5000000   0.2886751   3.3738362  )
         3           S   tau(   3) = (   0.5000000   0.2886751   2.3670507  )
         4           Co  tau(   4) = (  -0.0000000   0.5773503   4.0050497  )

     number of k points=    28  Fermi-Dirac smearing, width (Ry)=  0.0070
                       cart. coord. in units 2pi/alat
        k(    1) = (   0.0000000   0.0000000   0.0000000), wk =   0.0050000
        k(    2) = (   0.0000000   0.0000000  -0.0870946), wk =   0.0050000
        k(    3) = (   0.0000000   0.1154701   0.0000000), wk =   0.0300000
        k(    4) = (   0.0000000   0.1154701  -0.0870946), wk =   0.0300000
        k(    5) = (   0.0000000   0.2309401   0.0000000), wk =   0.0300000
        k(    6) = (   0.0000000   0.2309401  -0.0870946), wk =   0.0300000
        k(    7) = (   0.0000000   0.3464102   0.0000000), wk =   0.0300000
        k(    8) = (   0.0000000   0.3464102  -0.0870946), wk =   0.0300000
        k(    9) = (   0.0000000   0.4618802   0.0000000), wk =   0.0300000
        k(   10) = (   0.0000000   0.4618802  -0.0870946), wk =   0.0300000
        k(   11) = (   0.0000000  -0.5773503   0.0000000), wk =   0.0150000
        k(   12) = (   0.0000000  -0.5773503  -0.0870946), wk =   0.0150000
        k(   13) = (   0.1000000   0.1732051   0.0000000), wk =   0.0300000
        k(   14) = (   0.1000000   0.1732051  -0.0870946), wk =   0.0300000
        k(   15) = (   0.1000000   0.2886751   0.0000000), wk =   0.0600000
        k(   16) = (   0.1000000   0.2886751  -0.0870946), wk =   0.0600000
        k(   17) = (   0.1000000   0.4041452   0.0000000), wk =   0.0600000
        k(   18) = (   0.1000000   0.4041452  -0.0870946), wk =   0.0600000
        k(   19) = (   0.1000000   0.5196152   0.0000000), wk =   0.0600000
        k(   20) = (   0.1000000   0.5196152  -0.0870946), wk =   0.0600000
        k(   21) = (   0.2000000   0.3464102   0.0000000), wk =   0.0300000
        k(   22) = (   0.2000000   0.3464102  -0.0870946), wk =   0.0300000
        k(   23) = (   0.2000000   0.4618802   0.0000000), wk =   0.0600000
        k(   24) = (   0.2000000   0.4618802  -0.0870946), wk =   0.0600000
        k(   25) = (   0.2000000   0.5773503   0.0000000), wk =   0.0300000
        k(   26) = (   0.2000000   0.5773503  -0.0870946), wk =   0.0300000
        k(   27) = (   0.3000000   0.5196152   0.0000000), wk =   0.0300000
        k(   28) = (   0.3000000   0.5196152  -0.0870946), wk =   0.0300000

     Dense  grid:   103119 G-vectors     FFT dimensions: (  36,  36, 200)

     Estimated max dynamical RAM per process >      47.38 MB

     Estimated total dynamical RAM >     758.08 MB
     Generating pointlists ...
     new r_m :   0.3160 (alat units)  1.8919 (a.u.) for type    1
     new r_m :   0.3160 (alat units)  1.8919 (a.u.) for type    2
     new r_m :   0.3529 (alat units)  2.1128 (a.u.) for type    3

     Initial potential from superposition of free atoms

     starting charge      34.9988, renormalised to      35.0000

     negative rho (up, down):  2.120E-04 1.949E-04
     Starting wfcs are   27 randomized atomic wfcs
     Checking if some PAW data can be deallocated... 

     total cpu time spent up to now is        1.5 secs

     Self-consistent Calculation

     iteration #  1     ecut=    80.00 Ry     beta= 0.70
     Davidson diagonalization with overlap
     ethr =  1.00E-02,  avg # of iterations =  2.1

     negative rho (up, down):  1.349E-04 1.331E-04

     total cpu time spent up to now is        3.3 secs

     total energy              =    -657.24746040 Ry
     estimated scf accuracy    <       1.55233622 Ry

     total magnetization       =     3.22 Bohr mag/cell
     absolute magnetization    =     3.74 Bohr mag/cell

     iteration #  2     ecut=    80.00 Ry     beta= 0.70
     Davidson diagonalization with overlap
     ethr =  4.44E-03,  avg # of iterations =  7.9

     negative rho (up, down):  6.627E-05 6.193E-05

     total cpu time spent up to now is        6.1 secs

     total energy              =    -649.21688089 Ry
     estimated scf accuracy    <     293.54403328 Ry

     total magnetization       =     0.71 Bohr mag/cell
     absolute magnetization    =     0.78 Bohr mag/cell

     iteration #  3     ecut=    80.00 Ry     beta= 0.70
     Davidson diagonalization with overlap
     ethr =  4.44E-03,  avg # of iterations =  8.4

     negative rho (up, down):  7.160E-05 6.718E-05

     total cpu time spent up to now is        9.1 secs

     total energy              =    -658.36929768 Ry
     estimated scf accuracy    <      12.07642993 Ry

     total magnetization       =     0.32 Bohr mag/cell
     absolute magnetization    =     0.50 Bohr mag/cell

     iteration #  4     ecut=    80.00 Ry     beta= 0.70
     Davidson diagonalization with overlap
     ethr =  4.44E-03,  avg # of iterations =  1.7

     negative rho (up, down):  8.059E-05 7.631E-05

     total cpu time spent up to now is       10.7 secs

     total energy              =    -658.44921389 Ry
     estimated scf accuracy    <       1.23983945 Ry

     total magnetization       =     2.14 Bohr mag/cell
     absolute magnetization    =     2.16 Bohr mag/cell

     iteration #  5     ecut=    80.00 Ry     beta= 0.70
     Davidson diagonalization with overlap
     ethr =  3.54E-03,  avg # of iterations =  2.8

     negative rho (up, down):  1.323E-04 1.251E-04

     total cpu time spent up to now is       12.5 secs

     total energy              =    -658.39307017 Ry
     estimated scf accuracy    <       6.18650451 Ry

     total magnetization       =     0.45 Bohr mag/cell
     absolute magnetization    =     0.67 Bohr mag/cell

     iteration #  6     ecut=    80.00 Ry     beta= 0.70
     Davidson diagonalization with overlap
     ethr =  3.54E-03,  avg # of iterations =  1.4

     negative rho (up, down):  3.848E-04 3.491E-04

     total cpu time spent up to now is       14.2 secs

     total energy              =    -658.51153653 Ry
     estimated scf accuracy    <       0.26227356 Ry

     total magnetization       =     1.99 Bohr mag/cell
     absolute magnetization    =     2.09 Bohr mag/cell

     iteration #  7     ecut=    80.00 Ry     beta= 0.70
     Davidson diagonalization with overlap
     ethr =  7.49E-04,  avg # of iterations =  4.4

     negative rho (up, down):  2.206E-03 1.988E-03

     total cpu time spent up to now is       16.1 secs

     total energy              =    -658.53958626 Ry
     estimated scf accuracy    <       0.13922711 Ry

     total magnetization       =     2.10 Bohr mag/cell
     absolute magnetization    =     2.25 Bohr mag/cell

     iteration #  8     ecut=    80.00 Ry     beta= 0.70
     Davidson diagonalization with overlap
     ethr =  3.98E-04,  avg # of iterations =  1.8

     negative rho (up, down):  5.459E-03 4.526E-03

     total cpu time spent up to now is       17.8 secs

     total energy              =    -658.54165637 Ry
     estimated scf accuracy    <       0.04236283 Ry

     total magnetization       =     2.08 Bohr mag/cell
     absolute magnetization    =     2.23 Bohr mag/cell

     iteration #  9     ecut=    80.00 Ry     beta= 0.70
     Davidson diagonalization with overlap
     ethr =  1.21E-04,  avg # of iterations =  4.8

     negative rho (up, down):  3.313E-03 2.607E-03

     total cpu time spent up to now is       19.7 secs

     total energy              =    -658.54649078 Ry
     estimated scf accuracy    <       0.01967549 Ry

     total magnetization       =     2.11 Bohr mag/cell
     absolute magnetization    =     2.30 Bohr mag/cell

     iteration # 10     ecut=    80.00 Ry     beta= 0.70
     Davidson diagonalization with overlap
     ethr =  5.62E-05,  avg # of iterations =  2.2

     negative rho (up, down):  7.232E-04 5.337E-04

     total cpu time spent up to now is       21.4 secs

     total energy              =    -658.54594937 Ry
     estimated scf accuracy    <       0.01375806 Ry

     total magnetization       =     2.10 Bohr mag/cell
     absolute magnetization    =     2.29 Bohr mag/cell

     iteration # 11     ecut=    80.00 Ry     beta= 0.70
     Davidson diagonalization with overlap
     ethr =  3.93E-05,  avg # of iterations =  1.6

     negative rho (up, down):  2.734E-04 2.333E-04

     total cpu time spent up to now is       23.0 secs

     total energy              =    -658.54672390 Ry
     estimated scf accuracy    <       0.00262716 Ry

     total magnetization       =     2.09 Bohr mag/cell
     absolute magnetization    =     2.25 Bohr mag/cell

     iteration # 12     ecut=    80.00 Ry     beta= 0.70
     Davidson diagonalization with overlap
     ethr =  7.51E-06,  avg # of iterations =  4.1

     negative rho (up, down):  2.317E-04 2.072E-04

     total cpu time spent up to now is       24.8 secs

     total energy              =    -658.54711503 Ry
     estimated scf accuracy    <       0.00095278 Ry

     total magnetization       =     2.09 Bohr mag/cell
     absolute magnetization    =     2.23 Bohr mag/cell

     iteration # 13     ecut=    80.00 Ry     beta= 0.70
     Davidson diagonalization with overlap
     ethr =  2.72E-06,  avg # of iterations =  3.2

     negative rho (up, down):  2.197E-04 1.990E-04

     total cpu time spent up to now is       26.6 secs

     total energy              =    -658.54739824 Ry
     estimated scf accuracy    <       0.00010872 Ry

     total magnetization       =     2.09 Bohr mag/cell
     absolute magnetization    =     2.22 Bohr mag/cell

     iteration # 14     ecut=    80.00 Ry     beta= 0.70
     Davidson diagonalization with overlap
     ethr =  3.11E-07,  avg # of iterations =  5.2

     negative rho (up, down):  2.183E-04 1.980E-04

     total cpu time spent up to now is       28.6 secs

     total energy              =    -658.54757051 Ry
     estimated scf accuracy    <       0.00030670 Ry

     total magnetization       =     2.10 Bohr mag/cell
     absolute magnetization    =     2.22 Bohr mag/cell

     iteration # 15     ecut=    80.00 Ry     beta= 0.70
     Davidson diagonalization with overlap
     ethr =  3.11E-07,  avg # of iterations =  2.2

     negative rho (up, down):  2.237E-04 2.014E-04

     total cpu time spent up to now is       30.3 secs

     total energy              =    -658.54761702 Ry
     estimated scf accuracy    <       0.00004363 Ry

     total magnetization       =     2.10 Bohr mag/cell
     absolute magnetization    =     2.22 Bohr mag/cell

     iteration # 16     ecut=    80.00 Ry     beta= 0.70
     Davidson diagonalization with overlap
     ethr =  1.25E-07,  avg # of iterations =  2.2

     negative rho (up, down):  2.303E-04 2.058E-04

     total cpu time spent up to now is       32.0 secs

     total energy              =    -658.54763011 Ry
     estimated scf accuracy    <       0.00001002 Ry

     total magnetization       =     2.10 Bohr mag/cell
     absolute magnetization    =     2.22 Bohr mag/cell

     iteration # 17     ecut=    80.00 Ry     beta= 0.70
     Davidson diagonalization with overlap
     ethr =  2.86E-08,  avg # of iterations =  4.9

     negative rho (up, down):  2.294E-04 2.052E-04

     total cpu time spent up to now is       34.0 secs

     total energy              =    -658.54763583 Ry
     estimated scf accuracy    <       0.00001683 Ry

     total magnetization       =     2.10 Bohr mag/cell
     absolute magnetization    =     2.21 Bohr mag/cell

     iteration # 18     ecut=    80.00 Ry     beta= 0.70
     Davidson diagonalization with overlap
     ethr =  2.86E-08,  avg # of iterations =  2.9

     negative rho (up, down):  2.313E-04 2.065E-04

     total cpu time spent up to now is       35.8 secs

     total energy              =    -658.54763426 Ry
     estimated scf accuracy    <       0.00000455 Ry

     total magnetization       =     2.10 Bohr mag/cell
     absolute magnetization    =     2.22 Bohr mag/cell

     iteration # 19     ecut=    80.00 Ry     beta= 0.70
     Davidson diagonalization with overlap
     ethr =  1.30E-08,  avg # of iterations =  5.0

     negative rho (up, down):  2.273E-04 2.036E-04
 
     Magnetic moment per site  (integrated on atomic sphere of radius R)
     atom   1 (R=0.316)  charge= 10.8070  magn=  0.0049
     atom   2 (R=0.316)  charge=  4.2185  magn=  0.0349
     atom   3 (R=0.316)  charge=  4.1737  magn=  0.0017
     atom   4 (R=0.353)  charge=  7.5771  magn=  2.0548

     total cpu time spent up to now is       37.8 secs

     End of self-consistent calculation

 ------ SPIN UP ------------


          k = 0.0000 0.0000 0.0000 ( 12991 PWs)   bands (ev):

   -59.7834 -33.9333 -33.7095 -33.7095 -13.4284 -12.0883  -5.2787  -2.4064
    -1.5438  -1.5438  -0.5921  -0.5921  -0.3273  -0.1953  -0.1953   0.3271
     0.3271   0.5509   1.3938   3.5465   3.5465   3.9023

          k = 0.0000 0.0000-0.0871 ( 12974 PWs)   bands (ev):

   -59.7834 -33.9333 -33.7095 -33.7095 -13.4284 -12.0883  -5.2787  -2.4064
    -1.5438  -1.5438  -0.5921  -0.5921  -0.3273  -0.1953  -0.1953   0.3271
     0.3271   0.5509   1.3938   3.5465   3.5465   3.9023

          k = 0.0000 0.1155 0.0000 ( 12953 PWs)   bands (ev):

   -59.7796 -33.9260 -33.7472 -33.7181 -13.2861 -12.0102  -5.1204  -2.4095
    -1.9078  -1.4291  -0.9036  -0.7414  -0.4778  -0.2367   0.0724   0.2883
     0.3561   0.5725   1.4494   3.2788   3.5678   3.6070

          k = 0.0000 0.1155-0.0871 ( 12970 PWs)   bands (ev):

   -59.7796 -33.9260 -33.7472 -33.7181 -13.2861 -12.0102  -5.1204  -2.4095
    -1.9078  -1.4291  -0.9036  -0.7414  -0.4778  -0.2367   0.0724   0.2883
     0.3561   0.5725   1.4494   3.2787   3.5678   3.6070

          k = 0.0000 0.2309 0.0000 ( 12929 PWs)   bands (ev):

   -59.7698 -33.9066 -33.8448 -33.7405 -12.8924 -11.7903  -4.7436  -2.8096
    -2.5279  -1.3944  -1.2812  -0.8968  -0.4829  -0.2047   0.0442   0.2451
     0.4397   0.4657   1.4067   3.1128   3.3342   3.5922

          k = 0.0000 0.2309-0.0871 ( 12940 PWs)   bands (ev):

   -59.7698 -33.9066 -33.8448 -33.7405 -12.8924 -11.7903  -4.7436  -2.8096
    -2.5279  -1.3944  -1.2812  -0.8968  -0.4829  -0.2047   0.0442   0.2451
     0.4397   0.4657   1.4067   3.1127   3.3342   3.5923

          k = 0.0000 0.3464 0.0000 ( 12915 PWs)   bands (ev):

   -59.7576 -33.9634 -33.8826 -33.7681 -12.3524 -11.4758  -4.5389  -3.6133
    -3.0118  -1.8017  -1.5483  -0.6594  -0.3830  -0.1163  -0.0501   0.0718
     0.4420   0.5806   1.5959   3.1733   3.3808   4.2141

          k = 0.0000 0.3464-0.0871 ( 12918 PWs)   bands (ev):

   -59.7576 -33.9634 -33.8826 -33.7681 -12.3524 -11.4758  -4.5389  -3.6133
    -3.0118  -1.8017  -1.5483  -0.6594  -0.3830  -0.1164  -0.0501   0.0718
     0.4420   0.5806   1.5959   3.1733   3.3808   4.2142

          k = 0.0000 0.4619 0.0000 ( 12872 PWs)   bands (ev):

   -59.7477 -34.0578 -33.8631 -33.7902 -11.8617 -11.1603  -4.9294  -4.0686
    -3.3540  -2.1235  -1.7703  -0.5674  -0.3943  -0.1521   0.1375   0.1728
     0.6067   0.7206   2.3724   3.2417   3.7850   4.8490

          k = 0.0000 0.4619-0.0871 ( 12884 PWs)   bands (ev):

   -59.7477 -34.0578 -33.8631 -33.7902 -11.8617 -11.1603  -4.9294  -4.0686
    -3.3540  -2.1235  -1.7703  -0.5674  -0.3943  -0.1521   0.1375   0.1728
     0.6067   0.7206   2.3724   3.2417   3.7850   4.8491

          k = 0.0000-0.5774 0.0000 ( 12854 PWs)   bands (ev):

   -59.7439 -34.0935 -33.8556 -33.7987 -11.6615 -11.0125  -5.2016  -4.2459
    -3.4607  -2.2383  -1.8634  -0.5567  -0.4148  -0.1573   0.2655   0.3337
     0.6709   0.7757   3.1476   3.3373   3.8139   4.8918

          k = 0.0000-0.5774-0.0871 ( 12864 PWs)   bands (ev):

   -59.7439 -34.0935 -33.8556 -33.7987 -11.6615 -11.0125  -5.2016  -4.2459
    -3.4607  -2.2383  -1.8634  -0.5567  -0.4148  -0.1573   0.2655   0.3337
     0.6709   0.7757   3.1476   3.3373   3.8140   4.8918

          k = 0.1000 0.1732 0.0000 ( 12937 PWs)   bands (ev):

   -59.7728 -33.9126 -33.8121 -33.7364 -13.0178 -11.8608  -4.8472  -2.5167
    -2.4510  -1.4580  -1.1853  -0.8959  -0.5349  -0.2163   0.1834   0.2301
     0.4179   0.5267   1.4501   3.0275   3.4000   3.4392

          k = 0.1000 0.1732-0.0871 ( 12920 PWs)   bands (ev):

   -59.7728 -33.9126 -33.8121 -33.7364 -13.0178 -11.8608  -4.8472  -2.5167
    -2.4510  -1.4580  -1.1853  -0.8959  -0.5349  -0.2163   0.1835   0.2301
     0.4179   0.5267   1.4501   3.0275   3.4000   3.4392

          k = 0.1000 0.2887 0.0000 ( 12944 PWs)   bands (ev):

   -59.7618 -33.9136 -33.8909 -33.7680 -12.5478 -11.5906  -4.5139  -3.2347
    -2.7930  -2.1012  -1.2433  -0.8222  -0.4695  -0.1128   0.0911   0.1843
     0.3548   0.5478   1.4610   2.9578   3.4277   3.6740

          k = 0.1000 0.2887-0.0871 ( 12926 PWs)   bands (ev):

   -59.7618 -33.9136 -33.8909 -33.7680 -12.5478 -11.5906  -4.5139  -3.2347
    -2.7930  -2.1012  -1.2433  -0.8222  -0.4695  -0.1128   0.0911   0.1843
     0.3548   0.5478   1.4610   2.9578   3.4277   3.6740

          k = 0.1000 0.4041 0.0000 ( 12898 PWs)   bands (ev):

   -59.7507 -34.0130 -33.8691 -33.7997 -12.0228 -11.2651  -4.6251  -3.8045
    -3.2733  -2.3494  -1.4985  -0.8925  -0.4081  -0.0933   0.0125   0.2523
     0.4657   0.6803   1.9098   3.2634   3.6490   4.2504

          k = 0.1000 0.4041-0.0871 ( 12884 PWs)   bands (ev):

   -59.7507 -34.0130 -33.8691 -33.7997 -12.0228 -11.2651  -4.6251  -3.8045
    -3.2733  -2.3494  -1.4985  -0.8925  -0.4081  -0.0933   0.0125   0.2523
     0.4657   0.6803   1.9098   3.2634   3.6490   4.2504

          k = 0.1000 0.5196 0.0000 ( 12858 PWs)   bands (ev):

   -59.7439 -34.0737 -33.8557 -33.8193 -11.6679 -11.0127  -5.0164  -4.1616
    -3.4884  -2.3566  -1.8059  -0.9167  -0.4229  -0.1117   0.1019   0.3912
     0.6311   0.7738   2.8284   3.4994   3.9419   4.4885

          k = 0.1000 0.5196-0.0871 ( 12862 PWs)   bands (ev):

   -59.7439 -34.0737 -33.8557 -33.8193 -11.6679 -11.0127  -5.0164  -4.1616
    -3.4884  -2.3566  -1.8059  -0.9167  -0.4229  -0.1117   0.1019   0.3912
     0.6311   0.7738   2.8284   3.4994   3.9419   4.4886

          k = 0.2000 0.3464 0.0000 ( 12917 PWs)   bands (ev):

   -59.7519 -33.9834 -33.8715 -33.8162 -12.0851 -11.3018  -4.4501  -3.5030
    -3.2915  -2.6062  -1.5379  -0.9741  -0.4954  -0.0223   0.1272   0.2216
     0.3911   0.6514   1.7228   3.2559   3.5576   3.9094

          k = 0.2000 0.3464-0.0871 ( 12918 PWs)   bands (ev):

   -59.7519 -33.9834 -33.8715 -33.8162 -12.0851 -11.3018  -4.4501  -3.5030
    -3.2915  -2.6062  -1.5379  -0.9741  -0.4954  -0.0223   0.1272   0.2216
     0.3911   0.6514   1.7228   3.2559   3.5576   3.9095

          k = 0.2000 0.4619 0.0000 ( 12869 PWs)   bands (ev):

   -59.7439 -34.0322 -33.8624 -33.8557 -11.6785 -11.0123  -4.6605  -3.9932
    -3.4679  -2.6271  -1.9704  -1.3037  -0.4530   0.0018   0.1510   0.3607
     0.4349   0.7717   2.4539   3.5123   3.9343   4.2268

          k = 0.2000 0.4619-0.0871 ( 12868 PWs)   bands (ev):

   -59.7439 -34.0322 -33.8624 -33.8557 -11.6785 -11.0123  -4.6605  -3.9932
    -3.4679  -2.6271  -1.9704  -1.3037  -0.4530   0.0018   0.1510   0.3607
     0.4349   0.7717   2.4539   3.5123   3.9343   4.2268

          k = 0.2000 0.5774 0.0000 ( 12850 PWs)   bands (ev):

   -59.7408 -34.0492 -33.8815 -33.8497 -11.5163 -10.8806  -4.8024  -4.1789
    -3.5798  -2.4744  -2.2234  -1.4733  -0.4467  -0.0035   0.1779   0.4262
     0.5190   0.8741   3.0409   3.4349   3.9686   4.5550

          k = 0.2000 0.5774-0.0871 ( 12850 PWs)   bands (ev):

   -59.7408 -34.0492 -33.8815 -33.8497 -11.5163 -10.8806  -4.8024  -4.1789
    -3.5798  -2.4744  -2.2234  -1.4733  -0.4467  -0.0035   0.1779   0.4262
     0.5190   0.8741   3.0409   3.4349   3.9686   4.5550

          k = 0.3000 0.5196 0.0000 ( 12860 PWs)   bands (ev):

   -59.7397 -34.0144 -33.9310 -33.8474 -11.4595 -10.8280  -4.6604  -4.0886
    -3.4143  -3.0534  -2.3033  -1.6123  -0.4394   0.0688   0.2761   0.3674
     0.4368   0.9497   2.8594   3.2265   4.0824   5.0752

          k = 0.3000 0.5196-0.0871 ( 12870 PWs)   bands (ev):

   -59.7397 -34.0144 -33.9310 -33.8474 -11.4595 -10.8280  -4.6604  -4.0886
    -3.4143  -3.0534  -2.3033  -1.6123  -0.4394   0.0688   0.2761   0.3674
     0.4368   0.9497   2.8594   3.2264   4.0824   5.0751

 ------ SPIN DOWN ----------


          k = 0.0000 0.0000 0.0000 ( 12991 PWs)   bands (ev):

   -59.7797 -33.9393 -33.7001 -33.7001 -13.4005 -12.0776  -5.2310  -2.3012
    -1.4948  -1.4948  -0.4355  -0.4355   0.0170   1.0458   1.6736   1.6736
     1.8536   2.4575   2.4575   3.8149   3.8149   3.9310

          k = 0.0000 0.0000-0.0871 ( 12974 PWs)   bands (ev):

   -59.7797 -33.9393 -33.7001 -33.7001 -13.4005 -12.0776  -5.2310  -2.3012
    -1.4948  -1.4948  -0.4355  -0.4355   0.0170   1.0458   1.6736   1.6736
     1.8536   2.4575   2.4575   3.8149   3.8149   3.9310

          k = 0.0000 0.1155 0.0000 ( 12953 PWs)   bands (ev):

   -59.7759 -33.9319 -33.7377 -33.7087 -13.2574 -11.9998  -5.0707  -2.3315
    -1.8579  -1.3641  -0.7493  -0.6625   0.2382   0.9662   1.6151   1.7163
     1.7260   2.4653   2.6933   3.5264   3.6343   3.8009

          k = 0.0000 0.1155-0.0871 ( 12970 PWs)   bands (ev):

   -59.7759 -33.9319 -33.7377 -33.7087 -13.2574 -11.9998  -5.0707  -2.3315
    -1.8579  -1.3641  -0.7493  -0.6625   0.2382   0.9662   1.6151   1.7163
     1.7260   2.4653   2.6933   3.5263   3.6343   3.8009

          k = 0.0000 0.2309 0.0000 ( 12929 PWs)   bands (ev):

   -59.7661 -33.9126 -33.8352 -33.7310 -12.8610 -11.7811  -4.6888  -2.7537
    -2.4983  -1.2867  -1.0814  -0.8790   0.2850   0.6602   1.5431   1.6467
     1.8595   2.4655   2.7618   3.3192   3.5644   3.7052

          k = 0.0000 0.2309-0.0871 ( 12940 PWs)   bands (ev):

   -59.7661 -33.9126 -33.8352 -33.7310 -12.8610 -11.7811  -4.6888  -2.7537
    -2.4983  -1.2867  -1.0814  -0.8790   0.2850   0.6602   1.5431   1.6467
     1.8595   2.4655   2.7618   3.3191   3.5644   3.7053

          k = 0.0000 0.3464 0.0000 ( 12915 PWs)   bands (ev):

   -59.7539 -33.9536 -33.8887 -33.7585 -12.3160 -11.4692  -4.4927  -3.5341
    -2.9897  -1.7342  -1.3670  -0.5005  -0.0476   0.8216   1.5777   1.7383
     2.0093   2.5468   2.6069   3.3991   3.5525   4.4315

          k = 0.0000 0.3464-0.0871 ( 12918 PWs)   bands (ev):

   -59.7539 -33.9536 -33.8887 -33.7585 -12.3160 -11.4692  -4.4927  -3.5341
    -2.9897  -1.7342  -1.3670  -0.5006  -0.0476   0.8216   1.5777   1.7383
     2.0093   2.5468   2.6069   3.3991   3.5525   4.4316

          k = 0.0000 0.4619 0.0000 ( 12872 PWs)   bands (ev):

   -59.7440 -34.0479 -33.8692 -33.7807 -11.8191 -11.1567  -4.9010  -3.9974
    -3.2988  -2.0679  -1.6003  -0.2252  -0.0334   0.9426   1.7363   2.1332
     2.1719   2.7377   2.7986   3.3727   3.8593   5.0707

          k = 0.0000 0.4619-0.0871 ( 12884 PWs)   bands (ev):

   -59.7440 -34.0479 -33.8692 -33.7807 -11.8191 -11.1567  -4.9010  -3.9974
    -3.2988  -2.0679  -1.6003  -0.2252  -0.0334   0.9426   1.7363   2.1332
     2.1719   2.7376   2.7986   3.3727   3.8593   5.0707

          k = 0.0000-0.5774 0.0000 ( 12854 PWs)   bands (ev):

   -59.7403 -34.0835 -33.8618 -33.7891 -11.6163 -11.0100  -5.1757  -4.1879
    -3.3942  -2.1855  -1.6834  -0.1440   0.1200   0.9310   1.7775   2.1854
     2.3707   2.8382   3.3991   3.4072   3.8431   5.1222

          k = 0.0000-0.5774-0.0871 ( 12864 PWs)   bands (ev):

   -59.7403 -34.0835 -33.8618 -33.7891 -11.6163 -11.0100  -5.1757  -4.1879
    -3.3942  -2.1855  -1.6834  -0.1440   0.1200   0.9310   1.7775   2.1854
     2.3707   2.8382   3.3991   3.4072   3.8431   5.1222

          k = 0.1000 0.1732 0.0000 ( 12937 PWs)   bands (ev):

   -59.7691 -33.9186 -33.8025 -33.7269 -12.9873 -11.8512  -4.7937  -2.4666
    -2.4049  -1.3638  -1.0840  -0.7723   0.3657   0.7506   1.5509   1.5915
     1.8586   2.4477   2.9568   3.1460   3.4439   3.6693

          k = 0.1000 0.1732-0.0871 ( 12920 PWs)   bands (ev):

   -59.7691 -33.9186 -33.8025 -33.7269 -12.9873 -11.8512  -4.7937  -2.4666
    -2.4049  -1.3638  -1.0840  -0.7723   0.3657   0.7506   1.5509   1.5915
     1.8586   2.4477   2.9568   3.1459   3.4440   3.6693

          k = 0.1000 0.2887 0.0000 ( 12944 PWs)   bands (ev):

   -59.7581 -33.9039 -33.8969 -33.7584 -12.5135 -11.5829  -4.4589  -3.1621
    -2.7733  -2.0458  -1.0390  -0.6911   0.1758   0.7075   1.4717   1.6011
     2.0421   2.4758   2.7802   3.1629   3.5923   3.8455

          k = 0.1000 0.2887-0.0871 ( 12926 PWs)   bands (ev):

   -59.7581 -33.9039 -33.8969 -33.7584 -12.5135 -11.5829  -4.4589  -3.1621
    -2.7733  -2.0458  -1.0390  -0.6911   0.1758   0.7075   1.4717   1.6011
     2.0421   2.4758   2.7802   3.1628   3.5923   3.8456

          k = 0.1000 0.4041 0.0000 ( 12898 PWs)   bands (ev):

   -59.7471 -34.0032 -33.8752 -33.7902 -11.9825 -11.2605  -4.5908  -3.7237
    -3.2244  -2.3006  -1.3078  -0.7735   0.1216   0.9961   1.6248   1.7326
     2.1802   2.5749   2.8171   3.3910   3.7947   4.4078

          k = 0.1000 0.4041-0.0871 ( 12884 PWs)   bands (ev):

   -59.7471 -34.0032 -33.8752 -33.7902 -11.9825 -11.2605  -4.5908  -3.7237
    -3.2244  -2.3006  -1.3078  -0.7735   0.1216   0.9961   1.6248   1.7326
     2.1802   2.5749   2.8171   3.3910   3.7947   4.4078

          k = 0.1000 0.5196 0.0000 ( 12858 PWs)   bands (ev):

   -59.7403 -34.0638 -33.8618 -33.8097 -11.6230 -11.0101  -4.9884  -4.1121
    -3.4054  -2.3058  -1.6133  -0.8110   0.3415   1.0223   1.7891   2.0107
     2.2913   2.8591   3.0739   3.6450   4.0311   4.6056

          k = 0.1000 0.5196-0.0871 ( 12862 PWs)   bands (ev):

   -59.7403 -34.0638 -33.8618 -33.8097 -11.6230 -11.0101  -4.9884  -4.1121
    -3.4054  -2.3058  -1.6133  -0.8110   0.3415   1.0223   1.7891   2.0107
     2.2913   2.8591   3.0739   3.6450   4.0311   4.6056

          k = 0.2000 0.3464 0.0000 ( 12917 PWs)   bands (ev):

   -59.7483 -33.9736 -33.8775 -33.8066 -12.0457 -11.2967  -4.4096  -3.3942
    -3.2655  -2.5639  -1.4411  -0.7693   0.1577   1.0354   1.3963   1.6563
     2.1905   2.5289   2.8888   3.4061   3.6741   4.0785

          k = 0.2000 0.3464-0.0871 ( 12918 PWs)   bands (ev):

   -59.7483 -33.9736 -33.8775 -33.8066 -12.0457 -11.2967  -4.4096  -3.3942
    -3.2655  -2.5639  -1.4411  -0.7693   0.1577   1.0354   1.3963   1.6563
     2.1905   2.5289   2.8888   3.4061   3.6741   4.0785

          k = 0.2000 0.4619 0.0000 ( 12869 PWs)   bands (ev):

   -59.7403 -34.0223 -33.8618 -33.8527 -11.6339 -11.0096  -4.6281  -3.9669
    -3.3387  -2.5618  -1.9121  -1.1717   0.3878   1.2470   1.5912   1.7950
     2.2330   2.6927   3.0527   3.6660   3.9807   4.4375

          k = 0.2000 0.4619-0.0871 ( 12868 PWs)   bands (ev):

   -59.7403 -34.0223 -33.8618 -33.8527 -11.6339 -11.0096  -4.6281  -3.9669
    -3.3387  -2.5618  -1.9121  -1.1717   0.3878   1.2470   1.5912   1.7950
     2.2330   2.6927   3.0527   3.6660   3.9807   4.4375

          k = 0.2000 0.5774 0.0000 ( 12850 PWs)   bands (ev):

   -59.7372 -34.0393 -33.8718 -33.8558 -11.4698 -10.8784  -4.7705  -4.1615
    -3.4544  -2.3844  -2.1399  -1.4065   0.6073   1.2262   1.7937   1.8225
     2.2646   2.8155   3.1404   3.6829   4.1373   4.7355

          k = 0.2000 0.5774-0.0871 ( 12850 PWs)   bands (ev):

   -59.7372 -34.0393 -33.8718 -33.8558 -11.4698 -10.8784  -4.7705  -4.1615
    -3.4544  -2.3844  -2.1399  -1.4065   0.6073   1.2262   1.7937   1.8225
     2.2646   2.8155   3.1404   3.6829   4.1373   4.7355

          k = 0.3000 0.5196 0.0000 ( 12860 PWs)   bands (ev):

   -59.7360 -34.0044 -33.9213 -33.8535 -11.4125 -10.8258  -4.6333  -4.0595
    -3.2652  -2.9905  -2.2684  -1.5144   0.7381   1.4359   1.5788   1.8231
     2.2801   2.7375   2.9878   3.4424   4.2909   5.2875

          k = 0.3000 0.5196-0.0871 ( 12870 PWs)   bands (ev):

   -59.7360 -34.0044 -33.9213 -33.8535 -11.4125 -10.8258  -4.6333  -4.0595
    -3.2652  -2.9905  -2.2684  -1.5144   0.7381   1.4359   1.5788   1.8231
     2.2801   2.7375   2.9878   3.4424   4.2909   5.2875

     the Fermi energy is     2.1531 ev

!    total energy              =    -658.54764405 Ry
     total all-electron energy =    -12481.721535 Ry
     estimated scf accuracy    <       0.00000095 Ry
     smearing contrib. (-TS)   =      -0.00600978 Ry
     internal energy E=F+TS    =    -658.54163427 Ry

     The total energy is F=E-TS. E is the sum of the following terms:
     one-electron contribution =   -1219.44316030 Ry
     hartree contribution      =     623.37698137 Ry
     xc contribution           =     -62.26362078 Ry
     ewald contribution        =     405.94206228 Ry
     one-center paw contrib.   =    -406.15389683 Ry

     total magnetization       =     2.10 Bohr mag/cell
     absolute magnetization    =     2.21 Bohr mag/cell

     convergence has been achieved in  19 iterations

     negative rho (up, down):  2.273E-04 2.036E-04

     Forces acting on atoms (cartesian axes, Ry/au):

     atom    1 type  1   force =     0.00000000    0.00000000   -0.03634450
     atom    2 type  2   force =     0.00000000    0.00000000    0.02663109
     atom    3 type  2   force =     0.00000000    0.00000000    0.01788091
     atom    4 type  3   force =     0.00000000    0.00000000   -0.00816749
     The non-local contrib.  to forces
     atom    1 type  1   force =     0.00000000   -0.00000000   -0.01942312
     atom    2 type  2   force =     0.00000000    0.00000000   -0.07937597
     atom    3 type  2   force =     0.00000000    0.00000000    0.27766376
     atom    4 type  3   force =     0.00000000    0.00000000   -0.02534504
     The ionic contribution  to forces
     atom    1 type  1   force =     0.00000000   -0.00000000  -30.79878777
     atom    2 type  2   force =    -0.00000000    0.00000000   18.78039525
     atom    3 type  2   force =    -0.00000000    0.00000000  -44.58057647
     atom    4 type  3   force =     0.00000000   -0.00000000   56.59896899
     The local contribution  to forces
     atom    1 type  1   force =     0.00000000   -0.00000000   30.78563396
     atom    2 type  2   force =    -0.00000000    0.00000000  -18.67178319
     atom    3 type  2   force =    -0.00000000    0.00000000   44.32526960
     atom    4 type  3   force =     0.00000000   -0.00000000  -56.57918114
     The core correction contribution to forces
     atom    1 type  1   force =     0.00000000    0.00000000    0.00135319
     atom    2 type  2   force =     0.00000000   -0.00000000   -0.00150233
     atom    3 type  2   force =     0.00000000   -0.00000000   -0.00263778
     atom    4 type  3   force =     0.00000000   -0.00000000   -0.00269824
     The Hubbard contrib.    to forces
     atom    1 type  1   force =     0.00000000    0.00000000    0.00000000
     atom    2 type  2   force =     0.00000000    0.00000000    0.00000000
     atom    3 type  2   force =     0.00000000    0.00000000    0.00000000
     atom    4 type  3   force =     0.00000000    0.00000000    0.00000000
     The SCF correction term to forces
     atom    1 type  1   force =     0.00000000    0.00000000   -0.00488518
     atom    2 type  2   force =    -0.00000000   -0.00000000   -0.00086708
     atom    3 type  2   force =    -0.00000000   -0.00000000   -0.00160261
     atom    4 type  3   force =     0.00000000   -0.00000000    0.00032353

     Total force =     0.049159     Total SCF correction =     0.005224
     SCF correction compared to forces is large: reduce conv_thr to get better values


     Computing stress (Cartesian axis) and pressure


     negative rho (up, down):  2.273E-04 2.036E-04
          total   stress  (Ry/bohr**3)                   (kbar)     P=      -18.86
  -0.00018174   0.00000000   0.00000000          -26.74        0.00        0.00
   0.00000000  -0.00018174   0.00000000            0.00      -26.74        0.00
   0.00000000   0.00000000  -0.00002114            0.00        0.00       -3.11


     BFGS Geometry Optimization
     Energy error            =      0.0E+00 Ry
     Gradient error          =      3.6E-02 Ry/Bohr

     number of scf cycles    =   1
     number of bfgs steps    =   0

     energy             new  =    -658.5476440496 Ry

     new trust radius        =       0.0363445044 bohr
     new conv_thr            =       0.0000010000 Ry


ATOMIC_POSITIONS (crystal)
Mo            0.0000000000        0.0000000000        0.4989426782
S             0.6666666667        0.3333333333        0.5884602840
S             0.6666666667        0.3333333333        0.4128346437
Co            0.3333333333        0.6666666667        0.6973984580



     Writing config-only to output data dir ./tmp/relax.save/
     NEW-OLD atomic charge density approx. for the potential

     negative rho (up, down):  2.259E-04 2.192E-04
     Generating pointlists ...

     total cpu time spent up to now is       40.9 secs

     Self-consistent Calculation

     iteration #  1     ecut=    80.00 Ry     beta= 0.70
     Davidson diagonalization with overlap
     ethr =  1.00E-06,  avg # of iterations =  7.7

     negative rho (up, down):  2.268E-04 2.076E-04

     total cpu time spent up to now is       44.0 secs

     total energy              =    -658.54768594 Ry
     estimated scf accuracy    <       0.00194823 Ry

     total magnetization       =     2.11 Bohr mag/cell
     absolute magnetization    =     2.23 Bohr mag/cell

     iteration #  2     ecut=    80.00 Ry     beta= 0.70
     Davidson diagonalization with overlap
     ethr =  5.57E-06,  avg # of iterations =  8.9

     negative rho (up, down):  2.267E-04 2.075E-04

     total cpu time spent up to now is       46.5 secs

     total energy              =    -658.53616360 Ry
     estimated scf accuracy    <       0.29205360 Ry

     total magnetization       =     1.89 Bohr mag/cell
     absolute magnetization    =     2.00 Bohr mag/cell

     iteration #  3     ecut=    80.00 Ry     beta= 0.70
     Davidson diagonalization with overlap
     ethr =  5.57E-06,  avg # of iterations =  7.8

     negative rho (up, down):  2.266E-04 2.069E-04

     total cpu time spent up to now is       48.9 secs

     total energy              =    -658.54888523 Ry
     estimated scf accuracy    <       0.00235735 Ry

     total magnetization       =     2.11 Bohr mag/cell
     absolute magnetization    =     2.23 Bohr mag/cell

     iteration #  4     ecut=    80.00 Ry     beta= 0.70
     Davidson diagonalization with overlap
     ethr =  5.57E-06,  avg # of iterations =  2.6

     negative rho (up, down):  2.265E-04 2.056E-04

     total cpu time spent up to now is       50.6 secs

     total energy              =    -658.54919178 Ry
     estimated scf accuracy    <       0.00022840 Ry

     total magnetization       =     2.10 Bohr mag/cell
     absolute magnetization    =     2.21 Bohr mag/cell

     iteration #  5     ecut=    80.00 Ry     beta= 0.70
     Davidson diagonalization with overlap
     ethr =  6.53E-07,  avg # of iterations =  2.1

     negative rho (up, down):  2.268E-04 2.048E-04

     total cpu time spent up to now is       52.4 secs

     total energy              =    -658.54922325 Ry
     estimated scf accuracy    <       0.00004324 Ry

     total magnetization       =     2.10 Bohr mag/cell
     absolute magnetization    =     2.21 Bohr mag/cell

     iteration #  6     ecut=    80.00 Ry     beta= 0.70
     Davidson diagonalization with overlap
     ethr =  1.24E-07,  avg # of iterations =  3.3

     negative rho (up, down):  2.271E-04 2.045E-04

     total cpu time spent up to now is       54.2 secs

     total energy              =    -658.54923255 Ry
     estimated scf accuracy    <       0.00001242 Ry

     total magnetization       =     2.10 Bohr mag/cell
     absolute magnetization    =     2.21 Bohr mag/cell

     iteration #  7     ecut=    80.00 Ry     beta= 0.70
     Davidson diagonalization with overlap
     ethr =  3.55E-08,  avg # of iterations =  3.0

     negative rho (up, down):  2.273E-04 2.043E-04

     total cpu time spent up to now is       56.0 secs

     total energy              =    -658.54923465 Ry
     estimated scf accuracy    <       0.00000463 Ry

     total magnetization       =     2.10 Bohr mag/cell
     absolute magnetization    =     2.21 Bohr mag/cell

     iteration #  8     ecut=    80.00 Ry     beta= 0.70
     Davidson diagonalization with overlap
     ethr =  1.32E-08,  avg # of iterations =  2.0

     negative rho (up, down):  2.275E-04 2.043E-04
 
     Magnetic moment per site  (integrated on atomic sphere of radius R)
     atom   1 (R=0.316)  charge= 10.8064  magn=  0.0059
     atom   2 (R=0.316)  charge=  4.2027  magn=  0.0350
     atom   3 (R=0.316)  charge=  4.1920  magn=  0.0016
     atom   4 (R=0.353)  charge=  7.5794  magn=  2.0525

     total cpu time spent up to now is       57.7 secs

     End of self-consistent calculation

 ------ SPIN UP ------------


          k = 0.0000 0.0000 0.0000 ( 12991 PWs)   bands (ev):

   -59.7590 -33.9067 -33.6865 -33.6865 -13.3953 -12.0998  -5.2454  -2.4776
    -1.4973  -1.4973  -0.6317  -0.6317  -0.2961  -0.1759  -0.1759   0.2966
     0.2966   0.6117   1.3569   3.4718   3.4718   4.0078

          k = 0.0000 0.0000-0.0871 ( 12974 PWs)   bands (ev):

   -59.7590 -33.9067 -33.6865 -33.6865 -13.3953 -12.0998  -5.2454  -2.4776
    -1.4973  -1.4973  -0.6317  -0.6317  -0.2961  -0.1759  -0.1759   0.2966
     0.2966   0.6117   1.3568   3.4718   3.4719   4.0078

          k = 0.0000 0.1155 0.0000 ( 12953 PWs)   bands (ev):

   -59.7552 -33.8994 -33.7242 -33.6951 -13.2520 -12.0222  -5.0874  -2.4729
    -1.8522  -1.3690  -0.9334  -0.7836  -0.4903  -0.2301   0.0824   0.2646
     0.3267   0.6495   1.4126   3.1943   3.4964   3.7274

          k = 0.0000 0.1155-0.0871 ( 12970 PWs)   bands (ev):

   -59.7552 -33.8994 -33.7242 -33.6951 -13.2520 -12.0222  -5.0874  -2.4729
    -1.8522  -1.3690  -0.9334  -0.7836  -0.4903  -0.2301   0.0824   0.2646
     0.3267   0.6495   1.4126   3.1943   3.4964   3.7274

          k = 0.0000 0.2309 0.0000 ( 12929 PWs)   bands (ev):

   -59.7454 -33.8801 -33.8217 -33.7175 -12.8544 -11.8051  -4.7094  -2.8022
    -2.5181  -1.3438  -1.3003  -0.9713  -0.5020  -0.2031   0.0321   0.2656
     0.4111   0.5063   1.3863   3.0853   3.3109   3.6672

          k = 0.0000 0.2309-0.0871 ( 12940 PWs)   bands (ev):

   -59.7454 -33.8801 -33.8217 -33.7175 -12.8544 -11.8051  -4.7094  -2.8022
    -2.5181  -1.3438  -1.3003  -0.9713  -0.5020  -0.2031   0.0321   0.2656
     0.4111   0.5063   1.3864   3.0853   3.3109   3.6673

          k = 0.0000 0.3464 0.0000 ( 12915 PWs)   bands (ev):

   -59.7332 -33.9403 -33.8560 -33.7450 -12.3056 -11.4979  -4.4917  -3.6024
    -3.0253  -1.7494  -1.5963  -0.7100  -0.3860  -0.1224  -0.0362   0.1078
     0.4157   0.5536   1.5824   3.1707   3.4158   4.2364

          k = 0.0000 0.3464-0.0871 ( 12918 PWs)   bands (ev):

   -59.7332 -33.9403 -33.8560 -33.7450 -12.3056 -11.4979  -4.4917  -3.6024
    -3.0253  -1.7494  -1.5963  -0.7100  -0.3860  -0.1224  -0.0362   0.1078
     0.4157   0.5536   1.5824   3.1707   3.4158   4.2365

          k = 0.0000 0.4619 0.0000 ( 12872 PWs)   bands (ev):

   -59.7233 -34.0346 -33.8366 -33.7672 -11.8011 -11.1944  -4.8802  -4.0904
    -3.3369  -2.0785  -1.8068  -0.6200  -0.3848  -0.1706   0.1653   0.1902
     0.5785   0.6947   2.3420   3.2536   3.8379   4.8388

          k = 0.0000 0.4619-0.0871 ( 12884 PWs)   bands (ev):

   -59.7233 -34.0346 -33.8366 -33.7672 -11.8011 -11.1944  -4.8802  -4.0904
    -3.3369  -2.0785  -1.8068  -0.6200  -0.3848  -0.1706   0.1653   0.1902
     0.5785   0.6947   2.3420   3.2536   3.8379   4.8389

          k = 0.0000-0.5774 0.0000 ( 12854 PWs)   bands (ev):

   -59.7195 -34.0703 -33.8291 -33.7756 -11.5938 -11.0529  -5.1607  -4.2725
    -3.4261  -2.1947  -1.9002  -0.6095  -0.4073  -0.1780   0.2827   0.3627
     0.6431   0.7493   3.0975   3.3563   3.8380   4.8841

          k = 0.0000-0.5774-0.0871 ( 12864 PWs)   bands (ev):

   -59.7195 -34.0703 -33.8291 -33.7756 -11.5938 -11.0529  -5.1607  -4.2725
    -3.4261  -2.1947  -1.9002  -0.6095  -0.4073  -0.1780   0.2827   0.3627
     0.6431   0.7493   3.0975   3.3563   3.8380   4.8842

          k = 0.1000 0.1732 0.0000 ( 12937 PWs)   bands (ev):

   -59.7484 -33.8860 -33.7890 -33.7133 -12.9812 -11.8745  -4.8138  -2.5880
    -2.3628  -1.4053  -1.1988  -0.9725  -0.5509  -0.2219   0.1637   0.2252
     0.4002   0.5994   1.4240   2.9625   3.4082   3.5123

          k = 0.1000 0.1732-0.0871 ( 12920 PWs)   bands (ev):

   -59.7484 -33.8860 -33.7890 -33.7133 -12.9812 -11.8745  -4.8138  -2.5880
    -2.3628  -1.4053  -1.1988  -0.9725  -0.5509  -0.2219   0.1637   0.2252
     0.4002   0.5994   1.4240   2.9625   3.4082   3.5124

          k = 0.1000 0.2887 0.0000 ( 12944 PWs)   bands (ev):

   -59.7374 -33.8904 -33.8643 -33.7449 -12.5049 -11.6094  -4.4721  -3.2219
    -2.8009  -2.0698  -1.2510  -0.8889  -0.4868  -0.1286   0.0925   0.2415
     0.3358   0.5253   1.4513   2.9456   3.4666   3.7011

          k = 0.1000 0.2887-0.0871 ( 12926 PWs)   bands (ev):

   -59.7374 -33.8904 -33.8643 -33.7449 -12.5049 -11.6094  -4.4721  -3.2219
    -2.8009  -2.0698  -1.2510  -0.8889  -0.4868  -0.1286   0.0925   0.2415
     0.3358   0.5253   1.4513   2.9456   3.4665   3.7012

          k = 0.1000 0.4041 0.0000 ( 12898 PWs)   bands (ev):

   -59.7263 -33.9899 -33.8426 -33.7767 -11.9678 -11.2945  -4.5684  -3.8173
    -3.2771  -2.3167  -1.5117  -0.9327  -0.4066  -0.1131   0.0126   0.2775
     0.4406   0.6582   1.8884   3.2747   3.7057   4.2642

          k = 0.1000 0.4041-0.0871 ( 12884 PWs)   bands (ev):

   -59.7263 -33.9899 -33.8426 -33.7767 -11.9678 -11.2945  -4.5684  -3.8173
    -3.2771  -2.3167  -1.5117  -0.9327  -0.4066  -0.1131   0.0126   0.2775
     0.4406   0.6582   1.8884   3.2747   3.7057   4.2642

          k = 0.1000 0.5196 0.0000 ( 12858 PWs)   bands (ev):

   -59.7195 -34.0505 -33.8291 -33.7962 -11.6011 -11.0524  -4.9694  -4.1895
    -3.4564  -2.3277  -1.8292  -0.9462  -0.4274  -0.1344   0.1040   0.4119
     0.6033   0.7586   2.7912   3.5185   3.9758   4.5142

          k = 0.1000 0.5196-0.0871 ( 12862 PWs)   bands (ev):

   -59.7195 -34.0505 -33.8291 -33.7962 -11.6011 -11.0524  -4.9694  -4.1895
    -3.4564  -2.3277  -1.8292  -0.9462  -0.4274  -0.1344   0.1040   0.4119
     0.6033   0.7586   2.7912   3.5185   3.9757   4.5142

          k = 0.2000 0.3464 0.0000 ( 12917 PWs)   bands (ev):

   -59.7275 -33.9602 -33.8449 -33.7931 -12.0321 -11.3294  -4.3893  -3.4912
    -3.3367  -2.5533  -1.5513  -1.0157  -0.5091  -0.0398   0.1394   0.2208
     0.3724   0.6378   1.7065   3.2710   3.6287   3.9092

          k = 0.2000 0.3464-0.0871 ( 12918 PWs)   bands (ev):

   -59.7275 -33.9602 -33.8449 -33.7931 -12.0321 -11.3294  -4.3893  -3.4912
    -3.3367  -2.5533  -1.5513  -1.0157  -0.5091  -0.0398   0.1394   0.2208
     0.3724   0.6378   1.7065   3.2710   3.6287   3.9092

          k = 0.2000 0.4619 0.0000 ( 12869 PWs)   bands (ev):

   -59.7195 -34.0090 -33.8393 -33.8292 -11.6131 -11.0511  -4.5975  -4.0122
    -3.4641  -2.6002  -1.9898  -1.3139  -0.4721  -0.0211   0.1514   0.3514
     0.4212   0.7652   2.4194   3.5638   3.9947   4.2146

          k = 0.2000 0.4619-0.0871 ( 12868 PWs)   bands (ev):

   -59.7195 -34.0090 -33.8393 -33.8292 -11.6131 -11.0511  -4.5975  -4.0122
    -3.4641  -2.6002  -1.9898  -1.3139  -0.4721  -0.0211   0.1514   0.3514
     0.4212   0.7652   2.4194   3.5638   3.9947   4.2146

          k = 0.2000 0.5774 0.0000 ( 12850 PWs)   bands (ev):

   -59.7164 -34.0260 -33.8584 -33.8232 -11.4455 -10.9240  -4.7446  -4.2040
    -3.5521  -2.4481  -2.2591  -1.4762  -0.4665  -0.0274   0.1749   0.4175
     0.4978   0.8758   3.0361   3.4418   3.9708   4.5829

          k = 0.2000 0.5774-0.0871 ( 12850 PWs)   bands (ev):

   -59.7164 -34.0260 -33.8584 -33.8232 -11.4455 -10.9240  -4.7446  -4.2040
    -3.5521  -2.4481  -2.2591  -1.4762  -0.4665  -0.0274   0.1749   0.4175
     0.4978   0.8758   3.0361   3.4418   3.9709   4.5829

          k = 0.3000 0.5196 0.0000 ( 12860 PWs)   bands (ev):

   -59.7153 -33.9911 -33.9079 -33.8209 -11.3874 -10.8725  -4.6013  -4.0861
    -3.4107  -3.0628  -2.3142  -1.6027  -0.4609   0.0456   0.2700   0.3453
     0.4157   0.9562   2.8616   3.2601   4.0679   5.1035

          k = 0.3000 0.5196-0.0871 ( 12870 PWs)   bands (ev):

   -59.7153 -33.9911 -33.9079 -33.8209 -11.3874 -10.8725  -4.6013  -4.0861
    -3.4107  -3.0628  -2.3142  -1.6027  -0.4609   0.0456   0.2700   0.3453
     0.4157   0.9562   2.8616   3.2601   4.0679   5.1035

 ------ SPIN DOWN ----------


          k = 0.0000 0.0000 0.0000 ( 12991 PWs)   bands (ev):

   -59.7547 -33.9115 -33.6767 -33.6767 -13.3675 -12.0883  -5.1984  -2.3763
    -1.4524  -1.4524  -0.4241  -0.4240   0.1109   1.0477   1.6414   1.6414
     1.8210   2.4007   2.4007   3.7774   3.7775   4.0181

          k = 0.0000 0.0000-0.0871 ( 12974 PWs)   bands (ev):

   -59.7547 -33.9115 -33.6767 -33.6767 -13.3675 -12.0883  -5.1984  -2.3763
    -1.4524  -1.4524  -0.4240  -0.4240   0.1109   1.0476   1.6414   1.6414
     1.8210   2.4007   2.4007   3.7774   3.7775   4.0181

          k = 0.0000 0.1155 0.0000 ( 12953 PWs)   bands (ev):

   -59.7510 -33.9042 -33.7143 -33.6853 -13.2234 -12.0111  -5.0384  -2.3959
    -1.8053  -1.3109  -0.7594  -0.6630   0.3233   0.9650   1.5828   1.6839
     1.6940   2.4076   2.6422   3.4776   3.7412   3.7833

          k = 0.0000 0.1155-0.0871 ( 12970 PWs)   bands (ev):

   -59.7510 -33.9042 -33.7143 -33.6853 -13.2234 -12.0111  -5.0384  -2.3959
    -1.8053  -1.3109  -0.7594  -0.6630   0.3233   0.9650   1.5828   1.6838
     1.6940   2.4076   2.6422   3.4776   3.7412   3.7833

          k = 0.0000 0.2309 0.0000 ( 12929 PWs)   bands (ev):

   -59.7411 -33.8849 -33.8117 -33.7077 -12.8232 -11.7951  -4.6548  -2.7510
    -2.4815  -1.1876  -1.1408  -0.9298   0.3832   0.6368   1.5132   1.6171
     1.8284   2.4104   2.7255   3.3549   3.5780   3.7339

          k = 0.0000 0.2309-0.0871 ( 12940 PWs)   bands (ev):

   -59.7411 -33.8849 -33.8117 -33.7077 -12.8232 -11.7951  -4.6548  -2.7510
    -2.4815  -1.1876  -1.1408  -0.9298   0.3832   0.6368   1.5132   1.6171
     1.8284   2.4104   2.7255   3.3548   3.5780   3.7340

          k = 0.0000 0.3464 0.0000 ( 12915 PWs)   bands (ev):

   -59.7290 -33.9301 -33.8610 -33.7351 -12.2693 -11.4904  -4.4447  -3.5252
    -2.9964  -1.6821  -1.4185  -0.5137   0.0263   0.8020   1.5479   1.7091
     1.9808   2.5019   2.5751   3.4168   3.6223   4.4350

          k = 0.0000 0.3464-0.0871 ( 12918 PWs)   bands (ev):

   -59.7290 -33.9301 -33.8610 -33.7351 -12.2693 -11.4904  -4.4447  -3.5252
    -2.9964  -1.6821  -1.4185  -0.5137   0.0263   0.8020   1.5479   1.7091
     1.9808   2.5019   2.5751   3.4168   3.6223   4.4351

          k = 0.0000 0.4619 0.0000 ( 12872 PWs)   bands (ev):

   -59.7191 -34.0243 -33.8415 -33.7573 -11.7581 -11.1903  -4.8513  -4.0200
    -3.2764  -2.0221  -1.6370  -0.2432   0.0264   0.9149   1.7133   2.1097
     2.1360   2.7034   2.7622   3.3910   3.9190   5.0891

          k = 0.0000 0.4619-0.0871 ( 12884 PWs)   bands (ev):

   -59.7191 -34.0243 -33.8415 -33.7573 -11.7581 -11.1903  -4.8513  -4.0200
    -3.2764  -2.0221  -1.6370  -0.2432   0.0264   0.9149   1.7133   2.1097
     2.1360   2.7034   2.7622   3.3910   3.9190   5.0891

          k = 0.0000-0.5774 0.0000 ( 12854 PWs)   bands (ev):

   -59.7153 -34.0600 -33.8341 -33.7657 -11.5477 -11.0502  -5.1339  -4.2145
    -3.3565  -2.1410  -1.7171  -0.1653   0.1709   0.9018   1.7571   2.1643
     2.3396   2.8076   3.3456   3.4268   3.8698   5.3547

          k = 0.0000-0.5774-0.0871 ( 12864 PWs)   bands (ev):

   -59.7153 -34.0600 -33.8341 -33.7657 -11.5477 -11.0502  -5.1339  -4.2145
    -3.3565  -2.1410  -1.7171  -0.1653   0.1709   0.9018   1.7571   2.1643
     2.3396   2.8076   3.3456   3.4268   3.8698   5.3547

          k = 0.1000 0.1732 0.0000 ( 12937 PWs)   bands (ev):

   -59.7442 -33.8909 -33.7791 -33.7035 -12.9510 -11.8641  -4.7607  -2.5407
    -2.3139  -1.3045  -1.0905  -0.8286   0.4568   0.7364   1.5208   1.5610
     1.8278   2.3924   2.9206   3.1179   3.5270   3.6887

          k = 0.1000 0.1732-0.0871 ( 12920 PWs)   bands (ev):

   -59.7442 -33.8909 -33.7791 -33.7035 -12.9510 -11.8641  -4.7607  -2.5407
    -2.3139  -1.3045  -1.0905  -0.8286   0.4568   0.7364   1.5208   1.5610
     1.8278   2.3924   2.9206   3.1179   3.5271   3.6886

          k = 0.1000 0.2887 0.0000 ( 12944 PWs)   bands (ev):

   -59.7332 -33.8805 -33.8691 -33.7350 -12.4707 -11.6008  -4.4165  -3.1536
    -2.7722  -2.0134  -1.0258  -0.7604   0.2560   0.6924   1.4429   1.5753
     2.0123   2.4311   2.7555   3.1762   3.6706   3.8392

          k = 0.1000 0.2887-0.0871 ( 12926 PWs)   bands (ev):

   -59.7332 -33.8805 -33.8691 -33.7350 -12.4707 -11.6008  -4.4165  -3.1536
    -2.7722  -2.0134  -1.0258  -0.7604   0.2560   0.6924   1.4429   1.5753
     2.0123   2.4311   2.7555   3.1762   3.6706   3.8392

          k = 0.1000 0.4041 0.0000 ( 12898 PWs)   bands (ev):

   -59.7221 -33.9797 -33.8476 -33.7668 -11.9274 -11.2891  -4.5337  -3.7386
    -3.2206  -2.2681  -1.3151  -0.7922   0.1649   0.9715   1.5959   1.7114
     2.1501   2.5431   2.7860   3.4093   3.8676   4.4141

          k = 0.1000 0.4041-0.0871 ( 12884 PWs)   bands (ev):

   -59.7221 -33.9797 -33.8476 -33.7668 -11.9274 -11.2891  -4.5337  -3.7386
    -3.2206  -2.2681  -1.3151  -0.7922   0.1649   0.9715   1.5959   1.7114
     2.1501   2.5431   2.7860   3.4093   3.8676   4.4141

          k = 0.1000 0.5196 0.0000 ( 12858 PWs)   bands (ev):

   -59.7153 -34.0402 -33.8341 -33.7863 -11.5553 -11.0496  -4.9404  -4.1395
    -3.3702  -2.2762  -1.6324  -0.8186   0.3741   0.9937   1.7687   1.9854
     2.2640   2.8264   3.0473   3.6583   4.0613   4.6271

          k = 0.1000 0.5196-0.0871 ( 12862 PWs)   bands (ev):

   -59.7153 -34.0402 -33.8341 -33.7863 -11.5553 -11.0496  -4.9404  -4.1395
    -3.3702  -2.2762  -1.6324  -0.8186   0.3741   0.9937   1.7687   1.9854
     2.2640   2.8264   3.0473   3.6583   4.0613   4.6271

          k = 0.2000 0.3464 0.0000 ( 12917 PWs)   bands (ev):

   -59.7233 -33.9501 -33.8499 -33.7832 -11.9926 -11.3234  -4.3482  -3.3731
    -3.3162  -2.5094  -1.4449  -0.8026   0.1892   1.0159   1.3720   1.6400
     2.1598   2.5065   2.8569   3.4200   3.7534   4.0781

          k = 0.2000 0.3464-0.0871 ( 12918 PWs)   bands (ev):

   -59.7233 -33.9501 -33.8499 -33.7832 -11.9926 -11.3234  -4.3482  -3.3731
    -3.3162  -2.5094  -1.4449  -0.8026   0.1892   1.0159   1.3720   1.6400
     2.1598   2.5065   2.8569   3.4200   3.7534   4.0781

          k = 0.2000 0.4619 0.0000 ( 12869 PWs)   bands (ev):

   -59.7153 -33.9987 -33.8342 -33.8293 -11.5677 -11.0480  -4.5635  -3.9859
    -3.3313  -2.5321  -1.9256  -1.1769   0.4011   1.2213   1.5643   1.7846
     2.2034   2.6685   3.0203   3.6978   4.0447   4.4324

          k = 0.2000 0.4619-0.0871 ( 12868 PWs)   bands (ev):

   -59.7153 -33.9987 -33.8342 -33.8293 -11.5677 -11.0480  -4.5635  -3.9859
    -3.3313  -2.5321  -1.9256  -1.1769   0.4011   1.2213   1.5643   1.7846
     2.2034   2.6685   3.0203   3.6978   4.0447   4.4324

          k = 0.2000 0.5774 0.0000 ( 12850 PWs)   bands (ev):

   -59.7123 -34.0157 -33.8484 -33.8281 -11.3979 -10.9217  -4.7105  -4.1856
    -3.4249  -2.3520  -2.1740  -1.4063   0.6184   1.2002   1.7694   1.8116
     2.2353   2.7863   3.1495   3.6770   4.1503   4.7525

          k = 0.2000 0.5774-0.0871 ( 12850 PWs)   bands (ev):

   -59.7123 -34.0157 -33.8484 -33.8281 -11.3979 -10.9217  -4.7105  -4.1856
    -3.4249  -2.3520  -2.1740  -1.4063   0.6184   1.2002   1.7694   1.8116
     2.2353   2.7863   3.1495   3.6770   4.1503   4.7525

          k = 0.3000 0.5196 0.0000 ( 12860 PWs)   bands (ev):

   -59.7111 -33.9809 -33.8978 -33.8259 -11.3393 -10.8703  -4.5728  -4.0569
    -3.2592  -2.9950  -2.2754  -1.5033   0.7305   1.4112   1.5542   1.8264
     2.2450   2.7154   2.9947   3.4598   4.2888   5.3226

          k = 0.3000 0.5196-0.0871 ( 12870 PWs)   bands (ev):

   -59.7111 -33.9809 -33.8978 -33.8259 -11.3393 -10.8703  -4.5728  -4.0569
    -3.2592  -2.9950  -2.2754  -1.5033   0.7305   1.4112   1.5542   1.8264
     2.2450   2.7154   2.9947   3.4598   4.2888   5.3225

     the Fermi energy is     2.1238 ev

!    total energy              =    -658.54923482 Ry
     total all-electron energy =    -12481.723126 Ry
     estimated scf accuracy    <       0.00000061 Ry
     smearing contrib. (-TS)   =      -0.00617210 Ry
     internal energy E=F+TS    =    -658.54306272 Ry

     The total energy is F=E-TS. E is the sum of the following terms:
     one-electron contribution =   -1218.72887081 Ry
     hartree contribution      =     623.02207320 Ry
     xc contribution           =     -62.26422532 Ry
     ewald contribution        =     405.58168767 Ry
     one-center paw contrib.   =    -406.15372745 Ry

     total magnetization       =     2.10 Bohr mag/cell
     absolute magnetization    =     2.21 Bohr mag/cell

     convergence has been achieved in   8 iterations

     negative rho (up, down):  2.275E-04 2.043E-04

     Forces acting on atoms (cartesian axes, Ry/au):

     atom    1 type  1   force =     0.00000000    0.00000000   -0.00742645
     atom    2 type  2   force =     0.00000000    0.00000000    0.01408252
     atom    3 type  2   force =     0.00000000    0.00000000    0.00286628
     atom    4 type  3   force =     0.00000000    0.00000000   -0.00952236
     The non-local contrib.  to forces
     atom    1 type  1   force =     0.00000000    0.00000000   -0.03426516
     atom    2 type  2   force =     0.00000000    0.00000000   -0.08187567
     atom    3 type  2   force =     0.00000000    0.00000000    0.27104350
     atom    4 type  3   force =     0.00000000    0.00000000   -0.01735783
     The ionic contribution  to forces
     atom    1 type  1   force =     0.00000000   -0.00000000  -30.79205196
     atom    2 type  2   force =    -0.00000000    0.00000000   18.79004633
     atom    3 type  2   force =    -0.00000000    0.00000000  -44.56599981
     atom    4 type  3   force =     0.00000000   -0.00000000   56.56800544
     The local contribution  to forces
     atom    1 type  1   force =    -0.00000000   -0.00000000   30.81268904
     atom    2 type  2   force =    -0.00000000    0.00000000  -18.69404696
     atom    3 type  2   force =    -0.00000000    0.00000000   44.29944349
     atom    4 type  3   force =     0.00000000   -0.00000000  -56.55772079
     The core correction contribution to forces
     atom    1 type  1   force =    -0.00000000    0.00000000    0.00215733
     atom    2 type  2   force =     0.00000000   -0.00000000   -0.00118679
     atom    3 type  2   force =     0.00000000   -0.00000000   -0.00229124
     atom    4 type  3   force =     0.00000000   -0.00000000   -0.00310958
     The Hubbard contrib.    to forces
     atom    1 type  1   force =     0.00000000    0.00000000    0.00000000
     atom    2 type  2   force =     0.00000000    0.00000000    0.00000000
     atom    3 type  2   force =     0.00000000    0.00000000    0.00000000
     atom    4 type  3   force =     0.00000000    0.00000000    0.00000000
     The SCF correction term to forces
     atom    1 type  1   force =     0.00000000    0.00000000    0.00391712
     atom    2 type  2   force =     0.00000000    0.00000000    0.00101842
     atom    3 type  2   force =    -0.00000000   -0.00000000    0.00054315
     atom    4 type  3   force =    -0.00000000   -0.00000000    0.00053320

     Total force =     0.018771     Total SCF correction =     0.004118
     SCF correction compared to forces is large: reduce conv_thr to get better values


     Computing stress (Cartesian axis) and pressure


     negative rho (up, down):  2.275E-04 2.043E-04
          total   stress  (Ry/bohr**3)                   (kbar)     P=      -20.97
  -0.00019416  -0.00000000   0.00000000          -28.56       -0.00        0.00
  -0.00000000  -0.00019416  -0.00000000           -0.00      -28.56       -0.00
   0.00000000  -0.00000000  -0.00003930            0.00       -0.00       -5.78

     Energy error            =      1.6E-03 Ry
     Gradient error          =      1.4E-02 Ry/Bohr

     number of scf cycles    =   2
     number of bfgs steps    =   1

     energy             old  =    -658.5476440496 Ry
     energy             new  =    -658.5492348246 Ry

     CASE: energy            _new < energy            _old

     new trust radius        =       0.0232099703 bohr
     new conv_thr            =       0.0000001408 Ry


ATOMIC_POSITIONS (crystal)
Mo            0.0000000000        0.0000000000        0.4985258944
S             0.6666666667        0.3333333333        0.5891355004
S             0.6666666667        0.3333333333        0.4130059941
Co            0.3333333333        0.6666666667        0.6969686749



     Writing config-only to output data dir ./tmp/relax.save/
     NEW-OLD atomic charge density approx. for the potential

     negative rho (up, down):  2.165E-04 2.192E-04
     Generating pointlists ...
     new r_m :   0.3126 (alat units)  1.8719 (a.u.) for type    1
     new r_m :   0.3126 (alat units)  1.8719 (a.u.) for type    2
     new r_m :   0.3492 (alat units)  2.0908 (a.u.) for type    3

     total cpu time spent up to now is       60.7 secs

     Self-consistent Calculation

     iteration #  1     ecut=    80.00 Ry     beta= 0.70
     Davidson diagonalization with overlap
     ethr =  1.00E-06,  avg # of iterations =  6.2

     negative rho (up, down):  2.253E-04 2.081E-04

     total cpu time spent up to now is       63.4 secs

     total energy              =    -658.54957726 Ry
     estimated scf accuracy    <       0.00016733 Ry

     total magnetization       =     2.10 Bohr mag/cell
     absolute magnetization    =     2.21 Bohr mag/cell

     iteration #  2     ecut=    80.00 Ry     beta= 0.70
     Davidson diagonalization with overlap
     ethr =  4.78E-07,  avg # of iterations =  3.9

     negative rho (up, down):  2.254E-04 2.077E-04

     total cpu time spent up to now is       65.3 secs

     total energy              =    -658.54936482 Ry
     estimated scf accuracy    <       0.00229243 Ry

     total magnetization       =     2.09 Bohr mag/cell
     absolute magnetization    =     2.20 Bohr mag/cell

     iteration #  3     ecut=    80.00 Ry     beta= 0.70
     Davidson diagonalization with overlap
     ethr =  4.78E-07,  avg # of iterations =  4.6

     negative rho (up, down):  2.258E-04 2.066E-04

     total cpu time spent up to now is       67.2 secs

     total energy              =    -658.54946218 Ry
     estimated scf accuracy    <       0.00344973 Ry

     total magnetization       =     2.11 Bohr mag/cell
     absolute magnetization    =     2.23 Bohr mag/cell

     iteration #  4     ecut=    80.00 Ry     beta= 0.70
     Davidson diagonalization with overlap
     ethr =  4.78E-07,  avg # of iterations =  3.2

     negative rho (up, down):  2.270E-04 2.054E-04

     total cpu time spent up to now is       69.1 secs

     total energy              =    -658.54962031 Ry
     estimated scf accuracy    <       0.00005566 Ry

     total magnetization       =     2.10 Bohr mag/cell
     absolute magnetization    =     2.21 Bohr mag/cell

     iteration #  5     ecut=    80.00 Ry     beta= 0.70
     Davidson diagonalization with overlap
     ethr =  1.59E-07,  avg # of iterations =  2.8

     negative rho (up, down):  2.274E-04 2.050E-04

     total cpu time spent up to now is       71.0 secs

     total energy              =    -658.54962517 Ry
     estimated scf accuracy    <       0.00004474 Ry

     total magnetization       =     2.10 Bohr mag/cell
     absolute magnetization    =     2.21 Bohr mag/cell

     iteration #  6     ecut=    80.00 Ry     beta= 0.70
     Davidson diagonalization with overlap
     ethr =  1.28E-07,  avg # of iterations =  2.1

     negative rho (up, down):  2.276E-04 2.048E-04

     total cpu time spent up to now is       72.7 secs

     total energy              =    -658.54963138 Ry
     estimated scf accuracy    <       0.00000491 Ry

     total magnetization       =     2.10 Bohr mag/cell
     absolute magnetization    =     2.21 Bohr mag/cell

     iteration #  7     ecut=    80.00 Ry     beta= 0.70
     Davidson diagonalization with overlap
     ethr =  1.40E-08,  avg # of iterations =  3.1

     negative rho (up, down):  2.277E-04 2.047E-04

     total cpu time spent up to now is       74.5 secs

     total energy              =    -658.54963214 Ry
     estimated scf accuracy    <       0.00000376 Ry

     total magnetization       =     2.10 Bohr mag/cell
     absolute magnetization    =     2.21 Bohr mag/cell

     iteration #  8     ecut=    80.00 Ry     beta= 0.70
     Davidson diagonalization with overlap
     ethr =  1.07E-08,  avg # of iterations =  1.8

     negative rho (up, down):  2.278E-04 2.047E-04

     total cpu time spent up to now is       76.2 secs

     total energy              =    -658.54963278 Ry
     estimated scf accuracy    <       0.00000014 Ry

     total magnetization       =     2.10 Bohr mag/cell
     absolute magnetization    =     2.21 Bohr mag/cell

     iteration #  9     ecut=    80.00 Ry     beta= 0.70
     Davidson diagonalization with overlap
     ethr =  4.06E-10,  avg # of iterations =  4.9

     negative rho (up, down):  2.278E-04 2.047E-04

     total cpu time spent up to now is       78.6 secs

     total energy              =    -658.54963292 Ry
     estimated scf accuracy    <       0.00000020 Ry

     total magnetization       =     2.10 Bohr mag/cell
     absolute magnetization    =     2.21 Bohr mag/cell

     iteration # 10     ecut=    80.00 Ry     beta= 0.70
     Davidson diagonalization with overlap
     ethr =  4.06E-10,  avg # of iterations =  3.1

     negative rho (up, down):  2.278E-04 2.047E-04
 
     Magnetic moment per site  (integrated on atomic sphere of radius R)
     atom   1 (R=0.313)  charge= 10.7225  magn=  0.0063
     atom   2 (R=0.313)  charge=  4.1197  magn=  0.0350
     atom   3 (R=0.313)  charge=  4.1243  magn=  0.0018
     atom   4 (R=0.349)  charge=  7.5449  magn=  2.0456

     total cpu time spent up to now is       80.3 secs

     End of self-consistent calculation

 ------ SPIN UP ------------


          k = 0.0000 0.0000 0.0000 ( 12991 PWs)   bands (ev):

   -59.7441 -33.8899 -33.6713 -33.6713 -13.3749 -12.1029  -5.2265  -2.5150
    -1.4679  -1.4679  -0.6455  -0.6455  -0.2814  -0.1476  -0.1476   0.2742
     0.2742   0.6441   1.3429   3.4318   3.4318   4.0596

          k = 0.0000 0.0000-0.0871 ( 12974 PWs)   bands (ev):

   -59.7441 -33.8899 -33.6713 -33.6713 -13.3749 -12.1029  -5.2265  -2.5150
    -1.4679  -1.4679  -0.6455  -0.6455  -0.2814  -0.1476  -0.1476   0.2742
     0.2742   0.6441   1.3429   3.4318   3.4318   4.0596

          k = 0.0000 0.1155 0.0000 ( 12953 PWs)   bands (ev):

   -59.7404 -33.8826 -33.7089 -33.6799 -13.2316 -12.0249  -5.0689  -2.5059
    -1.8168  -1.3379  -0.9396  -0.7894  -0.4920  -0.2130   0.0874   0.2496
     0.3054   0.6922   1.4008   3.1498   3.4547   3.7857

          k = 0.0000 0.1155-0.0871 ( 12970 PWs)   bands (ev):

   -59.7404 -33.8826 -33.7089 -33.6799 -13.2316 -12.0249  -5.0689  -2.5059
    -1.8168  -1.3379  -0.9396  -0.7894  -0.4920  -0.2130   0.0874   0.2496
     0.3054   0.6922   1.4008   3.1497   3.4547   3.7857

          k = 0.0000 0.2309 0.0000 ( 12929 PWs)   bands (ev):

   -59.7305 -33.8634 -33.8062 -33.7023 -12.8332 -11.8069  -4.6901  -2.8079
    -2.4913  -1.3756  -1.2595  -0.9837  -0.5081  -0.1911   0.0182   0.2703
     0.3905   0.5380   1.3859   3.0586   3.2905   3.7138

          k = 0.0000 0.2309-0.0871 ( 12940 PWs)   bands (ev):

   -59.7305 -33.8634 -33.8062 -33.7023 -12.8332 -11.8069  -4.6901  -2.8079
    -2.4913  -1.3756  -1.2595  -0.9837  -0.5081  -0.1911   0.0182   0.2703
     0.3905   0.5380   1.3859   3.0585   3.2905   3.7138

          k = 0.0000 0.3464 0.0000 ( 12915 PWs)   bands (ev):

   -59.7183 -33.9247 -33.8394 -33.7298 -12.2815 -11.4999  -4.4640  -3.6002
    -3.0212  -1.7195  -1.6242  -0.7270  -0.3879  -0.1318  -0.0141   0.1350
     0.4027   0.5349   1.5844   3.1653   3.4240   4.2547

          k = 0.0000 0.3464-0.0871 ( 12918 PWs)   bands (ev):

   -59.7183 -33.9247 -33.8394 -33.7298 -12.2815 -11.4999  -4.4640  -3.6002
    -3.0212  -1.7195  -1.6242  -0.7270  -0.3879  -0.1318  -0.0141   0.1350
     0.4027   0.5349   1.5844   3.1653   3.4239   4.2548

          k = 0.0000 0.4619 0.0000 ( 12872 PWs)   bands (ev):

   -59.7085 -34.0188 -33.8201 -33.7519 -11.7715 -11.1988  -4.8539  -4.1010
    -3.3235  -2.0490  -1.8290  -0.6456  -0.3823  -0.1790   0.1867   0.2148
     0.5625   0.6774   2.3303   3.2611   3.8621   4.8346

          k = 0.0000 0.4619-0.0871 ( 12884 PWs)   bands (ev):

   -59.7085 -34.0188 -33.8201 -33.7519 -11.7715 -11.1988  -4.8539  -4.1010
    -3.3235  -2.0490  -1.8290  -0.6456  -0.3823  -0.1790   0.1867   0.2148
     0.5625   0.6774   2.3303   3.2611   3.8621   4.8346

          k = 0.0000-0.5774 0.0000 ( 12854 PWs)   bands (ev):

   -59.7047 -34.0544 -33.8126 -33.7603 -11.5608 -11.0590  -5.1412  -4.2839
    -3.4042  -2.1652  -1.9231  -0.6370  -0.4051  -0.1864   0.3070   0.3834
     0.6277   0.7316   3.0682   3.3703   3.8494   4.8855

          k = 0.0000-0.5774-0.0871 ( 12864 PWs)   bands (ev):

   -59.7047 -34.0544 -33.8126 -33.7603 -11.5608 -11.0590  -5.1412  -4.2839
    -3.4042  -2.1652  -1.9231  -0.6370  -0.4052  -0.1864   0.3070   0.3834
     0.6277   0.7316   3.0682   3.3703   3.8494   4.8855

          k = 0.1000 0.1732 0.0000 ( 12937 PWs)   bands (ev):

   -59.7336 -33.8693 -33.7736 -33.6981 -12.9604 -11.8765  -4.7951  -2.6171
    -2.3152  -1.3940  -1.1815  -0.9975  -0.5542  -0.2171   0.1480   0.2210
     0.3852   0.6438   1.4209   2.9223   3.3844   3.5703

          k = 0.1000 0.1732-0.0871 ( 12920 PWs)   bands (ev):

   -59.7336 -33.8693 -33.7736 -33.6981 -12.9604 -11.8765  -4.7951  -2.6171
    -2.3152  -1.3940  -1.1815  -0.9975  -0.5542  -0.2171   0.1480   0.2210
     0.3852   0.6438   1.4209   2.9222   3.3844   3.5704

          k = 0.1000 0.2887 0.0000 ( 12944 PWs)   bands (ev):

   -59.7226 -33.8750 -33.8476 -33.7296 -12.4822 -11.6111  -4.4482  -3.2201
    -2.7898  -2.0517  -1.2586  -0.9096  -0.4911  -0.1350   0.0892   0.2681
     0.3364   0.5133   1.4561   2.9305   3.4695   3.7321

          k = 0.1000 0.2887-0.0871 ( 12926 PWs)   bands (ev):

   -59.7226 -33.8750 -33.8476 -33.7296 -12.4822 -11.6111  -4.4482  -3.2201
    -2.7898  -2.0517  -1.2586  -0.9096  -0.4911  -0.1350   0.0892   0.2681
     0.3364   0.5133   1.4562   2.9304   3.4695   3.7322

          k = 0.1000 0.4041 0.0000 ( 12898 PWs)   bands (ev):

   -59.7115 -33.9741 -33.8261 -33.7614 -11.9406 -11.2978  -4.5362  -3.8250
    -3.2727  -2.2965  -1.5221  -0.9472  -0.4046  -0.1240   0.0173   0.2999
     0.4276   0.6463   1.8820   3.2782   3.7307   4.2750

          k = 0.1000 0.4041-0.0871 ( 12884 PWs)   bands (ev):

   -59.7115 -33.9741 -33.8261 -33.7614 -11.9406 -11.2978  -4.5362  -3.8250
    -3.2727  -2.2965  -1.5221  -0.9472  -0.4046  -0.1240   0.0173   0.2999
     0.4276   0.6463   1.8820   3.2782   3.7307   4.2750

          k = 0.1000 0.5196 0.0000 ( 12858 PWs)   bands (ev):

   -59.7047 -34.0347 -33.8127 -33.7809 -11.5686 -11.0584  -4.9470  -4.1989
    -3.4373  -2.3091  -1.8449  -0.9592  -0.4274  -0.1469   0.1164   0.4260
     0.5862   0.7529   2.7702   3.5299   3.9927   4.5215

          k = 0.1000 0.5196-0.0871 ( 12862 PWs)   bands (ev):

   -59.7047 -34.0347 -33.8127 -33.7809 -11.5686 -11.0584  -4.9470  -4.1989
    -3.4373  -2.3091  -1.8449  -0.9592  -0.4274  -0.1469   0.1164   0.4260
     0.5862   0.7529   2.7702   3.5299   3.9927   4.5215

          k = 0.2000 0.3464 0.0000 ( 12917 PWs)   bands (ev):

   -59.7127 -33.9446 -33.8284 -33.7778 -12.0058 -11.3323  -4.3542  -3.4940
    -3.3441  -2.5245  -1.5566  -1.0342  -0.5138  -0.0545   0.1392   0.2330
     0.3698   0.6328   1.7019   3.2720   3.6639   3.9155

          k = 0.2000 0.3464-0.0871 ( 12918 PWs)   bands (ev):

   -59.7127 -33.9446 -33.8284 -33.7778 -12.0058 -11.3323  -4.3542  -3.4940
    -3.3441  -2.5245  -1.5566  -1.0342  -0.5138  -0.0545   0.1392   0.2330
     0.3698   0.6328   1.7019   3.2720   3.6639   3.9155

          k = 0.2000 0.4619 0.0000 ( 12869 PWs)   bands (ev):

   -59.7047 -33.9932 -33.8239 -33.8127 -11.5813 -11.0568  -4.5661  -4.0110
    -3.4653  -2.5879  -1.9943  -1.3190  -0.4784  -0.0359   0.1557   0.3492
     0.4174   0.7646   2.3998   3.5878   4.0221   4.2132

          k = 0.2000 0.4619-0.0871 ( 12868 PWs)   bands (ev):

   -59.7047 -33.9932 -33.8239 -33.8127 -11.5813 -11.0568  -4.5661  -4.0110
    -3.4653  -2.5879  -1.9943  -1.3190  -0.4784  -0.0359   0.1557   0.3492
     0.4174   0.7646   2.3998   3.5878   4.0221   4.2132

          k = 0.2000 0.5774 0.0000 ( 12850 PWs)   bands (ev):

   -59.7016 -34.0102 -33.8429 -33.8067 -11.4110 -10.9312  -4.7188  -4.2049
    -3.5395  -2.4418  -2.2696  -1.4762  -0.4730  -0.0421   0.1826   0.4140
     0.4860   0.8793   3.0321   3.4391   3.9680   4.5991

          k = 0.2000 0.5774-0.0871 ( 12850 PWs)   bands (ev):

   -59.7016 -34.0102 -33.8429 -33.8067 -11.4110 -10.9312  -4.7188  -4.2049
    -3.5395  -2.4418  -2.2696  -1.4762  -0.4730  -0.0421   0.1826   0.4140
     0.4860   0.8793   3.0321   3.4391   3.9680   4.5991

          k = 0.3000 0.5196 0.0000 ( 12860 PWs)   bands (ev):

   -59.7005 -33.9754 -33.8924 -33.8044 -11.3523 -10.8801  -4.5693  -4.0791
    -3.4135  -3.0650  -2.3169  -1.5974  -0.4681   0.0309   0.2766   0.3330
     0.4065   0.9598   2.8640   3.2730   4.0508   5.1170

          k = 0.3000 0.5196-0.0871 ( 12870 PWs)   bands (ev):

   -59.7005 -33.9754 -33.8924 -33.8044 -11.3523 -10.8801  -4.5693  -4.0791
    -3.4135  -3.0650  -2.3169  -1.5974  -0.4681   0.0309   0.2766   0.3330
     0.4064   0.9598   2.8640   3.2730   4.0508   5.1170

 ------ SPIN DOWN ----------


          k = 0.0000 0.0000 0.0000 ( 12991 PWs)   bands (ev):

   -59.7394 -33.8943 -33.6610 -33.6610 -13.3467 -12.0911  -5.1797  -2.4172
    -1.4234  -1.4234  -0.3949  -0.3949   0.1588   1.0565   1.6208   1.6208
     1.8032   2.3530   2.3530   3.7542   3.7543   4.0682

          k = 0.0000 0.0000-0.0871 ( 12974 PWs)   bands (ev):

   -59.7394 -33.8943 -33.6610 -33.6610 -13.3467 -12.0911  -5.1797  -2.4172
    -1.4234  -1.4234  -0.3949  -0.3949   0.1589   1.0565   1.6208   1.6208
     1.8032   2.3530   2.3530   3.7542   3.7543   4.0682

          k = 0.0000 0.1155 0.0000 ( 12953 PWs)   bands (ev):

   -59.7357 -33.8870 -33.6986 -33.6696 -13.2025 -12.0134  -5.0200  -2.4309
    -1.7691  -1.2822  -0.7476  -0.6345   0.3642   0.9720   1.5626   1.6638
     1.6737   2.3595   2.6053   3.4511   3.7631   3.7985

          k = 0.0000 0.1155-0.0871 ( 12970 PWs)   bands (ev):

   -59.7357 -33.8870 -33.6986 -33.6696 -13.2025 -12.0134  -5.0200  -2.4309
    -1.7691  -1.2822  -0.7476  -0.6345   0.3642   0.9720   1.5626   1.6638
     1.6737   2.3595   2.6053   3.4510   3.7631   3.7985

          k = 0.0000 0.2309 0.0000 ( 12929 PWs)   bands (ev):

   -59.7259 -33.8678 -33.7957 -33.6919 -12.8015 -11.7964  -4.6353  -2.7596
    -2.4484  -1.1696  -1.1511  -0.9128   0.4303   0.6290   1.4975   1.5996
     1.8096   2.3644   2.7022   3.3555   3.5789   3.7659

          k = 0.0000 0.2309-0.0871 ( 12940 PWs)   bands (ev):

   -59.7259 -33.8678 -33.7957 -33.6919 -12.8015 -11.7964  -4.6353  -2.7596
    -2.4484  -1.1696  -1.1511  -0.9128   0.4303   0.6290   1.4975   1.5996
     1.8096   2.3644   2.7022   3.3554   3.5789   3.7660

          k = 0.0000 0.3464 0.0000 ( 12915 PWs)   bands (ev):

   -59.7137 -33.9140 -33.8439 -33.7194 -12.2448 -11.4918  -4.4159  -3.5228
    -2.9878  -1.6495  -1.4499  -0.5016   0.0653   0.7942   1.5323   1.6909
     1.9648   2.4639   2.5572   3.4238   3.6504   4.4448

          k = 0.0000 0.3464-0.0871 ( 12918 PWs)   bands (ev):

   -59.7137 -33.9140 -33.8439 -33.7194 -12.2448 -11.4918  -4.4159  -3.5228
    -2.9878  -1.6495  -1.4499  -0.5016   0.0653   0.7942   1.5323   1.6909
     1.9648   2.4639   2.5572   3.4238   3.6503   4.4449

          k = 0.0000 0.4619 0.0000 ( 12872 PWs)   bands (ev):

   -59.7038 -34.0080 -33.8246 -33.7415 -11.7278 -11.1942  -4.8240  -4.0293
    -3.2601  -1.9896  -1.6616  -0.2419   0.0583   0.9021   1.7033   2.0980
     2.1085   2.6738   2.7454   3.4020   3.9465   5.0916

          k = 0.0000 0.4619-0.0871 ( 12884 PWs)   bands (ev):

   -59.7038 -34.0080 -33.8246 -33.7415 -11.7278 -11.1942  -4.8240  -4.0293
    -3.2601  -1.9896  -1.6616  -0.2419   0.0583   0.9021   1.7033   2.0980
     2.1085   2.6738   2.7454   3.4020   3.9465   5.0916

          k = 0.0000-0.5774 0.0000 ( 12854 PWs)   bands (ev):

   -59.7001 -34.0436 -33.8172 -33.7499 -11.5138 -11.0559  -5.1132  -4.2247
    -3.3323  -2.1086  -1.7409  -0.1687   0.1967   0.8886   1.7486   2.1546
     2.3168   2.7802   3.3146   3.4413   3.8823   5.1337

          k = 0.0000-0.5774-0.0871 ( 12864 PWs)   bands (ev):

   -59.7001 -34.0436 -33.8172 -33.7499 -11.5138 -11.0559  -5.1132  -4.2247
    -3.3323  -2.1086  -1.7409  -0.1687   0.1967   0.8886   1.7486   2.1546
     2.3168   2.7802   3.3146   3.4413   3.8823   5.1337

          k = 0.1000 0.1732 0.0000 ( 12937 PWs)   bands (ev):

   -59.7289 -33.8737 -33.7632 -33.6878 -12.9296 -11.8657  -4.7419  -2.5710
    -2.2632  -1.2895  -1.0592  -0.8408   0.4953   0.7381   1.5050   1.5421
     1.8091   2.3466   2.8951   3.0959   3.5743   3.6951

          k = 0.1000 0.1732-0.0871 ( 12920 PWs)   bands (ev):

   -59.7289 -33.8737 -33.7632 -33.6878 -12.9296 -11.8657  -4.7419  -2.5710
    -2.2632  -1.2895  -1.0592  -0.8408   0.4953   0.7381   1.5050   1.5421
     1.8091   2.3466   2.8951   3.0959   3.5743   3.6950

          k = 0.1000 0.2887 0.0000 ( 12944 PWs)   bands (ev):

   -59.7179 -33.8647 -33.8518 -33.7193 -12.4476 -11.6019  -4.3918  -3.1539
    -2.7542  -1.9936  -1.0190  -0.7789   0.2967   0.6867   1.4278   1.5621
     1.9948   2.3945   2.7373   3.1758   3.7086   3.8431

          k = 0.1000 0.2887-0.0871 ( 12926 PWs)   bands (ev):

   -59.7179 -33.8647 -33.8518 -33.7193 -12.4476 -11.6019  -4.3918  -3.1539
    -2.7542  -1.9936  -1.0190  -0.7789   0.2967   0.6867   1.4278   1.5621
     1.9948   2.3945   2.7373   3.1757   3.7085   3.8432

          k = 0.1000 0.4041 0.0000 ( 12898 PWs)   bands (ev):

   -59.7069 -33.9634 -33.8306 -33.7510 -11.8996 -11.2918  -4.5007  -3.7447
    -3.2129  -2.2467  -1.3222  -0.7928   0.1920   0.9599   1.5802   1.7009
     2.1300   2.5226   2.7613   3.4178   3.9029   4.4202

          k = 0.1000 0.4041-0.0871 ( 12884 PWs)   bands (ev):

   -59.7069 -33.9634 -33.8306 -33.7510 -11.8996 -11.2918  -4.5007  -3.7447
    -3.2129  -2.2467  -1.3222  -0.7928   0.1920   0.9599   1.5802   1.7010
     2.1300   2.5226   2.7613   3.4178   3.9029   4.4202

          k = 0.1000 0.5196 0.0000 ( 12858 PWs)   bands (ev):

   -59.7001 -34.0239 -33.8172 -33.7705 -11.5219 -11.0551  -4.9167  -4.1471
    -3.3488  -2.2553  -1.6475  -0.8165   0.3937   0.9807   1.7602   1.9719
     2.2434   2.8019   3.0285   3.6673   4.0757   4.6327

          k = 0.1000 0.5196-0.0871 ( 12862 PWs)   bands (ev):

   -59.7001 -34.0239 -33.8172 -33.7705 -11.5219 -11.0551  -4.9167  -4.1471
    -3.3488  -2.2553  -1.6475  -0.8165   0.3937   0.9807   1.7602   1.9719
     2.2434   2.8019   3.0285   3.6673   4.0757   4.6327

          k = 0.2000 0.3464 0.0000 ( 12917 PWs)   bands (ev):

   -59.7081 -33.9339 -33.8328 -33.7674 -11.9658 -11.3258  -4.3121  -3.3672
    -3.3284  -2.4782  -1.4408  -0.8215   0.2095   1.0047   1.3608   1.6342
     2.1383   2.4900   2.8316   3.4238   3.7960   4.0819

          k = 0.2000 0.3464-0.0871 ( 12918 PWs)   bands (ev):

   -59.7081 -33.9339 -33.8328 -33.7674 -11.9658 -11.3258  -4.3121  -3.3672
    -3.3284  -2.4782  -1.4408  -0.8215   0.2095   1.0047   1.3608   1.6342
     2.1383   2.4900   2.8316   3.4238   3.7960   4.0819

          k = 0.2000 0.4619 0.0000 ( 12869 PWs)   bands (ev):

   -59.7001 -33.9825 -33.8172 -33.8134 -11.5351 -11.0533  -4.5307  -3.9831
    -3.3301  -2.5163  -1.9259  -1.1819   0.4111   1.2087   1.5496   1.7825
     2.1797   2.6548   2.9942   3.7147   4.0737   4.4328

          k = 0.2000 0.4619-0.0871 ( 12868 PWs)   bands (ev):

   -59.7001 -33.9825 -33.8172 -33.8134 -11.5351 -11.0533  -4.5307  -3.9831
    -3.3301  -2.5163  -1.9259  -1.1819   0.4111   1.2087   1.5496   1.7825
     2.1797   2.6548   2.9942   3.7147   4.0737   4.4328

          k = 0.2000 0.5774 0.0000 ( 12850 PWs)   bands (ev):

   -59.6970 -33.9994 -33.8325 -33.8112 -11.3624 -10.9285  -4.6826  -4.1850
    -3.4096  -2.3373  -2.1867  -1.4064   0.6261   1.1879   1.7563   1.8088
     2.2118   2.7671   3.1543   3.6670   4.1495   4.7631

          k = 0.2000 0.5774-0.0871 ( 12850 PWs)   bands (ev):

   -59.6970 -33.9994 -33.8324 -33.8112 -11.3624 -10.9285  -4.6826  -4.1850
    -3.4096  -2.3373  -2.1867  -1.4064   0.6261   1.1879   1.7563   1.8088
     2.2118   2.7671   3.1543   3.6670   4.1495   4.7631

          k = 0.3000 0.5196 0.0000 ( 12860 PWs)   bands (ev):

   -59.6959 -33.9646 -33.8819 -33.8090 -11.3031 -10.8775  -4.5392  -4.0486
    -3.2578  -2.9948  -2.2759  -1.4990   0.7280   1.3988   1.5419   1.8305
     2.2167   2.7017   3.0017   3.4620   4.2773   5.3379

          k = 0.3000 0.5196-0.0871 ( 12870 PWs)   bands (ev):

   -59.6959 -33.9646 -33.8819 -33.8090 -11.3031 -10.8775  -4.5392  -4.0486
    -3.2578  -2.9948  -2.2759  -1.4990   0.7280   1.3988   1.5419   1.8305
     2.2167   2.7017   3.0017   3.4620   4.2773   5.3379

     the Fermi energy is     2.1041 ev

!    total energy              =    -658.54963296 Ry
     total all-electron energy =    -12481.723524 Ry
     estimated scf accuracy    <       0.00000008 Ry
     smearing contrib. (-TS)   =      -0.00638976 Ry
     internal energy E=F+TS    =    -658.54324320 Ry

     The total energy is F=E-TS. E is the sum of the following terms:
     one-electron contribution =   -1219.19099583 Ry
     hartree contribution      =     623.26066892 Ry
     xc contribution           =     -62.26283020 Ry
     ewald contribution        =     405.80290244 Ry
     one-center paw contrib.   =    -406.15298853 Ry

     total magnetization       =     2.10 Bohr mag/cell
     absolute magnetization    =     2.21 Bohr mag/cell

     convergence has been achieved in  10 iterations

     negative rho (up, down):  2.278E-04 2.047E-04

     Forces acting on atoms (cartesian axes, Ry/au):

     atom    1 type  1   force =     0.00000000    0.00000000    0.00649499
     atom    2 type  2   force =     0.00000000    0.00000000    0.00705409
     atom    3 type  2   force =     0.00000000    0.00000000   -0.00268543
     atom    4 type  3   force =     0.00000000    0.00000000   -0.01086365
     The non-local contrib.  to forces
     atom    1 type  1   force =     0.00000000    0.00000000   -0.04151345
     atom    2 type  2   force =     0.00000000    0.00000000   -0.08093664
     atom    3 type  2   force =     0.00000000    0.00000000    0.26885220
     atom    4 type  3   force =     0.00000000    0.00000000   -0.01152168
     The ionic contribution  to forces
     atom    1 type  1   force =     0.00000000   -0.00000000  -30.82672680
     atom    2 type  2   force =    -0.00000000    0.00000000   18.77191752
     atom    3 type  2   force =    -0.00000000    0.00000000  -44.55941991
     atom    4 type  3   force =     0.00000000   -0.00000000   56.61422919
     The local contribution  to forces
     atom    1 type  1   force =     0.00000000   -0.00000000   30.87110106
     atom    2 type  2   force =    -0.00000000    0.00000000  -18.68344263
     atom    3 type  2   force =    -0.00000000    0.00000000   44.28988992
     atom    4 type  3   force =     0.00000000   -0.00000000  -56.61014903
     The core correction contribution to forces
     atom    1 type  1   force =     0.00000000    0.00000000    0.00259519
     atom    2 type  2   force =     0.00000000   -0.00000000   -0.00104608
     atom    3 type  2   force =     0.00000000   -0.00000000   -0.00216999
     atom    4 type  3   force =     0.00000000   -0.00000000   -0.00353959
     The Hubbard contrib.    to forces
     atom    1 type  1   force =     0.00000000    0.00000000    0.00000000
     atom    2 type  2   force =     0.00000000    0.00000000    0.00000000
     atom    3 type  2   force =     0.00000000    0.00000000    0.00000000
     atom    4 type  3   force =     0.00000000    0.00000000    0.00000000
     The SCF correction term to forces
     atom    1 type  1   force =    -0.00000000   -0.00000000    0.00100480
     atom    2 type  2   force =    -0.00000000    0.00000000    0.00052773
     atom    3 type  2   force =     0.00000000   -0.00000000    0.00012814
     atom    4 type  3   force =    -0.00000000   -0.00000000    0.00008326

     Total force =     0.014737     Total SCF correction =     0.001145


     Computing stress (Cartesian axis) and pressure


     negative rho (up, down):  2.278E-04 2.047E-04
          total   stress  (Ry/bohr**3)                   (kbar)     P=      -21.17
  -0.00019243   0.00000000   0.00000000          -28.31        0.00        0.00
   0.00000000  -0.00019243  -0.00000000            0.00      -28.31       -0.00
   0.00000000  -0.00000000  -0.00004680            0.00       -0.00       -6.88

     Energy error            =      4.0E-04 Ry
     Gradient error          =      1.1E-02 Ry/Bohr

     number of scf cycles    =   3
     number of bfgs steps    =   2

     energy             old  =    -658.5492348246 Ry
     energy             new  =    -658.5496329586 Ry

     CASE: energy            _new < energy            _old

     new trust radius        =       0.0281534258 bohr
     new conv_thr            =       0.0000000398 Ry


ATOMIC_POSITIONS (crystal)
Mo            0.0000000000        0.0000000000        0.4984341896
S             0.6666666667        0.3333333333        0.5899545302
S             0.6666666667        0.3333333333        0.4130552253
Co            0.3333333333        0.6666666667        0.6961921187



     Writing config-only to output data dir ./tmp/relax.save/
     NEW-OLD atomic charge density approx. for the potential

     negative rho (up, down):  2.189E-04 2.180E-04
     Generating pointlists ...

     total cpu time spent up to now is       83.4 secs

     Self-consistent Calculation

     iteration #  1     ecut=    80.00 Ry     beta= 0.70
     Davidson diagonalization with overlap
     ethr =  1.00E-06,  avg # of iterations =  6.8

     negative rho (up, down):  2.261E-04 2.081E-04

     total cpu time spent up to now is       86.2 secs

     total energy              =    -658.54991599 Ry
     estimated scf accuracy    <       0.00039053 Ry

     total magnetization       =     2.09 Bohr mag/cell
     absolute magnetization    =     2.21 Bohr mag/cell

     iteration #  2     ecut=    80.00 Ry     beta= 0.70
     Davidson diagonalization with overlap
     ethr =  1.12E-06,  avg # of iterations =  3.6

     negative rho (up, down):  2.261E-04 2.076E-04

     total cpu time spent up to now is       88.0 secs

     total energy              =    -658.54949276 Ry
     estimated scf accuracy    <       0.00392520 Ry

     total magnetization       =     2.08 Bohr mag/cell
     absolute magnetization    =     2.19 Bohr mag/cell

     iteration #  3     ecut=    80.00 Ry     beta= 0.70
     Davidson diagonalization with overlap
     ethr =  1.12E-06,  avg # of iterations =  5.2

     negative rho (up, down):  2.261E-04 2.066E-04

     total cpu time spent up to now is       90.0 secs

     total energy              =    -658.54953884 Ry
     estimated scf accuracy    <       0.01077732 Ry

     total magnetization       =     2.12 Bohr mag/cell
     absolute magnetization    =     2.25 Bohr mag/cell

     iteration #  4     ecut=    80.00 Ry     beta= 0.70
     Davidson diagonalization with overlap
     ethr =  1.12E-06,  avg # of iterations =  4.2

     negative rho (up, down):  2.272E-04 2.058E-04

     total cpu time spent up to now is       91.9 secs

     total energy              =    -658.54999216 Ry
     estimated scf accuracy    <       0.00017963 Ry

     total magnetization       =     2.09 Bohr mag/cell
     absolute magnetization    =     2.20 Bohr mag/cell

     iteration #  5     ecut=    80.00 Ry     beta= 0.70
     Davidson diagonalization with overlap
     ethr =  5.13E-07,  avg # of iterations =  2.5

     negative rho (up, down):  2.275E-04 2.054E-04

     total cpu time spent up to now is       93.7 secs

     total energy              =    -658.55000402 Ry
     estimated scf accuracy    <       0.00015899 Ry

     total magnetization       =     2.09 Bohr mag/cell
     absolute magnetization    =     2.21 Bohr mag/cell

     iteration #  6     ecut=    80.00 Ry     beta= 0.70
     Davidson diagonalization with overlap
     ethr =  4.54E-07,  avg # of iterations =  2.1

     negative rho (up, down):  2.277E-04 2.054E-04

     total cpu time spent up to now is       95.4 secs

     total energy              =    -658.55002350 Ry
     estimated scf accuracy    <       0.00001410 Ry

     total magnetization       =     2.09 Bohr mag/cell
     absolute magnetization    =     2.21 Bohr mag/cell

     iteration #  7     ecut=    80.00 Ry     beta= 0.70
     Davidson diagonalization with overlap
     ethr =  4.03E-08,  avg # of iterations =  3.0

     negative rho (up, down):  2.278E-04 2.054E-04

     total cpu time spent up to now is       97.2 secs

     total energy              =    -658.55002608 Ry
     estimated scf accuracy    <       0.00000827 Ry

     total magnetization       =     2.09 Bohr mag/cell
     absolute magnetization    =     2.21 Bohr mag/cell

     iteration #  8     ecut=    80.00 Ry     beta= 0.70
     Davidson diagonalization with overlap
     ethr =  2.36E-08,  avg # of iterations =  1.6

     negative rho (up, down):  2.279E-04 2.054E-04

     total cpu time spent up to now is       98.9 secs

     total energy              =    -658.55002737 Ry
     estimated scf accuracy    <       0.00000035 Ry

     total magnetization       =     2.09 Bohr mag/cell
     absolute magnetization    =     2.21 Bohr mag/cell

     iteration #  9     ecut=    80.00 Ry     beta= 0.70
     Davidson diagonalization with overlap
     ethr =  9.94E-10,  avg # of iterations =  4.9

     negative rho (up, down):  2.279E-04 2.055E-04

     total cpu time spent up to now is      100.9 secs

     total energy              =    -658.55002770 Ry
     estimated scf accuracy    <       0.00000044 Ry

     total magnetization       =     2.09 Bohr mag/cell
     absolute magnetization    =     2.21 Bohr mag/cell

     iteration # 10     ecut=    80.00 Ry     beta= 0.70
     Davidson diagonalization with overlap
     ethr =  9.94E-10,  avg # of iterations =  2.5

     negative rho (up, down):  2.279E-04 2.055E-04

     total cpu time spent up to now is      102.7 secs

     total energy              =    -658.55002783 Ry
     estimated scf accuracy    <       0.00000025 Ry

     total magnetization       =     2.09 Bohr mag/cell
     absolute magnetization    =     2.21 Bohr mag/cell

     iteration # 11     ecut=    80.00 Ry     beta= 0.70
     Davidson diagonalization with overlap
     ethr =  7.12E-10,  avg # of iterations =  3.2

     negative rho (up, down):  2.279E-04 2.054E-04
 
     Magnetic moment per site  (integrated on atomic sphere of radius R)
     atom   1 (R=0.313)  charge= 10.7200  magn=  0.0066
     atom   2 (R=0.313)  charge=  4.1151  magn=  0.0354
     atom   3 (R=0.313)  charge=  4.1253  magn=  0.0021
     atom   4 (R=0.349)  charge=  7.5518  magn=  2.0376

     total cpu time spent up to now is      104.4 secs

     End of self-consistent calculation

 ------ SPIN UP ------------


          k = 0.0000 0.0000 0.0000 ( 12991 PWs)   bands (ev):

   -59.7302 -33.8739 -33.6559 -33.6559 -13.3605 -12.1060  -5.2137  -2.5412
    -1.4326  -1.4326  -0.6541  -0.6541  -0.2634  -0.1077  -0.1077   0.2548
     0.2548   0.6627   1.3401   3.4035   3.4035   4.0866

          k = 0.0000 0.0000-0.0871 ( 12974 PWs)   bands (ev):

   -59.7302 -33.8739 -33.6559 -33.6559 -13.3605 -12.1060  -5.2137  -2.5412
    -1.4326  -1.4326  -0.6541  -0.6541  -0.2634  -0.1077  -0.1077   0.2548
     0.2548   0.6627   1.3400   3.4035   3.4035   4.0866

          k = 0.0000 0.1155 0.0000 ( 12953 PWs)   bands (ev):

   -59.7264 -33.8666 -33.6934 -33.6645 -13.2174 -12.0268  -5.0564  -2.5278
    -1.7802  -1.3051  -0.9400  -0.7870  -0.4844  -0.1840   0.0956   0.2427
     0.2877   0.7171   1.4044   3.1188   3.4229   3.8172

          k = 0.0000 0.1155-0.0871 ( 12970 PWs)   bands (ev):

   -59.7264 -33.8666 -33.6934 -33.6645 -13.2174 -12.0268  -5.0564  -2.5278
    -1.7802  -1.3051  -0.9400  -0.7870  -0.4844  -0.1840   0.0956   0.2427
     0.2877   0.7171   1.4044   3.1187   3.4229   3.8172

          k = 0.0000 0.2309 0.0000 ( 12929 PWs)   bands (ev):

   -59.7166 -33.8476 -33.7903 -33.6868 -12.8197 -11.8057  -4.6770  -2.8073
    -2.4669  -1.3992  -1.2346  -0.9712  -0.5054  -0.1673   0.0062   0.2789
     0.3735   0.5591   1.4029   3.0383   3.2716   3.7414

          k = 0.0000 0.2309-0.0871 ( 12940 PWs)   bands (ev):

   -59.7166 -33.8476 -33.7903 -33.6868 -12.8197 -11.8057  -4.6770  -2.8073
    -2.4669  -1.3992  -1.2347  -0.9712  -0.5054  -0.1673   0.0062   0.2789
     0.3735   0.5591   1.4029   3.0382   3.2716   3.7415

          k = 0.0000 0.3464 0.0000 ( 12915 PWs)   bands (ev):

   -59.7045 -33.9084 -33.8236 -33.7142 -12.2677 -11.4949  -4.4416  -3.6036
    -3.0137  -1.6927  -1.6485  -0.7344  -0.3840  -0.1402   0.0200   0.1567
     0.3992   0.5205   1.6009   3.1604   3.4285   4.2671

          k = 0.0000 0.3464-0.0871 ( 12918 PWs)   bands (ev):

   -59.7045 -33.9084 -33.8236 -33.7142 -12.2677 -11.4949  -4.4416  -3.6036
    -3.0137  -1.6927  -1.6485  -0.7344  -0.3840  -0.1402   0.0200   0.1567
     0.3992   0.5205   1.6009   3.1604   3.4284   4.2672

          k = 0.0000 0.4619 0.0000 ( 12872 PWs)   bands (ev):

   -59.6946 -34.0022 -33.8044 -33.7362 -11.7554 -11.1911  -4.8365  -4.1121
    -3.3136  -2.0204  -1.8503  -0.6650  -0.3797  -0.1786   0.2061   0.2500
     0.5542   0.6652   2.3302   3.2701   3.8793   4.8353

          k = 0.0000 0.4619-0.0871 ( 12884 PWs)   bands (ev):

   -59.6946 -34.0022 -33.8044 -33.7362 -11.7554 -11.1911  -4.8365  -4.1121
    -3.3136  -2.0204  -1.8503  -0.6650  -0.3797  -0.1786   0.2061   0.2500
     0.5542   0.6652   2.3302   3.2701   3.8793   4.8353

          k = 0.0000-0.5774 0.0000 ( 12854 PWs)   bands (ev):

   -59.6908 -34.0377 -33.7971 -33.7446 -11.5430 -11.0505  -5.1328  -4.2931
    -3.3885  -2.1362  -1.9455  -0.6590  -0.4036  -0.1841   0.3415   0.4020
     0.6203   0.7187   3.0450   3.3865   3.8581   4.8973

          k = 0.0000-0.5774-0.0871 ( 12864 PWs)   bands (ev):

   -59.6908 -34.0377 -33.7971 -33.7446 -11.5430 -11.0505  -5.1328  -4.2931
    -3.3885  -2.1362  -1.9455  -0.6590  -0.4036  -0.1841   0.3415   0.4020
     0.6203   0.7187   3.0450   3.3865   3.8581   4.8973

          k = 0.1000 0.1732 0.0000 ( 12937 PWs)   bands (ev):

   -59.7196 -33.8535 -33.7578 -33.6826 -12.9467 -11.8763  -4.7826  -2.6291
    -2.2794  -1.3882  -1.1641  -0.9985  -0.5490  -0.2029   0.1368   0.2229
     0.3765   0.6701   1.4366   2.8924   3.3644   3.6030

          k = 0.1000 0.1732-0.0871 ( 12920 PWs)   bands (ev):

   -59.7196 -33.8534 -33.7578 -33.6826 -12.9467 -11.8763  -4.7826  -2.6291
    -2.2794  -1.3882  -1.1641  -0.9985  -0.5490  -0.2029   0.1368   0.2229
     0.3765   0.6701   1.4366   2.8924   3.3644   3.6030

          k = 0.1000 0.2887 0.0000 ( 12944 PWs)   bands (ev):

   -59.7087 -33.8590 -33.8317 -33.7141 -12.4687 -11.6075  -4.4307  -3.2180
    -2.7778  -2.0349  -1.2724  -0.9115  -0.4873  -0.1356   0.0933   0.2845
     0.3441   0.5088   1.4760   2.9168   3.4686   3.7536

          k = 0.1000 0.2887-0.0871 ( 12926 PWs)   bands (ev):

   -59.7087 -33.8590 -33.8317 -33.7141 -12.4687 -11.6075  -4.4307  -3.2180
    -2.7778  -2.0349  -1.2724  -0.9115  -0.4873  -0.1356   0.0933   0.2845
     0.3441   0.5088   1.4760   2.9168   3.4686   3.7536

          k = 0.1000 0.4041 0.0000 ( 12898 PWs)   bands (ev):

   -59.6976 -33.9577 -33.8104 -33.7457 -11.9257 -11.2909  -4.5115  -3.8355
    -3.2671  -2.2789  -1.5365  -0.9536  -0.3998  -0.1281   0.0303   0.3235
     0.4229   0.6415   1.8868   3.2828   3.7490   4.2807

          k = 0.1000 0.4041-0.0871 ( 12884 PWs)   bands (ev):

   -59.6976 -33.9577 -33.8104 -33.7457 -11.9257 -11.2909  -4.5115  -3.8355
    -3.2671  -2.2789  -1.5365  -0.9536  -0.3997  -0.1281   0.0303   0.3235
     0.4229   0.6415   1.8868   3.2828   3.7490   4.2807

          k = 0.1000 0.5196 0.0000 ( 12858 PWs)   bands (ev):

   -59.6908 -34.0181 -33.7971 -33.7652 -11.5510 -11.0500  -4.9367  -4.2037
    -3.4243  -2.2923  -1.8634  -0.9696  -0.4234  -0.1509   0.1424   0.4391
     0.5756   0.7543   2.7561   3.5417   4.0065   4.5161

          k = 0.1000 0.5196-0.0871 ( 12862 PWs)   bands (ev):

   -59.6908 -34.0181 -33.7971 -33.7652 -11.5510 -11.0500  -4.9367  -4.2037
    -3.4243  -2.2923  -1.8634  -0.9696  -0.4234  -0.1509   0.1424   0.4391
     0.5756   0.7543   2.7561   3.5417   4.0065   4.5161

          k = 0.2000 0.3464 0.0000 ( 12917 PWs)   bands (ev):

   -59.6988 -33.9282 -33.8127 -33.7621 -11.9913 -11.3259  -4.3268  -3.5084
    -3.3359  -2.5055  -1.5642  -1.0444  -0.5124  -0.0665   0.1385   0.2558
     0.3778   0.6351   1.7068   3.2746   3.6844   3.9235

          k = 0.2000 0.3464-0.0871 ( 12918 PWs)   bands (ev):

   -59.6988 -33.9282 -33.8127 -33.7621 -11.9913 -11.3259  -4.3268  -3.5084
    -3.3359  -2.5055  -1.5642  -1.0444  -0.5124  -0.0665   0.1385   0.2558
     0.3778   0.6351   1.7068   3.2746   3.6844   3.9235

          k = 0.2000 0.4619 0.0000 ( 12869 PWs)   bands (ev):

   -59.6908 -33.9767 -33.8080 -33.7971 -11.5642 -11.0488  -4.5488  -4.0005
    -3.4728  -2.5857  -1.9959  -1.3254  -0.4765  -0.0455   0.1684   0.3551
     0.4226   0.7699   2.3864   3.6039   4.0336   4.2210

          k = 0.2000 0.4619-0.0871 ( 12868 PWs)   bands (ev):

   -59.6908 -33.9767 -33.8080 -33.7971 -11.5642 -11.0488  -4.5488  -4.0005
    -3.4728  -2.5857  -1.9959  -1.3254  -0.4765  -0.0455   0.1684   0.3551
     0.4226   0.7699   2.3864   3.6039   4.0336   4.2210

          k = 0.2000 0.5774 0.0000 ( 12850 PWs)   bands (ev):

   -59.6878 -33.9936 -33.8271 -33.7911 -11.3923 -10.9227  -4.7095  -4.1944
    -3.5360  -2.4515  -2.2706  -1.4781  -0.4709  -0.0509   0.2044   0.4161
     0.4818   0.8862   3.0298   3.4304   3.9639   4.6107

          k = 0.2000 0.5774-0.0871 ( 12850 PWs)   bands (ev):

   -59.6878 -33.9936 -33.8270 -33.7911 -11.3923 -10.9227  -4.7095  -4.1944
    -3.5360  -2.4515  -2.2706  -1.4781  -0.4709  -0.0509   0.2044   0.4161
     0.4818   0.8862   3.0298   3.4304   3.9639   4.6107

          k = 0.3000 0.5196 0.0000 ( 12860 PWs)   bands (ev):

   -59.6866 -33.9588 -33.8764 -33.7889 -11.3332 -10.8717  -4.5476  -4.0712
    -3.4245  -3.0692  -2.3199  -1.5968  -0.4657   0.0204   0.2987   0.3290
     0.4064   0.9652   2.8685   3.2754   4.0317   5.1285

          k = 0.3000 0.5196-0.0871 ( 12870 PWs)   bands (ev):

   -59.6866 -33.9588 -33.8764 -33.7889 -11.3332 -10.8717  -4.5476  -4.0712
    -3.4245  -3.0692  -2.3199  -1.5968  -0.4657   0.0204   0.2987   0.3290
     0.4064   0.9652   2.8685   3.2754   4.0317   5.1285

 ------ SPIN DOWN ----------


          k = 0.0000 0.0000 0.0000 ( 12991 PWs)   bands (ev):

   -59.7253 -33.8784 -33.6452 -33.6452 -13.3312 -12.0940  -5.1668  -2.4477
    -1.3851  -1.3851  -0.3596  -0.3596   0.1977   1.0673   1.6021   1.6021
     1.7916   2.2977   2.2977   3.7451   3.7451   4.0951

          k = 0.0000 0.0000-0.0871 ( 12974 PWs)   bands (ev):

   -59.7253 -33.8784 -33.6452 -33.6452 -13.3312 -12.0940  -5.1668  -2.4477
    -1.3851  -1.3851  -0.3596  -0.3596   0.1977   1.0673   1.6021   1.6021
     1.7916   2.2977   2.2977   3.7451   3.7451   4.0951

          k = 0.0000 0.1155 0.0000 ( 12953 PWs)   bands (ev):

   -59.7215 -33.8712 -33.6825 -33.6537 -13.1873 -12.0151  -5.0073  -2.4553
    -1.7286  -1.2462  -0.7280  -0.5984   0.3946   0.9794   1.5452   1.6474
     1.6555   2.3043   2.5693   3.4396   3.7518   3.8305

          k = 0.0000 0.1155-0.0871 ( 12970 PWs)   bands (ev):

   -59.7215 -33.8712 -33.6825 -33.6537 -13.1873 -12.0151  -5.0073  -2.4553
    -1.7286  -1.2462  -0.7280  -0.5984   0.3946   0.9793   1.5452   1.6474
     1.6555   2.3043   2.5693   3.4395   3.7518   3.8305

          k = 0.0000 0.2309 0.0000 ( 12929 PWs)   bands (ev):

   -59.7117 -33.8522 -33.7793 -33.6760 -12.7869 -11.7951  -4.6216  -2.7598
    -2.4177  -1.1900  -1.1224  -0.8750   0.4584   0.6278   1.4875   1.5869
     1.7935   2.3118   2.6863   3.3523   3.5799   3.7890

          k = 0.0000 0.2309-0.0871 ( 12940 PWs)   bands (ev):

   -59.7117 -33.8522 -33.7793 -33.6760 -12.7869 -11.7951  -4.6216  -2.7598
    -2.4177  -1.1900  -1.1224  -0.8750   0.4584   0.6278   1.4875   1.5869
     1.7935   2.3118   2.6863   3.3522   3.5799   3.7891

          k = 0.0000 0.3464 0.0000 ( 12915 PWs)   bands (ev):

   -59.6996 -33.8973 -33.8283 -33.7033 -12.2297 -11.4865  -4.3920  -3.5238
    -2.9769  -1.6159  -1.4785  -0.4810   0.0898   0.7940   1.5224   1.6769
     1.9530   2.4209   2.5484   3.4308   3.6664   4.4568

          k = 0.0000 0.3464-0.0871 ( 12918 PWs)   bands (ev):

   -59.6996 -33.8973 -33.8283 -33.7033 -12.2297 -11.4865  -4.3920  -3.5238
    -2.9769  -1.6159  -1.4785  -0.4811   0.0898   0.7940   1.5224   1.6769
     1.9530   2.4209   2.5484   3.4308   3.6664   4.4569

          k = 0.0000 0.4619 0.0000 ( 12872 PWs)   bands (ev):

   -59.6898 -33.9910 -33.8091 -33.7254 -11.7103 -11.1861  -4.8049  -4.0377
    -3.2476  -1.9553  -1.6874  -0.2371   0.0782   0.8972   1.7016   2.0803
     2.0918   2.6405   2.7403   3.4145   3.9642   5.0826

          k = 0.0000 0.4619-0.0871 ( 12884 PWs)   bands (ev):

   -59.6898 -33.9910 -33.8091 -33.7254 -11.7103 -11.1861  -4.8049  -4.0377
    -3.2476  -1.9553  -1.6874  -0.2371   0.0782   0.8972   1.7016   2.0803
     2.0918   2.6405   2.7403   3.4145   3.9642   5.0826

          k = 0.0000-0.5774 0.0000 ( 12854 PWs)   bands (ev):

   -59.6860 -34.0264 -33.8018 -33.7338 -11.4944 -11.0470  -5.1029  -4.2321
    -3.3137  -2.0741  -1.7674  -0.1706   0.2102   0.8837   1.7482   2.1507
     2.2959   2.7495   3.2912   3.4582   3.8912   5.1202

          k = 0.0000-0.5774-0.0871 ( 12864 PWs)   bands (ev):

   -59.6860 -34.0264 -33.8018 -33.7338 -11.4944 -11.0470  -5.1029  -4.2321
    -3.3137  -2.0741  -1.7674  -0.1706   0.2102   0.8837   1.7482   2.1507
     2.2959   2.7495   3.2912   3.4582   3.8912   5.1202

          k = 0.1000 0.1732 0.0000 ( 12937 PWs)   bands (ev):

   -59.7148 -33.8580 -33.7469 -33.6718 -12.9148 -11.8653  -4.7290  -2.5837
    -2.2223  -1.2749  -1.0194  -0.8380   0.5179   0.7422   1.4955   1.5267
     1.7934   2.2949   2.8738   3.0842   3.5998   3.7017

          k = 0.1000 0.1732-0.0871 ( 12920 PWs)   bands (ev):

   -59.7148 -33.8580 -33.7469 -33.6718 -12.9148 -11.8653  -4.7290  -2.5837
    -2.2223  -1.2749  -1.0194  -0.8380   0.5180   0.7422   1.4955   1.5267
     1.7934   2.2949   2.8738   3.0841   3.5999   3.7017

          k = 0.1000 0.2887 0.0000 ( 12944 PWs)   bands (ev):

   -59.7038 -33.8484 -33.8359 -33.7032 -12.4329 -11.5981  -4.3729  -3.1508
    -2.7367  -1.9737  -1.0207  -0.7744   0.3216   0.6863   1.4180   1.5555
     1.9813   2.3548   2.7248   3.1744   3.7299   3.8520

          k = 0.1000 0.2887-0.0871 ( 12926 PWs)   bands (ev):

   -59.7038 -33.8484 -33.8359 -33.7032 -12.4329 -11.5981  -4.3729  -3.1508
    -2.7367  -1.9737  -1.0207  -0.7744   0.3216   0.6863   1.4180   1.5555
     1.9813   2.3548   2.7248   3.1744   3.7299   3.8520

          k = 0.1000 0.4041 0.0000 ( 12898 PWs)   bands (ev):

   -59.6928 -33.9465 -33.8151 -33.7348 -11.8833 -11.2846  -4.4745  -3.7510
    -3.2059  -2.2263  -1.3341  -0.7876   0.2118   0.9554   1.5697   1.6968
     2.1120   2.5062   2.7383   3.4267   3.9273   4.4248

          k = 0.1000 0.4041-0.0871 ( 12884 PWs)   bands (ev):

   -59.6928 -33.9465 -33.8151 -33.7348 -11.8833 -11.2846  -4.4745  -3.7510
    -3.2059  -2.2263  -1.3341  -0.7876   0.2118   0.9554   1.5697   1.6968
     2.1120   2.5062   2.7383   3.4267   3.9273   4.4249

          k = 0.1000 0.5196 0.0000 ( 12858 PWs)   bands (ev):

   -59.6860 -34.0068 -33.8018 -33.7543 -11.5028 -11.0465  -4.9043  -4.1494
    -3.3335  -2.2343  -1.6675  -0.8143   0.4070   0.9757   1.7598   1.9629
     2.2242   2.7789   3.0127   3.6776   4.0868   4.6274

          k = 0.1000 0.5196-0.0871 ( 12862 PWs)   bands (ev):

   -59.6860 -34.0068 -33.8018 -33.7543 -11.5028 -11.0465  -4.9043  -4.1494
    -3.3335  -2.2343  -1.6675  -0.8143   0.4070   0.9757   1.7598   1.9629
     2.2242   2.7789   3.0127   3.6776   4.0868   4.6274

          k = 0.2000 0.3464 0.0000 ( 12917 PWs)   bands (ev):

   -59.6940 -33.9171 -33.8173 -33.7512 -11.9499 -11.3190  -4.2831  -3.3772
    -3.3194  -2.4554  -1.4376  -0.8373   0.2255   0.9970   1.3563   1.6358
     2.1181   2.4767   2.8078   3.4297   3.8204   4.0908

          k = 0.2000 0.3464-0.0871 ( 12918 PWs)   bands (ev):

   -59.6940 -33.9171 -33.8173 -33.7512 -11.9499 -11.3190  -4.2831  -3.3772
    -3.3194  -2.4554  -1.4376  -0.8373   0.2255   0.9970   1.3563   1.6358
     2.1181   2.4767   2.8078   3.4297   3.8204   4.0908

          k = 0.2000 0.4619 0.0000 ( 12869 PWs)   bands (ev):

   -59.6860 -33.9655 -33.8019 -33.7970 -11.5165 -11.0449  -4.5110  -3.9697
    -3.3356  -2.5081  -1.9243  -1.1913   0.4214   1.2026   1.5399   1.7875
     2.1557   2.6482   2.9676   3.7283   4.0862   4.4385

          k = 0.2000 0.4619-0.0871 ( 12868 PWs)   bands (ev):

   -59.6860 -33.9655 -33.8019 -33.7970 -11.5165 -11.0449  -4.5110  -3.9697
    -3.3356  -2.5081  -1.9243  -1.1913   0.4214   1.2026   1.5399   1.7875
     2.1557   2.6482   2.9676   3.7283   4.0862   4.4385

          k = 0.2000 0.5774 0.0000 ( 12850 PWs)   bands (ev):

   -59.6830 -33.9824 -33.8161 -33.7959 -11.3421 -10.9197  -4.6707  -4.1725
    -3.4026  -2.3328  -2.1955  -1.4105   0.6338   1.1827   1.7485   1.8125
     2.1881   2.7534   3.1606   3.6513   4.1432   4.7704

          k = 0.2000 0.5774-0.0871 ( 12850 PWs)   bands (ev):

   -59.6830 -33.9824 -33.8161 -33.7959 -11.3421 -10.9197  -4.6707  -4.1725
    -3.4026  -2.3328  -2.1955  -1.4105   0.6338   1.1827   1.7485   1.8125
     2.1881   2.7534   3.1606   3.6513   4.1432   4.7704

          k = 0.3000 0.5196 0.0000 ( 12860 PWs)   bands (ev):

   -59.6818 -33.9476 -33.8654 -33.7936 -11.2824 -10.8687  -4.5151  -4.0385
    -3.2629  -2.9974  -2.2772  -1.5018   0.7300   1.3919   1.5359   1.8390
     2.1878   2.6949   3.0124   3.4533   4.2617   5.3458

          k = 0.3000 0.5196-0.0871 ( 12870 PWs)   bands (ev):

   -59.6818 -33.9476 -33.8654 -33.7936 -11.2824 -10.8687  -4.5151  -4.0385
    -3.2629  -2.9974  -2.2772  -1.5018   0.7300   1.3919   1.5359   1.8390
     2.1878   2.6949   3.0124   3.4533   4.2617   5.3458

     the Fermi energy is     2.0868 ev

!    total energy              =    -658.55002793 Ry
     total all-electron energy =    -12481.723919 Ry
     estimated scf accuracy    <       0.00000002 Ry
     smearing contrib. (-TS)   =      -0.00671420 Ry
     internal energy E=F+TS    =    -658.54331373 Ry

     The total energy is F=E-TS. E is the sum of the following terms:
     one-electron contribution =   -1221.14023789 Ry
     hartree contribution      =     624.24276662 Ry
     xc contribution           =     -62.26012046 Ry
     ewald contribution        =     406.76601179 Ry
     one-center paw contrib.   =    -406.15173379 Ry

     total magnetization       =     2.09 Bohr mag/cell
     absolute magnetization    =     2.21 Bohr mag/cell

     convergence has been achieved in  11 iterations

     negative rho (up, down):  2.279E-04 2.054E-04

     Forces acting on atoms (cartesian axes, Ry/au):

     atom    1 type  1   force =     0.00000000    0.00000000    0.01259585
     atom    2 type  2   force =     0.00000000    0.00000000    0.00219695
     atom    3 type  2   force =     0.00000000    0.00000000   -0.00316058
     atom    4 type  3   force =     0.00000000    0.00000000   -0.01163223
     The non-local contrib.  to forces
     atom    1 type  1   force =     0.00000000    0.00000000   -0.04671443
     atom    2 type  2   force =     0.00000000    0.00000000   -0.07810342
     atom    3 type  2   force =     0.00000000    0.00000000    0.26855314
     atom    4 type  3   force =     0.00000000    0.00000000   -0.00480130
     The ionic contribution  to forces
     atom    1 type  1   force =     0.00000000   -0.00000000  -30.91067282
     atom    2 type  2   force =    -0.00000000    0.00000000   18.73400611
     atom    3 type  2   force =    -0.00000000    0.00000000  -44.56701419
     atom    4 type  3   force =     0.00000000   -0.00000000   56.74368091
     The local contribution  to forces
     atom    1 type  1   force =     0.00000000   -0.00000000   30.96623672
     atom    2 type  2   force =    -0.00000000    0.00000000  -18.65299442
     atom    3 type  2   force =    -0.00000000    0.00000000   44.29733825
     atom    4 type  3   force =     0.00000000   -0.00000000  -56.74642989
     The core correction contribution to forces
     atom    1 type  1   force =     0.00000000    0.00000000    0.00289321
     atom    2 type  2   force =     0.00000000   -0.00000000   -0.00094947
     atom    3 type  2   force =     0.00000000   -0.00000000   -0.00214866
     atom    4 type  3   force =     0.00000000   -0.00000000   -0.00411374
     The Hubbard contrib.    to forces
     atom    1 type  1   force =     0.00000000    0.00000000    0.00000000
     atom    2 type  2   force =     0.00000000    0.00000000    0.00000000
     atom    3 type  2   force =     0.00000000    0.00000000    0.00000000
     atom    4 type  3   force =     0.00000000    0.00000000    0.00000000
     The SCF correction term to forces
     atom    1 type  1   force =    -0.00000000   -0.00000000    0.00081559
     atom    2 type  2   force =    -0.00000000   -0.00000000    0.00020056
     atom    3 type  2   force =    -0.00000000   -0.00000000    0.00007329
     atom    4 type  3   force =    -0.00000000   -0.00000000   -0.00000579

     Total force =     0.017572     Total SCF correction =     0.000843


     Computing stress (Cartesian axis) and pressure


     negative rho (up, down):  2.279E-04 2.054E-04
          total   stress  (Ry/bohr**3)                   (kbar)     P=      -22.18
  -0.00019514   0.00000000   0.00000000          -28.71        0.00        0.00
   0.00000000  -0.00019514   0.00000000            0.00      -28.71        0.00
   0.00000000   0.00000000  -0.00006209            0.00        0.00       -9.13

     Energy error            =      3.9E-04 Ry
     Gradient error          =      1.3E-02 Ry/Bohr

     number of scf cycles    =   4
     number of bfgs steps    =   3

     energy             old  =    -658.5496329586 Ry
     energy             new  =    -658.5500279345 Ry

     CASE: energy            _new < energy            _old

     new trust radius        =       0.0309687683 bohr
     new conv_thr            =       0.0000000395 Ry


ATOMIC_POSITIONS (crystal)
Mo            0.0000000000        0.0000000000        0.4985026092
S             0.6666666667        0.3333333333        0.5907438368
S             0.6666666667        0.3333333333        0.4130984318
Co            0.3333333333        0.6666666667        0.6952911860



     Writing config-only to output data dir ./tmp/relax.save/
     NEW-OLD atomic charge density approx. for the potential

     negative rho (up, down):  2.204E-04 2.176E-04
     Generating pointlists ...
     new r_m :   0.3435 (alat units)  2.0569 (a.u.) for type    3

     total cpu time spent up to now is      107.4 secs

     Self-consistent Calculation

     iteration #  1     ecut=    80.00 Ry     beta= 0.70
     Davidson diagonalization with overlap
     ethr =  1.00E-06,  avg # of iterations =  6.9

     negative rho (up, down):  2.269E-04 2.088E-04

     total cpu time spent up to now is      110.3 secs

     total energy              =    -658.55031358 Ry
     estimated scf accuracy    <       0.00047172 Ry

     total magnetization       =     2.08 Bohr mag/cell
     absolute magnetization    =     2.20 Bohr mag/cell

     iteration #  2     ecut=    80.00 Ry     beta= 0.70
     Davidson diagonalization with overlap
     ethr =  1.35E-06,  avg # of iterations =  3.5

     negative rho (up, down):  2.267E-04 2.082E-04

     total cpu time spent up to now is      112.1 secs

     total energy              =    -658.54986302 Ry
     estimated scf accuracy    <       0.00375908 Ry

     total magnetization       =     2.07 Bohr mag/cell
     absolute magnetization    =     2.19 Bohr mag/cell

     iteration #  3     ecut=    80.00 Ry     beta= 0.70
     Davidson diagonalization with overlap
     ethr =  1.35E-06,  avg # of iterations =  5.4

     negative rho (up, down):  2.266E-04 2.074E-04

     total cpu time spent up to now is      114.2 secs

     total energy              =    -658.54975789 Ry
     estimated scf accuracy    <       0.01593622 Ry

     total magnetization       =     2.12 Bohr mag/cell
     absolute magnetization    =     2.25 Bohr mag/cell

     iteration #  4     ecut=    80.00 Ry     beta= 0.70
     Davidson diagonalization with overlap
     ethr =  1.35E-06,  avg # of iterations =  4.5

     negative rho (up, down):  2.273E-04 2.067E-04

     total cpu time spent up to now is      116.1 secs

     total energy              =    -658.55037823 Ry
     estimated scf accuracy    <       0.00036220 Ry

     total magnetization       =     2.07 Bohr mag/cell
     absolute magnetization    =     2.19 Bohr mag/cell

     iteration #  5     ecut=    80.00 Ry     beta= 0.70
     Davidson diagonalization with overlap
     ethr =  1.03E-06,  avg # of iterations =  2.5

     negative rho (up, down):  2.278E-04 2.064E-04

     total cpu time spent up to now is      117.9 secs

     total energy              =    -658.55040540 Ry
     estimated scf accuracy    <       0.00027421 Ry

     total magnetization       =     2.08 Bohr mag/cell
     absolute magnetization    =     2.20 Bohr mag/cell

     iteration #  6     ecut=    80.00 Ry     beta= 0.70
     Davidson diagonalization with overlap
     ethr =  7.83E-07,  avg # of iterations =  2.0

     negative rho (up, down):  2.279E-04 2.063E-04

     total cpu time spent up to now is      119.6 secs

     total energy              =    -658.55043735 Ry
     estimated scf accuracy    <       0.00001878 Ry

     total magnetization       =     2.08 Bohr mag/cell
     absolute magnetization    =     2.20 Bohr mag/cell

     iteration #  7     ecut=    80.00 Ry     beta= 0.70
     Davidson diagonalization with overlap
     ethr =  5.37E-08,  avg # of iterations =  3.6

     negative rho (up, down):  2.280E-04 2.063E-04

     total cpu time spent up to now is      121.5 secs

     total energy              =    -658.55044184 Ry
     estimated scf accuracy    <       0.00000883 Ry

     total magnetization       =     2.08 Bohr mag/cell
     absolute magnetization    =     2.20 Bohr mag/cell

     iteration #  8     ecut=    80.00 Ry     beta= 0.70
     Davidson diagonalization with overlap
     ethr =  2.52E-08,  avg # of iterations =  1.9

     negative rho (up, down):  2.281E-04 2.064E-04

     total cpu time spent up to now is      123.1 secs

     total energy              =    -658.55044337 Ry
     estimated scf accuracy    <       0.00000063 Ry

     total magnetization       =     2.08 Bohr mag/cell
     absolute magnetization    =     2.20 Bohr mag/cell

     iteration #  9     ecut=    80.00 Ry     beta= 0.70
     Davidson diagonalization with overlap
     ethr =  1.79E-09,  avg # of iterations =  4.8

     negative rho (up, down):  2.281E-04 2.064E-04

     total cpu time spent up to now is      125.1 secs

     total energy              =    -658.55044388 Ry
     estimated scf accuracy    <       0.00000052 Ry

     total magnetization       =     2.08 Bohr mag/cell
     absolute magnetization    =     2.20 Bohr mag/cell

     iteration # 10     ecut=    80.00 Ry     beta= 0.70
     Davidson diagonalization with overlap
     ethr =  1.48E-09,  avg # of iterations =  2.2

     negative rho (up, down):  2.281E-04 2.064E-04

     total cpu time spent up to now is      126.8 secs

     total energy              =    -658.55044406 Ry
     estimated scf accuracy    <       0.00000038 Ry

     total magnetization       =     2.08 Bohr mag/cell
     absolute magnetization    =     2.20 Bohr mag/cell

     iteration # 11     ecut=    80.00 Ry     beta= 0.70
     Davidson diagonalization with overlap
     ethr =  1.09E-09,  avg # of iterations =  3.5

     negative rho (up, down):  2.281E-04 2.064E-04

     total cpu time spent up to now is      128.6 secs

     total energy              =    -658.55044425 Ry
     estimated scf accuracy    <       0.00000004 Ry

     total magnetization       =     2.08 Bohr mag/cell
     absolute magnetization    =     2.20 Bohr mag/cell

     iteration # 12     ecut=    80.00 Ry     beta= 0.70
     Davidson diagonalization with overlap
     ethr =  1.22E-10,  avg # of iterations =  4.4

     negative rho (up, down):  2.281E-04 2.064E-04
 
     Magnetic moment per site  (integrated on atomic sphere of radius R)
     atom   1 (R=0.313)  charge= 10.7174  magn=  0.0061
     atom   2 (R=0.313)  charge=  4.1132  magn=  0.0359
     atom   3 (R=0.313)  charge=  4.1244  magn=  0.0026
     atom   4 (R=0.344)  charge=  7.4984  magn=  2.0238

     total cpu time spent up to now is      130.5 secs

     End of self-consistent calculation

 ------ SPIN UP ------------


          k = 0.0000 0.0000 0.0000 ( 12991 PWs)   bands (ev):

   -59.7168 -33.8590 -33.6410 -33.6410 -13.3531 -12.1087  -5.2062  -2.5595
    -1.4009  -1.4009  -0.6616  -0.6616  -0.2432  -0.0660  -0.0660   0.2386
     0.2386   0.6748   1.3442   3.3841   3.3841   4.1023

          k = 0.0000 0.0000-0.0871 ( 12974 PWs)   bands (ev):

   -59.7168 -33.8590 -33.6410 -33.6410 -13.3531 -12.1087  -5.2062  -2.5595
    -1.4009  -1.4009  -0.6616  -0.6616  -0.2432  -0.0660  -0.0660   0.2386
     0.2386   0.6748   1.3442   3.3841   3.3841   4.1023

          k = 0.0000 0.1155 0.0000 ( 12953 PWs)   bands (ev):

   -59.7131 -33.8518 -33.6783 -33.6495 -13.2106 -12.0283  -5.0492  -2.5425
    -1.7495  -1.2770  -0.9414  -0.7854  -0.4703  -0.1504   0.1017   0.2443
     0.2734   0.7334   1.4169   3.0981   3.4006   3.8359

          k = 0.0000 0.1155-0.0871 ( 12970 PWs)   bands (ev):

   -59.7131 -33.8518 -33.6783 -33.6495 -13.2106 -12.0283  -5.0492  -2.5425
    -1.7495  -1.2770  -0.9414  -0.7854  -0.4703  -0.1504   0.1017   0.2443
     0.2734   0.7334   1.4169   3.0981   3.4006   3.8359

          k = 0.0000 0.2309 0.0000 ( 12929 PWs)   bands (ev):

   -59.7033 -33.8329 -33.7748 -33.6717 -12.8139 -11.8037  -4.6695  -2.8044
    -2.4499  -1.4176  -1.2213  -0.9540  -0.4970  -0.1375  -0.0040   0.2914
     0.3598   0.5737   1.4284   3.0263   3.2575   3.7587

          k = 0.0000 0.2309-0.0871 ( 12940 PWs)   bands (ev):

   -59.7033 -33.8329 -33.7748 -33.6717 -12.8139 -11.8037  -4.6695  -2.8044
    -2.4499  -1.4176  -1.2213  -0.9540  -0.4970  -0.1375  -0.0040   0.2914
     0.3598   0.5737   1.4284   3.0262   3.2575   3.7588

          k = 0.0000 0.3464 0.0000 ( 12915 PWs)   bands (ev):

   -59.6912 -33.8927 -33.8090 -33.6991 -12.2628 -11.4881  -4.4259  -3.6113
    -3.0075  -1.6729  -1.6680  -0.7390  -0.3758  -0.1462   0.0573   0.1742
     0.4015   0.5101   1.6240   3.1578   3.4351   4.2766

          k = 0.0000 0.3464-0.0871 ( 12918 PWs)   bands (ev):

   -59.6912 -33.8926 -33.8090 -33.6991 -12.2628 -11.4881  -4.4259  -3.6113
    -3.0075  -1.6729  -1.6680  -0.7390  -0.3758  -0.1462   0.0573   0.1742
     0.4015   0.5101   1.6240   3.1578   3.4351   4.2767

          k = 0.0000 0.4619 0.0000 ( 12872 PWs)   bands (ev):

   -59.6814 -33.9861 -33.7900 -33.7211 -11.7500 -11.1799  -4.8276  -4.1238
    -3.3071  -1.9984  -1.8681  -0.6801  -0.3771  -0.1709   0.2230   0.2863
     0.5508   0.6574   2.3364   3.2798   3.8943   4.8403

          k = 0.0000 0.4619-0.0871 ( 12884 PWs)   bands (ev):

   -59.6814 -33.9861 -33.7900 -33.7211 -11.7500 -11.1799  -4.8276  -4.1238
    -3.3071  -1.9984  -1.8681  -0.6802  -0.3771  -0.1709   0.2230   0.2863
     0.5508   0.6574   2.3364   3.2798   3.8943   4.8403

          k = 0.0000-0.5774 0.0000 ( 12854 PWs)   bands (ev):

   -59.6776 -34.0215 -33.7826 -33.7295 -11.5365 -11.0377  -5.1330  -4.3016
    -3.3781  -2.1135  -1.9645  -0.6768  -0.4025  -0.1738   0.3775   0.4185
     0.6177   0.7098   3.0279   3.4026   3.8661   4.9131

          k = 0.0000-0.5774-0.0871 ( 12864 PWs)   bands (ev):

   -59.6776 -34.0215 -33.7826 -33.7295 -11.5365 -11.0377  -5.1330  -4.3016
    -3.3781  -2.1135  -1.9645  -0.6768  -0.4025  -0.1738   0.3775   0.4185
     0.6177   0.7098   3.0279   3.4026   3.8661   4.9131

          k = 0.1000 0.1732 0.0000 ( 12937 PWs)   bands (ev):

   -59.7064 -33.8387 -33.7425 -33.6676 -12.9407 -11.8755  -4.7755  -2.6338
    -2.2546  -1.3857  -1.1567  -0.9892  -0.5380  -0.1837   0.1295   0.2263
     0.3747   0.6869   1.4619   2.8720   3.3507   3.6228

          k = 0.1000 0.1732-0.0871 ( 12920 PWs)   bands (ev):

   -59.7064 -33.8387 -33.7425 -33.6676 -12.9407 -11.8755  -4.7755  -2.6338
    -2.2546  -1.3857  -1.1567  -0.9892  -0.5380  -0.1837   0.1295   0.2263
     0.3747   0.6869   1.4619   2.8720   3.3507   3.6229

          k = 0.1000 0.2887 0.0000 ( 12944 PWs)   bands (ev):

   -59.6954 -33.8435 -33.8170 -33.6990 -12.4636 -11.6024  -4.4197  -3.2173
    -2.7700  -2.0218  -1.2891  -0.9070  -0.4789  -0.1334   0.1030   0.2990
     0.3517   0.5097   1.5028   2.9078   3.4706   3.7680

          k = 0.1000 0.2887-0.0871 ( 12926 PWs)   bands (ev):

   -59.6954 -33.8435 -33.8170 -33.6990 -12.4636 -11.6024  -4.4197  -3.2173
    -2.7700  -2.0218  -1.2891  -0.9070  -0.4789  -0.1334   0.1030   0.2990
     0.3517   0.5097   1.5028   2.9078   3.4705   3.7681

          k = 0.1000 0.4041 0.0000 ( 12898 PWs)   bands (ev):

   -59.6844 -33.9418 -33.7959 -33.7305 -11.9207 -11.2813  -4.4950  -3.8486
    -3.2629  -2.2660  -1.5520  -0.9568  -0.3929  -0.1277   0.0476   0.3453
     0.4237   0.6414   1.8976   3.2889   3.7657   4.2848

          k = 0.1000 0.4041-0.0871 ( 12884 PWs)   bands (ev):

   -59.6844 -33.9418 -33.7959 -33.7305 -11.9207 -11.2813  -4.4950  -3.8486
    -3.2629  -2.2660  -1.5520  -0.9568  -0.3929  -0.1277   0.0476   0.3453
     0.4237   0.6414   1.8976   3.2889   3.7657   4.2848

          k = 0.1000 0.5196 0.0000 ( 12858 PWs)   bands (ev):

   -59.6776 -34.0019 -33.7827 -33.7500 -11.5448 -11.0375  -4.9356  -4.2076
    -3.4166  -2.2801  -1.8812  -0.9788  -0.4172  -0.1487   0.1741   0.4507
     0.5698   0.7590   2.7475   3.5529   4.0192   4.5080

          k = 0.1000 0.5196-0.0871 ( 12862 PWs)   bands (ev):

   -59.6776 -34.0019 -33.7827 -33.7500 -11.5448 -11.0375  -4.9356  -4.2076
    -3.4166  -2.2801  -1.8812  -0.9788  -0.4172  -0.1487   0.1741   0.4507
     0.5698   0.7590   2.7475   3.5529   4.0192   4.5080

          k = 0.2000 0.3464 0.0000 ( 12917 PWs)   bands (ev):

   -59.6856 -33.9124 -33.7981 -33.7468 -11.9864 -11.3169  -4.3079  -3.5280
    -3.3245  -2.4942  -1.5746  -1.0492  -0.5064  -0.0754   0.1396   0.2826
     0.3897   0.6412   1.7173   3.2799   3.6991   3.9325

          k = 0.2000 0.3464-0.0871 ( 12918 PWs)   bands (ev):

   -59.6856 -33.9124 -33.7981 -33.7468 -11.9864 -11.3169  -4.3079  -3.5280
    -3.3245  -2.4942  -1.5746  -1.0492  -0.5064  -0.0754   0.1396   0.2826
     0.3897   0.6412   1.7173   3.2798   3.6991   3.9325

          k = 0.2000 0.4619 0.0000 ( 12869 PWs)   bands (ev):

   -59.6776 -33.9607 -33.7927 -33.7826 -11.5583 -11.0367  -4.5423  -3.9895
    -3.4830  -2.5903  -1.9972  -1.3306  -0.4689  -0.0518   0.1838   0.3663
     0.4336   0.7771   2.3784   3.6153   4.0392   4.2347

          k = 0.2000 0.4619-0.0871 ( 12868 PWs)   bands (ev):

   -59.6776 -33.9607 -33.7927 -33.7826 -11.5583 -11.0367  -4.5423  -3.9895
    -3.4830  -2.5903  -1.9972  -1.3306  -0.4689  -0.0518   0.1838   0.3663
     0.4336   0.7771   2.3784   3.6153   4.0392   4.2346

          k = 0.2000 0.5774 0.0000 ( 12850 PWs)   bands (ev):

   -59.6746 -33.9775 -33.8116 -33.7767 -11.3853 -10.9097  -4.7114  -4.1819
    -3.5384  -2.4702  -2.2671  -1.4798  -0.4629  -0.0555   0.2318   0.4231
     0.4826   0.8933   3.0282   3.4220   3.9616   4.6208

          k = 0.2000 0.5774-0.0871 ( 12850 PWs)   bands (ev):

   -59.6746 -33.9775 -33.8116 -33.7767 -11.3853 -10.9097  -4.7114  -4.1819
    -3.5384  -2.4702  -2.2671  -1.4798  -0.4629  -0.0555   0.2318   0.4231
     0.4826   0.8933   3.0282   3.4220   3.9616   4.6208

          k = 0.3000 0.5196 0.0000 ( 12860 PWs)   bands (ev):

   -59.6734 -33.9428 -33.8609 -33.7745 -11.3259 -10.8586  -4.5359  -4.0659
    -3.4397  -3.0763  -2.3228  -1.5972  -0.4567   0.0119   0.3278   0.3306
     0.4134   0.9702   2.8729   3.2752   4.0161   5.1404

          k = 0.3000 0.5196-0.0871 ( 12870 PWs)   bands (ev):

   -59.6734 -33.9428 -33.8609 -33.7745 -11.3259 -10.8586  -4.5359  -4.0659
    -3.4397  -3.0763  -2.3228  -1.5972  -0.4567   0.0119   0.3278   0.3306
     0.4134   0.9702   2.8729   3.2752   4.0161   5.1404

 ------ SPIN DOWN ----------


          k = 0.0000 0.0000 0.0000 ( 12991 PWs)   bands (ev):

   -59.7124 -33.8645 -33.6305 -33.6305 -13.3226 -12.0965  -5.1595  -2.4699
    -1.3488  -1.3488  -0.3301  -0.3301   0.2321   1.0803   1.5863   1.5863
     1.7849   2.2427   2.2427   3.7438   3.7438   4.1110

          k = 0.0000 0.0000-0.0871 ( 12974 PWs)   bands (ev):

   -59.7124 -33.8645 -33.6305 -33.6305 -13.3226 -12.0965  -5.1595  -2.4699
    -1.3488  -1.3488  -0.3301  -0.3301   0.2321   1.0803   1.5863   1.5863
     1.7849   2.2427   2.2427   3.7438   3.7438   4.1110

          k = 0.0000 0.1155 0.0000 ( 12953 PWs)   bands (ev):

   -59.7087 -33.8573 -33.6678 -33.6390 -13.1792 -12.0164  -5.0003  -2.4725
    -1.6928  -1.2122  -0.7108  -0.5682   0.4199   0.9867   1.5316   1.6356
     1.6402   2.2496   2.5369   3.4368   3.7475   3.8501

          k = 0.0000 0.1155-0.0871 ( 12970 PWs)   bands (ev):

   -59.7087 -33.8573 -33.6678 -33.6390 -13.1792 -12.0164  -5.0003  -2.4725
    -1.6928  -1.2122  -0.7108  -0.5682   0.4199   0.9867   1.5316   1.6356
     1.6402   2.2496   2.5369   3.4367   3.7475   3.8501

          k = 0.0000 0.2309 0.0000 ( 12929 PWs)   bands (ev):

   -59.6989 -33.8384 -33.7642 -33.6612 -12.7798 -11.7928  -4.6139  -2.7569
    -2.3945  -1.2065  -1.0979  -0.8412   0.4778   0.6293   1.4819   1.5798
     1.7810   2.2599   2.6756   3.3517   3.5827   3.8049

          k = 0.0000 0.2309-0.0871 ( 12940 PWs)   bands (ev):

   -59.6989 -33.8384 -33.7642 -33.6612 -12.7798 -11.7928  -4.6139  -2.7569
    -2.3945  -1.2065  -1.0979  -0.8412   0.4778   0.6293   1.4819   1.5798
     1.7810   2.2599   2.6756   3.3516   3.5827   3.8051

          k = 0.0000 0.3464 0.0000 ( 12915 PWs)   bands (ev):

   -59.6868 -33.8819 -33.8146 -33.6886 -12.2233 -11.4794  -4.3751  -3.5282
    -2.9683  -1.5876  -1.5027  -0.4639   0.1060   0.7982   1.5161   1.6683
     1.9456   2.3783   2.5451   3.4381   3.6788   4.4693

          k = 0.0000 0.3464-0.0871 ( 12918 PWs)   bands (ev):

   -59.6868 -33.8819 -33.8146 -33.6886 -12.2233 -11.4794  -4.3751  -3.5282
    -2.9683  -1.5876  -1.5027  -0.4639   0.1060   0.7982   1.5161   1.6683
     1.9456   2.3783   2.5451   3.4381   3.6787   4.4694

          k = 0.0000 0.4619 0.0000 ( 12872 PWs)   bands (ev):

   -59.6770 -33.9752 -33.7956 -33.7105 -11.7033 -11.1745  -4.7942  -4.0469
    -3.2395  -1.9263  -1.7104  -0.2359   0.0909   0.8979   1.7062   2.0531
     2.0904   2.6072   2.7414   3.4267   3.9776   5.0718

          k = 0.0000 0.4619-0.0871 ( 12884 PWs)   bands (ev):

   -59.6770 -33.9752 -33.7956 -33.7105 -11.7033 -11.1745  -4.7942  -4.0469
    -3.2395  -1.9263  -1.7104  -0.2359   0.0909   0.8979   1.7062   2.0531
     2.0904   2.6072   2.7414   3.4267   3.9776   5.0718

          k = 0.0000-0.5774 0.0000 ( 12854 PWs)   bands (ev):

   -59.6733 -34.0105 -33.7883 -33.7189 -11.4864 -11.0337  -5.1010  -4.2389
    -3.3010  -2.0449  -1.7917  -0.1757   0.2171   0.8848   1.7538   2.1519
     2.2762   2.7185   3.2742   3.4744   3.8984   5.1057

          k = 0.0000-0.5774-0.0871 ( 12864 PWs)   bands (ev):

   -59.6733 -34.0105 -33.7883 -33.7189 -11.4864 -11.0337  -5.1010  -4.2389
    -3.3010  -2.0449  -1.7917  -0.1757   0.2171   0.8848   1.7538   2.1519
     2.2761   2.7184   3.2742   3.4744   3.8984   5.1057

          k = 0.1000 0.1732 0.0000 ( 12937 PWs)   bands (ev):

   -59.7020 -33.8442 -33.7319 -33.6571 -12.9075 -11.8642  -4.7219  -2.5890
    -2.1917  -1.2622  -0.9859  -0.8326   0.5342   0.7457   1.4919   1.5158
     1.7812   2.2441   2.8564   3.0803   3.6147   3.7097

          k = 0.1000 0.1732-0.0871 ( 12920 PWs)   bands (ev):

   -59.7020 -33.8442 -33.7319 -33.6571 -12.9075 -11.8642  -4.7219  -2.5890
    -2.1917  -1.2622  -0.9859  -0.8326   0.5342   0.7457   1.4919   1.5158
     1.7812   2.2441   2.8564   3.0802   3.6148   3.7096

          k = 0.1000 0.2887 0.0000 ( 12944 PWs)   bands (ev):

   -59.6910 -33.8333 -33.8220 -33.6884 -12.4264 -11.5928  -4.3611  -3.1476
    -2.7247  -1.9575  -1.0287  -0.7631   0.3376   0.6886   1.4129   1.5550
     1.9719   2.3153   2.7172   3.1745   3.7445   3.8620

          k = 0.1000 0.2887-0.0871 ( 12926 PWs)   bands (ev):

   -59.6910 -33.8333 -33.8220 -33.6884 -12.4264 -11.5928  -4.3611  -3.1476
    -2.7247  -1.9575  -1.0287  -0.7631   0.3376   0.6886   1.4129   1.5550
     1.9719   2.3153   2.7172   3.1745   3.7444   3.8621

          k = 0.1000 0.4041 0.0000 ( 12898 PWs)   bands (ev):

   -59.6801 -33.9309 -33.8015 -33.7199 -11.8768 -11.2746  -4.4566  -3.7596
    -3.2015  -2.2099  -1.3478  -0.7824   0.2253   0.9556   1.5629   1.6982
     2.0971   2.4918   2.7192   3.4356   3.9466   4.4293

          k = 0.1000 0.4041-0.0871 ( 12884 PWs)   bands (ev):

   -59.6801 -33.9309 -33.8015 -33.7199 -11.8768 -11.2746  -4.4566  -3.7596
    -3.2015  -2.2099  -1.3478  -0.7824   0.2253   0.9556   1.5630   1.6982
     2.0971   2.4918   2.7192   3.4356   3.9465   4.4294

          k = 0.1000 0.5196 0.0000 ( 12858 PWs)   bands (ev):

   -59.6733 -33.9910 -33.7884 -33.7394 -11.4950 -11.0334  -4.9010  -4.1509
    -3.3242  -2.2174  -1.6877  -0.8143   0.4150   0.9765   1.7652   1.9575
     2.2069   2.7569   3.0008   3.6871   4.0964   4.6198

          k = 0.1000 0.5196-0.0871 ( 12862 PWs)   bands (ev):

   -59.6733 -33.9910 -33.7884 -33.7394 -11.4950 -11.0334  -4.9010  -4.1509
    -3.3242  -2.2174  -1.6877  -0.8143   0.4150   0.9765   1.7652   1.9575
     2.2069   2.7569   3.0008   3.6871   4.0964   4.6198

          k = 0.2000 0.3464 0.0000 ( 12917 PWs)   bands (ev):

   -59.6812 -33.9016 -33.8038 -33.7363 -11.9436 -11.3097  -4.2627  -3.3934
    -3.3068  -2.4396  -1.4385  -0.8495   0.2368   0.9921   1.3569   1.6427
     2.1006   2.4662   2.7867   3.4368   3.8351   4.1029

          k = 0.2000 0.3464-0.0871 ( 12918 PWs)   bands (ev):

   -59.6812 -33.9016 -33.8038 -33.7363 -11.9436 -11.3097  -4.2627  -3.3934
    -3.3068  -2.4396  -1.4385  -0.8495   0.2368   0.9921   1.3570   1.6427
     2.1006   2.4662   2.7867   3.4368   3.8351   4.1029

          k = 0.2000 0.4619 0.0000 ( 12869 PWs)   bands (ev):

   -59.6733 -33.9498 -33.7884 -33.7820 -11.5090 -11.0323  -4.5023  -3.9556
    -3.3451  -2.5060  -1.9242  -1.2008   0.4299   1.2015   1.5345   1.7973
     2.1333   2.6464   2.9425   3.7386   4.0918   4.4478

          k = 0.2000 0.4619-0.0871 ( 12868 PWs)   bands (ev):

   -59.6733 -33.9498 -33.7884 -33.7820 -11.5090 -11.0323  -4.5023  -3.9556
    -3.3451  -2.5060  -1.9242  -1.2008   0.4299   1.2015   1.5345   1.7973
     2.1333   2.6464   2.9425   3.7386   4.0918   4.4478

          k = 0.2000 0.5774 0.0000 ( 12850 PWs)   bands (ev):

   -59.6702 -33.9666 -33.8010 -33.7825 -11.3335 -10.9060  -4.6700  -4.1580
    -3.4024  -2.3365  -2.2016  -1.4150   0.6401   1.1827   1.7449   1.8207
     2.1658   2.7427   3.1657   3.6363   4.1365   4.7765

          k = 0.2000 0.5774-0.0871 ( 12850 PWs)   bands (ev):

   -59.6702 -33.9666 -33.8010 -33.7825 -11.3335 -10.9060  -4.6700  -4.1580
    -3.4024  -2.3365  -2.2016  -1.4150   0.6401   1.1826   1.7449   1.8207
     2.1658   2.7427   3.1657   3.6363   4.1365   4.7765

          k = 0.3000 0.5196 0.0000 ( 12860 PWs)   bands (ev):

   -59.6691 -33.9318 -33.8502 -33.7802 -11.2735 -10.8550  -4.5009  -4.0307
    -3.2730  -3.0032  -2.2789  -1.5062   0.7334   1.3895   1.5344   1.8506
     2.1603   2.6914   3.0220   3.4425   4.2471   5.3513

          k = 0.3000 0.5196-0.0871 ( 12870 PWs)   bands (ev):

   -59.6691 -33.9318 -33.8502 -33.7802 -11.2735 -10.8550  -4.5009  -4.0307
    -3.2730  -3.0032  -2.2789  -1.5062   0.7334   1.3895   1.5344   1.8506
     2.1603   2.6914   3.0220   3.4425   4.2471   5.3513

     the Fermi energy is     2.0722 ev

!    total energy              =    -658.55044428 Ry
     total all-electron energy =    -12481.724335 Ry
     estimated scf accuracy    <          7.2E-09 Ry
     smearing contrib. (-TS)   =      -0.00711734 Ry
     internal energy E=F+TS    =    -658.54332694 Ry

     The total energy is F=E-TS. E is the sum of the following terms:
     one-electron contribution =   -1223.94300725 Ry
     hartree contribution      =     625.65081053 Ry
     xc contribution           =     -62.25782702 Ry
     ewald contribution        =     408.15707994 Ry
     one-center paw contrib.   =    -406.15038315 Ry

     total magnetization       =     2.08 Bohr mag/cell
     absolute magnetization    =     2.20 Bohr mag/cell

     convergence has been achieved in  12 iterations

     negative rho (up, down):  2.281E-04 2.064E-04

     Forces acting on atoms (cartesian axes, Ry/au):

     atom    1 type  1   force =     0.00000000    0.00000000    0.01501120
     atom    2 type  2   force =     0.00000000    0.00000000   -0.00085573
     atom    3 type  2   force =     0.00000000    0.00000000   -0.00190896
     atom    4 type  3   force =     0.00000000    0.00000000   -0.01224651
     The non-local contrib.  to forces
     atom    1 type  1   force =     0.00000000    0.00000000   -0.05055847
     atom    2 type  2   force =     0.00000000    0.00000000   -0.07444709
     atom    3 type  2   force =     0.00000000    0.00000000    0.26895731
     atom    4 type  3   force =     0.00000000    0.00000000    0.00199572
     The ionic contribution  to forces
     atom    1 type  1   force =     0.00000000   -0.00000000  -31.01411962
     atom    2 type  2   force =    -0.00000000    0.00000000   18.69454889
     atom    3 type  2   force =    -0.00000000    0.00000000  -44.58558200
     atom    4 type  3   force =     0.00000000   -0.00000000   56.90515274
     The local contribution  to forces
     atom    1 type  1   force =     0.00000000   -0.00000000   31.07654099
     atom    2 type  2   force =    -0.00000000    0.00000000  -18.62010669
     atom    3 type  2   force =    -0.00000000    0.00000000   44.31686405
     atom    4 type  3   force =     0.00000000   -0.00000000  -56.91477942
     The core correction contribution to forces
     atom    1 type  1   force =     0.00000000    0.00000000    0.00311557
     atom    2 type  2   force =     0.00000000   -0.00000000   -0.00088926
     atom    3 type  2   force =     0.00000000   -0.00000000   -0.00216477
     atom    4 type  3   force =     0.00000000   -0.00000000   -0.00474817
     The Hubbard contrib.    to forces
     atom    1 type  1   force =     0.00000000    0.00000000    0.00000000
     atom    2 type  2   force =     0.00000000    0.00000000    0.00000000
     atom    3 type  2   force =     0.00000000    0.00000000    0.00000000
     atom    4 type  3   force =     0.00000000    0.00000000    0.00000000
     The SCF correction term to forces
     atom    1 type  1   force =    -0.00000000   -0.00000000    0.00004565
     atom    2 type  2   force =     0.00000000   -0.00000000    0.00005133
     atom    3 type  2   force =     0.00000000    0.00000000    0.00002936
     atom    4 type  3   force =    -0.00000000   -0.00000000    0.00014553

     Total force =     0.019486     Total SCF correction =     0.000164


     Computing stress (Cartesian axis) and pressure


     negative rho (up, down):  2.281E-04 2.064E-04
          total   stress  (Ry/bohr**3)                   (kbar)     P=      -23.41
  -0.00019969  -0.00000000   0.00000000          -29.38       -0.00        0.00
  -0.00000000  -0.00019969   0.00000000           -0.00      -29.38        0.00
   0.00000000   0.00000000  -0.00007803            0.00        0.00      -11.48

     Energy error            =      4.2E-04 Ry
     Gradient error          =      1.5E-02 Ry/Bohr

     number of scf cycles    =   5
     number of bfgs steps    =   4

     energy             old  =    -658.5500279345 Ry
     energy             new  =    -658.5504442781 Ry

     CASE: energy            _new < energy            _old

     new trust radius        =       0.0464531525 bohr
     new conv_thr            =       0.0000000416 Ry


ATOMIC_POSITIONS (crystal)
Mo            0.0000000000        0.0000000000        0.4986894060
S             0.6666666667        0.3333333333        0.5918020342
S             0.6666666667        0.3333333333        0.4132048367
Co            0.3333333333        0.6666666667        0.6939397869



     Writing config-only to output data dir ./tmp/relax.save/
     NEW-OLD atomic charge density approx. for the potential

     negative rho (up, down):  2.248E-04 2.186E-04
     Generating pointlists ...
     new r_m :   0.3394 (alat units)  2.0325 (a.u.) for type    3

     total cpu time spent up to now is      133.5 secs

     Self-consistent Calculation

     iteration #  1     ecut=    80.00 Ry     beta= 0.70
     Davidson diagonalization with overlap
     ethr =  1.00E-06,  avg # of iterations =  8.0

     negative rho (up, down):  2.287E-04 2.103E-04

     total cpu time spent up to now is      136.6 secs

     total energy              =    -658.55076518 Ry
     estimated scf accuracy    <       0.00101621 Ry

     total magnetization       =     2.06 Bohr mag/cell
     absolute magnetization    =     2.19 Bohr mag/cell

     iteration #  2     ecut=    80.00 Ry     beta= 0.70
     Davidson diagonalization with overlap
     ethr =  2.90E-06,  avg # of iterations =  3.4

     negative rho (up, down):  2.278E-04 2.088E-04

     total cpu time spent up to now is      138.4 secs

     total energy              =    -658.55040541 Ry
     estimated scf accuracy    <       0.00297576 Ry

     total magnetization       =     2.07 Bohr mag/cell
     absolute magnetization    =     2.20 Bohr mag/cell

     iteration #  3     ecut=    80.00 Ry     beta= 0.70
     Davidson diagonalization with overlap
     ethr =  2.90E-06,  avg # of iterations =  4.5

     negative rho (up, down):  2.278E-04 2.085E-04

     total cpu time spent up to now is      140.4 secs

     total energy              =    -658.55018462 Ry
     estimated scf accuracy    <       0.01411770 Ry

     total magnetization       =     2.09 Bohr mag/cell
     absolute magnetization    =     2.23 Bohr mag/cell

     iteration #  4     ecut=    80.00 Ry     beta= 0.70
     Davidson diagonalization with overlap
     ethr =  2.90E-06,  avg # of iterations =  3.8

     negative rho (up, down):  2.284E-04 2.081E-04

     total cpu time spent up to now is      142.2 secs

     total energy              =    -658.55081887 Ry
     estimated scf accuracy    <       0.00381121 Ry

     total magnetization       =     2.04 Bohr mag/cell
     absolute magnetization    =     2.16 Bohr mag/cell

     iteration #  5     ecut=    80.00 Ry     beta= 0.70
     Davidson diagonalization with overlap
     ethr =  2.90E-06,  avg # of iterations =  2.2

     negative rho (up, down):  2.289E-04 2.080E-04

     total cpu time spent up to now is      143.9 secs

     total energy              =    -658.55097949 Ry
     estimated scf accuracy    <       0.00049576 Ry

     total magnetization       =     2.06 Bohr mag/cell
     absolute magnetization    =     2.19 Bohr mag/cell

     iteration #  6     ecut=    80.00 Ry     beta= 0.70
     Davidson diagonalization with overlap
     ethr =  1.42E-06,  avg # of iterations =  2.1

     negative rho (up, down):  2.291E-04 2.080E-04

     total cpu time spent up to now is      145.6 secs

     total energy              =    -658.55104049 Ry
     estimated scf accuracy    <       0.00005429 Ry

     total magnetization       =     2.06 Bohr mag/cell
     absolute magnetization    =     2.19 Bohr mag/cell

     iteration #  7     ecut=    80.00 Ry     beta= 0.70
     Davidson diagonalization with overlap
     ethr =  1.55E-07,  avg # of iterations =  2.9

     negative rho (up, down):  2.292E-04 2.081E-04

     total cpu time spent up to now is      147.4 secs

     total energy              =    -658.55105258 Ry
     estimated scf accuracy    <       0.00001754 Ry

     total magnetization       =     2.06 Bohr mag/cell
     absolute magnetization    =     2.19 Bohr mag/cell

     iteration #  8     ecut=    80.00 Ry     beta= 0.70
     Davidson diagonalization with overlap
     ethr =  5.01E-08,  avg # of iterations =  1.9

     negative rho (up, down):  2.292E-04 2.082E-04

     total cpu time spent up to now is      149.1 secs

     total energy              =    -658.55105622 Ry
     estimated scf accuracy    <       0.00000145 Ry

     total magnetization       =     2.06 Bohr mag/cell
     absolute magnetization    =     2.19 Bohr mag/cell

     iteration #  9     ecut=    80.00 Ry     beta= 0.70
     Davidson diagonalization with overlap
     ethr =  4.13E-09,  avg # of iterations =  4.5

     negative rho (up, down):  2.292E-04 2.083E-04

     total cpu time spent up to now is      151.1 secs

     total energy              =    -658.55105748 Ry
     estimated scf accuracy    <       0.00000117 Ry

     total magnetization       =     2.06 Bohr mag/cell
     absolute magnetization    =     2.19 Bohr mag/cell

     iteration # 10     ecut=    80.00 Ry     beta= 0.70
     Davidson diagonalization with overlap
     ethr =  3.34E-09,  avg # of iterations =  3.2

     negative rho (up, down):  2.292E-04 2.082E-04

     total cpu time spent up to now is      152.8 secs

     total energy              =    -658.55105845 Ry
     estimated scf accuracy    <       0.00000066 Ry

     total magnetization       =     2.06 Bohr mag/cell
     absolute magnetization    =     2.19 Bohr mag/cell

     iteration # 11     ecut=    80.00 Ry     beta= 0.70
     Davidson diagonalization with overlap
     ethr =  1.89E-09,  avg # of iterations =  3.6

     negative rho (up, down):  2.292E-04 2.082E-04

     total cpu time spent up to now is      154.6 secs

     total energy              =    -658.55105908 Ry
     estimated scf accuracy    <       0.00000012 Ry

     total magnetization       =     2.06 Bohr mag/cell
     absolute magnetization    =     2.19 Bohr mag/cell

     iteration # 12     ecut=    80.00 Ry     beta= 0.70
     Davidson diagonalization with overlap
     ethr =  3.50E-10,  avg # of iterations =  3.2

     negative rho (up, down):  2.292E-04 2.082E-04
 
     Magnetic moment per site  (integrated on atomic sphere of radius R)
     atom   1 (R=0.313)  charge= 10.7146  magn=  0.0032
     atom   2 (R=0.313)  charge=  4.1127  magn=  0.0366
     atom   3 (R=0.313)  charge=  4.1227  magn=  0.0036
     atom   4 (R=0.339)  charge=  7.4653  magn=  2.0050

     total cpu time spent up to now is      156.4 secs

     End of self-consistent calculation

 ------ SPIN UP ------------


          k = 0.0000 0.0000 0.0000 ( 12991 PWs)   bands (ev):

   -59.6971 -33.8379 -33.6190 -33.6190 -13.3498 -12.1122  -5.1992  -2.5796
    -1.3632  -1.3632  -0.6718  -0.6718  -0.2130  -0.0055  -0.0055   0.2181
     0.2181   0.6897   1.3571   3.3651   3.3651   4.1198

          k = 0.0000 0.0000-0.0871 ( 12974 PWs)   bands (ev):

   -59.6971 -33.8379 -33.6190 -33.6190 -13.3498 -12.1122  -5.1992  -2.5796
    -1.3632  -1.3632  -0.6718  -0.6718  -0.2130  -0.0055  -0.0055   0.2182
     0.2182   0.6897   1.3571   3.3651   3.3651   4.1198

          k = 0.0000 0.1155 0.0000 ( 12953 PWs)   bands (ev):

   -59.6933 -33.8307 -33.6562 -33.6275 -13.2080 -12.0302  -5.0428  -2.5583
    -1.7145  -1.2454  -0.9471  -0.7855  -0.4430  -0.0985   0.1025   0.2568
     0.2586   0.7533   1.4430   3.0782   3.3782   3.8569

          k = 0.0000 0.1155-0.0871 ( 12970 PWs)   bands (ev):

   -59.6933 -33.8307 -33.6562 -33.6275 -13.2080 -12.0302  -5.0428  -2.5583
    -1.7145  -1.2454  -0.9471  -0.7855  -0.4430  -0.0985   0.1025   0.2568
     0.2586   0.7533   1.4430   3.0781   3.3782   3.8569

          k = 0.0000 0.2309 0.0000 ( 12929 PWs)   bands (ev):

   -59.6836 -33.8120 -33.7523 -33.6497 -12.8131 -11.8009  -4.6630  -2.8010
    -2.4337  -1.4406  -1.2133  -0.9311  -0.4789  -0.0882  -0.0180   0.3133
     0.3437   0.5920   1.4719   3.0180   3.2440   3.7790

          k = 0.0000 0.2309-0.0871 ( 12940 PWs)   bands (ev):

   -59.6836 -33.8120 -33.7523 -33.6497 -12.8131 -11.8009  -4.6630  -2.8010
    -2.4337  -1.4406  -1.2133  -0.9311  -0.4789  -0.0882  -0.0180   0.3133
     0.3437   0.5920   1.4719   3.0179   3.2440   3.7791

          k = 0.0000 0.3464 0.0000 ( 12915 PWs)   bands (ev):

   -59.6715 -33.8697 -33.7883 -33.6769 -12.2636 -11.4785  -4.4095  -3.6266
    -3.0014  -1.6909  -1.6538  -0.7442  -0.3604  -0.1511   0.1121   0.1971
     0.4090   0.4995   1.6617   3.1578   3.4497   4.2904

          k = 0.0000 0.3464-0.0871 ( 12918 PWs)   bands (ev):

   -59.6715 -33.8697 -33.7883 -33.6769 -12.2636 -11.4785  -4.4095  -3.6266
    -3.0014  -1.6909  -1.6538  -0.7442  -0.3604  -0.1511   0.1121   0.1971
     0.4090   0.4995   1.6618   3.1578   3.4497   4.2905

          k = 0.0000 0.4619 0.0000 ( 12872 PWs)   bands (ev):

   -59.6617 -33.9628 -33.7693 -33.6989 -11.7508 -11.1641  -4.8230  -4.1411
    -3.3009  -1.9756  -1.8891  -0.6978  -0.3755  -0.1493   0.2462   0.3372
     0.5485   0.6516   2.3500   3.2949   3.9162   4.8525

          k = 0.0000 0.4619-0.0871 ( 12884 PWs)   bands (ev):

   -59.6617 -33.9628 -33.7693 -33.6989 -11.7508 -11.1641  -4.8230  -4.1411
    -3.3009  -1.9756  -1.8891  -0.6978  -0.3755  -0.1493   0.2462   0.3372
     0.5485   0.6516   2.3500   3.2948   3.9161   4.8525

          k = 0.0000-0.5774 0.0000 ( 12854 PWs)   bands (ev):

   -59.6579 -33.9981 -33.7621 -33.7072 -11.5364 -11.0197  -5.1408  -4.3132
    -3.3674  -2.0898  -1.9872  -0.6976  -0.4033  -0.1484   0.4285   0.4418
     0.6162   0.7020   3.0095   3.4257   3.8784   4.9384

          k = 0.0000-0.5774-0.0871 ( 12864 PWs)   bands (ev):

   -59.6579 -33.9981 -33.7621 -33.7072 -11.5364 -11.0197  -5.1408  -4.3132
    -3.3674  -2.0898  -1.9872  -0.6976  -0.4033  -0.1484   0.4285   0.4418
     0.6162   0.7020   3.0095   3.4257   3.8784   4.9384

          k = 0.1000 0.1732 0.0000 ( 12937 PWs)   bands (ev):

   -59.6866 -33.8178 -33.7201 -33.6455 -12.9393 -11.8741  -4.7696  -2.6376
    -2.2295  -1.3865  -1.1582  -0.9711  -0.5160  -0.1527   0.1246   0.2275
     0.3822   0.7071   1.5065   2.8518   3.3386   3.6454

          k = 0.1000 0.1732-0.0871 ( 12920 PWs)   bands (ev):

   -59.6866 -33.8178 -33.7201 -33.6455 -12.9393 -11.8741  -4.7696  -2.6376
    -2.2295  -1.3865  -1.1582  -0.9711  -0.5160  -0.1527   0.1246   0.2275
     0.3822   0.7071   1.5065   2.8518   3.3386   3.6454

          k = 0.1000 0.2887 0.0000 ( 12944 PWs)   bands (ev):

   -59.6757 -33.8208 -33.7960 -33.6768 -12.4640 -11.5954  -4.4093  -3.2198
    -2.7638  -2.0075  -1.3150  -0.8989  -0.4631  -0.1286   0.1227   0.3161
     0.3656   0.5172   1.5471   2.9005   3.4787   3.7859

          k = 0.1000 0.2887-0.0871 ( 12926 PWs)   bands (ev):

   -59.6757 -33.8208 -33.7960 -33.6768 -12.4640 -11.5954  -4.4093  -3.2198
    -2.7638  -2.0075  -1.3150  -0.8989  -0.4631  -0.1286   0.1227   0.3161
     0.3656   0.5172   1.5471   2.9005   3.4787   3.7860

          k = 0.1000 0.4041 0.0000 ( 12898 PWs)   bands (ev):

   -59.6647 -33.9186 -33.7752 -33.7083 -11.9218 -11.2677  -4.4791  -3.8703
    -3.2587  -2.2528  -1.5742  -0.9598  -0.3818  -0.1214   0.0759   0.3742
     0.4304   0.6456   1.9181   3.2998   3.7913   4.2921

          k = 0.1000 0.4041-0.0871 ( 12884 PWs)   bands (ev):

   -59.6647 -33.9186 -33.7752 -33.7083 -11.9218 -11.2677  -4.4791  -3.8703
    -3.2587  -2.2528  -1.5742  -0.9598  -0.3818  -0.1214   0.0759   0.3742
     0.4304   0.6456   1.9182   3.2998   3.7913   4.2921

          k = 0.1000 0.5196 0.0000 ( 12858 PWs)   bands (ev):

   -59.6579 -33.9785 -33.7621 -33.7277 -11.5449 -11.0198  -4.9422  -4.2135
    -3.4092  -2.2688  -1.9045  -0.9908  -0.4073  -0.1369   0.2239   0.4665
     0.5656   0.7678   2.7402   3.5689   4.0380   4.4988

          k = 0.1000 0.5196-0.0871 ( 12862 PWs)   bands (ev):

   -59.6579 -33.9785 -33.7621 -33.7277 -11.5449 -11.0198  -4.9422  -4.2135
    -3.4092  -2.2688  -1.9045  -0.9908  -0.4073  -0.1369   0.2239   0.4665
     0.5656   0.7678   2.7402   3.5689   4.0380   4.4988

          k = 0.2000 0.3464 0.0000 ( 12917 PWs)   bands (ev):

   -59.6659 -33.8894 -33.7774 -33.7245 -11.9877 -11.3042  -4.2883  -3.5596
    -3.3093  -2.4849  -1.5920  -1.0519  -0.4928  -0.0848   0.1430   0.3247
     0.4095   0.6530   1.7375   3.2904   3.7192   3.9480

          k = 0.2000 0.3464-0.0871 ( 12918 PWs)   bands (ev):

   -59.6659 -33.8894 -33.7774 -33.7245 -11.9877 -11.3042  -4.2883  -3.5596
    -3.3093  -2.4850  -1.5920  -1.0519  -0.4928  -0.0848   0.1430   0.3247
     0.4095   0.6530   1.7375   3.2903   3.7191   3.9480

          k = 0.2000 0.4619 0.0000 ( 12869 PWs)   bands (ev):

   -59.6579 -33.9374 -33.7703 -33.7621 -11.5588 -11.0195  -4.5423  -3.9771
    -3.4979  -2.6030  -1.9995  -1.3360  -0.4518  -0.0573   0.2051   0.3875
     0.4581   0.7874   2.3724   3.6286   4.0464   4.2599

          k = 0.2000 0.4619-0.0871 ( 12868 PWs)   bands (ev):

   -59.6579 -33.9374 -33.7703 -33.7621 -11.5588 -11.0195  -4.5423  -3.9771
    -3.4979  -2.6030  -1.9995  -1.3360  -0.4518  -0.0573   0.2051   0.3875
     0.4581   0.7874   2.3724   3.6286   4.0464   4.2599

          k = 0.2000 0.5774 0.0000 ( 12850 PWs)   bands (ev):

   -59.6549 -33.9542 -33.7891 -33.7562 -11.3846 -10.8911  -4.7228  -4.1658
    -3.5451  -2.5033  -2.2595  -1.4813  -0.4451  -0.0577   0.2717   0.4419
     0.4883   0.9023   3.0262   3.4139   3.9618   4.6363

          k = 0.2000 0.5774-0.0871 ( 12850 PWs)   bands (ev):

   -59.6549 -33.9542 -33.7891 -33.7562 -11.3846 -10.8911  -4.7228  -4.1658
    -3.5451  -2.5033  -2.2595  -1.4813  -0.4451  -0.0577   0.2717   0.4419
     0.4883   0.9023   3.0262   3.4139   3.9618   4.6363

          k = 0.3000 0.5196 0.0000 ( 12860 PWs)   bands (ev):

   -59.6537 -33.9195 -33.8383 -33.7540 -11.3250 -10.8399  -4.5287  -4.0624
    -3.4630  -3.0894  -2.3266  -1.5966  -0.4364   0.0008   0.3356   0.3708
     0.4370   0.9755   2.8784   3.2766   3.9993   5.1599

          k = 0.3000 0.5196-0.0871 ( 12870 PWs)   bands (ev):

   -59.6537 -33.9195 -33.8383 -33.7540 -11.3250 -10.8399  -4.5287  -4.0624
    -3.4630  -3.0894  -2.3266  -1.5966  -0.4364   0.0008   0.3356   0.3708
     0.4370   0.9755   2.8784   3.2766   3.9993   5.1599

 ------ SPIN DOWN ----------


          k = 0.0000 0.0000 0.0000 ( 12991 PWs)   bands (ev):

   -59.6951 -33.8465 -33.6110 -33.6110 -13.3176 -12.0998  -5.1536  -2.4954
    -1.3039  -1.3039  -0.2978  -0.2978   0.2806   1.1040   1.5654   1.5654
     1.7810   2.1645   2.1645   3.7467   3.7468   4.1292

          k = 0.0000 0.0000-0.0871 ( 12974 PWs)   bands (ev):

   -59.6951 -33.8465 -33.6110 -33.6110 -13.3176 -12.0998  -5.1536  -2.4954
    -1.3039  -1.3039  -0.2978  -0.2978   0.2806   1.1040   1.5654   1.5654
     1.7809   2.1645   2.1645   3.7467   3.7468   4.1292

          k = 0.0000 0.1155 0.0000 ( 12953 PWs)   bands (ev):

   -59.6914 -33.8394 -33.6481 -33.6195 -13.1750 -12.0180  -4.9949  -2.4919
    -1.6499  -1.1703  -0.6927  -0.5351   0.4536   0.9985   1.5167   1.6201
     1.6241   2.1720   2.4940   3.4382   3.7468   3.8720

          k = 0.0000 0.1155-0.0871 ( 12970 PWs)   bands (ev):

   -59.6914 -33.8394 -33.6481 -33.6195 -13.1750 -12.0180  -4.9949  -2.4919
    -1.6499  -1.1703  -0.6927  -0.5351   0.4536   0.9985   1.5167   1.6201
     1.6241   2.1720   2.4940   3.4382   3.7468   3.8720

          k = 0.0000 0.2309 0.0000 ( 12929 PWs)   bands (ev):

   -59.6817 -33.8207 -33.7441 -33.6416 -12.7772 -11.7896  -4.6082  -2.7531
    -2.3699  -1.2290  -1.0689  -0.8034   0.5014   0.6328   1.4772   1.5784
     1.7657   2.1863   2.6633   3.3543   3.5887   3.8239

          k = 0.0000 0.2309-0.0871 ( 12940 PWs)   bands (ev):

   -59.6817 -33.8207 -33.7441 -33.6416 -12.7772 -11.7896  -4.6082  -2.7531
    -2.3699  -1.2290  -1.0689  -0.8034   0.5014   0.6328   1.4772   1.5784
     1.7657   2.1863   2.6633   3.3542   3.5887   3.8241

          k = 0.0000 0.3464 0.0000 ( 12915 PWs)   bands (ev):

   -59.6696 -33.8614 -33.7970 -33.6689 -12.2223 -11.4693  -4.3581  -3.5388
    -2.9600  -1.5554  -1.5330  -0.4478   0.1243   0.8080   1.5077   1.6644
     1.9391   2.3169   2.5432   3.4487   3.6960   4.4881

          k = 0.0000 0.3464-0.0871 ( 12918 PWs)   bands (ev):

   -59.6696 -33.8614 -33.7970 -33.6689 -12.2223 -11.4693  -4.3581  -3.5388
    -2.9600  -1.5554  -1.5330  -0.4478   0.1243   0.8080   1.5077   1.6644
     1.9391   2.3169   2.5432   3.4487   3.6960   4.4882

          k = 0.0000 0.4619 0.0000 ( 12872 PWs)   bands (ev):

   -59.6598 -33.9543 -33.7782 -33.6908 -11.7022 -11.1579  -4.7871  -4.0617
    -3.2320  -1.8933  -1.7395  -0.2413   0.1047   0.9045   1.7204   2.0134
     2.0933   2.5582   2.7461   3.4428   3.9952   5.0585

          k = 0.0000 0.4619-0.0871 ( 12884 PWs)   bands (ev):

   -59.6598 -33.9543 -33.7782 -33.6908 -11.7022 -11.1579  -4.7871  -4.0617
    -3.2320  -1.8933  -1.7395  -0.2413   0.1047   0.9045   1.7204   2.0134
     2.0933   2.5581   2.7461   3.4428   3.9952   5.0585

          k = 0.0000-0.5774 0.0000 ( 12854 PWs)   bands (ev):

   -59.6561 -33.9895 -33.7709 -33.6991 -11.4843 -11.0147  -5.1060  -4.2492
    -3.2882  -2.0117  -1.8228  -0.1896   0.2231   0.8923   1.7692   2.1584
     2.2457   2.6723   3.2549   3.4955   3.9079   5.0875

          k = 0.0000-0.5774-0.0871 ( 12864 PWs)   bands (ev):

   -59.6561 -33.9895 -33.7709 -33.6991 -11.4843 -11.0147  -5.1060  -4.2492
    -3.2882  -2.0117  -1.8228  -0.1896   0.2231   0.8923   1.7692   2.1584
     2.2457   2.6723   3.2549   3.4955   3.9079   5.0875

          k = 0.1000 0.1732 0.0000 ( 12937 PWs)   bands (ev):

   -59.6847 -33.8264 -33.7120 -33.6375 -12.9044 -11.8625  -4.7168  -2.5941
    -2.1578  -1.2495  -0.9483  -0.8268   0.5542   0.7505   1.4929   1.5066
     1.7662   2.1719   2.8343   3.0801   3.6310   3.7226

          k = 0.1000 0.1732-0.0871 ( 12920 PWs)   bands (ev):

   -59.6847 -33.8264 -33.7120 -33.6375 -12.9044 -11.8625  -4.7168  -2.5941
    -2.1578  -1.2495  -0.9483  -0.8268   0.5542   0.7505   1.4929   1.5066
     1.7662   2.1719   2.8343   3.0801   3.6310   3.7225

          k = 0.1000 0.2887 0.0000 ( 12944 PWs)   bands (ev):

   -59.6738 -33.8135 -33.8037 -33.6687 -12.4249 -11.5852  -4.3506  -3.1459
    -2.7139  -1.9396  -1.0454  -0.7474   0.3544   0.6936   1.4096   1.5625
     1.9620   2.2571   2.7100   3.1763   3.7626   3.8773

          k = 0.1000 0.2887-0.0871 ( 12926 PWs)   bands (ev):

   -59.6738 -33.8135 -33.8037 -33.6687 -12.4249 -11.5852  -4.3506  -3.1459
    -2.7139  -1.9396  -1.0454  -0.7474   0.3544   0.6936   1.4096   1.5625
     1.9621   2.2571   2.7100   3.1763   3.7626   3.8774

          k = 0.1000 0.4041 0.0000 ( 12898 PWs)   bands (ev):

   -59.6628 -33.9102 -33.7840 -33.7001 -11.8760 -11.2603  -4.4393  -3.7755
    -3.1981  -2.1919  -1.3687  -0.7777   0.2389   0.9605   1.5551   1.7079
     2.0778   2.4688   2.6966   3.4478   3.9715   4.4369

          k = 0.1000 0.4041-0.0871 ( 12884 PWs)   bands (ev):

   -59.6628 -33.9102 -33.7840 -33.7001 -11.8760 -11.2603  -4.4393  -3.7755
    -3.1981  -2.1919  -1.3687  -0.7777   0.2389   0.9605   1.5551   1.7079
     2.0778   2.4688   2.6966   3.4478   3.9715   4.4369

          k = 0.1000 0.5196 0.0000 ( 12858 PWs)   bands (ev):

   -59.6561 -33.9700 -33.7709 -33.7195 -11.4931 -11.0147  -4.9046  -4.1544
    -3.3161  -2.1989  -1.7156  -0.8178   0.4219   0.9834   1.7796   1.9520
     2.1831   2.7230   2.9880   3.6990   4.1097   4.6106

          k = 0.1000 0.5196-0.0871 ( 12862 PWs)   bands (ev):

   -59.6561 -33.9700 -33.7709 -33.7195 -11.4931 -11.0147  -4.9046  -4.1544
    -3.3162  -2.1989  -1.7156  -0.8178   0.4219   0.9834   1.7796   1.9520
     2.1831   2.7230   2.9880   3.6990   4.1097   4.6106

          k = 0.2000 0.3464 0.0000 ( 12917 PWs)   bands (ev):

   -59.6640 -33.8810 -33.7862 -33.7164 -11.9429 -11.2964  -4.2421  -3.4208
    -3.2910  -2.4234  -1.4453  -0.8640   0.2480   0.9875   1.3626   1.6596
     2.0764   2.4518   2.7585   3.4474   3.8510   4.1232

          k = 0.2000 0.3464-0.0871 ( 12918 PWs)   bands (ev):

   -59.6640 -33.8810 -33.7862 -33.7164 -11.9429 -11.2964  -4.2421  -3.4208
    -3.2910  -2.4234  -1.4453  -0.8640   0.2480   0.9875   1.3626   1.6596
     2.0764   2.4518   2.7585   3.4474   3.8510   4.1232

          k = 0.2000 0.4619 0.0000 ( 12869 PWs)   bands (ev):

   -59.6561 -33.9289 -33.7710 -33.7620 -11.5076 -11.0142  -4.4992  -3.9387
    -3.3617  -2.5088  -1.9264  -1.2130   0.4391   1.2043   1.5302   1.8175
     2.1014   2.6459   2.9065   3.7495   4.0976   4.4642

          k = 0.2000 0.4619-0.0871 ( 12868 PWs)   bands (ev):

   -59.6561 -33.9289 -33.7710 -33.7620 -11.5076 -11.0142  -4.4992  -3.9387
    -3.3617  -2.5088  -1.9264  -1.2130   0.4391   1.2043   1.5302   1.8175
     2.1014   2.6459   2.9065   3.7495   4.0976   4.4642

          k = 0.2000 0.5774 0.0000 ( 12850 PWs)   bands (ev):

   -59.6530 -33.9457 -33.7809 -33.7651 -11.3308 -10.8864  -4.6782  -4.1394
    -3.4076  -2.3517  -2.2065  -1.4204   0.6469   1.1877   1.7424   1.8386
     2.1338   2.7268   3.1700   3.6177   4.1280   4.7857

          k = 0.2000 0.5774-0.0871 ( 12850 PWs)   bands (ev):

   -59.6530 -33.9457 -33.7809 -33.7651 -11.3308 -10.8864  -4.6782  -4.1394
    -3.4076  -2.3517  -2.2065  -1.4204   0.6469   1.1877   1.7424   1.8386
     2.1338   2.7268   3.1700   3.6177   4.1280   4.7857

          k = 0.3000 0.5196 0.0000 ( 12860 PWs)   bands (ev):

   -59.6519 -33.9110 -33.8300 -33.7629 -11.2705 -10.8352  -4.4905  -4.0237
    -3.2921  -3.0151  -2.2820  -1.5120   0.7386   1.3900   1.5361   1.8723
     2.1208   2.6858   3.0318   3.4294   4.2281   5.3593

          k = 0.3000 0.5196-0.0871 ( 12870 PWs)   bands (ev):

   -59.6519 -33.9110 -33.8300 -33.7629 -11.2705 -10.8352  -4.4905  -4.0237
    -3.2921  -3.0151  -2.2820  -1.5120   0.7386   1.3900   1.5361   1.8723
     2.1208   2.6858   3.0318   3.4294   4.2281   5.3593

     the Fermi energy is     2.0528 ev

!    total energy              =    -658.55105913 Ry
     total all-electron energy =    -12481.724950 Ry
     estimated scf accuracy    <       0.00000003 Ry
     smearing contrib. (-TS)   =      -0.00782595 Ry
     internal energy E=F+TS    =    -658.54323318 Ry

     The total energy is F=E-TS. E is the sum of the following terms:
     one-electron contribution =   -1228.63458406 Ry
     hartree contribution      =     628.00595336 Ry
     xc contribution           =     -62.25611164 Ry
     ewald contribution        =     410.48992939 Ry
     one-center paw contrib.   =    -406.14842022 Ry

     total magnetization       =     2.06 Bohr mag/cell
     absolute magnetization    =     2.19 Bohr mag/cell

     convergence has been achieved in  12 iterations

     negative rho (up, down):  2.292E-04 2.082E-04

     Forces acting on atoms (cartesian axes, Ry/au):

     atom    1 type  1   force =     0.00000000    0.00000000    0.01622088
     atom    2 type  2   force =     0.00000000    0.00000000   -0.00325364
     atom    3 type  2   force =     0.00000000    0.00000000    0.00031537
     atom    4 type  3   force =     0.00000000    0.00000000   -0.01328260
     The non-local contrib.  to forces
     atom    1 type  1   force =     0.00000000   -0.00000000   -0.05548687
     atom    2 type  2   force =     0.00000000    0.00000000   -0.06874141
     atom    3 type  2   force =     0.00000000    0.00000000    0.26962996
     atom    4 type  3   force =     0.00000000    0.00000000    0.01177996
     The ionic contribution  to forces
     atom    1 type  1   force =     0.00000000   -0.00000000  -31.17232839
     atom    2 type  2   force =    -0.00000000    0.00000000   18.64433251
     atom    3 type  2   force =    -0.00000000    0.00000000  -44.62185856
     atom    4 type  3   force =     0.00000000   -0.00000000   57.14985444
     The local contribution  to forces
     atom    1 type  1   force =     0.00000000   -0.00000000   31.24056765
     atom    2 type  2   force =    -0.00000000    0.00000000  -18.57820407
     atom    3 type  2   force =    -0.00000000    0.00000000   44.35477600
     atom    4 type  3   force =     0.00000000   -0.00000000  -57.16946521
     The core correction contribution to forces
     atom    1 type  1   force =    -0.00000000   -0.00000000    0.00339111
     atom    2 type  2   force =     0.00000000   -0.00000000   -0.00082792
     atom    3 type  2   force =     0.00000000   -0.00000000   -0.00219581
     atom    4 type  3   force =     0.00000000   -0.00000000   -0.00574201
     The Hubbard contrib.    to forces
     atom    1 type  1   force =     0.00000000    0.00000000    0.00000000
     atom    2 type  2   force =     0.00000000    0.00000000    0.00000000
     atom    3 type  2   force =     0.00000000    0.00000000    0.00000000
     atom    4 type  3   force =     0.00000000    0.00000000    0.00000000
     The SCF correction term to forces
     atom    1 type  1   force =    -0.00000000   -0.00000000    0.00010456
     atom    2 type  2   force =    -0.00000000   -0.00000000    0.00021444
     atom    3 type  2   force =    -0.00000000   -0.00000000   -0.00000904
     atom    4 type  3   force =     0.00000000    0.00000000    0.00031740

     Total force =     0.021219     Total SCF correction =     0.000397


     Computing stress (Cartesian axis) and pressure


     negative rho (up, down):  2.292E-04 2.082E-04
          total   stress  (Ry/bohr**3)                   (kbar)     P=      -25.06
  -0.00020618   0.00000000   0.00000000          -30.33        0.00        0.00
   0.00000000  -0.00020618   0.00000000            0.00      -30.33        0.00
   0.00000000   0.00000000  -0.00009867            0.00        0.00      -14.51

     Energy error            =      6.1E-04 Ry
     Gradient error          =      1.6E-02 Ry/Bohr

     number of scf cycles    =   6
     number of bfgs steps    =   5

     energy             old  =    -658.5504442781 Ry
     energy             new  =    -658.5510591251 Ry

     CASE: energy            _new < energy            _old

     new trust radius        =       0.0696797288 bohr
     new conv_thr            =       0.0000000615 Ry


ATOMIC_POSITIONS (crystal)
Mo            0.0000000000        0.0000000000        0.4989887196
S             0.6666666667        0.3333333333        0.5933124766
S             0.6666666667        0.3333333333        0.4134221794
Co            0.3333333333        0.6666666667        0.6919126882



     Writing config-only to output data dir ./tmp/relax.save/
     NEW-OLD atomic charge density approx. for the potential

     negative rho (up, down):  2.377E-04 2.226E-04
     Generating pointlists ...
     new r_m :   0.3335 (alat units)  1.9970 (a.u.) for type    3

     total cpu time spent up to now is      159.5 secs

     Self-consistent Calculation

     iteration #  1     ecut=    80.00 Ry     beta= 0.70
     Davidson diagonalization with overlap
     ethr =  1.00E-06,  avg # of iterations =  9.5

     negative rho (up, down):  2.352E-04 2.148E-04

     total cpu time spent up to now is      162.9 secs

     total energy              =    -658.55113547 Ry
     estimated scf accuracy    <       0.00246643 Ry

     total magnetization       =     2.02 Bohr mag/cell
     absolute magnetization    =     2.16 Bohr mag/cell

     iteration #  2     ecut=    80.00 Ry     beta= 0.70
     Davidson diagonalization with overlap
     ethr =  7.05E-06,  avg # of iterations =  4.6

     negative rho (up, down):  2.342E-04 2.138E-04

     total cpu time spent up to now is      164.9 secs

     total energy              =    -658.54702092 Ry
     estimated scf accuracy    <       0.06173465 Ry

     total magnetization       =     2.12 Bohr mag/cell
     absolute magnetization    =     2.30 Bohr mag/cell

     iteration #  3     ecut=    80.00 Ry     beta= 0.70
     Davidson diagonalization with overlap
     ethr =  7.05E-06,  avg # of iterations =  5.7

     negative rho (up, down):  2.318E-04 2.115E-04

     total cpu time spent up to now is      167.0 secs

     total energy              =    -658.54920026 Ry
     estimated scf accuracy    <       0.06077175 Ry

     total magnetization       =     1.95 Bohr mag/cell
     absolute magnetization    =     2.09 Bohr mag/cell

     iteration #  4     ecut=    80.00 Ry     beta= 0.70
     Davidson diagonalization with overlap
     ethr =  7.05E-06,  avg # of iterations =  4.9

     negative rho (up, down):  2.304E-04 2.109E-04

     total cpu time spent up to now is      169.0 secs

     total energy              =    -658.55176455 Ry
     estimated scf accuracy    <       0.00127106 Ry

     total magnetization       =     2.02 Bohr mag/cell
     absolute magnetization    =     2.17 Bohr mag/cell

     iteration #  5     ecut=    80.00 Ry     beta= 0.70
     Davidson diagonalization with overlap
     ethr =  3.63E-06,  avg # of iterations =  2.6

     negative rho (up, down):  2.303E-04 2.111E-04

     total cpu time spent up to now is      170.8 secs

     total energy              =    -658.55188044 Ry
     estimated scf accuracy    <       0.00095467 Ry

     total magnetization       =     2.02 Bohr mag/cell
     absolute magnetization    =     2.17 Bohr mag/cell

     iteration #  6     ecut=    80.00 Ry     beta= 0.70
     Davidson diagonalization with overlap
     ethr =  2.73E-06,  avg # of iterations =  2.2

     negative rho (up, down):  2.305E-04 2.113E-04

     total cpu time spent up to now is      172.5 secs

     total energy              =    -658.55200466 Ry
     estimated scf accuracy    <       0.00014638 Ry

     total magnetization       =     2.02 Bohr mag/cell
     absolute magnetization    =     2.17 Bohr mag/cell

     iteration #  7     ecut=    80.00 Ry     beta= 0.70
     Davidson diagonalization with overlap
     ethr =  4.18E-07,  avg # of iterations =  2.3

     negative rho (up, down):  2.307E-04 2.115E-04

     total cpu time spent up to now is      174.2 secs

     total energy              =    -658.55203939 Ry
     estimated scf accuracy    <       0.00003696 Ry

     total magnetization       =     2.02 Bohr mag/cell
     absolute magnetization    =     2.17 Bohr mag/cell

     iteration #  8     ecut=    80.00 Ry     beta= 0.70
     Davidson diagonalization with overlap
     ethr =  1.06E-07,  avg # of iterations =  2.0

     negative rho (up, down):  2.308E-04 2.117E-04

     total cpu time spent up to now is      175.9 secs

     total energy              =    -658.55204950 Ry
     estimated scf accuracy    <       0.00000717 Ry

     total magnetization       =     2.02 Bohr mag/cell
     absolute magnetization    =     2.17 Bohr mag/cell

     iteration #  9     ecut=    80.00 Ry     beta= 0.70
     Davidson diagonalization with overlap
     ethr =  2.05E-08,  avg # of iterations =  3.5

     negative rho (up, down):  2.309E-04 2.119E-04

     total cpu time spent up to now is      177.7 secs

     total energy              =    -658.55205163 Ry
     estimated scf accuracy    <       0.00000318 Ry

     total magnetization       =     2.02 Bohr mag/cell
     absolute magnetization    =     2.17 Bohr mag/cell

     iteration # 10     ecut=    80.00 Ry     beta= 0.70
     Davidson diagonalization with overlap
     ethr =  9.09E-09,  avg # of iterations =  4.4

     negative rho (up, down):  2.308E-04 2.119E-04

     total cpu time spent up to now is      179.7 secs

     total energy              =    -658.55206194 Ry
     estimated scf accuracy    <       0.00000111 Ry

     total magnetization       =     2.01 Bohr mag/cell
     absolute magnetization    =     2.17 Bohr mag/cell

     iteration # 11     ecut=    80.00 Ry     beta= 0.70
     Davidson diagonalization with overlap
     ethr =  3.17E-09,  avg # of iterations =  4.8

     negative rho (up, down):  2.307E-04 2.119E-04

     total cpu time spent up to now is      181.6 secs

     total energy              =    -658.55206605 Ry
     estimated scf accuracy    <       0.00000045 Ry

     total magnetization       =     2.01 Bohr mag/cell
     absolute magnetization    =     2.17 Bohr mag/cell

     iteration # 12     ecut=    80.00 Ry     beta= 0.70
     Davidson diagonalization with overlap
     ethr =  1.28E-09,  avg # of iterations =  2.4

     negative rho (up, down):  2.307E-04 2.119E-04
 
     Magnetic moment per site  (integrated on atomic sphere of radius R)
     atom   1 (R=0.313)  charge= 10.7119  magn= -0.0086
     atom   2 (R=0.313)  charge=  4.1131  magn=  0.0378
     atom   3 (R=0.313)  charge=  4.1205  magn=  0.0059
     atom   4 (R=0.334)  charge=  7.4167  magn=  1.9704

     total cpu time spent up to now is      183.4 secs

     End of self-consistent calculation

 ------ SPIN UP ------------


          k = 0.0000 0.0000 0.0000 ( 12991 PWs)   bands (ev):

   -59.6589 -33.7998 -33.5774 -33.5774 -13.3514 -12.1151  -5.1872  -2.6033
    -1.3136  -1.3136  -0.6810  -0.6810  -0.1741   0.0966   0.0966   0.1962
     0.1962   0.7132   1.3879   3.3503   3.3503   4.1495

          k = 0.0000 0.0000-0.0871 ( 12974 PWs)   bands (ev):

   -59.6589 -33.7998 -33.5774 -33.5774 -13.3514 -12.1151  -5.1872  -2.6033
    -1.3136  -1.3136  -0.6810  -0.6810  -0.1741   0.0966   0.0966   0.1962
     0.1962   0.7132   1.3879   3.3503   3.3503   4.1495

          k = 0.0000 0.1155 0.0000 ( 12953 PWs)   bands (ev):

   -59.6552 -33.7927 -33.6144 -33.5859 -13.2107 -12.0307  -5.0316  -2.5763
    -1.6699  -1.2063  -0.9574  -0.7831  -0.3897  -0.0107   0.0927   0.2471
     0.2967   0.7873   1.4962   3.0622   3.3594   3.8912

          k = 0.0000 0.1155-0.0871 ( 12970 PWs)   bands (ev):

   -59.6552 -33.7927 -33.6144 -33.5859 -13.2107 -12.0307  -5.0316  -2.5763
    -1.6699  -1.2064  -0.9574  -0.7831  -0.3897  -0.0107   0.0927   0.2470
     0.2967   0.7873   1.4962   3.0621   3.3594   3.8912

          k = 0.0000 0.2309 0.0000 ( 12929 PWs)   bands (ev):

   -59.6455 -33.7741 -33.7101 -33.6080 -12.8186 -11.7950  -4.6520  -2.7961
    -2.4164  -1.4689  -1.2100  -0.8967  -0.4393  -0.0371   0.0009   0.3323
     0.3489   0.6232   1.5497   3.0193   3.2361   3.8135

          k = 0.0000 0.2309-0.0871 ( 12940 PWs)   bands (ev):

   -59.6455 -33.7741 -33.7101 -33.6080 -12.8186 -11.7950  -4.6520  -2.7961
    -2.4164  -1.4689  -1.2100  -0.8967  -0.4393  -0.0371   0.0009   0.3323
     0.3489   0.6232   1.5498   3.0192   3.2361   3.8135

          k = 0.0000 0.3464 0.0000 ( 12915 PWs)   bands (ev):

   -59.6334 -33.8270 -33.7505 -33.6352 -12.2717 -11.4634  -4.3856  -3.6527
    -2.9933  -1.7165  -1.6328  -0.7443  -0.3344  -0.1429   0.1982   0.2342
     0.4205   0.5003   1.7260   3.1681   3.4835   4.3186

          k = 0.0000 0.3464-0.0871 ( 12918 PWs)   bands (ev):

   -59.6334 -33.8270 -33.7505 -33.6352 -12.2717 -11.4634  -4.3856  -3.6527
    -2.9933  -1.7165  -1.6328  -0.7443  -0.3344  -0.1429   0.1982   0.2342
     0.4205   0.5003   1.7260   3.1681   3.4834   4.3187

          k = 0.0000 0.4619 0.0000 ( 12872 PWs)   bands (ev):

   -59.6237 -33.9197 -33.7318 -33.6570 -11.7593 -11.1407  -4.8228  -4.1626
    -3.2906  -1.9488  -1.9121  -0.7117  -0.3794  -0.0873   0.2848   0.4084
     0.5382   0.6645   2.3779   3.3258   3.9555   4.8803

          k = 0.0000 0.4619-0.0871 ( 12884 PWs)   bands (ev):

   -59.6237 -33.9197 -33.7318 -33.6570 -11.7593 -11.1407  -4.8228  -4.1626
    -3.2906  -1.9488  -1.9121  -0.7117  -0.3794  -0.0873   0.2848   0.4084
     0.5382   0.6645   2.3779   3.3258   3.9555   4.8803

          k = 0.0000-0.5774 0.0000 ( 12854 PWs)   bands (ev):

   -59.6199 -33.9548 -33.7246 -33.6654 -11.5437 -10.9933  -5.1588  -4.3252
    -3.3506  -2.0614  -2.0122  -0.7152  -0.4101  -0.0814   0.4817   0.4996
     0.6063   0.7119   2.9917   3.4679   3.9027   4.9813

          k = 0.0000-0.5774-0.0871 ( 12864 PWs)   bands (ev):

   -59.6199 -33.9548 -33.7246 -33.6654 -11.5437 -10.9933  -5.1588  -4.3252
    -3.3506  -2.0614  -2.0122  -0.7152  -0.4101  -0.0814   0.4817   0.4996
     0.6063   0.7119   2.9917   3.4679   3.9027   4.9813

          k = 0.1000 0.1732 0.0000 ( 12937 PWs)   bands (ev):

   -59.6485 -33.7798 -33.6780 -33.6039 -12.9440 -11.8703  -4.7592  -2.6406
    -2.2006  -1.3902  -1.1691  -0.9398  -0.4696  -0.1011   0.1358   0.2211
     0.4103   0.7416   1.5889   2.8339   3.3336   3.6826

          k = 0.1000 0.1732-0.0871 ( 12920 PWs)   bands (ev):

   -59.6485 -33.7798 -33.6780 -33.6039 -12.9440 -11.8703  -4.7592  -2.6406
    -2.2006  -1.3902  -1.1691  -0.9398  -0.4696  -0.1011   0.1358   0.2211
     0.4103   0.7416   1.5889   2.8339   3.3336   3.6826

          k = 0.1000 0.2887 0.0000 ( 12944 PWs)   bands (ev):

   -59.6376 -33.7786 -33.7580 -33.6350 -12.4714 -11.5837  -4.3934  -3.2271
    -2.7579  -1.9876  -1.3518  -0.8823  -0.4324  -0.1135   0.1636   0.3240
     0.4115   0.5398   1.6251   2.9003   3.5032   3.8180

          k = 0.1000 0.2887-0.0871 ( 12926 PWs)   bands (ev):

   -59.6376 -33.7786 -33.7580 -33.6350 -12.4714 -11.5837  -4.3934  -3.2271
    -2.7579  -1.9876  -1.3518  -0.8823  -0.4324  -0.1135   0.1636   0.3240
     0.4115   0.5398   1.6251   2.9003   3.5032   3.8180

          k = 0.1000 0.4041 0.0000 ( 12898 PWs)   bands (ev):

   -59.6267 -33.8757 -33.7376 -33.6664 -11.9307 -11.2471  -4.4596  -3.9027
    -3.2509  -2.2364  -1.6037  -0.9581  -0.3636  -0.0931   0.1247   0.4079
     0.4578   0.6615   1.9579   3.3240   3.8386   4.3112

          k = 0.1000 0.4041-0.0871 ( 12884 PWs)   bands (ev):

   -59.6267 -33.8757 -33.7376 -33.6664 -11.9307 -11.2471  -4.4596  -3.9027
    -3.2509  -2.2364  -1.6037  -0.9581  -0.3636  -0.0931   0.1247   0.4079
     0.4578   0.6616   1.9579   3.3240   3.8386   4.3112

          k = 0.1000 0.5196 0.0000 ( 12858 PWs)   bands (ev):

   -59.6199 -33.9353 -33.7246 -33.6857 -11.5526 -10.9939  -4.9586  -4.2189
    -3.3962  -2.2572  -1.9317  -1.0031  -0.3932  -0.0917   0.3037   0.4935
     0.5632   0.7869   2.7382   3.5991   4.0724   4.4950

          k = 0.1000 0.5196-0.0871 ( 12862 PWs)   bands (ev):

   -59.6199 -33.9353 -33.7246 -33.6857 -11.5526 -10.9939  -4.9586  -4.2189
    -3.3962  -2.2572  -1.9317  -1.0031  -0.3932  -0.0917   0.3037   0.4935
     0.5632   0.7869   2.7382   3.5991   4.0724   4.4950

          k = 0.2000 0.3464 0.0000 ( 12917 PWs)   bands (ev):

   -59.6278 -33.8466 -33.7398 -33.6826 -11.9966 -11.2849  -4.2614  -3.6077
    -3.2871  -2.4754  -1.6168  -1.0491  -0.4605  -0.0862   0.1492   0.3922
     0.4539   0.6736   1.7786   3.3135   3.7572   3.9807

          k = 0.2000 0.3464-0.0871 ( 12918 PWs)   bands (ev):

   -59.6278 -33.8465 -33.7398 -33.6826 -11.9966 -11.2849  -4.2614  -3.6077
    -3.2871  -2.4754  -1.6168  -1.0491  -0.4605  -0.0862   0.1492   0.3922
     0.4539   0.6736   1.7786   3.3135   3.7572   3.9807

          k = 0.2000 0.4619 0.0000 ( 12869 PWs)   bands (ev):

   -59.6199 -33.8944 -33.7282 -33.7245 -11.5670 -10.9943  -4.5493  -3.9612
    -3.5126  -2.6267  -1.9998  -1.3381  -0.4124  -0.0530   0.2300   0.4259
     0.5213   0.8008   2.3733   3.6509   4.0652   4.3089

          k = 0.2000 0.4619-0.0871 ( 12868 PWs)   bands (ev):

   -59.6199 -33.8944 -33.7282 -33.7245 -11.5670 -10.9943  -4.5493  -3.9612
    -3.5126  -2.6267  -1.9998  -1.3381  -0.4124  -0.0530   0.2300   0.4259
     0.5213   0.8008   2.3733   3.6509   4.0652   4.3089

          k = 0.2000 0.5774 0.0000 ( 12850 PWs)   bands (ev):

   -59.6169 -33.9111 -33.7469 -33.7188 -11.3912 -10.8643  -4.7463  -4.1430
    -3.5506  -2.5556  -2.2431  -1.4795  -0.4049  -0.0455   0.3180   0.4853
     0.5199   0.9136   3.0264   3.4135   3.9715   4.6674

          k = 0.2000 0.5774-0.0871 ( 12850 PWs)   bands (ev):

   -59.6169 -33.9111 -33.7469 -33.7188 -11.3912 -10.8643  -4.7463  -4.1430
    -3.5506  -2.5556  -2.2431  -1.4795  -0.4049  -0.0455   0.3180   0.4853
     0.5199   0.9136   3.0264   3.4135   3.9715   4.6674

          k = 0.3000 0.5196 0.0000 ( 12860 PWs)   bands (ev):

   -59.6157 -33.8764 -33.7960 -33.7166 -11.3311 -10.8129  -4.5260  -4.0598
    -3.4922  -3.1094  -2.3288  -1.5897  -0.3878  -0.0086   0.3461   0.4111
     0.5245   0.9800   2.8898   3.2888   3.9849   5.1977

          k = 0.3000 0.5196-0.0871 ( 12870 PWs)   bands (ev):

   -59.6157 -33.8764 -33.7960 -33.7166 -11.3311 -10.8129  -4.5260  -4.0598
    -3.4922  -3.1094  -2.3288  -1.5897  -0.3878  -0.0086   0.3461   0.4111
     0.5245   0.9800   2.8898   3.2888   3.9849   5.1977

 ------ SPIN DOWN ----------


          k = 0.0000 0.0000 0.0000 ( 12991 PWs)   bands (ev):

   -59.6669 -33.8191 -33.5804 -33.5804 -13.3169 -12.1017  -5.1459  -2.5270
    -1.2453  -1.2453  -0.2626  -0.2626   0.3595   1.1561   1.5355   1.5355
     1.7897   2.0433   2.0433   3.7516   3.7517   4.1592

          k = 0.0000 0.0000-0.0871 ( 12974 PWs)   bands (ev):

   -59.6669 -33.8191 -33.5804 -33.5804 -13.3169 -12.1017  -5.1459  -2.5270
    -1.2453  -1.2453  -0.2626  -0.2626   0.3595   1.1561   1.5355   1.5355
     1.7897   2.0433   2.0433   3.7516   3.7517   4.1592

          k = 0.0000 0.1155 0.0000 ( 12953 PWs)   bands (ev):

   -59.6632 -33.8121 -33.6173 -33.5889 -13.1754 -12.0175  -4.9881  -2.5158
    -1.5947  -1.1160  -0.6748  -0.4982   0.5050   1.0197   1.5108   1.5910
     1.6189   2.0525   2.4318   3.4414   3.7481   3.9060

          k = 0.0000 0.1155-0.0871 ( 12970 PWs)   bands (ev):

   -59.6632 -33.8121 -33.6173 -33.5889 -13.1754 -12.0175  -4.9881  -2.5158
    -1.5947  -1.1160  -0.6748  -0.4982   0.5050   1.0197   1.5108   1.5910
     1.6189   2.0524   2.4318   3.4413   3.7481   3.9060

          k = 0.0000 0.2309 0.0000 ( 12929 PWs)   bands (ev):

   -59.6535 -33.7936 -33.7128 -33.6109 -12.7802 -11.7825  -4.6014  -2.7487
    -2.3408  -1.2629  -1.0333  -0.7603   0.5376   0.6405   1.4742   1.6023
     1.7445   2.0738   2.6442   3.3600   3.5980   3.8535

          k = 0.0000 0.2309-0.0871 ( 12940 PWs)   bands (ev):

   -59.6535 -33.7936 -33.7128 -33.6109 -12.7802 -11.7825  -4.6014  -2.7487
    -2.3408  -1.2629  -1.0333  -0.7603   0.5376   0.6405   1.4742   1.6023
     1.7445   2.0738   2.6442   3.3599   3.5980   3.8536

          k = 0.0000 0.3464 0.0000 ( 12915 PWs)   bands (ev):

   -59.6415 -33.8296 -33.7700 -33.6381 -12.2278 -11.4526  -4.3370  -3.5589
    -2.9507  -1.5720  -1.5164  -0.4359   0.1517   0.8305   1.4892   1.6845
     1.9340   2.2223   2.5404   3.4629   3.7240   4.5185

          k = 0.0000 0.3464-0.0871 ( 12918 PWs)   bands (ev):

   -59.6415 -33.8296 -33.7700 -33.6381 -12.2278 -11.4526  -4.3370  -3.5589
    -2.9507  -1.5720  -1.5164  -0.4359   0.1517   0.8305   1.4892   1.6845
     1.9340   2.2223   2.5404   3.4629   3.7239   4.5186

          k = 0.0000 0.4619 0.0000 ( 12872 PWs)   bands (ev):

   -59.6317 -33.9220 -33.7514 -33.6599 -11.7082 -11.1324  -4.7836  -4.0840
    -3.2225  -1.8531  -1.7760  -0.2610   0.1253   0.9263   1.7604   1.9483
     2.1034   2.4803   2.7542   3.4652   4.0226   5.0432

          k = 0.0000 0.4619-0.0871 ( 12884 PWs)   bands (ev):

   -59.6317 -33.9220 -33.7514 -33.6599 -11.7082 -11.1324  -4.7836  -4.0840
    -3.2225  -1.8531  -1.7760  -0.2610   0.1253   0.9263   1.7604   1.9483
     2.1034   2.4803   2.7542   3.4652   4.0226   5.0432

          k = 0.0000-0.5774 0.0000 ( 12854 PWs)   bands (ev):

   -59.6280 -33.9570 -33.7443 -33.6682 -11.4891 -10.9860  -5.1200  -4.2634
    -3.2718  -1.9711  -1.8625  -0.2212   0.2328   0.9154   1.8120   2.1745
     2.1891   2.5975   3.2320   3.5256   3.9230   5.0651

          k = 0.0000-0.5774-0.0871 ( 12864 PWs)   bands (ev):

   -59.6280 -33.9570 -33.7443 -33.6682 -11.4891 -10.9860  -5.1200  -4.2634
    -3.2718  -1.9711  -1.8625  -0.2212   0.2328   0.9154   1.8120   2.1745
     2.1891   2.5975   3.2320   3.5256   3.9230   5.0651

          k = 0.1000 0.1732 0.0000 ( 12937 PWs)   bands (ev):

   -59.6565 -33.7993 -33.6808 -33.6068 -12.9067 -11.8575  -4.7107  -2.5999
    -2.1161  -1.2392  -0.9034  -0.8223   0.5821   0.7600   1.4964   1.5234
     1.7468   2.0605   2.8017   3.0809   3.6544   3.7447

          k = 0.1000 0.1732-0.0871 ( 12920 PWs)   bands (ev):

   -59.6565 -33.7993 -33.6808 -33.6068 -12.9067 -11.8575  -4.7107  -2.5999
    -2.1161  -1.2392  -0.9034  -0.8223   0.5821   0.7600   1.4964   1.5234
     1.7468   2.0605   2.8017   3.0808   3.6544   3.7446

          k = 0.1000 0.2887 0.0000 ( 12944 PWs)   bands (ev):

   -59.6456 -33.7835 -33.7752 -33.6379 -12.4298 -11.5722  -4.3383  -3.1469
    -2.7038  -1.9177  -1.0749  -0.7278   0.3762   0.7040   1.4120   1.5972
     1.9511   2.1632   2.6997   3.1794   3.7899   3.9028

          k = 0.1000 0.2887-0.0871 ( 12926 PWs)   bands (ev):

   -59.6456 -33.7835 -33.7752 -33.6379 -12.4298 -11.5722  -4.3383  -3.1469
    -2.7038  -1.9177  -1.0749  -0.7278   0.3762   0.7040   1.4120   1.5972
     1.9511   2.1632   2.6997   3.1794   3.7899   3.9029

          k = 0.1000 0.4041 0.0000 ( 12898 PWs)   bands (ev):

   -59.6347 -33.8781 -33.7572 -33.6692 -11.8823 -11.2379  -4.4194  -3.8034
    -3.1939  -2.1696  -1.3999  -0.7742   0.2552   0.9775   1.5419   1.7456
     2.0462   2.4265   2.6686   3.4660   4.0088   4.4514

          k = 0.1000 0.4041-0.0871 ( 12884 PWs)   bands (ev):

   -59.6347 -33.8781 -33.7572 -33.6692 -11.8823 -11.2379  -4.4194  -3.8034
    -3.1939  -2.1696  -1.3999  -0.7742   0.2552   0.9775   1.5419   1.7456
     2.0462   2.4265   2.6686   3.4660   4.0088   4.4514

          k = 0.1000 0.5196 0.0000 ( 12858 PWs)   bands (ev):

   -59.6280 -33.9376 -33.7443 -33.6885 -11.4983 -10.9865  -4.9168  -4.1601
    -3.3062  -2.1772  -1.7537  -0.8265   0.4288   1.0058   1.8157   1.9442
     2.1481   2.6612   2.9749   3.7160   4.1311   4.6018

          k = 0.1000 0.5196-0.0871 ( 12862 PWs)   bands (ev):

   -59.6280 -33.9376 -33.7443 -33.6885 -11.4983 -10.9865  -4.9168  -4.1601
    -3.3062  -2.1772  -1.7537  -0.8265   0.4288   1.0058   1.8157   1.9442
     2.1481   2.6612   2.9749   3.7160   4.1311   4.6018

          k = 0.2000 0.3464 0.0000 ( 12917 PWs)   bands (ev):

   -59.6359 -33.8490 -33.7594 -33.6854 -11.9493 -11.2753  -4.2164  -3.4659
    -3.2699  -2.4041  -1.4620  -0.8804   0.2605   0.9851   1.3785   1.7082
     2.0332   2.4291   2.7141   3.4634   3.8747   4.1580

          k = 0.2000 0.3464-0.0871 ( 12918 PWs)   bands (ev):

   -59.6359 -33.8490 -33.7594 -33.6854 -11.9493 -11.2753  -4.2164  -3.4659
    -3.2699  -2.4041  -1.4620  -0.8804   0.2605   0.9851   1.3785   1.7082
     2.0332   2.4291   2.7141   3.4634   3.8747   4.1580

          k = 0.2000 0.4619 0.0000 ( 12869 PWs)   bands (ev):

   -59.6280 -33.8967 -33.7444 -33.7308 -11.5132 -10.9868  -4.5022  -3.9180
    -3.3858  -2.5190  -1.9307  -1.2264   0.4508   1.2174   1.5282   1.8677
     2.0476   2.6402   2.8513   3.7620   4.1090   4.4937

          k = 0.2000 0.4619-0.0871 ( 12868 PWs)   bands (ev):

   -59.6280 -33.8967 -33.7443 -33.7308 -11.5132 -10.9868  -4.5022  -3.9180
    -3.3858  -2.5190  -1.9307  -1.2264   0.4508   1.2174   1.5282   1.8677
     2.0476   2.6402   2.8513   3.7620   4.1090   4.4937

          k = 0.2000 0.5774 0.0000 ( 12850 PWs)   bands (ev):

   -59.6250 -33.9134 -33.7497 -33.7385 -11.3348 -10.8571  -4.6974  -4.1146
    -3.4177  -2.3878  -2.2046  -1.4241   0.6559   1.2054   1.7380   1.8851
     2.0833   2.6925   3.1725   3.5961   4.1181   4.8041

          k = 0.2000 0.5774-0.0871 ( 12850 PWs)   bands (ev):

   -59.6250 -33.9134 -33.7497 -33.7385 -11.3348 -10.8571  -4.6974  -4.1146
    -3.4177  -2.3878  -2.2046  -1.4241   0.6559   1.2054   1.7380   1.8851
     2.0833   2.6925   3.1725   3.5961   4.1181   4.8041

          k = 0.3000 0.5196 0.0000 ( 12860 PWs)   bands (ev):

   -59.6238 -33.8787 -33.7986 -33.7363 -11.2741 -10.8057  -4.4837  -4.0169
    -3.3234  -3.0348  -2.2849  -1.5158   0.7488   1.3963   1.5428   1.9268
     2.0541   2.6651   3.0416   3.4179   4.2013   5.3754

          k = 0.3000 0.5196-0.0871 ( 12870 PWs)   bands (ev):

   -59.6238 -33.8787 -33.7986 -33.7363 -11.2741 -10.8057  -4.4837  -4.0169
    -3.3234  -3.0348  -2.2849  -1.5158   0.7488   1.3963   1.5428   1.9268
     2.0541   2.6651   3.0416   3.4179   4.2013   5.3754

     the Fermi energy is     2.0257 ev

!    total energy              =    -658.55206652 Ry
     total all-electron energy =    -12481.725957 Ry
     estimated scf accuracy    <       0.00000006 Ry
     smearing contrib. (-TS)   =      -0.00920553 Ry
     internal energy E=F+TS    =    -658.54286099 Ry

     The total energy is F=E-TS. E is the sum of the following terms:
     one-electron contribution =   -1236.04542396 Ry
     hartree contribution      =     631.72900429 Ry
     xc contribution           =     -62.25516393 Ry
     ewald contribution        =     414.17378211 Ry
     one-center paw contrib.   =    -406.14505950 Ry

     total magnetization       =     2.01 Bohr mag/cell
     absolute magnetization    =     2.17 Bohr mag/cell

     convergence has been achieved in  12 iterations

     negative rho (up, down):  2.307E-04 2.119E-04

     Forces acting on atoms (cartesian axes, Ry/au):

     atom    1 type  1   force =     0.00000000    0.00000000    0.01691407
     atom    2 type  2   force =     0.00000000    0.00000000   -0.00407445
     atom    3 type  2   force =     0.00000000    0.00000000    0.00330894
     atom    4 type  3   force =     0.00000000    0.00000000   -0.01614855
     The non-local contrib.  to forces
     atom    1 type  1   force =     0.00000000    0.00000000   -0.06294058
     atom    2 type  2   force =     0.00000000    0.00000000   -0.05937511
     atom    3 type  2   force =     0.00000000    0.00000000    0.27023188
     atom    4 type  3   force =     0.00000000    0.00000000    0.02748642
     The ionic contribution  to forces
     atom    1 type  1   force =     0.00000000   -0.00000000  -31.40823893
     atom    2 type  2   force =    -0.00000000    0.00000000   18.58383680
     atom    3 type  2   force =    -0.00000000    0.00000000  -44.68195598
     atom    4 type  3   force =     0.00000000   -0.00000000   57.50635811
     The local contribution  to forces
     atom    1 type  1   force =    -0.00000000   -0.00000000   31.48492510
     atom    2 type  2   force =    -0.00000000    0.00000000  -18.52761105
     atom    3 type  2   force =    -0.00000000    0.00000000   44.41741355
     atom    4 type  3   force =     0.00000000   -0.00000000  -57.54291867
     The core correction contribution to forces
     atom    1 type  1   force =     0.00000000    0.00000000    0.00381065
     atom    2 type  2   force =     0.00000000   -0.00000000   -0.00075503
     atom    3 type  2   force =     0.00000000   -0.00000000   -0.00222764
     atom    4 type  3   force =     0.00000000   -0.00000000   -0.00745231
     The Hubbard contrib.    to forces
     atom    1 type  1   force =     0.00000000    0.00000000    0.00000000
     atom    2 type  2   force =     0.00000000    0.00000000    0.00000000
     atom    3 type  2   force =     0.00000000    0.00000000    0.00000000
     atom    4 type  3   force =     0.00000000    0.00000000    0.00000000
     The SCF correction term to forces
     atom    1 type  1   force =     0.00000000    0.00000000   -0.00055768
     atom    2 type  2   force =    -0.00000000   -0.00000000   -0.00008559
     atom    3 type  2   force =     0.00000000   -0.00000000   -0.00006839
     atom    4 type  3   force =     0.00000000   -0.00000000    0.00046239

     Total force =     0.023967     Total SCF correction =     0.000733


     Computing stress (Cartesian axis) and pressure


     negative rho (up, down):  2.307E-04 2.119E-04
          total   stress  (Ry/bohr**3)                   (kbar)     P=      -26.73
  -0.00021036   0.00000000   0.00000000          -30.94        0.00        0.00
   0.00000000  -0.00021036   0.00000000            0.00      -30.94        0.00
   0.00000000   0.00000000  -0.00012447            0.00        0.00      -18.31

     Energy error            =      1.0E-03 Ry
     Gradient error          =      1.7E-02 Ry/Bohr

     number of scf cycles    =   7
     number of bfgs steps    =   6

     energy             old  =    -658.5510591251 Ry
     energy             new  =    -658.5520665190 Ry

     CASE: energy            _new < energy            _old


     WARNING: bfgs curvature condition failed, Theta= 0.128
     new trust radius        =       0.1045195932 bohr
     new conv_thr            =       0.0000001007 Ry


ATOMIC_POSITIONS (crystal)
Mo            0.0000000000        0.0000000000        0.4994370036
S             0.6666666667        0.3333333333        0.5955779907
S             0.6666666667        0.3333333333        0.4137490292
Co            0.3333333333        0.6666666667        0.6888720402



     Writing config-only to output data dir ./tmp/relax.save/
     NEW-OLD atomic charge density approx. for the potential

     negative rho (up, down):  2.281E-04 2.295E-04
     Generating pointlists ...
     new r_m :   0.3249 (alat units)  1.9451 (a.u.) for type    3

     total cpu time spent up to now is      186.4 secs

     Self-consistent Calculation

     iteration #  1     ecut=    80.00 Ry     beta= 0.70
     Davidson diagonalization with overlap
     ethr =  1.00E-06,  avg # of iterations = 11.8

     negative rho (up, down):  2.308E-04 2.192E-04

     total cpu time spent up to now is      190.7 secs

     total energy              =    -658.54997193 Ry
     estimated scf accuracy    <       0.00742512 Ry

     total magnetization       =     1.90 Bohr mag/cell
     absolute magnetization    =     2.09 Bohr mag/cell

     iteration #  2     ecut=    80.00 Ry     beta= 0.70
     Davidson diagonalization with overlap
     ethr =  2.12E-05,  avg # of iterations =  7.4

     negative rho (up, down):  2.300E-04 2.181E-04

     total cpu time spent up to now is      193.0 secs

     total energy              =    -658.50703969 Ry
     estimated scf accuracy    <       1.48894763 Ry

     total magnetization       =     2.42 Bohr mag/cell
     absolute magnetization    =     2.87 Bohr mag/cell

     iteration #  3     ecut=    80.00 Ry     beta= 0.70
     Davidson diagonalization with overlap
     ethr =  2.12E-05,  avg # of iterations =  7.5

     negative rho (up, down):  2.254E-04 2.128E-04

     total cpu time spent up to now is      195.4 secs

     total energy              =    -658.54924188 Ry
     estimated scf accuracy    <       0.05759389 Ry

     total magnetization       =     1.93 Bohr mag/cell
     absolute magnetization    =     2.11 Bohr mag/cell

     iteration #  4     ecut=    80.00 Ry     beta= 0.70
     Davidson diagonalization with overlap
     ethr =  2.12E-05,  avg # of iterations =  3.8

     negative rho (up, down):  2.232E-04 2.102E-04

     total cpu time spent up to now is      197.3 secs

     total energy              =    -658.55357608 Ry
     estimated scf accuracy    <       0.00140431 Ry

     total magnetization       =     1.92 Bohr mag/cell
     absolute magnetization    =     2.12 Bohr mag/cell

     iteration #  5     ecut=    80.00 Ry     beta= 0.70
     Davidson diagonalization with overlap
     ethr =  4.01E-06,  avg # of iterations =  3.8

     negative rho (up, down):  2.230E-04 2.096E-04

     total cpu time spent up to now is      199.2 secs

     total energy              =    -658.55376159 Ry
     estimated scf accuracy    <       0.00150778 Ry

     total magnetization       =     1.93 Bohr mag/cell
     absolute magnetization    =     2.14 Bohr mag/cell

     iteration #  6     ecut=    80.00 Ry     beta= 0.70
     Davidson diagonalization with overlap
     ethr =  4.01E-06,  avg # of iterations =  2.5

     negative rho (up, down):  2.233E-04 2.097E-04

     total cpu time spent up to now is      200.9 secs

     total energy              =    -658.55398978 Ry
     estimated scf accuracy    <       0.00049821 Ry

     total magnetization       =     1.93 Bohr mag/cell
     absolute magnetization    =     2.15 Bohr mag/cell

     iteration #  7     ecut=    80.00 Ry     beta= 0.70
     Davidson diagonalization with overlap
     ethr =  1.42E-06,  avg # of iterations =  2.0

     negative rho (up, down):  2.237E-04 2.100E-04

     total cpu time spent up to now is      202.6 secs

     total energy              =    -658.55409836 Ry
     estimated scf accuracy    <       0.00012100 Ry

     total magnetization       =     1.93 Bohr mag/cell
     absolute magnetization    =     2.14 Bohr mag/cell

     iteration #  8     ecut=    80.00 Ry     beta= 0.70
     Davidson diagonalization with overlap
     ethr =  3.46E-07,  avg # of iterations =  1.4

     negative rho (up, down):  2.240E-04 2.105E-04

     total cpu time spent up to now is      204.3 secs

     total energy              =    -658.55414774 Ry
     estimated scf accuracy    <       0.00005562 Ry

     total magnetization       =     1.93 Bohr mag/cell
     absolute magnetization    =     2.14 Bohr mag/cell

     iteration #  9     ecut=    80.00 Ry     beta= 0.70
     Davidson diagonalization with overlap
     ethr =  1.59E-07,  avg # of iterations =  2.8

     negative rho (up, down):  2.241E-04 2.110E-04

     total cpu time spent up to now is      206.2 secs

     total energy              =    -658.55423234 Ry
     estimated scf accuracy    <       0.00003703 Ry

     total magnetization       =     1.92 Bohr mag/cell
     absolute magnetization    =     2.15 Bohr mag/cell

     iteration # 10     ecut=    80.00 Ry     beta= 0.70
     Davidson diagonalization with overlap
     ethr =  1.06E-07,  avg # of iterations =  3.6

     negative rho (up, down):  2.239E-04 2.109E-04

     total cpu time spent up to now is      208.1 secs

     total energy              =    -658.55433810 Ry
     estimated scf accuracy    <       0.00003494 Ry

     total magnetization       =     1.91 Bohr mag/cell
     absolute magnetization    =     2.15 Bohr mag/cell

     iteration # 11     ecut=    80.00 Ry     beta= 0.70
     Davidson diagonalization with overlap
     ethr =  9.98E-08,  avg # of iterations =  1.0

     negative rho (up, down):  2.229E-04 2.116E-04

     total cpu time spent up to now is      209.8 secs

     total energy              =    -658.55399084 Ry
     estimated scf accuracy    <       0.00003723 Ry

     total magnetization       =     1.91 Bohr mag/cell
     absolute magnetization    =     2.16 Bohr mag/cell

     iteration # 12     ecut=    80.00 Ry     beta= 0.70
     Davidson diagonalization with overlap
     ethr =  9.98E-08,  avg # of iterations =  4.8

     negative rho (up, down):  2.238E-04 2.111E-04

     total cpu time spent up to now is      212.0 secs

     total energy              =    -658.55407446 Ry
     estimated scf accuracy    <       0.00007176 Ry

     total magnetization       =     1.90 Bohr mag/cell
     absolute magnetization    =     2.17 Bohr mag/cell

     iteration # 13     ecut=    80.00 Ry     beta= 0.70
     Davidson diagonalization with overlap
     ethr =  9.98E-08,  avg # of iterations =  4.3

     negative rho (up, down):  2.236E-04 2.111E-04

     total cpu time spent up to now is      214.0 secs

     total energy              =    -658.55441077 Ry
     estimated scf accuracy    <       0.00004215 Ry

     total magnetization       =     1.90 Bohr mag/cell
     absolute magnetization    =     2.16 Bohr mag/cell

     iteration # 14     ecut=    80.00 Ry     beta= 0.70
     Davidson diagonalization with overlap
     ethr =  9.98E-08,  avg # of iterations =  1.1

     negative rho (up, down):  2.234E-04 2.110E-04

     total cpu time spent up to now is      215.8 secs

     total energy              =    -658.55441014 Ry
     estimated scf accuracy    <       0.00005666 Ry

     total magnetization       =     1.91 Bohr mag/cell
     absolute magnetization    =     2.16 Bohr mag/cell

     iteration # 15     ecut=    80.00 Ry     beta= 0.70
     Davidson diagonalization with overlap
     ethr =  9.98E-08,  avg # of iterations =  1.0

     negative rho (up, down):  2.235E-04 2.109E-04

     total cpu time spent up to now is      217.4 secs

     total energy              =    -658.55437320 Ry
     estimated scf accuracy    <       0.00005830 Ry

     total magnetization       =     1.91 Bohr mag/cell
     absolute magnetization    =     2.16 Bohr mag/cell

     iteration # 16     ecut=    80.00 Ry     beta= 0.70
     Davidson diagonalization with overlap
     ethr =  9.98E-08,  avg # of iterations =  1.0

     negative rho (up, down):  2.236E-04 2.103E-04

     total cpu time spent up to now is      219.1 secs

     total energy              =    -658.55400421 Ry
     estimated scf accuracy    <       0.00005900 Ry

     total magnetization       =     1.91 Bohr mag/cell
     absolute magnetization    =     2.16 Bohr mag/cell

     iteration # 17     ecut=    80.00 Ry     beta= 0.70
     Davidson diagonalization with overlap
     ethr =  9.98E-08,  avg # of iterations =  4.1

     negative rho (up, down):  2.247E-04 2.089E-04

     total cpu time spent up to now is      221.1 secs

     total energy              =    -658.55227567 Ry
     estimated scf accuracy    <       0.00008205 Ry

     total magnetization       =     1.92 Bohr mag/cell
     absolute magnetization    =     2.16 Bohr mag/cell

     iteration # 18     ecut=    80.00 Ry     beta= 0.70
     Davidson diagonalization with overlap
     ethr =  9.98E-08,  avg # of iterations =  6.3

     negative rho (up, down):  2.234E-04 2.115E-04

     total cpu time spent up to now is      223.5 secs

     total energy              =    -658.54991559 Ry
     estimated scf accuracy    <       0.00018651 Ry

     total magnetization       =     1.95 Bohr mag/cell
     absolute magnetization    =     2.14 Bohr mag/cell

     iteration # 19     ecut=    80.00 Ry     beta= 0.70
     Davidson diagonalization with overlap
     ethr =  9.98E-08,  avg # of iterations =  7.0

     negative rho (up, down):  2.226E-04 2.134E-04

     total cpu time spent up to now is      226.1 secs

     total energy              =    -658.55319404 Ry
     estimated scf accuracy    <       0.00010793 Ry

     total magnetization       =     1.90 Bohr mag/cell
     absolute magnetization    =     2.17 Bohr mag/cell

     iteration # 20     ecut=    80.00 Ry     beta= 0.70
     Davidson diagonalization with overlap
     ethr =  9.98E-08,  avg # of iterations =  6.2

     negative rho (up, down):  2.213E-04 2.181E-04

     total cpu time spent up to now is      228.5 secs

     total energy              =    -658.54968701 Ry
     estimated scf accuracy    <       0.00020990 Ry

     total magnetization       =     1.89 Bohr mag/cell
     absolute magnetization    =     2.19 Bohr mag/cell

     iteration # 21     ecut=    80.00 Ry     beta= 0.70
     Davidson diagonalization with overlap
     ethr =  9.98E-08,  avg # of iterations =  6.9

     negative rho (up, down):  2.220E-04 2.153E-04

     total cpu time spent up to now is      231.1 secs

     total energy              =    -658.55369388 Ry
     estimated scf accuracy    <       0.00135665 Ry

     total magnetization       =     1.94 Bohr mag/cell
     absolute magnetization    =     2.22 Bohr mag/cell

     iteration # 22     ecut=    80.00 Ry     beta= 0.70
     Davidson diagonalization with overlap
     ethr =  9.98E-08,  avg # of iterations =  6.0

     negative rho (up, down):  2.222E-04 2.145E-04

     total cpu time spent up to now is      233.5 secs

     total energy              =    -658.55496785 Ry
     estimated scf accuracy    <       0.00015500 Ry

     total magnetization       =     1.91 Bohr mag/cell
     absolute magnetization    =     2.19 Bohr mag/cell

     iteration # 23     ecut=    80.00 Ry     beta= 0.70
     Davidson diagonalization with overlap
     ethr =  9.98E-08,  avg # of iterations =  4.2

     negative rho (up, down):  2.228E-04 2.120E-04

     total cpu time spent up to now is      235.6 secs

     total energy              =    -658.55241836 Ry
     estimated scf accuracy    <       0.00008116 Ry

     total magnetization       =     1.90 Bohr mag/cell
     absolute magnetization    =     2.19 Bohr mag/cell

     iteration # 24     ecut=    80.00 Ry     beta= 0.70
     Davidson diagonalization with overlap
     ethr =  9.98E-08,  avg # of iterations =  6.4

     negative rho (up, down):  2.226E-04 2.128E-04

     total cpu time spent up to now is      238.0 secs

     total energy              =    -658.55462537 Ry
     estimated scf accuracy    <       0.00004721 Ry

     total magnetization       =     1.90 Bohr mag/cell
     absolute magnetization    =     2.17 Bohr mag/cell

     iteration # 25     ecut=    80.00 Ry     beta= 0.70
     Davidson diagonalization with overlap
     ethr =  9.98E-08,  avg # of iterations =  4.2

     negative rho (up, down):  2.225E-04 2.134E-04

     total cpu time spent up to now is      240.1 secs

     total energy              =    -658.55487001 Ry
     estimated scf accuracy    <       0.00004168 Ry

     total magnetization       =     1.89 Bohr mag/cell
     absolute magnetization    =     2.17 Bohr mag/cell

     iteration # 26     ecut=    80.00 Ry     beta= 0.70
     Davidson diagonalization with overlap
     ethr =  9.98E-08,  avg # of iterations =  2.7

     negative rho (up, down):  2.223E-04 2.142E-04

     total cpu time spent up to now is      241.9 secs

     total energy              =    -658.55490355 Ry
     estimated scf accuracy    <       0.00003966 Ry

     total magnetization       =     1.90 Bohr mag/cell
     absolute magnetization    =     2.17 Bohr mag/cell

     iteration # 27     ecut=    80.00 Ry     beta= 0.70
     Davidson diagonalization with overlap
     ethr =  9.98E-08,  avg # of iterations =  4.5

     negative rho (up, down):  2.223E-04 2.143E-04

     total cpu time spent up to now is      244.0 secs

     total energy              =    -658.55504726 Ry
     estimated scf accuracy    <       0.00002606 Ry

     total magnetization       =     1.90 Bohr mag/cell
     absolute magnetization    =     2.17 Bohr mag/cell

     iteration # 28     ecut=    80.00 Ry     beta= 0.70
     Davidson diagonalization with overlap
     ethr =  7.44E-08,  avg # of iterations =  1.0

     negative rho (up, down):  2.221E-04 2.148E-04

     total cpu time spent up to now is      245.6 secs

     total energy              =    -658.55505088 Ry
     estimated scf accuracy    <       0.00002282 Ry

     total magnetization       =     1.90 Bohr mag/cell
     absolute magnetization    =     2.17 Bohr mag/cell

     iteration # 29     ecut=    80.00 Ry     beta= 0.70
     Davidson diagonalization with overlap
     ethr =  6.52E-08,  avg # of iterations =  2.6

     negative rho (up, down):  2.219E-04 2.156E-04

     total cpu time spent up to now is      247.6 secs

     total energy              =    -658.55501047 Ry
     estimated scf accuracy    <       0.00001188 Ry

     total magnetization       =     1.90 Bohr mag/cell
     absolute magnetization    =     2.17 Bohr mag/cell

     iteration # 30     ecut=    80.00 Ry     beta= 0.70
     Davidson diagonalization with overlap
     ethr =  3.39E-08,  avg # of iterations =  5.1

     negative rho (up, down):  2.217E-04 2.159E-04

     total cpu time spent up to now is      249.8 secs

     total energy              =    -658.55512275 Ry
     estimated scf accuracy    <       0.00000046 Ry

     total magnetization       =     1.91 Bohr mag/cell
     absolute magnetization    =     2.18 Bohr mag/cell

     iteration # 31     ecut=    80.00 Ry     beta= 0.70
     Davidson diagonalization with overlap
     ethr =  1.30E-09,  avg # of iterations =  5.9

     negative rho (up, down):  2.216E-04 2.159E-04
 
     Magnetic moment per site  (integrated on atomic sphere of radius R)
     atom   1 (R=0.313)  charge= 10.7112  magn= -0.0462
     atom   2 (R=0.313)  charge=  4.1163  magn=  0.0420
     atom   3 (R=0.313)  charge=  4.1168  magn=  0.0128
     atom   4 (R=0.325)  charge=  7.3441  magn=  1.8938

     total cpu time spent up to now is      252.1 secs

     End of self-consistent calculation

 ------ SPIN UP ------------


          k = 0.0000 0.0000 0.0000 ( 12991 PWs)   bands (ev):

   -59.5245 -33.6787 -33.4322 -33.4322 -13.3281 -12.0740  -5.1151  -2.5989
    -1.1902  -1.1902  -0.6309  -0.6309  -0.3983   0.2944   0.2944   0.4325
     0.4325   0.7410   1.4702   3.4049   3.4049   4.2465

          k = 0.0000 0.0000-0.0871 ( 12974 PWs)   bands (ev):

   -59.5245 -33.6787 -33.4322 -33.4322 -13.3281 -12.0740  -5.1151  -2.5989
    -1.1902  -1.1902  -0.6309  -0.6309  -0.3983   0.2944   0.2944   0.4325
     0.4325   0.7410   1.4702   3.4049   3.4049   4.2465

          k = 0.0000 0.1155 0.0000 ( 12953 PWs)   bands (ev):

   -59.5208 -33.6716 -33.4690 -33.4407 -13.1892 -11.9860  -4.9605  -2.5606
    -1.5610  -1.1012  -0.9455  -0.7128  -0.4309   0.1546   0.1784   0.3896
     0.4868   0.8883   1.6361   3.1083   3.4105   3.9954

          k = 0.0000 0.1155-0.0871 ( 12970 PWs)   bands (ev):

   -59.5208 -33.6716 -33.4690 -33.4407 -13.1892 -11.9860  -4.9605  -2.5606
    -1.5610  -1.1012  -0.9455  -0.7128  -0.4309   0.1546   0.1784   0.3896
     0.4868   0.8884   1.6360   3.1083   3.4105   3.9953

          k = 0.0000 0.2309 0.0000 ( 12929 PWs)   bands (ev):

   -59.5111 -33.6533 -33.5642 -33.4627 -12.8014 -11.7403  -4.5800  -2.7463
    -2.3594  -1.4670  -1.1504  -0.7827  -0.4697   0.0252   0.1923   0.3693
     0.5608   0.7180   1.7437   3.0799   3.3057   3.9187

          k = 0.0000 0.2309-0.0871 ( 12940 PWs)   bands (ev):

   -59.5111 -33.6533 -33.5642 -33.4627 -12.8014 -11.7403  -4.5800  -2.7463
    -2.3594  -1.4670  -1.1504  -0.7827  -0.4697   0.0252   0.1923   0.3693
     0.5608   0.7180   1.7437   3.0798   3.3057   3.9188

          k = 0.0000 0.3464 0.0000 ( 12915 PWs)   bands (ev):

   -59.4991 -33.6807 -33.6298 -33.4897 -12.2587 -11.3946  -4.2952  -3.6624
    -2.9368  -1.6999  -1.5512  -0.6534  -0.4266   0.0442   0.2679   0.3605
     0.4277   0.7432   1.8812   3.2669   3.5915   4.4157

          k = 0.0000 0.3464-0.0871 ( 12918 PWs)   bands (ev):

   -59.4991 -33.6807 -33.6298 -33.4897 -12.2587 -11.3946  -4.2952  -3.6624
    -2.9368  -1.6999  -1.5512  -0.6534  -0.4266   0.0442   0.2679   0.3605
     0.4277   0.7432   1.8812   3.2669   3.5914   4.4158

          k = 0.0000 0.4619 0.0000 ( 12872 PWs)   bands (ev):

   -59.4894 -33.7727 -33.6114 -33.5115 -11.7466 -11.0596  -4.8029  -4.1329
    -3.2258  -1.8895  -1.8598  -0.6211  -0.4562   0.1972   0.3247   0.4208
     0.5181   0.9362   2.4793   3.4552   4.0670   4.9730

          k = 0.0000 0.4619-0.0871 ( 12884 PWs)   bands (ev):

   -59.4894 -33.7728 -33.6114 -33.5115 -11.7466 -11.0596  -4.8029  -4.1329
    -3.2258  -1.8895  -1.8598  -0.6211  -0.4562   0.1972   0.3247   0.4208
     0.5181   0.9362   2.4793   3.4552   4.0670   4.9730

          k = 0.0000-0.5774 0.0000 ( 12854 PWs)   bands (ev):

   -59.4856 -33.8076 -33.6044 -33.5198 -11.5287 -10.9081  -5.1686  -4.2811
    -3.2736  -1.9912  -1.9705  -0.6243  -0.4790   0.2364   0.3325   0.5868
     0.6376   0.9960   3.0266   3.6140   3.9981   4.9790

          k = 0.0000-0.5774-0.0871 ( 12864 PWs)   bands (ev):

   -59.4856 -33.8076 -33.6044 -33.5198 -11.5287 -10.9081  -5.1686  -4.2811
    -3.2736  -1.9912  -1.9705  -0.6243  -0.4790   0.2364   0.3325   0.5868
     0.6376   0.9960   3.0266   3.6140   3.9981   4.9790

          k = 0.1000 0.1732 0.0000 ( 12937 PWs)   bands (ev):

   -59.5141 -33.6589 -33.5323 -33.4586 -12.9255 -11.8188  -4.6885  -2.5994
    -2.1259  -1.3599  -1.1302  -0.8483  -0.4651   0.0624   0.1744   0.3341
     0.5713   0.8490   1.8030   2.8601   3.4054   3.7925

          k = 0.1000 0.1732-0.0871 ( 12920 PWs)   bands (ev):

   -59.5141 -33.6589 -33.5323 -33.4586 -12.9255 -11.8188  -4.6885  -2.5994
    -2.1259  -1.3599  -1.1302  -0.8483  -0.4651   0.0624   0.1744   0.3341
     0.5713   0.8490   1.8030   2.8600   3.4054   3.7925

          k = 0.1000 0.2887 0.0000 ( 12944 PWs)   bands (ev):

   -59.5032 -33.6404 -33.6292 -33.4896 -12.4572 -11.5202  -4.3132  -3.2079
    -2.7079  -1.9108  -1.3439  -0.8065  -0.4613   0.0337   0.2289   0.3751
     0.5645   0.7063   1.8323   2.9546   3.6137   3.9200

          k = 0.1000 0.2887-0.0871 ( 12926 PWs)   bands (ev):

   -59.5032 -33.6404 -33.6292 -33.4896 -12.4572 -11.5202  -4.3132  -3.2079
    -2.7079  -1.9108  -1.3439  -0.8065  -0.4613   0.0337   0.2289   0.3751
     0.5645   0.7063   1.8323   2.9545   3.6136   3.9201

          k = 0.1000 0.4041 0.0000 ( 12898 PWs)   bands (ev):

   -59.4924 -33.7290 -33.6172 -33.5208 -11.9187 -11.1702  -4.3973  -3.9033
    -3.1901  -2.1650  -1.5883  -0.8951  -0.3856   0.0557   0.2252   0.4881
     0.5211   0.8533   2.0900   3.4291   3.9715   4.3934

          k = 0.1000 0.4041-0.0871 ( 12884 PWs)   bands (ev):

   -59.4924 -33.7290 -33.6172 -33.5208 -11.9187 -11.1702  -4.3973  -3.9033
    -3.1901  -2.1650  -1.5883  -0.8951  -0.3856   0.0557   0.2252   0.4881
     0.5211   0.8533   2.0900   3.4291   3.9715   4.3935

          k = 0.1000 0.5196 0.0000 ( 12858 PWs)   bands (ev):

   -59.4856 -33.7883 -33.6044 -33.5400 -11.5381 -10.9093  -4.9662  -4.1675
    -3.3217  -2.1978  -1.9082  -0.9630  -0.3948   0.1637   0.3032   0.5439
     0.6612   0.9648   2.8006   3.7170   4.1845   4.5534

          k = 0.1000 0.5196-0.0871 ( 12862 PWs)   bands (ev):

   -59.4856 -33.7883 -33.6044 -33.5400 -11.5381 -10.9093  -4.9662  -4.1675
    -3.3217  -2.1978  -1.9082  -0.9630  -0.3948   0.1637   0.3032   0.5439
     0.6612   0.9648   2.8006   3.7170   4.1845   4.5534

          k = 0.2000 0.3464 0.0000 ( 12917 PWs)   bands (ev):

   -59.4935 -33.7000 -33.6193 -33.5369 -11.9848 -11.2099  -4.1745  -3.6435
    -3.2068  -2.4177  -1.5963  -0.9991  -0.4033  -0.0177   0.1327   0.5403
     0.7187   0.7219   1.9299   3.4028   3.8773   4.0895

          k = 0.2000 0.3464-0.0871 ( 12918 PWs)   bands (ev):

   -59.4935 -33.7000 -33.6193 -33.5369 -11.9848 -11.2099  -4.1745  -3.6435
    -3.2068  -2.4177  -1.5963  -0.9991  -0.4033  -0.0177   0.1327   0.5403
     0.7187   0.7219   1.9299   3.4028   3.8773   4.0895

          k = 0.2000 0.4619 0.0000 ( 12869 PWs)   bands (ev):

   -59.4856 -33.7475 -33.6044 -33.5822 -11.5535 -10.9107  -4.5418  -3.8905
    -3.4683  -2.6200  -1.9509  -1.2892  -0.3025   0.0173   0.1860   0.5996
     0.7288   0.8879   2.4444   3.7402   4.1600   4.4417

          k = 0.2000 0.4619-0.0871 ( 12868 PWs)   bands (ev):

   -59.4856 -33.7475 -33.6044 -33.5822 -11.5535 -10.9107  -4.5418  -3.8905
    -3.4683  -2.6200  -1.9509  -1.2892  -0.3025   0.0173   0.1860   0.5996
     0.7288   0.8879   2.4444   3.7402   4.1600   4.4417

          k = 0.2000 0.5774 0.0000 ( 12850 PWs)   bands (ev):

   -59.4826 -33.7641 -33.6013 -33.5984 -11.3749 -10.7783  -4.7649  -4.0606
    -3.4935  -2.5899  -2.1639  -1.4327  -0.2877   0.0824   0.2219   0.6111
     0.8012   0.9675   3.0809   3.4838   4.0554   4.7808

          k = 0.2000 0.5774-0.0871 ( 12850 PWs)   bands (ev):

   -59.4826 -33.7641 -33.6013 -33.5984 -11.3749 -10.7783  -4.7649  -4.0606
    -3.4935  -2.5899  -2.1639  -1.4327  -0.2877   0.0824   0.2219   0.6111
     0.8012   0.9675   3.0809   3.4838   4.0554   4.7808

          k = 0.3000 0.5196 0.0000 ( 12860 PWs)   bands (ev):

   -59.4815 -33.7294 -33.6500 -33.5965 -11.3141 -10.7268  -4.5104  -4.0108
    -3.4680  -3.0991  -2.2775  -1.5241  -0.2207   0.0529   0.1649   0.6476
     0.8346   0.9913   2.9629   3.3700   4.0341   5.3201

          k = 0.3000 0.5196-0.0871 ( 12870 PWs)   bands (ev):

   -59.4815 -33.7294 -33.6500 -33.5965 -11.3141 -10.7268  -4.5104  -4.0108
    -3.4680  -3.0991  -2.2775  -1.5241  -0.2207   0.0529   0.1649   0.6476
     0.8346   0.9913   2.9629   3.3700   4.0341   5.3201

 ------ SPIN DOWN ----------


          k = 0.0000 0.0000 0.0000 ( 12991 PWs)   bands (ev):

   -59.5643 -33.7232 -33.4754 -33.4754 -13.2865 -12.0544  -5.0827  -2.5125
    -1.1167  -1.1167  -0.1932  -0.1932   0.5614   1.3956   1.5734   1.5734
     1.7192   1.7192   2.0592   3.7770   3.7770   4.2550

          k = 0.0000 0.0000-0.0871 ( 12974 PWs)   bands (ev):

   -59.5643 -33.7232 -33.4754 -33.4754 -13.2865 -12.0544  -5.0827  -2.5125
    -1.1167  -1.1167  -0.1932  -0.1932   0.5614   1.3955   1.5734   1.5734
     1.7192   1.7192   2.0592   3.7770   3.7770   4.2550

          k = 0.0000 0.1155 0.0000 ( 12953 PWs)   bands (ev):

   -59.5606 -33.7162 -33.5121 -33.4838 -13.1467 -11.9667  -4.9263  -2.4925
    -1.4753  -0.9947  -0.6185  -0.4277   0.6339   1.1027   1.6022   1.6122
     1.7543   1.8088   2.3796   3.4649   3.7711   4.0040

          k = 0.0000 0.1155-0.0871 ( 12970 PWs)   bands (ev):

   -59.5606 -33.7162 -33.5121 -33.4838 -13.1467 -11.9667  -4.9263  -2.4925
    -1.4753  -0.9947  -0.6185  -0.4277   0.6340   1.1027   1.6022   1.6122
     1.7543   1.8088   2.3796   3.4648   3.7711   4.0040

          k = 0.0000 0.2309 0.0000 ( 12929 PWs)   bands (ev):

   -59.5510 -33.6980 -33.6070 -33.5058 -12.7563 -11.7215  -4.5410  -2.6931
    -2.2699  -1.2646  -0.9497  -0.6780   0.6357   0.7121   1.4892   1.6764
     1.9070   1.9259   2.6700   3.3719   3.6240   3.9466

          k = 0.0000 0.2309-0.0871 ( 12940 PWs)   bands (ev):

   -59.5510 -33.6980 -33.6070 -33.5058 -12.7563 -11.7215  -4.5410  -2.6931
    -2.2699  -1.2646  -0.9497  -0.6780   0.6357   0.7121   1.4892   1.6764
     1.9070   1.9259   2.6700   3.3718   3.6240   3.9467

          k = 0.0000 0.3464 0.0000 ( 12915 PWs)   bands (ev):

   -59.5390 -33.7232 -33.6746 -33.5328 -12.2089 -11.3773  -4.2587  -3.5589
    -2.8941  -1.5712  -1.4336  -0.4092   0.2444   0.9351   1.4445   1.8072
     1.9621   2.1884   2.6416   3.4928   3.7995   4.5974

          k = 0.0000 0.3464-0.0871 ( 12918 PWs)   bands (ev):

   -59.5390 -33.7232 -33.6746 -33.5328 -12.2089 -11.3773  -4.2587  -3.5589
    -2.8941  -1.5712  -1.4336  -0.4092   0.2444   0.9351   1.4445   1.8072
     1.9621   2.1884   2.6416   3.4928   3.7994   4.5975

          k = 0.0000 0.4619 0.0000 ( 12872 PWs)   bands (ev):

   -59.5293 -33.8150 -33.6564 -33.5545 -11.6910 -11.0441  -4.7490  -4.0726
    -3.1615  -1.7704  -1.7682  -0.2928   0.2119   1.0364   1.7028   1.9976
     2.1874   2.4744   2.8613   3.5248   4.1149   5.0544

          k = 0.0000 0.4619-0.0871 ( 12884 PWs)   bands (ev):

   -59.5293 -33.8150 -33.6564 -33.5545 -11.6910 -11.0441  -4.7490  -4.0726
    -3.1615  -1.7704  -1.7682  -0.2928   0.2119   1.0364   1.7028   1.9976
     2.1874   2.4744   2.8613   3.5248   4.1149   5.0544

          k = 0.0000-0.5774 0.0000 ( 12854 PWs)   bands (ev):

   -59.5255 -33.8498 -33.6493 -33.5628 -11.4704 -10.8931  -5.1130  -4.2370
    -3.2014  -1.8854  -1.8615  -0.2739   0.3100   1.0115   1.8587   2.0824
     2.3513   2.5836   3.2911   3.6123   3.9972   5.0616

          k = 0.0000-0.5774-0.0871 ( 12864 PWs)   bands (ev):

   -59.5256 -33.8498 -33.6493 -33.5628 -11.4704 -10.8931  -5.1130  -4.2370
    -3.2014  -1.8854  -1.8615  -0.2739   0.3100   1.0115   1.8587   2.0824
     2.3513   2.5836   3.2911   3.6123   3.9972   5.0616

          k = 0.1000 0.1732 0.0000 ( 12937 PWs)   bands (ev):

   -59.5540 -33.7036 -33.5752 -33.5017 -12.8813 -11.7998  -4.6508  -2.5544
    -2.0254  -1.1906  -0.8109  -0.7795   0.6594   0.8280   1.5042   1.7143
     1.7996   1.9410   2.7683   3.1072   3.7126   3.8149

          k = 0.1000 0.1732-0.0871 ( 12920 PWs)   bands (ev):

   -59.5540 -33.7036 -33.5752 -33.5017 -12.8813 -11.7998  -4.6508  -2.5544
    -2.0254  -1.1906  -0.8109  -0.7795   0.6594   0.8280   1.5042   1.7143
     1.7996   1.9410   2.7684   3.1072   3.7127   3.8149

          k = 0.1000 0.2887 0.0000 ( 12944 PWs)   bands (ev):

   -59.5431 -33.6849 -33.6721 -33.5327 -12.4094 -11.5023  -4.2717  -3.1114
    -2.6546  -1.8452  -1.0919  -0.6587   0.4470   0.7688   1.4385   1.7682
     1.9787   2.1303   2.7076   3.2241   3.8512   3.9824

          k = 0.1000 0.2887-0.0871 ( 12926 PWs)   bands (ev):

   -59.5431 -33.6849 -33.6721 -33.5327 -12.4094 -11.5023  -4.2717  -3.1114
    -2.6546  -1.8452  -1.0919  -0.6587   0.4470   0.7688   1.4385   1.7682
     1.9787   2.1303   2.7076   3.2241   3.8511   3.9825

          k = 0.1000 0.4041 0.0000 ( 12898 PWs)   bands (ev):

   -59.5323 -33.7713 -33.6621 -33.5638 -11.8653 -11.1541  -4.3527  -3.8105
    -3.1389  -2.1006  -1.4093  -0.7337   0.3153   1.0762   1.5021   1.8574
     2.0854   2.4763   2.6794   3.5381   4.0998   4.5197

          k = 0.1000 0.4041-0.0871 ( 12884 PWs)   bands (ev):

   -59.5323 -33.7713 -33.6621 -33.5638 -11.8653 -11.1541  -4.3527  -3.8105
    -3.1389  -2.1006  -1.4093  -0.7337   0.3153   1.0762   1.5021   1.8574
     2.0854   2.4763   2.6794   3.5381   4.0998   4.5197

          k = 0.1000 0.5196 0.0000 ( 12858 PWs)   bands (ev):

   -59.5256 -33.8305 -33.6494 -33.5830 -11.4801 -10.8943  -4.9078  -4.1227
    -3.2447  -2.1143  -1.7625  -0.8077   0.4752   1.1100   1.7680   1.9634
     2.3018   2.6383   3.0276   3.7912   4.2170   4.6300

          k = 0.1000 0.5196-0.0871 ( 12862 PWs)   bands (ev):

   -59.5256 -33.8305 -33.6494 -33.5830 -11.4801 -10.8943  -4.9078  -4.1227
    -3.2447  -2.1143  -1.7625  -0.8077   0.4752   1.1100   1.7680   1.9634
     2.3018   2.6383   3.0276   3.7912   4.2170   4.6300

          k = 0.2000 0.3464 0.0000 ( 12917 PWs)   bands (ev):

   -59.5334 -33.7425 -33.6642 -33.5799 -11.9322 -11.1935  -4.1359  -3.5011
    -3.1918  -2.3453  -1.4618  -0.8470   0.3141   1.0409   1.4186   1.8193
     2.0987   2.5145   2.6181   3.5465   3.9547   4.2558

          k = 0.2000 0.3464-0.0871 ( 12918 PWs)   bands (ev):

   -59.5334 -33.7425 -33.6642 -33.5799 -11.9322 -11.1935  -4.1359  -3.5011
    -3.1918  -2.3453  -1.4618  -0.8470   0.3141   1.0409   1.4186   1.8193
     2.0987   2.5145   2.6181   3.5465   3.9547   4.2558

          k = 0.2000 0.4619 0.0000 ( 12869 PWs)   bands (ev):

   -59.5256 -33.7898 -33.6494 -33.6251 -11.4958 -10.8956  -4.4793  -3.8472
    -3.3706  -2.5136  -1.8914  -1.1932   0.5108   1.2820   1.5591   1.8126
     2.2712   2.5970   2.8770   3.8197   4.1843   4.5958

          k = 0.2000 0.4619-0.0871 ( 12868 PWs)   bands (ev):

   -59.5256 -33.7898 -33.6494 -33.6251 -11.4958 -10.8956  -4.4793  -3.8472
    -3.3706  -2.5136  -1.8914  -1.1932   0.5108   1.2820   1.5591   1.8126
     2.2712   2.5970   2.8770   3.8197   4.1843   4.5958

          k = 0.2000 0.5774 0.0000 ( 12850 PWs)   bands (ev):

   -59.5225 -33.8063 -33.6446 -33.6429 -11.3152 -10.7634  -4.6992  -4.0343
    -3.3885  -2.4305  -2.1403  -1.3761   0.7118   1.2834   1.7031   1.8562
     2.3170   2.6577   3.2274   3.6287   4.1599   4.8908

          k = 0.2000 0.5774-0.0871 ( 12850 PWs)   bands (ev):

   -59.5225 -33.8063 -33.6446 -33.6429 -11.3152 -10.7634  -4.6992  -4.0343
    -3.3885  -2.4305  -2.1403  -1.3761   0.7118   1.2834   1.7031   1.8562
     2.3170   2.6577   3.2274   3.6287   4.1599   4.8908

          k = 0.3000 0.5196 0.0000 ( 12860 PWs)   bands (ev):

   -59.5214 -33.7717 -33.6927 -33.6415 -11.2538 -10.7118  -4.4470  -3.9724
    -3.3267  -3.0269  -2.2437  -1.4685   0.8277   1.3794   1.6280   1.8123
     2.3648   2.5823   3.1155   3.4743   4.2199   5.4577

          k = 0.3000 0.5196-0.0871 ( 12870 PWs)   bands (ev):

   -59.5214 -33.7717 -33.6927 -33.6415 -11.2538 -10.7118  -4.4470  -3.9724
    -3.3267  -3.0269  -2.2437  -1.4685   0.8277   1.3794   1.6280   1.8123
     2.3648   2.5823   3.1155   3.4743   4.2199   5.4577

     the Fermi energy is     2.0713 ev

!    total energy              =    -658.55513188 Ry
     total all-electron energy =    -12481.729023 Ry
     estimated scf accuracy    <       0.00000005 Ry
     smearing contrib. (-TS)   =      -0.00838939 Ry
     internal energy E=F+TS    =    -658.54674248 Ry

     The total energy is F=E-TS. E is the sum of the following terms:
     one-electron contribution =   -1247.39471231 Ry
     hartree contribution      =     637.49503094 Ry
     xc contribution           =     -62.26236379 Ry
     ewald contribution        =     419.75542811 Ry
     one-center paw contrib.   =    -406.14012542 Ry

     total magnetization       =     1.91 Bohr mag/cell
     absolute magnetization    =     2.18 Bohr mag/cell

     convergence has been achieved in  31 iterations

     negative rho (up, down):  2.216E-04 2.159E-04

     Forces acting on atoms (cartesian axes, Ry/au):

     atom    1 type  1   force =     0.00000000    0.00000000    0.01893154
     atom    2 type  2   force =     0.00000000    0.00000000   -0.00292763
     atom    3 type  2   force =     0.00000000    0.00000000    0.00921943
     atom    4 type  3   force =     0.00000000    0.00000000   -0.02522334
     The non-local contrib.  to forces
     atom    1 type  1   force =     0.00000000    0.00000000   -0.07465857
     atom    2 type  2   force =     0.00000000    0.00000000   -0.03983258
     atom    3 type  2   force =     0.00000000    0.00000000    0.27045970
     atom    4 type  3   force =     0.00000000    0.00000000    0.05634376
     The ionic contribution  to forces
     atom    1 type  1   force =     0.00000000   -0.00000000  -31.75407213
     atom    2 type  2   force =    -0.00000000    0.00000000   18.52123894
     atom    3 type  2   force =    -0.00000000    0.00000000  -44.77233724
     atom    4 type  3   force =     0.00000000   -0.00000000   58.00517042
     The local contribution  to forces
     atom    1 type  1   force =    -0.00000000   -0.00000000   31.84302586
     atom    2 type  2   force =    -0.00000000    0.00000000  -18.48376747
     atom    3 type  2   force =    -0.00000000    0.00000000   44.51324565
     atom    4 type  3   force =     0.00000000   -0.00000000  -58.07444833
     The core correction contribution to forces
     atom    1 type  1   force =     0.00000000   -0.00000000    0.00447799
     atom    2 type  2   force =     0.00000000   -0.00000000   -0.00079002
     atom    3 type  2   force =     0.00000000   -0.00000000   -0.00226413
     atom    4 type  3   force =     0.00000000   -0.00000000   -0.01222563
     The Hubbard contrib.    to forces
     atom    1 type  1   force =     0.00000000    0.00000000    0.00000000
     atom    2 type  2   force =     0.00000000    0.00000000    0.00000000
     atom    3 type  2   force =     0.00000000    0.00000000    0.00000000
     atom    4 type  3   force =     0.00000000    0.00000000    0.00000000
     The SCF correction term to forces
     atom    1 type  1   force =     0.00000000    0.00000000    0.00013986
     atom    2 type  2   force =     0.00000000    0.00000000    0.00020496
     atom    3 type  2   force =     0.00000000    0.00000000    0.00009690
     atom    4 type  3   force =    -0.00000000   -0.00000000   -0.00008210

     Total force =     0.032988     Total SCF correction =     0.000279


     Computing stress (Cartesian axis) and pressure


     negative rho (up, down):  2.216E-04 2.159E-04
          total   stress  (Ry/bohr**3)                   (kbar)     P=      -30.26
  -0.00021275   0.00000000   0.00000000          -31.30        0.00        0.00
   0.00000000  -0.00021275   0.00000000            0.00      -31.30        0.00
   0.00000000   0.00000000  -0.00019159            0.00        0.00      -28.18

     Energy error            =      3.1E-03 Ry
     Gradient error          =      2.5E-02 Ry/Bohr

     number of scf cycles    =   8
     number of bfgs steps    =   7

     energy             old  =    -658.5520665190 Ry
     energy             new  =    -658.5551318753 Ry

     CASE: energy            _new < energy            _old


     WARNING: bfgs curvature condition failed, Theta= 0.059
     new trust radius        =       0.1567793898 bohr
     new conv_thr            =       0.0000002522 Ry


ATOMIC_POSITIONS (crystal)
Mo            0.0000000000        0.0000000000        0.5001024370
S             0.6666666667        0.3333333333        0.5989788377
S             0.6666666667        0.3333333333        0.4142437208
Co            0.3333333333        0.6666666667        0.6843110683



     Writing config-only to output data dir ./tmp/relax.save/
     NEW-OLD atomic charge density approx. for the potential

     negative rho (up, down):  2.291E-04 2.225E-04
     Generating pointlists ...
     new r_m :   0.3123 (alat units)  1.8701 (a.u.) for type    3

     total cpu time spent up to now is      255.3 secs

     Self-consistent Calculation

     iteration #  1     ecut=    80.00 Ry     beta= 0.70
     Davidson diagonalization with overlap
     ethr =  1.00E-06,  avg # of iterations = 15.4

     negative rho (up, down):  2.275E-04 2.222E-04

     total cpu time spent up to now is      260.4 secs

     total energy              =    -658.53877897 Ry
     estimated scf accuracy    <       0.02991332 Ry

     total magnetization       =     1.62 Bohr mag/cell
     absolute magnetization    =     1.98 Bohr mag/cell

     iteration #  2     ecut=    80.00 Ry     beta= 0.70
     Davidson diagonalization with overlap
     ethr =  8.55E-05,  avg # of iterations =  7.6

     negative rho (up, down):  2.253E-04 2.194E-04

     total cpu time spent up to now is      263.0 secs

     total energy              =    -658.11642645 Ry
     estimated scf accuracy    <      19.93603765 Ry

     total magnetization       =     3.00 Bohr mag/cell
     absolute magnetization    =     3.42 Bohr mag/cell

     iteration #  3     ecut=    80.00 Ry     beta= 0.70
     Davidson diagonalization with overlap
     ethr =  8.55E-05,  avg # of iterations =  8.3

     negative rho (up, down):  2.174E-04 2.065E-04

     total cpu time spent up to now is      265.6 secs

     total energy              =    -658.54416008 Ry
     estimated scf accuracy    <       0.14075666 Ry

     total magnetization       =     1.85 Bohr mag/cell
     absolute magnetization    =     2.11 Bohr mag/cell

     iteration #  4     ecut=    80.00 Ry     beta= 0.70
     Davidson diagonalization with overlap
     ethr =  8.55E-05,  avg # of iterations =  2.7

     negative rho (up, down):  2.160E-04 2.077E-04

     total cpu time spent up to now is      267.6 secs

     total energy              =    -658.55805764 Ry
     estimated scf accuracy    <       0.00244975 Ry

     total magnetization       =     1.69 Bohr mag/cell
     absolute magnetization    =     2.04 Bohr mag/cell

     iteration #  5     ecut=    80.00 Ry     beta= 0.70
     Davidson diagonalization with overlap
     ethr =  7.00E-06,  avg # of iterations =  6.3

     negative rho (up, down):  2.165E-04 2.098E-04

     total cpu time spent up to now is      269.8 secs

     total energy              =    -658.55816887 Ry
     estimated scf accuracy    <       0.00386517 Ry

     total magnetization       =     1.72 Bohr mag/cell
     absolute magnetization    =     2.05 Bohr mag/cell

     iteration #  6     ecut=    80.00 Ry     beta= 0.70
     Davidson diagonalization with overlap
     ethr =  7.00E-06,  avg # of iterations =  2.9

     negative rho (up, down):  2.174E-04 2.114E-04

     total cpu time spent up to now is      271.7 secs

     total energy              =    -658.55865817 Ry
     estimated scf accuracy    <       0.00137618 Ry

     total magnetization       =     1.73 Bohr mag/cell
     absolute magnetization    =     2.07 Bohr mag/cell

     iteration #  7     ecut=    80.00 Ry     beta= 0.70
     Davidson diagonalization with overlap
     ethr =  3.93E-06,  avg # of iterations =  2.0

     negative rho (up, down):  2.185E-04 2.130E-04

     total cpu time spent up to now is      273.5 secs

     total energy              =    -658.55884311 Ry
     estimated scf accuracy    <       0.00010581 Ry

     total magnetization       =     1.72 Bohr mag/cell
     absolute magnetization    =     2.06 Bohr mag/cell

     iteration #  8     ecut=    80.00 Ry     beta= 0.70
     Davidson diagonalization with overlap
     ethr =  3.02E-07,  avg # of iterations =  3.1

     negative rho (up, down):  2.189E-04 2.138E-04

     total cpu time spent up to now is      275.5 secs

     total energy              =    -658.55886343 Ry
     estimated scf accuracy    <       0.00001839 Ry

     total magnetization       =     1.72 Bohr mag/cell
     absolute magnetization    =     2.06 Bohr mag/cell

     iteration #  9     ecut=    80.00 Ry     beta= 0.70
     Davidson diagonalization with overlap
     ethr =  5.25E-08,  avg # of iterations =  2.8

     negative rho (up, down):  2.190E-04 2.141E-04

     total cpu time spent up to now is      277.3 secs

     total energy              =    -658.55886533 Ry
     estimated scf accuracy    <       0.00000523 Ry

     total magnetization       =     1.72 Bohr mag/cell
     absolute magnetization    =     2.07 Bohr mag/cell

     iteration # 10     ecut=    80.00 Ry     beta= 0.70
     Davidson diagonalization with overlap
     ethr =  1.49E-08,  avg # of iterations =  2.1

     negative rho (up, down):  2.190E-04 2.142E-04

     total cpu time spent up to now is      279.1 secs

     total energy              =    -658.55886573 Ry
     estimated scf accuracy    <       0.00000077 Ry

     total magnetization       =     1.72 Bohr mag/cell
     absolute magnetization    =     2.07 Bohr mag/cell

     iteration # 11     ecut=    80.00 Ry     beta= 0.70
     Davidson diagonalization with overlap
     ethr =  2.20E-09,  avg # of iterations =  4.3

     negative rho (up, down):  2.189E-04 2.142E-04
 
     Magnetic moment per site  (integrated on atomic sphere of radius R)
     atom   1 (R=0.313)  charge= 10.7086  magn= -0.0762
     atom   2 (R=0.313)  charge=  4.1282  magn=  0.0419
     atom   3 (R=0.313)  charge=  4.1126  magn=  0.0153
     atom   4 (R=0.312)  charge=  7.2416  magn=  1.7369

     total cpu time spent up to now is      281.1 secs

     End of self-consistent calculation

 ------ SPIN UP ------------


          k = 0.0000 0.0000 0.0000 ( 12991 PWs)   bands (ev):

   -59.4411 -33.5968 -33.3426 -33.3426 -13.3920 -12.0753  -5.1067  -2.6569
    -1.2029  -1.2029  -0.6808  -0.6808  -0.1643   0.3877   0.3877   0.5861
     0.5861   0.8402   1.6080   3.4246   3.4246   4.3101

          k = 0.0000 0.0000-0.0871 ( 12974 PWs)   bands (ev):

   -59.4411 -33.5968 -33.3426 -33.3426 -13.3920 -12.0753  -5.1067  -2.6569
    -1.2029  -1.2029  -0.6808  -0.6808  -0.1643   0.3877   0.3877   0.5861
     0.5861   0.8402   1.6080   3.4246   3.4246   4.3101

          k = 0.0000 0.1155 0.0000 ( 12953 PWs)   bands (ev):

   -59.4375 -33.5900 -33.3791 -33.3510 -13.2562 -11.9826  -4.9542  -2.6070
    -1.5852  -1.1717  -0.9716  -0.7074  -0.2531   0.2319   0.3023   0.5467
     0.6151   0.9793   1.8228   3.1233   3.4215   4.0666

          k = 0.0000 0.1155-0.0871 ( 12970 PWs)   bands (ev):

   -59.4375 -33.5900 -33.3791 -33.3510 -13.2562 -11.9826  -4.9543  -2.6070
    -1.5852  -1.1717  -0.9716  -0.7074  -0.2531   0.2319   0.3023   0.5467
     0.6151   0.9793   1.8228   3.1233   3.4215   4.0666

          k = 0.0000 0.2309 0.0000 ( 12929 PWs)   bands (ev):

   -59.4278 -33.5720 -33.4734 -33.3729 -12.8763 -11.7236  -4.5748  -2.7748
    -2.4068  -1.5025  -1.2847  -0.7192  -0.3444   0.0737   0.3056   0.5604
     0.7107   0.7974   1.9464   3.1334   3.3247   3.9927

          k = 0.0000 0.2309-0.0871 ( 12940 PWs)   bands (ev):

   -59.4278 -33.5720 -33.4734 -33.3729 -12.8763 -11.7236  -4.5748  -2.7748
    -2.4068  -1.5025  -1.2847  -0.7192  -0.3444   0.0737   0.3056   0.5604
     0.7107   0.7974   1.9464   3.1333   3.3247   3.9929

          k = 0.0000 0.3464 0.0000 ( 12915 PWs)   bands (ev):

   -59.4159 -33.5894 -33.5485 -33.3998 -12.3427 -11.3600  -4.2565  -3.7949
    -2.9294  -1.7384  -1.6152  -0.6881  -0.3188   0.0598   0.4110   0.4513
     0.5924   0.9484   2.0219   3.3053   3.6987   4.4899

          k = 0.0000 0.3464-0.0871 ( 12918 PWs)   bands (ev):

   -59.4159 -33.5894 -33.5485 -33.3998 -12.3427 -11.3600  -4.2565  -3.7949
    -2.9294  -1.7384  -1.6152  -0.6881  -0.3188   0.0598   0.4110   0.4513
     0.5924   0.9484   2.0219   3.3053   3.6986   4.4900

          k = 0.0000 0.4619 0.0000 ( 12872 PWs)   bands (ev):

   -59.4062 -33.6804 -33.5308 -33.4214 -11.8349 -11.0101  -4.8705  -4.1705
    -3.2153  -1.9267  -1.8936  -0.7045  -0.3607   0.2553   0.4575   0.5673
     0.6085   1.1561   2.5342   3.5237   4.1419   5.0515

          k = 0.0000 0.4619-0.0871 ( 12884 PWs)   bands (ev):

   -59.4062 -33.6804 -33.5308 -33.4214 -11.8349 -11.0101  -4.8705  -4.1705
    -3.2153  -1.9267  -1.8936  -0.7045  -0.3606   0.2553   0.4575   0.5673
     0.6085   1.1561   2.5342   3.5237   4.1419   5.0515

          k = 0.0000-0.5774 0.0000 ( 12854 PWs)   bands (ev):

   -59.4025 -33.7150 -33.5238 -33.4297 -11.6161 -10.8542  -5.2638  -4.2963
    -3.2539  -2.0330  -1.9962  -0.7208  -0.3862   0.3297   0.4988   0.6822
     0.7217   1.2107   2.9934   3.7045   4.0322   4.9387

          k = 0.0000-0.5774-0.0871 ( 12864 PWs)   bands (ev):

   -59.4025 -33.7150 -33.5238 -33.4297 -11.6161 -10.8542  -5.2638  -4.2963
    -3.2539  -2.0330  -1.9962  -0.7208  -0.3862   0.3297   0.4988   0.6822
     0.7217   1.2107   2.9934   3.7045   4.0322   4.9387

          k = 0.1000 0.1732 0.0000 ( 12937 PWs)   bands (ev):

   -59.4308 -33.5775 -33.4418 -33.3688 -12.9980 -11.8063  -4.6844  -2.6219
    -2.1763  -1.3744  -1.2834  -0.7678  -0.3392   0.1266   0.3057   0.4576
     0.7345   0.9400   2.0372   2.8577   3.4369   3.8697

          k = 0.1000 0.1732-0.0871 ( 12920 PWs)   bands (ev):

   -59.4308 -33.5775 -33.4418 -33.3688 -12.9980 -11.8063  -4.6844  -2.6219
    -2.1763  -1.3744  -1.2834  -0.7678  -0.3392   0.1266   0.3057   0.4576
     0.7345   0.9400   2.0372   2.8577   3.4368   3.8697

          k = 0.1000 0.2887 0.0000 ( 12944 PWs)   bands (ev):

   -59.4200 -33.5586 -33.5387 -33.3996 -12.5383 -11.4921  -4.2974  -3.3021
    -2.7149  -1.9034  -1.4810  -0.7806  -0.3781   0.0836   0.3597   0.4582
     0.7044   0.9112   2.0166   2.9824   3.7017   3.9933

          k = 0.1000 0.2887-0.0871 ( 12926 PWs)   bands (ev):

   -59.4200 -33.5586 -33.5387 -33.3996 -12.5383 -11.4921  -4.2974  -3.3021
    -2.7149  -1.9034  -1.4810  -0.7806  -0.3781   0.0836   0.3597   0.4582
     0.7044   0.9112   2.0166   2.9824   3.7016   3.9934

          k = 0.1000 0.4041 0.0000 ( 12898 PWs)   bands (ev):

   -59.4092 -33.6370 -33.5363 -33.4306 -12.0065 -11.1257  -4.4109  -3.9966
    -3.1752  -2.1902  -1.6724  -0.9051  -0.3168   0.1202   0.3202   0.6003
     0.6841   1.0530   2.1830   3.4822   4.0838   4.4491

          k = 0.1000 0.4041-0.0871 ( 12884 PWs)   bands (ev):

   -59.4092 -33.6370 -33.5363 -33.4306 -12.0065 -11.1257  -4.4109  -3.9966
    -3.1752  -2.1902  -1.6724  -0.9051  -0.3168   0.1202   0.3202   0.6003
     0.6841   1.0530   2.1830   3.4822   4.0837   4.4491

          k = 0.1000 0.5196 0.0000 ( 12858 PWs)   bands (ev):

   -59.4025 -33.6958 -33.5239 -33.4498 -11.6262 -10.8560  -5.0604  -4.1760
    -3.3029  -2.2684  -1.9418  -0.9958  -0.3268   0.2494   0.4402   0.6355
     0.8188   1.1428   2.7956   3.7736   4.2456   4.5567

          k = 0.1000 0.5196-0.0871 ( 12862 PWs)   bands (ev):

   -59.4025 -33.6958 -33.5239 -33.4497 -11.6262 -10.8560  -5.0604  -4.1760
    -3.3029  -2.2684  -1.9418  -0.9958  -0.3268   0.2494   0.4402   0.6355
     0.8188   1.1428   2.7956   3.7736   4.2456   4.5567

          k = 0.2000 0.3464 0.0000 ( 12917 PWs)   bands (ev):

   -59.4104 -33.6083 -33.5384 -33.4466 -12.0722 -11.1676  -4.1384  -3.8073
    -3.1644  -2.4686  -1.6614  -0.9870  -0.3730   0.0807   0.2192   0.6289
     0.8595   0.9515   2.0402   3.4535   3.9563   4.1970

          k = 0.2000 0.3464-0.0871 ( 12918 PWs)   bands (ev):

   -59.4104 -33.6083 -33.5384 -33.4466 -12.0722 -11.1676  -4.1384  -3.8073
    -3.1644  -2.4686  -1.6614  -0.9870  -0.3730   0.0807   0.2192   0.6289
     0.8595   0.9515   2.0402   3.4535   3.9563   4.1970

          k = 0.2000 0.4619 0.0000 ( 12869 PWs)   bands (ev):

   -59.4025 -33.6553 -33.5239 -33.4917 -11.6425 -10.8586  -4.6209  -3.8862
    -3.4813  -2.7414  -1.9401  -1.2871  -0.2671   0.1199   0.2871   0.7265
     0.8871   1.0636   2.4611   3.7568   4.2111   4.5610

          k = 0.2000 0.4619-0.0871 ( 12868 PWs)   bands (ev):

   -59.4025 -33.6553 -33.5239 -33.4917 -11.6425 -10.8586  -4.6209  -3.8862
    -3.4813  -2.7414  -1.9401  -1.2871  -0.2671   0.1199   0.2871   0.7265
     0.8871   1.0636   2.4611   3.7568   4.2111   4.5610

          k = 0.2000 0.5774 0.0000 ( 12850 PWs)   bands (ev):

   -59.3995 -33.6717 -33.5184 -33.5102 -11.4622 -10.7239  -4.8666  -4.0338
    -3.5061  -2.7534  -2.1224  -1.4217  -0.2421   0.1913   0.3304   0.7469
     0.9951   1.0763   3.0601   3.5017   4.0748   4.8540

          k = 0.2000 0.5774-0.0871 ( 12850 PWs)   bands (ev):

   -59.3995 -33.6717 -33.5184 -33.5102 -11.4622 -10.7239  -4.8666  -4.0338
    -3.5061  -2.7534  -2.1224  -1.4217  -0.2421   0.1913   0.3304   0.7469
     0.9951   1.0763   3.0601   3.5017   4.0748   4.8540

          k = 0.3000 0.5196 0.0000 ( 12860 PWs)   bands (ev):

   -59.3984 -33.6371 -33.5591 -33.5161 -11.4012 -10.6723  -4.5678  -4.0492
    -3.5327  -3.1540  -2.2761  -1.5032  -0.1794   0.1621   0.2726   0.8291
     0.9961   1.0806   2.9823   3.4016   4.0058   5.4061

          k = 0.3000 0.5196-0.0871 ( 12870 PWs)   bands (ev):

   -59.3984 -33.6371 -33.5591 -33.5161 -11.4012 -10.6723  -4.5678  -4.0492
    -3.5327  -3.1540  -2.2761  -1.5032  -0.1794   0.1621   0.2726   0.8291
     0.9961   1.0806   2.9823   3.4016   4.0058   5.4061

 ------ SPIN DOWN ----------


          k = 0.0000 0.0000 0.0000 ( 12991 PWs)   bands (ev):

   -59.5055 -33.6667 -33.4137 -33.4137 -13.3479 -12.0558  -5.0757  -2.5796
    -1.0336  -1.0336  -0.2443  -0.2443   0.6930   1.4275   1.4275   1.5813
     1.6389   1.6389   1.9328   3.8840   3.8840   4.3158

          k = 0.0000 0.0000-0.0871 ( 12974 PWs)   bands (ev):

   -59.5055 -33.6667 -33.4137 -33.4137 -13.3479 -12.0558  -5.0757  -2.5796
    -1.0336  -1.0336  -0.2443  -0.2443   0.6930   1.4275   1.4275   1.5813
     1.6389   1.6389   1.9328   3.8840   3.8840   4.3158

          k = 0.0000 0.1155 0.0000 ( 12953 PWs)   bands (ev):

   -59.5018 -33.6599 -33.4500 -33.4220 -13.2112 -11.9632  -4.9212  -2.5443
    -1.4132  -0.9249  -0.6837  -0.4610   0.6965   1.1200   1.4650   1.5379
     1.6763   1.8224   2.3306   3.5654   3.8638   4.0718

          k = 0.0000 0.1155-0.0871 ( 12970 PWs)   bands (ev):

   -59.5018 -33.6599 -33.4500 -33.4220 -13.2112 -11.9632  -4.9212  -2.5443
    -1.4132  -0.9249  -0.6837  -0.4610   0.6965   1.1200   1.4650   1.5379
     1.6763   1.8224   2.3306   3.5653   3.8638   4.0718

          k = 0.0000 0.2309 0.0000 ( 12929 PWs)   bands (ev):

   -59.4922 -33.6421 -33.5440 -33.4438 -12.8286 -11.7045  -4.5366  -2.7031
    -2.2859  -1.3553  -0.9533  -0.6592   0.6738   0.7384   1.4167   1.5962
     1.7996   1.9448   2.6983   3.4575   3.7119   4.0153

          k = 0.0000 0.2309-0.0871 ( 12940 PWs)   bands (ev):

   -59.4922 -33.6421 -33.5440 -33.4438 -12.8286 -11.7045  -4.5366  -2.7031
    -2.2859  -1.3553  -0.9533  -0.6592   0.6738   0.7384   1.4167   1.5962
     1.7996   1.9448   2.6983   3.4575   3.7119   4.0155

          k = 0.0000 0.3464 0.0000 ( 12915 PWs)   bands (ev):

   -59.4803 -33.6596 -33.6187 -33.4707 -12.2900 -11.3417  -4.2248  -3.6682
    -2.8939  -1.6395  -1.4233  -0.4664   0.2910   0.9577   1.3473   1.8270
     1.9861   2.0737   2.6658   3.5728   3.8782   4.6928

          k = 0.0000 0.3464-0.0871 ( 12918 PWs)   bands (ev):

   -59.4803 -33.6596 -33.6187 -33.4707 -12.2900 -11.3417  -4.2248  -3.6682
    -2.8939  -1.6395  -1.4233  -0.4664   0.2910   0.9577   1.3473   1.8270
     1.9861   2.0737   2.6658   3.5728   3.8781   4.6930

          k = 0.0000 0.4619 0.0000 ( 12872 PWs)   bands (ev):

   -59.4706 -33.7503 -33.6012 -33.4923 -11.7763 -10.9928  -4.8070  -4.1168
    -3.1522  -1.8324  -1.7494  -0.4106   0.2376   1.0613   1.6251   2.0711
     2.1775   2.3940   2.8608   3.5918   4.1583   5.0380

          k = 0.0000 0.4619-0.0871 ( 12884 PWs)   bands (ev):

   -59.4706 -33.7503 -33.6012 -33.4923 -11.7763 -10.9928  -4.8070  -4.1168
    -3.1522  -1.8324  -1.7494  -0.4106   0.2376   1.0613   1.6251   2.0711
     2.1775   2.3940   2.8608   3.5918   4.1583   5.0380

          k = 0.0000-0.5774 0.0000 ( 12854 PWs)   bands (ev):

   -59.4669 -33.7848 -33.5943 -33.5005 -11.5545 -10.8372  -5.2034  -4.2586
    -3.1788  -1.9299  -1.8640  -0.4104   0.3111   1.0394   1.8274   2.1761
     2.3262   2.5116   3.2166   3.6802   4.0131   5.0276

          k = 0.0000-0.5774-0.0871 ( 12864 PWs)   bands (ev):

   -59.4669 -33.7848 -33.5943 -33.5005 -11.5545 -10.8372  -5.2034  -4.2586
    -3.1788  -1.9299  -1.8640  -0.4104   0.3111   1.0394   1.8274   2.1761
     2.3263   2.5116   3.2166   3.6802   4.0131   5.0276

          k = 0.1000 0.1732 0.0000 ( 12937 PWs)   bands (ev):

   -59.4952 -33.6476 -33.5125 -33.4398 -12.9512 -11.7872  -4.6475  -2.5740
    -2.0158  -1.2318  -0.8821  -0.7369   0.6813   0.8551   1.4656   1.5927
     1.7106   1.9485   2.7945   3.1878   3.7955   3.8936

          k = 0.1000 0.1732-0.0871 ( 12920 PWs)   bands (ev):

   -59.4952 -33.6476 -33.5125 -33.4398 -12.9512 -11.7872  -4.6475  -2.5740
    -2.0158  -1.2318  -0.8821  -0.7369   0.6813   0.8551   1.4656   1.5927
     1.7106   1.9485   2.7945   3.1878   3.7956   3.8936

          k = 0.1000 0.2887 0.0000 ( 12944 PWs)   bands (ev):

   -59.4844 -33.6289 -33.6090 -33.4705 -12.4876 -11.4735  -4.2568  -3.1736
    -2.6714  -1.8258  -1.2169  -0.6515   0.4609   0.7859   1.3909   1.7506
     1.9755   2.0343   2.7824   3.2699   3.9389   4.0585

          k = 0.1000 0.2887-0.0871 ( 12926 PWs)   bands (ev):

   -59.4844 -33.6289 -33.6090 -33.4705 -12.4876 -11.4735  -4.2568  -3.1736
    -2.6714  -1.8258  -1.2169  -0.6515   0.4609   0.7859   1.3909   1.7506
     1.9755   2.0343   2.7824   3.2699   3.9389   4.0586

          k = 0.1000 0.4041 0.0000 ( 12898 PWs)   bands (ev):

   -59.4736 -33.7071 -33.6067 -33.5014 -11.9501 -11.1080  -4.3559  -3.9030
    -3.1335  -2.0931  -1.5076  -0.7571   0.3201   1.0875   1.4173   1.9100
     2.0948   2.3788   2.7293   3.5770   4.1848   4.5556

          k = 0.1000 0.4041-0.0871 ( 12884 PWs)   bands (ev):

   -59.4736 -33.7071 -33.6067 -33.5014 -11.9501 -11.1080  -4.3559  -3.9030
    -3.1335  -2.0931  -1.5076  -0.7571   0.3201   1.0875   1.4173   1.9100
     2.0948   2.3788   2.7293   3.5770   4.1848   4.5556

          k = 0.1000 0.5196 0.0000 ( 12858 PWs)   bands (ev):

   -59.4669 -33.7657 -33.5943 -33.5205 -11.5648 -10.8390  -4.9960  -4.1352
    -3.2287  -2.1293  -1.8409  -0.8584   0.4555   1.1306   1.7029   2.0404
     2.3031   2.5948   2.9804   3.8107   4.2547   4.6283

          k = 0.1000 0.5196-0.0871 ( 12862 PWs)   bands (ev):

   -59.4669 -33.7657 -33.5943 -33.5205 -11.5648 -10.8390  -4.9960  -4.1352
    -3.2287  -2.1293  -1.8409  -0.8584   0.4555   1.1306   1.7029   2.0404
     2.3031   2.5948   2.9804   3.8107   4.2547   4.6283

          k = 0.2000 0.3464 0.0000 ( 12917 PWs)   bands (ev):

   -59.4748 -33.6785 -33.6087 -33.5174 -12.0167 -11.1498  -4.1014  -3.6544
    -3.1562  -2.3590  -1.5445  -0.8669   0.3084   1.0264   1.3725   1.8619
     2.0970   2.4091   2.7244   3.5634   4.0028   4.3484

          k = 0.2000 0.3464-0.0871 ( 12918 PWs)   bands (ev):

   -59.4748 -33.6785 -33.6087 -33.5174 -12.0167 -11.1498  -4.1014  -3.6544
    -3.1562  -2.3590  -1.5445  -0.8669   0.3084   1.0264   1.3725   1.8618
     2.0970   2.4091   2.7244   3.5634   4.0028   4.3484

          k = 0.2000 0.4619 0.0000 ( 12869 PWs)   bands (ev):

   -59.4669 -33.7253 -33.5944 -33.5623 -11.5815 -10.8415  -4.5496  -3.8336
    -3.4025  -2.6087  -1.9020  -1.2110   0.5078   1.2572   1.4803   1.8839
     2.2816   2.6600   2.7842   3.8093   4.2125   4.6601

          k = 0.2000 0.4619-0.0871 ( 12868 PWs)   bands (ev):

   -59.4669 -33.7253 -33.5943 -33.5623 -11.5815 -10.8415  -4.5496  -3.8336
    -3.4025  -2.6087  -1.9020  -1.2110   0.5078   1.2572   1.4803   1.8839
     2.2816   2.6600   2.7842   3.8093   4.2125   4.6601

          k = 0.2000 0.5774 0.0000 ( 12850 PWs)   bands (ev):

   -59.4639 -33.7417 -33.5889 -33.5808 -11.3988 -10.7069  -4.7972  -4.0029
    -3.4087  -2.5858  -2.1113  -1.3798   0.6975   1.2741   1.6137   1.9495
     2.3097   2.6868   3.1901   3.5767   4.1546   4.9377

          k = 0.2000 0.5774-0.0871 ( 12850 PWs)   bands (ev):

   -59.4639 -33.7417 -33.5889 -33.5808 -11.3988 -10.7069  -4.7972  -4.0029
    -3.4087  -2.5858  -2.1113  -1.3798   0.6975   1.2741   1.6137   1.9495
     2.3097   2.6868   3.1901   3.5767   4.1546   4.9377

          k = 0.3000 0.5196 0.0000 ( 12860 PWs)   bands (ev):

   -59.4628 -33.7072 -33.6296 -33.5866 -11.3370 -10.6553  -4.4986  -3.9973
    -3.3981  -3.0902  -2.2486  -1.4646   0.8333   1.3245   1.5332   1.9163
     2.3299   2.6682   3.0962   3.4478   4.1700   5.4947

          k = 0.3000 0.5196-0.0871 ( 12870 PWs)   bands (ev):

   -59.4628 -33.7072 -33.6296 -33.5866 -11.3370 -10.6553  -4.4986  -3.9973
    -3.3981  -3.0902  -2.2486  -1.4646   0.8333   1.3245   1.5332   1.9163
     2.3299   2.6682   3.0962   3.4478   4.1700   5.4947

     the Fermi energy is     2.1003 ev

!    total energy              =    -658.55886587 Ry
     total all-electron energy =    -12481.732757 Ry
     estimated scf accuracy    <       0.00000013 Ry
     smearing contrib. (-TS)   =      -0.00933604 Ry
     internal energy E=F+TS    =    -658.54952983 Ry

     The total energy is F=E-TS. E is the sum of the following terms:
     one-electron contribution =   -1264.40037054 Ry
     hartree contribution      =     646.03868111 Ry
     xc contribution           =     -62.28441651 Ry
     ewald contribution        =     428.23336113 Ry
     one-center paw contrib.   =    -406.13678502 Ry

     total magnetization       =     1.72 Bohr mag/cell
     absolute magnetization    =     2.07 Bohr mag/cell

     convergence has been achieved in  11 iterations

     negative rho (up, down):  2.189E-04 2.142E-04

     Forces acting on atoms (cartesian axes, Ry/au):

     atom    1 type  1   force =     0.00000000    0.00000000    0.02162688
     atom    2 type  2   force =     0.00000000    0.00000000   -0.01173679
     atom    3 type  2   force =     0.00000000    0.00000000    0.01495151
     atom    4 type  3   force =     0.00000000    0.00000000   -0.02484160
     The non-local contrib.  to forces
     atom    1 type  1   force =     0.00000000   -0.00000000   -0.08251938
     atom    2 type  2   force =     0.00000000    0.00000000   -0.02382381
     atom    3 type  2   force =     0.00000000    0.00000000    0.27150824
     atom    4 type  3   force =     0.00000000    0.00000000    0.09762308
     The ionic contribution  to forces
     atom    1 type  1   force =     0.00000000   -0.00000000  -32.25503441
     atom    2 type  2   force =    -0.00000000    0.00000000   18.50809369
     atom    3 type  2   force =    -0.00000000    0.00000000  -44.90825978
     atom    4 type  3   force =     0.00000000   -0.00000000   58.65520050
     The local contribution  to forces
     atom    1 type  1   force =    -0.00000000   -0.00000000   32.35249051
     atom    2 type  2   force =    -0.00000000    0.00000000  -18.49558849
     atom    3 type  2   force =    -0.00000000    0.00000000   44.65343063
     atom    4 type  3   force =     0.00000000   -0.00000000  -58.76127039
     The core correction contribution to forces
     atom    1 type  1   force =     0.00000000   -0.00000000    0.00513076
     atom    2 type  2   force =     0.00000000   -0.00000000   -0.00043590
     atom    3 type  2   force =     0.00000000   -0.00000000   -0.00232623
     atom    4 type  3   force =     0.00000000   -0.00000000   -0.01628191
     The Hubbard contrib.    to forces
     atom    1 type  1   force =     0.00000000    0.00000000    0.00000000
     atom    2 type  2   force =     0.00000000    0.00000000    0.00000000
     atom    3 type  2   force =     0.00000000    0.00000000    0.00000000
     atom    4 type  3   force =     0.00000000    0.00000000    0.00000000
     The SCF correction term to forces
     atom    1 type  1   force =     0.00000000    0.00000000    0.00147041
     atom    2 type  2   force =     0.00000000    0.00000000   -0.00007128
     atom    3 type  2   force =    -0.00000000   -0.00000000    0.00050964
     atom    4 type  3   force =    -0.00000000    0.00000000   -0.00020189

     Total force =     0.038028     Total SCF correction =     0.001571


     Computing stress (Cartesian axis) and pressure


     negative rho (up, down):  2.189E-04 2.142E-04
          total   stress  (Ry/bohr**3)                   (kbar)     P=      -30.84
  -0.00020051  -0.00000000   0.00000000          -29.50       -0.00        0.00
  -0.00000000  -0.00020051   0.00000000           -0.00      -29.50        0.00
   0.00000000   0.00000000  -0.00022790            0.00        0.00      -33.53

     Energy error            =      3.7E-03 Ry
     Gradient error          =      2.5E-02 Ry/Bohr

     number of scf cycles    =   9
     number of bfgs steps    =   8

     energy             old  =    -658.5551318753 Ry
     energy             new  =    -658.5588658743 Ry

     CASE: energy            _new < energy            _old

     new trust radius        =       0.2351690847 bohr
     new conv_thr            =       0.0000002484 Ry


ATOMIC_POSITIONS (crystal)
Mo            0.0000000000        0.0000000000        0.5012085159
S             0.6666666667        0.3333333333        0.6037491377
S             0.6666666667        0.3333333333        0.4152087999
Co            0.3333333333        0.6666666667        0.6774696103



     Writing config-only to output data dir ./tmp/relax.save/
     NEW-OLD atomic charge density approx. for the potential

     negative rho (up, down):  2.379E-04 3.910E-04
     Generating pointlists ...
     new r_m :   0.2953 (alat units)  1.7681 (a.u.) for type    2
     new r_m :   0.2953 (alat units)  1.7681 (a.u.) for type    3

     total cpu time spent up to now is      284.3 secs

     Self-consistent Calculation

     iteration #  1     ecut=    80.00 Ry     beta= 0.70
     Davidson diagonalization with overlap
     c_bands:  1 eigenvalues not converged
     c_bands:  1 eigenvalues not converged
     c_bands:  2 eigenvalues not converged
     c_bands:  2 eigenvalues not converged
     c_bands:  3 eigenvalues not converged
     c_bands:  3 eigenvalues not converged
     c_bands:  5 eigenvalues not converged
     c_bands:  5 eigenvalues not converged
     c_bands:  5 eigenvalues not converged
     c_bands:  5 eigenvalues not converged
     c_bands:  1 eigenvalues not converged
     c_bands:  1 eigenvalues not converged
     c_bands:  3 eigenvalues not converged
     c_bands:  3 eigenvalues not converged
     ethr =  1.00E-06,  avg # of iterations = 18.7

     negative rho (up, down):  4.358E-04 4.722E-04

     total cpu time spent up to now is      290.3 secs

     total energy              =    -658.42395269 Ry
     estimated scf accuracy    <       0.17943419 Ry

     total magnetization       =     1.12 Bohr mag/cell
     absolute magnetization    =     1.62 Bohr mag/cell

     iteration #  2     ecut=    80.00 Ry     beta= 0.70
     Davidson diagonalization with overlap
     ethr =  5.13E-04,  avg # of iterations = 10.9

     negative rho (up, down):  3.248E-04 3.753E-04

     total cpu time spent up to now is      293.3 secs

     total energy              =    -656.68629998 Ry
     estimated scf accuracy    <     108.78289350 Ry

     total magnetization       =     0.26 Bohr mag/cell
     absolute magnetization    =     0.29 Bohr mag/cell

     iteration #  3     ecut=    80.00 Ry     beta= 0.70
     Davidson diagonalization with overlap
     ethr =  5.13E-04,  avg # of iterations =  9.1

     negative rho (up, down):  2.547E-04 2.863E-04

     total cpu time spent up to now is      296.2 secs

     total energy              =    -658.50005850 Ry
     estimated scf accuracy    <       0.57057063 Ry

     total magnetization       =     1.67 Bohr mag/cell
     absolute magnetization    =     1.93 Bohr mag/cell

     iteration #  4     ecut=    80.00 Ry     beta= 0.70
     Davidson diagonalization with overlap
     ethr =  5.13E-04,  avg # of iterations =  2.3

     negative rho (up, down):  2.430E-04 2.382E-04

     total cpu time spent up to now is      298.1 secs

     total energy              =    -658.56127225 Ry
     estimated scf accuracy    <       0.01101863 Ry

     total magnetization       =     1.29 Bohr mag/cell
     absolute magnetization    =     1.72 Bohr mag/cell

     iteration #  5     ecut=    80.00 Ry     beta= 0.70
     Davidson diagonalization with overlap
     ethr =  3.15E-05,  avg # of iterations =  6.8

     negative rho (up, down):  2.440E-04 2.313E-04

     total cpu time spent up to now is      300.3 secs

     total energy              =    -658.56149431 Ry
     estimated scf accuracy    <       0.01501896 Ry

     total magnetization       =     1.28 Bohr mag/cell
     absolute magnetization    =     1.70 Bohr mag/cell

     iteration #  6     ecut=    80.00 Ry     beta= 0.70
     Davidson diagonalization with overlap
     ethr =  3.15E-05,  avg # of iterations =  2.8

     negative rho (up, down):  2.567E-04 2.365E-04

     total cpu time spent up to now is      302.2 secs

     total energy              =    -658.56335625 Ry
     estimated scf accuracy    <       0.00486593 Ry

     total magnetization       =     1.30 Bohr mag/cell
     absolute magnetization    =     1.74 Bohr mag/cell

     iteration #  7     ecut=    80.00 Ry     beta= 0.70
     Davidson diagonalization with overlap
     ethr =  1.39E-05,  avg # of iterations =  1.7

     negative rho (up, down):  2.619E-04 2.371E-04

     total cpu time spent up to now is      303.9 secs

     total energy              =    -658.56372634 Ry
     estimated scf accuracy    <       0.00103693 Ry

     total magnetization       =     1.28 Bohr mag/cell
     absolute magnetization    =     1.71 Bohr mag/cell

     iteration #  8     ecut=    80.00 Ry     beta= 0.70
     Davidson diagonalization with overlap
     ethr =  2.96E-06,  avg # of iterations =  2.1

     negative rho (up, down):  2.592E-04 2.336E-04

     total cpu time spent up to now is      305.7 secs

     total energy              =    -658.56380941 Ry
     estimated scf accuracy    <       0.00020463 Ry

     total magnetization       =     1.28 Bohr mag/cell
     absolute magnetization    =     1.70 Bohr mag/cell

     iteration #  9     ecut=    80.00 Ry     beta= 0.70
     Davidson diagonalization with overlap
     ethr =  5.85E-07,  avg # of iterations =  2.0

     negative rho (up, down):  2.552E-04 2.300E-04

     total cpu time spent up to now is      307.4 secs

     total energy              =    -658.56383089 Ry
     estimated scf accuracy    <       0.00004166 Ry

     total magnetization       =     1.26 Bohr mag/cell
     absolute magnetization    =     1.69 Bohr mag/cell

     iteration # 10     ecut=    80.00 Ry     beta= 0.70
     Davidson diagonalization with overlap
     ethr =  1.19E-07,  avg # of iterations =  2.9

     negative rho (up, down):  2.332E-04 2.106E-04

     total cpu time spent up to now is      309.2 secs

     total energy              =    -658.56382770 Ry
     estimated scf accuracy    <       0.00004877 Ry

     total magnetization       =     1.26 Bohr mag/cell
     absolute magnetization    =     1.68 Bohr mag/cell

     iteration # 11     ecut=    80.00 Ry     beta= 0.70
     Davidson diagonalization with overlap
     ethr =  1.19E-07,  avg # of iterations =  2.9

     negative rho (up, down):  2.400E-04 2.168E-04

     total cpu time spent up to now is      311.1 secs

     total energy              =    -658.56385882 Ry
     estimated scf accuracy    <       0.00002503 Ry

     total magnetization       =     1.24 Bohr mag/cell
     absolute magnetization    =     1.66 Bohr mag/cell

     iteration # 12     ecut=    80.00 Ry     beta= 0.70
     Davidson diagonalization with overlap
     ethr =  7.15E-08,  avg # of iterations =  2.4

     negative rho (up, down):  2.400E-04 2.168E-04

     total cpu time spent up to now is      312.9 secs

     total energy              =    -658.56386179 Ry
     estimated scf accuracy    <       0.00000506 Ry

     total magnetization       =     1.24 Bohr mag/cell
     absolute magnetization    =     1.66 Bohr mag/cell

     iteration # 13     ecut=    80.00 Ry     beta= 0.70
     Davidson diagonalization with overlap
     ethr =  1.44E-08,  avg # of iterations =  2.7

     negative rho (up, down):  2.413E-04 2.180E-04

     total cpu time spent up to now is      314.7 secs

     total energy              =    -658.56386284 Ry
     estimated scf accuracy    <       0.00000065 Ry

     total magnetization       =     1.24 Bohr mag/cell
     absolute magnetization    =     1.66 Bohr mag/cell

     iteration # 14     ecut=    80.00 Ry     beta= 0.70
     Davidson diagonalization with overlap
     ethr =  1.85E-09,  avg # of iterations =  5.3

     negative rho (up, down):  2.415E-04 2.182E-04

     total cpu time spent up to now is      316.9 secs

     total energy              =    -658.56386370 Ry
     estimated scf accuracy    <       0.00000030 Ry

     total magnetization       =     1.24 Bohr mag/cell
     absolute magnetization    =     1.65 Bohr mag/cell

     iteration # 15     ecut=    80.00 Ry     beta= 0.70
     Davidson diagonalization with overlap
     ethr =  8.62E-10,  avg # of iterations =  2.3

     negative rho (up, down):  2.414E-04 2.181E-04
 
     Magnetic moment per site  (integrated on atomic sphere of radius R)
     atom   1 (R=0.313)  charge= 10.7114  magn= -0.0970
     atom   2 (R=0.295)  charge=  3.7507  magn=  0.0222
     atom   3 (R=0.295)  charge=  3.7180  magn=  0.0156
     atom   4 (R=0.295)  charge=  7.1054  magn=  1.3117

     total cpu time spent up to now is      318.7 secs

     End of self-consistent calculation

 ------ SPIN UP ------------


          k = 0.0000 0.0000 0.0000 ( 12991 PWs)   bands (ev):

   -59.3346 -33.5009 -33.2291 -33.2291 -13.5563 -12.0645  -5.1193  -2.7133
    -1.4296  -1.4296  -0.6540  -0.6540   0.4524   0.5649   0.5649   0.9528
     0.9528   0.9937   2.0037   3.6248   3.6248   4.3935

          k = 0.0000 0.0000-0.0871 ( 12974 PWs)   bands (ev):

   -59.3346 -33.5009 -33.2291 -33.2291 -13.5563 -12.0645  -5.1193  -2.7133
    -1.4296  -1.4296  -0.6540  -0.6540   0.4524   0.5649   0.5649   0.9528
     0.9528   0.9937   2.0037   3.6248   3.6248   4.3935

          k = 0.0000 0.1155 0.0000 ( 12953 PWs)   bands (ev):

   -59.3309 -33.4942 -33.2652 -33.2375 -13.4250 -11.9664  -4.9700  -2.6532
    -1.8144  -1.4523  -0.9476  -0.6384   0.2484   0.4496   0.5240   0.9510
     0.9640   1.1076   2.2845   3.3012   3.6012   4.1584

          k = 0.0000 0.1155-0.0871 ( 12970 PWs)   bands (ev):

   -59.3309 -33.4942 -33.2652 -33.2375 -13.4250 -11.9664  -4.9700  -2.6532
    -1.8144  -1.4523  -0.9476  -0.6384   0.2484   0.4496   0.5240   0.9510
     0.9640   1.1076   2.2845   3.3011   3.6012   4.1584

          k = 0.0000 0.2309 0.0000 ( 12929 PWs)   bands (ev):

   -59.3214 -33.4766 -33.3588 -33.2592 -13.0573 -11.6928  -4.5933  -2.9087
    -2.5173  -1.5912  -1.4939  -0.6341   0.0246   0.2973   0.5526   0.8790
     1.0815   1.0839   2.3432   3.3768   3.4748   4.0977

          k = 0.0000 0.2309-0.0871 ( 12940 PWs)   bands (ev):

   -59.3214 -33.4766 -33.3588 -33.2592 -13.0573 -11.6928  -4.5933  -2.9087
    -2.5173  -1.5912  -1.4939  -0.6341   0.0246   0.2973   0.5526   0.8790
     1.0815   1.0839   2.3432   3.3767   3.4748   4.0978

          k = 0.0000 0.3464 0.0000 ( 12915 PWs)   bands (ev):

   -59.3095 -33.4751 -33.4523 -33.2860 -12.5393 -11.3104  -4.2306  -4.0481
    -2.9178  -1.8496  -1.7571  -0.6809   0.0194   0.1988   0.6100   0.7073
     1.1129   1.3824   2.2636   3.4208   3.9301   4.6706

          k = 0.0000 0.3464-0.0871 ( 12918 PWs)   bands (ev):

   -59.3095 -33.4751 -33.4523 -33.2860 -12.5393 -11.3104  -4.2306  -4.0481
    -2.9178  -1.8496  -1.7571  -0.6809   0.0194   0.1988   0.6100   0.7073
     1.1129   1.3824   2.2636   3.4208   3.9301   4.6708

          k = 0.0000 0.4619 0.0000 ( 12872 PWs)   bands (ev):

   -59.2999 -33.5642 -33.4361 -33.3075 -12.0431 -10.9463  -5.0512  -4.1839
    -3.2024  -2.0782  -1.9535  -0.7485  -0.0678   0.4579   0.6391   0.8895
     1.0857   1.6161   2.6394   3.6258   4.2275   4.9539

          k = 0.0000 0.4619-0.0871 ( 12884 PWs)   bands (ev):

   -59.2999 -33.5642 -33.4361 -33.3075 -12.0431 -10.9463  -5.0512  -4.1839
    -3.2024  -2.0782  -1.9535  -0.7485  -0.0678   0.4579   0.6391   0.8895
     1.0857   1.6161   2.6394   3.6258   4.2275   4.9539

          k = 0.0000-0.5774 0.0000 ( 12854 PWs)   bands (ev):

   -59.2962 -33.5985 -33.4293 -33.3157 -11.8271 -10.7868  -5.4513  -4.2906
    -3.2331  -2.1655  -2.0655  -0.7799  -0.0951   0.5640   0.8506   0.9796
     1.0320   1.6643   2.9931   3.8209   4.0639   4.9086

          k = 0.0000-0.5774-0.0871 ( 12864 PWs)   bands (ev):

   -59.2962 -33.5985 -33.4293 -33.3157 -11.8271 -10.7868  -5.4513  -4.2906
    -3.2331  -2.1655  -2.0655  -0.7799  -0.0951   0.5640   0.8506   0.9796
     1.0320   1.6643   2.9931   3.8209   4.0639   4.9086

          k = 0.1000 0.1732 0.0000 ( 12937 PWs)   bands (ev):

   -59.3243 -33.4820 -33.3274 -33.2551 -13.1752 -11.7802  -4.7038  -2.6750
    -2.3792  -1.6032  -1.3429  -0.6711   0.0746   0.2950   0.5838   0.8362
     1.0275   1.2030   2.5513   2.9713   3.6231   3.9681

          k = 0.1000 0.1732-0.0871 ( 12920 PWs)   bands (ev):

   -59.3243 -33.4820 -33.3274 -33.2551 -13.1752 -11.7802  -4.7038  -2.6750
    -2.3792  -1.6032  -1.3429  -0.6711   0.0746   0.2950   0.5838   0.8362
     1.0275   1.2030   2.5514   2.9712   3.6231   3.9681

          k = 0.1000 0.2887 0.0000 ( 12944 PWs)   bands (ev):

   -59.3136 -33.4630 -33.4240 -33.2858 -12.7295 -11.4492  -4.3054  -3.5266
    -2.7218  -2.0116  -1.6287  -0.7255  -0.0749   0.2566   0.6338   0.6855
     1.0935   1.3673   2.3527   3.1151   3.9318   4.1175

          k = 0.1000 0.2887-0.0871 ( 12926 PWs)   bands (ev):

   -59.3136 -33.4630 -33.4240 -33.2858 -12.7295 -11.4492  -4.3054  -3.5266
    -2.7218  -2.0116  -1.6287  -0.7255  -0.0749   0.2566   0.6338   0.6855
     1.0935   1.3673   2.3527   3.1151   3.9317   4.1176

          k = 0.1000 0.4041 0.0000 ( 12898 PWs)   bands (ev):

   -59.3028 -33.5213 -33.4415 -33.3166 -12.2116 -11.0664  -4.5651  -4.0607
    -3.1512  -2.3430  -1.7514  -0.8886  -0.0766   0.3153   0.5658   0.8811
     1.1632   1.4874   2.3643   3.5704   4.2476   4.5714

          k = 0.1000 0.4041-0.0871 ( 12884 PWs)   bands (ev):

   -59.3028 -33.5213 -33.4415 -33.3166 -12.2116 -11.0664  -4.5651  -4.0607
    -3.1512  -2.3430  -1.7514  -0.8886  -0.0766   0.3153   0.5658   0.8811
     1.1632   1.4874   2.3643   3.5704   4.2476   4.5714

          k = 0.1000 0.5196 0.0000 ( 12858 PWs)   bands (ev):

   -59.2962 -33.5794 -33.4294 -33.3356 -11.8377 -10.7891  -5.2511  -4.1687
    -3.2753  -2.4803  -1.9456  -1.0134  -0.0840   0.4923   0.7247   1.0036
     1.1703   1.5721   2.8163   3.8452   4.3125   4.5867

          k = 0.1000 0.5196-0.0871 ( 12862 PWs)   bands (ev):

   -59.2962 -33.5794 -33.4294 -33.3356 -11.8377 -10.7891  -5.2511  -4.1687
    -3.2753  -2.4803  -1.9456  -1.0134  -0.0840   0.4923   0.7247   1.0036
     1.1703   1.5721   2.8163   3.8452   4.3125   4.5867

          k = 0.2000 0.3464 0.0000 ( 12917 PWs)   bands (ev):

   -59.3040 -33.4930 -33.4433 -33.3325 -12.2760 -11.1105  -4.2218  -3.9707
    -3.1164  -2.6453  -1.7087  -0.9452  -0.1995   0.2937   0.5256   0.9013
     1.2075   1.4609   2.2699   3.5405   4.0571   4.4290

          k = 0.2000 0.3464-0.0871 ( 12918 PWs)   bands (ev):

   -59.3040 -33.4930 -33.4433 -33.3325 -12.2760 -11.1105  -4.2218  -3.9707
    -3.1164  -2.6453  -1.7087  -0.9452  -0.1995   0.2937   0.5256   0.9013
     1.2075   1.4609   2.2699   3.5405   4.0571   4.4290

          k = 0.2000 0.4619 0.0000 ( 12869 PWs)   bands (ev):

   -59.2962 -33.5392 -33.4293 -33.3772 -11.8547 -10.7926  -4.8104  -3.8886
    -3.4789  -2.9497  -1.9083  -1.2672  -0.0951   0.3387   0.6616   1.0460
     1.1953   1.5590   2.5204   3.7684   4.2793   4.7350

          k = 0.2000 0.4619-0.0871 ( 12868 PWs)   bands (ev):

   -59.2962 -33.5392 -33.4293 -33.3772 -11.8547 -10.7926  -4.8104  -3.8886
    -3.4789  -2.9497  -1.9083  -1.2672  -0.0951   0.3387   0.6616   1.0460
     1.1953   1.5590   2.5204   3.7684   4.2793   4.7350

          k = 0.2000 0.5774 0.0000 ( 12850 PWs)   bands (ev):

   -59.2932 -33.5555 -33.4239 -33.3957 -11.6764 -10.6564  -5.0591  -4.0222
    -3.5151  -2.9759  -2.0634  -1.4005  -0.0494   0.4203   0.7739   1.0094
     1.2796   1.5614   3.0271   3.5451   4.1022   4.9801

          k = 0.2000 0.5774-0.0871 ( 12850 PWs)   bands (ev):

   -59.2932 -33.5555 -33.4239 -33.3957 -11.6764 -10.6564  -5.0591  -4.0222
    -3.5151  -2.9759  -2.0634  -1.4005  -0.0494   0.4203   0.7739   1.0094
     1.2796   1.5614   3.0271   3.5451   4.1022   4.9801

          k = 0.3000 0.5196 0.0000 ( 12860 PWs)   bands (ev):

   -59.2921 -33.5209 -33.4444 -33.4217 -11.6164 -10.6050  -4.7250  -4.1697
    -3.5767  -3.2030  -2.2574  -1.4634   0.0168   0.3633   0.7788   1.0161
     1.2667   1.5940   3.0129   3.4353   3.9887   5.5480

          k = 0.3000 0.5196-0.0871 ( 12870 PWs)   bands (ev):

   -59.2921 -33.5209 -33.4444 -33.4217 -11.6164 -10.6050  -4.7250  -4.1697
    -3.5767  -3.2030  -2.2574  -1.4634   0.0168   0.3633   0.7788   1.0161
     1.2667   1.5940   3.0129   3.4353   3.9887   5.5482

 ------ SPIN DOWN ----------


          k = 0.0000 0.0000 0.0000 ( 12991 PWs)   bands (ev):

   -59.4167 -33.5869 -33.3213 -33.3213 -13.5255 -12.0478  -5.0904  -2.6673
    -1.0739  -1.0739  -0.4979  -0.4979   0.8382   1.3346   1.3346   1.5718
     1.5718   1.6969   2.0553   4.1312   4.1316   4.4019

          k = 0.0000 0.0000-0.0871 ( 12974 PWs)   bands (ev):

   -59.4167 -33.5869 -33.3213 -33.3213 -13.5255 -12.0478  -5.0904  -2.6673
    -1.0739  -1.0739  -0.4979  -0.4979   0.8382   1.3346   1.3346   1.5718
     1.5718   1.6969   2.0553   4.1312   4.1312   4.4019

          k = 0.0000 0.1155 0.0000 ( 12953 PWs)   bands (ev):

   -59.4130 -33.5802 -33.3573 -33.3296 -13.3937 -11.9494  -4.9388  -2.6146
    -1.5207  -1.0452  -0.8549  -0.5985   0.7676   1.1615   1.3321   1.4544
     1.6261   1.8330   2.4788   3.7967   4.0798   4.1671

          k = 0.0000 0.1155-0.0871 ( 12970 PWs)   bands (ev):

   -59.4130 -33.5802 -33.3573 -33.3296 -13.3937 -11.9494  -4.9388  -2.6146
    -1.5207  -1.0452  -0.8549  -0.5985   0.7676   1.1614   1.3321   1.4543
     1.6261   1.8330   2.4788   3.7967   4.0798   4.1671

          k = 0.0000 0.2309 0.0000 ( 12929 PWs)   bands (ev):

   -59.4035 -33.5628 -33.4506 -33.3513 -13.0242 -11.6753  -4.5559  -2.7883
    -2.4347  -1.4456  -1.2207  -0.6330   0.6813   0.8090   1.3276   1.5059
     1.7268   1.9890   2.7919   3.6790   3.8999   4.1298

          k = 0.0000 0.2309-0.0871 ( 12940 PWs)   bands (ev):

   -59.4035 -33.5628 -33.4506 -33.3513 -13.0242 -11.6753  -4.5559  -2.7883
    -2.4347  -1.4456  -1.2207  -0.6330   0.6813   0.8090   1.3275   1.5059
     1.7268   1.9890   2.7919   3.6789   3.8999   4.1300

          k = 0.0000 0.3464 0.0000 ( 12915 PWs)   bands (ev):

   -59.3916 -33.5663 -33.5390 -33.3780 -12.5027 -11.2925  -4.1996  -3.9317
    -2.8997  -1.7097  -1.5925  -0.5778   0.3407   0.9723   1.2351   1.8785
     1.9609   2.0632   2.6972   3.7285   4.0092   4.8747

          k = 0.0000 0.3464-0.0871 ( 12918 PWs)   bands (ev):

   -59.3916 -33.5663 -33.5390 -33.3780 -12.5027 -11.2925  -4.1996  -3.9317
    -2.8997  -1.7097  -1.5925  -0.5778   0.3407   0.9723   1.2351   1.8785
     1.9609   2.0632   2.6972   3.7285   4.0091   4.8749

          k = 0.0000 0.4619 0.0000 ( 12872 PWs)   bands (ev):

   -59.3820 -33.6555 -33.5227 -33.3995 -12.0020 -10.9283  -4.9886  -4.1514
    -3.1522  -1.9032  -1.8785  -0.5913   0.2541   1.1413   1.4849   2.1100
     2.1912   2.3999   2.8541   3.7034   4.2092   5.0387

          k = 0.0000 0.4619-0.0871 ( 12884 PWs)   bands (ev):

   -59.3820 -33.6555 -33.5227 -33.3995 -12.0020 -10.9283  -4.9886  -4.1514
    -3.1522  -1.9032  -1.8785  -0.5913   0.2541   1.1413   1.4849   2.1100
     2.1912   2.3999   2.8541   3.7034   4.2092   5.0387

          k = 0.0000-0.5774 0.0000 ( 12854 PWs)   bands (ev):

   -59.3783 -33.6897 -33.5160 -33.4077 -11.7835 -10.7688  -5.3992  -4.2687
    -3.1668  -2.0105  -1.9818  -0.6095   0.2937   1.1424   1.7489   2.2258
     2.2697   2.5446   3.1277   3.7808   4.0319   5.0018

          k = 0.0000-0.5774-0.0871 ( 12864 PWs)   bands (ev):

   -59.3783 -33.6897 -33.5160 -33.4077 -11.7835 -10.7688  -5.3992  -4.2687
    -3.1668  -2.0105  -1.9818  -0.6095   0.2937   1.1424   1.7489   2.2258
     2.2697   2.5446   3.1277   3.7808   4.0319   5.0018

          k = 0.1000 0.1732 0.0000 ( 12937 PWs)   bands (ev):

   -59.4064 -33.5682 -33.4193 -33.3472 -13.1428 -11.7628  -4.6680  -2.6187
    -2.1960  -1.3022  -1.2162  -0.6723   0.7228   0.8740   1.3831   1.5076
     1.6221   1.9856   2.9133   3.4256   3.9261   4.0543

          k = 0.1000 0.1732-0.0871 ( 12920 PWs)   bands (ev):

   -59.4064 -33.5682 -33.4193 -33.3472 -13.1428 -11.7628  -4.6680  -2.6187
    -2.1960  -1.3022  -1.2162  -0.6723   0.7228   0.8740   1.3831   1.5076
     1.6221   1.9856   2.9133   3.4256   3.9262   4.0542

          k = 0.1000 0.2887 0.0000 ( 12944 PWs)   bands (ev):

   -59.3957 -33.5495 -33.5155 -33.3778 -12.6944 -11.4315  -4.2634  -3.3953
    -2.7041  -1.8584  -1.4822  -0.6597   0.4530   0.8164   1.2991   1.7602
     1.8686   2.0974   2.8694   3.4315   4.0637   4.2272

          k = 0.1000 0.2887-0.0871 ( 12926 PWs)   bands (ev):

   -59.3957 -33.5495 -33.5155 -33.3778 -12.6944 -11.4315  -4.2634  -3.3953
    -2.7041  -1.8584  -1.4822  -0.6597   0.4530   0.8164   1.2991   1.7602
     1.8686   2.0974   2.8693   3.4315   4.0637   4.2272

          k = 0.1000 0.4041 0.0000 ( 12898 PWs)   bands (ev):

   -59.3850 -33.6127 -33.5280 -33.4086 -12.1722 -11.0484  -4.4908  -4.0065
    -3.1264  -2.1903  -1.6686  -0.7993   0.3029   1.1228   1.2724   2.0286
     2.1310   2.2504   2.8141   3.6532   4.3036   4.6190

          k = 0.1000 0.4041-0.0871 ( 12884 PWs)   bands (ev):

   -59.3850 -33.6127 -33.5280 -33.4086 -12.1722 -11.0484  -4.4908  -4.0065
    -3.1264  -2.1903  -1.6686  -0.7993   0.3029   1.1228   1.2724   2.0286
     2.1310   2.2504   2.8141   3.6532   4.3035   4.6190

          k = 0.1000 0.5196 0.0000 ( 12858 PWs)   bands (ev):

   -59.3783 -33.6707 -33.5160 -33.4276 -11.7943 -10.7711  -5.1944  -4.1418
    -3.2164  -2.3057  -1.9089  -0.9320   0.3978   1.2095   1.5754   2.1852
     2.2804   2.5236   2.9576   3.8388   4.3085   4.6519

          k = 0.1000 0.5196-0.0871 ( 12862 PWs)   bands (ev):

   -59.3783 -33.6707 -33.5160 -33.4276 -11.7943 -10.7711  -5.1944  -4.1418
    -3.2164  -2.3057  -1.9089  -0.9320   0.3978   1.2095   1.5754   2.1852
     2.2804   2.5236   2.9576   3.8388   4.3085   4.6519

          k = 0.2000 0.3464 0.0000 ( 12917 PWs)   bands (ev):

   -59.3861 -33.5844 -33.5298 -33.4244 -12.2372 -11.0925  -4.1468  -3.8859
    -3.1150  -2.5025  -1.6575  -0.8811   0.2676   1.0171   1.2647   1.9713
     2.1352   2.2613   2.8917   3.6107   4.0683   4.4977

          k = 0.2000 0.3464-0.0871 ( 12918 PWs)   bands (ev):

   -59.3861 -33.5844 -33.5298 -33.4244 -12.2372 -11.0925  -4.1468  -3.8859
    -3.1150  -2.5025  -1.6575  -0.8811   0.2676   1.0171   1.2647   1.9713
     2.1352   2.2612   2.8917   3.6107   4.0683   4.4976

          k = 0.2000 0.4619 0.0000 ( 12869 PWs)   bands (ev):

   -59.3783 -33.6306 -33.5160 -33.4691 -11.8116 -10.7746  -4.7423  -3.8416
    -3.4255  -2.8303  -1.9006  -1.2246   0.4687   1.2350   1.3370   2.0771
     2.2389   2.5941   2.8378   3.7849   4.2659   4.7507

          k = 0.2000 0.4619-0.0871 ( 12868 PWs)   bands (ev):

   -59.3783 -33.6306 -33.5160 -33.4691 -11.8116 -10.7746  -4.7423  -3.8416
    -3.4255  -2.8303  -1.9006  -1.2246   0.4687   1.2350   1.3370   2.0771
     2.2389   2.5941   2.8378   3.7849   4.2660   4.7507

          k = 0.2000 0.5774 0.0000 ( 12850 PWs)   bands (ev):

   -59.3753 -33.6468 -33.5106 -33.4875 -11.6311 -10.6384  -5.0000  -3.9900
    -3.4404  -2.8480  -2.0657  -1.3809   0.6377   1.2956   1.4624   2.1559
     2.1977   2.7544   3.1054   3.5531   4.1638   5.0136

          k = 0.2000 0.5774-0.0871 ( 12850 PWs)   bands (ev):

   -59.3753 -33.6468 -33.5106 -33.4875 -11.6311 -10.6384  -5.0000  -3.9900
    -3.4404  -2.8480  -2.0657  -1.3809   0.6377   1.2956   1.4624   2.1559
     2.1977   2.7544   3.1054   3.5531   4.1638   5.0136

          k = 0.3000 0.5196 0.0000 ( 12860 PWs)   bands (ev):

   -59.3742 -33.6124 -33.5361 -33.5084 -11.5705 -10.5869  -4.6621  -4.1070
    -3.4803  -3.1706  -2.2438  -1.4494   0.8286   1.2471   1.3753   2.1147
     2.1970   2.8017   3.0665   3.4446   4.1056   5.5553

          k = 0.3000 0.5196-0.0871 ( 12870 PWs)   bands (ev):

   -59.3742 -33.6124 -33.5361 -33.5084 -11.5705 -10.5869  -4.6621  -4.1070
    -3.4803  -3.1706  -2.2438  -1.4494   0.8286   1.2471   1.3753   2.1147
     2.1970   2.8017   3.0665   3.4446   4.1056   5.5553

     the Fermi energy is     2.1973 ev

!    total energy              =    -658.56386386 Ry
     total all-electron energy =    -12481.737755 Ry
     estimated scf accuracy    <       0.00000009 Ry
     smearing contrib. (-TS)   =      -0.01005683 Ry
     internal energy E=F+TS    =    -658.55380704 Ry

     The total energy is F=E-TS. E is the sum of the following terms:
     one-electron contribution =   -1291.61312226 Ry
     hartree contribution      =     659.72579335 Ry
     xc contribution           =     -62.33889316 Ry
     ewald contribution        =     441.80394046 Ry
     one-center paw contrib.   =    -406.13152543 Ry

     total magnetization       =     1.24 Bohr mag/cell
     absolute magnetization    =     1.65 Bohr mag/cell

     convergence has been achieved in  15 iterations

     negative rho (up, down):  2.414E-04 2.181E-04

     Forces acting on atoms (cartesian axes, Ry/au):

     atom    1 type  1   force =     0.00000000    0.00000000    0.02789192
     atom    2 type  2   force =     0.00000000    0.00000000   -0.01926071
     atom    3 type  2   force =     0.00000000    0.00000000    0.02131434
     atom    4 type  3   force =     0.00000000    0.00000000   -0.02994556
     The non-local contrib.  to forces
     atom    1 type  1   force =     0.00000000    0.00000000   -0.08315525
     atom    2 type  2   force =     0.00000000   -0.00000000   -0.01176453
     atom    3 type  2   force =     0.00000000    0.00000000    0.27301369
     atom    4 type  3   force =     0.00000000    0.00000000    0.13493222
     The ionic contribution  to forces
     atom    1 type  1   force =     0.00000000   -0.00000000  -32.99000873
     atom    2 type  2   force =    -0.00000000    0.00000000   18.74656360
     atom    3 type  2   force =    -0.00000000    0.00000000  -45.13641198
     atom    4 type  3   force =     0.00000000   -0.00000000   59.37985711
     The local contribution  to forces
     atom    1 type  1   force =    -0.00000000   -0.00000000   33.09551312
     atom    2 type  2   force =    -0.00000000    0.00000000  -18.75446574
     atom    3 type  2   force =    -0.00000000    0.00000000   44.88741459
     atom    4 type  3   force =     0.00000000   -0.00000000  -59.51912331
     The core correction contribution to forces
     atom    1 type  1   force =     0.00000000    0.00000000    0.00583755
     atom    2 type  2   force =     0.00000000   -0.00000000    0.00046844
     atom    3 type  2   force =     0.00000000   -0.00000000   -0.00239937
     atom    4 type  3   force =     0.00000000   -0.00000000   -0.02536107
     The Hubbard contrib.    to forces
     atom    1 type  1   force =     0.00000000    0.00000000    0.00000000
     atom    2 type  2   force =     0.00000000    0.00000000    0.00000000
     atom    3 type  2   force =     0.00000000    0.00000000    0.00000000
     atom    4 type  3   force =     0.00000000    0.00000000    0.00000000
     The SCF correction term to forces
     atom    1 type  1   force =    -0.00000000    0.00000000   -0.00031451
     atom    2 type  2   force =    -0.00000000    0.00000000   -0.00008222
     atom    3 type  2   force =    -0.00000000   -0.00000000   -0.00032233
     atom    4 type  3   force =    -0.00000000   -0.00000000   -0.00027025

     Total force =     0.050000     Total SCF correction =     0.000532


     Computing stress (Cartesian axis) and pressure


     negative rho (up, down):  2.414E-04 2.181E-04
          total   stress  (Ry/bohr**3)                   (kbar)     P=      -28.60
  -0.00014547   0.00000000   0.00000000          -21.40        0.00        0.00
   0.00000000  -0.00014547   0.00000000            0.00      -21.40        0.00
   0.00000000   0.00000000  -0.00029225            0.00        0.00      -42.99

     Energy error            =      5.0E-03 Ry
     Gradient error          =      3.0E-02 Ry/Bohr

     number of scf cycles    =  10
     number of bfgs steps    =   9

     energy             old  =    -658.5588658743 Ry
     energy             new  =    -658.5638638629 Ry

     CASE: energy            _new < energy            _old


     WARNING: bfgs curvature condition failed, Theta= 0.662
     uphill step: resetting bfgs history

     new trust radius        =       0.0299455600 bohr
     new conv_thr            =       0.0000002995 Ry


ATOMIC_POSITIONS (crystal)
Mo            0.0000000000        0.0000000000        0.5020199381
S             0.6666666667        0.3333333333        0.6031888119
S             0.6666666667        0.3333333333        0.4158288694
Co            0.3333333333        0.6666666667        0.6765984444



     Writing config-only to output data dir ./tmp/relax.save/
     NEW-OLD atomic charge density approx. for the potential

     negative rho (up, down):  2.363E-04 2.303E-04
     Generating pointlists ...

     total cpu time spent up to now is      321.9 secs

     Self-consistent Calculation

     iteration #  1     ecut=    80.00 Ry     beta= 0.70
     Davidson diagonalization with overlap
     ethr =  1.00E-06,  avg # of iterations =  7.4

     negative rho (up, down):  2.415E-04 2.205E-04

     total cpu time spent up to now is      325.2 secs

     total energy              =    -658.56608587 Ry
     estimated scf accuracy    <       0.00033795 Ry

     total magnetization       =     1.20 Bohr mag/cell
     absolute magnetization    =     1.63 Bohr mag/cell

     iteration #  2     ecut=    80.00 Ry     beta= 0.70
     Davidson diagonalization with overlap
     ethr =  9.66E-07,  avg # of iterations =  5.2

     negative rho (up, down):  2.411E-04 2.201E-04

     total cpu time spent up to now is      327.5 secs

     total energy              =    -658.56501024 Ry
     estimated scf accuracy    <       0.02208449 Ry

     total magnetization       =     1.27 Bohr mag/cell
     absolute magnetization    =     1.69 Bohr mag/cell

     iteration #  3     ecut=    80.00 Ry     beta= 0.70
     Davidson diagonalization with overlap
     ethr =  9.66E-07,  avg # of iterations =  6.9

     negative rho (up, down):  2.407E-04 2.194E-04

     total cpu time spent up to now is      329.8 secs

     total energy              =    -658.56565717 Ry
     estimated scf accuracy    <       0.01889212 Ry

     total magnetization       =     1.15 Bohr mag/cell
     absolute magnetization    =     1.57 Bohr mag/cell

     iteration #  4     ecut=    80.00 Ry     beta= 0.70
     Davidson diagonalization with overlap
     ethr =  9.66E-07,  avg # of iterations =  4.4

     negative rho (up, down):  2.414E-04 2.184E-04

     total cpu time spent up to now is      331.9 secs

     total energy              =    -658.56625801 Ry
     estimated scf accuracy    <       0.00010438 Ry

     total magnetization       =     1.19 Bohr mag/cell
     absolute magnetization    =     1.63 Bohr mag/cell

     iteration #  5     ecut=    80.00 Ry     beta= 0.70
     Davidson diagonalization with overlap
     ethr =  2.98E-07,  avg # of iterations =  2.4

     negative rho (up, down):  2.425E-04 2.183E-04

     total cpu time spent up to now is      333.8 secs

     total energy              =    -658.56626858 Ry
     estimated scf accuracy    <       0.00008311 Ry

     total magnetization       =     1.19 Bohr mag/cell
     absolute magnetization    =     1.62 Bohr mag/cell

     iteration #  6     ecut=    80.00 Ry     beta= 0.70
     Davidson diagonalization with overlap
     ethr =  2.37E-07,  avg # of iterations =  2.0

     negative rho (up, down):  2.429E-04 2.181E-04

     total cpu time spent up to now is      335.5 secs

     total energy              =    -658.56627519 Ry
     estimated scf accuracy    <       0.00003789 Ry

     total magnetization       =     1.19 Bohr mag/cell
     absolute magnetization    =     1.62 Bohr mag/cell

     iteration #  7     ecut=    80.00 Ry     beta= 0.70
     Davidson diagonalization with overlap
     ethr =  1.08E-07,  avg # of iterations =  1.6

     negative rho (up, down):  2.433E-04 2.181E-04

     total cpu time spent up to now is      337.3 secs

     total energy              =    -658.56627890 Ry
     estimated scf accuracy    <       0.00001796 Ry

     total magnetization       =     1.18 Bohr mag/cell
     absolute magnetization    =     1.62 Bohr mag/cell

     iteration #  8     ecut=    80.00 Ry     beta= 0.70
     Davidson diagonalization with overlap
     ethr =  5.13E-08,  avg # of iterations =  1.0

     negative rho (up, down):  2.435E-04 2.182E-04

     total cpu time spent up to now is      338.9 secs

     total energy              =    -658.56627944 Ry
     estimated scf accuracy    <       0.00001126 Ry

     total magnetization       =     1.18 Bohr mag/cell
     absolute magnetization    =     1.62 Bohr mag/cell

     iteration #  9     ecut=    80.00 Ry     beta= 0.70
     Davidson diagonalization with overlap
     ethr =  3.22E-08,  avg # of iterations =  1.3

     negative rho (up, down):  2.435E-04 2.182E-04

     total cpu time spent up to now is      340.6 secs

     total energy              =    -658.56627992 Ry
     estimated scf accuracy    <       0.00000147 Ry

     total magnetization       =     1.18 Bohr mag/cell
     absolute magnetization    =     1.62 Bohr mag/cell

     iteration # 10     ecut=    80.00 Ry     beta= 0.70
     Davidson diagonalization with overlap
     ethr =  4.21E-09,  avg # of iterations =  2.4

     negative rho (up, down):  2.434E-04 2.182E-04
 
     Magnetic moment per site  (integrated on atomic sphere of radius R)
     atom   1 (R=0.313)  charge= 10.7142  magn= -0.1018
     atom   2 (R=0.295)  charge=  3.7581  magn=  0.0181
     atom   3 (R=0.295)  charge=  3.7170  magn=  0.0150
     atom   4 (R=0.295)  charge=  7.1106  magn=  1.2754

     total cpu time spent up to now is      342.4 secs

     End of self-consistent calculation

 ------ SPIN UP ------------


          k = 0.0000 0.0000 0.0000 ( 12991 PWs)   bands (ev):

   -59.3436 -33.5153 -33.2380 -33.2380 -13.6054 -12.0662  -5.1549  -2.6837
    -1.4690  -1.4690  -0.6507  -0.6507   0.4821   0.6005   0.6005   0.9183
     0.9183   0.9815   2.0592   3.6742   3.6742   4.3631

          k = 0.0000 0.0000-0.0871 ( 12974 PWs)   bands (ev):

   -59.3436 -33.5153 -33.2380 -33.2380 -13.6054 -12.0662  -5.1549  -2.6837
    -1.4690  -1.4690  -0.6507  -0.6507   0.4821   0.6005   0.6005   0.9183
     0.9183   0.9815   2.0592   3.6742   3.6742   4.3631

          k = 0.0000 0.1155 0.0000 ( 12953 PWs)   bands (ev):

   -59.3400 -33.5085 -33.2742 -33.2464 -13.4742 -11.9685  -5.0058  -2.6294
    -1.8628  -1.4929  -0.9426  -0.6381   0.2607   0.4823   0.5499   0.9449
     0.9714   1.0789   2.3368   3.3556   3.6504   4.1262

          k = 0.0000 0.1155-0.0871 ( 12970 PWs)   bands (ev):

   -59.3400 -33.5085 -33.2742 -33.2464 -13.4742 -11.9685  -5.0058  -2.6294
    -1.8628  -1.4929  -0.9426  -0.6381   0.2607   0.4823   0.5499   0.9449
     0.9714   1.0789   2.3368   3.3556   3.6504   4.1262

          k = 0.0000 0.2309 0.0000 ( 12929 PWs)   bands (ev):

   -59.3304 -33.4908 -33.3681 -33.2681 -13.1072 -11.6957  -4.6303  -2.9537
    -2.5230  -1.6375  -1.4845  -0.6341   0.0455   0.3241   0.5799   0.8605
     1.0733   1.1171   2.3990   3.4261   3.5148   4.0699

          k = 0.0000 0.2309-0.0871 ( 12940 PWs)   bands (ev):

   -59.3304 -33.4908 -33.3681 -33.2682 -13.1072 -11.6957  -4.6303  -2.9537
    -2.5230  -1.6375  -1.4845  -0.6341   0.0455   0.3241   0.5799   0.8605
     1.0733   1.1171   2.3990   3.4260   3.5148   4.0701

          k = 0.0000 0.3464 0.0000 ( 12915 PWs)   bands (ev):

   -59.3185 -33.4847 -33.4663 -33.2950 -12.5908 -11.3140  -4.2747  -4.1015
    -2.9194  -1.9027  -1.7514  -0.6743   0.0312   0.2244   0.6142   0.7412
     1.1599   1.3737   2.3150   3.4467   3.9458   4.6836

          k = 0.0000 0.3464-0.0871 ( 12918 PWs)   bands (ev):

   -59.3185 -33.4847 -33.4663 -33.2950 -12.5908 -11.3140  -4.2747  -4.1015
    -2.9194  -1.9027  -1.7514  -0.6743   0.0312   0.2244   0.6142   0.7412
     1.1599   1.3737   2.3150   3.4467   3.9458   4.6838

          k = 0.0000 0.4619 0.0000 ( 12872 PWs)   bands (ev):

   -59.3088 -33.5741 -33.4500 -33.3165 -12.0976 -10.9497  -5.1085  -4.2118
    -3.2181  -2.1352  -1.9534  -0.7366  -0.0623   0.4972   0.6526   0.9260
     1.1332   1.6177   2.6828   3.6315   4.2352   4.9626

          k = 0.0000 0.4619-0.0871 ( 12884 PWs)   bands (ev):

   -59.3088 -33.5741 -33.4500 -33.3165 -12.0976 -10.9497  -5.1085  -4.2118
    -3.2181  -2.1352  -1.9534  -0.7366  -0.0623   0.4972   0.6526   0.9260
     1.1332   1.6177   2.6828   3.6315   4.2352   4.9626

          k = 0.0000-0.5774 0.0000 ( 12854 PWs)   bands (ev):

   -59.3052 -33.6085 -33.4432 -33.3248 -11.8832 -10.7899  -5.5061  -4.3120
    -3.2590  -2.2236  -2.0664  -0.7663  -0.0853   0.5970   0.8756   1.0171
     1.0766   1.6712   3.0337   3.8147   4.0835   4.9242

          k = 0.0000-0.5774-0.0871 ( 12864 PWs)   bands (ev):

   -59.3052 -33.6085 -33.4432 -33.3248 -11.8832 -10.7899  -5.5061  -4.3120
    -3.2590  -2.2236  -2.0664  -0.7663  -0.0853   0.5970   0.8756   1.0171
     1.0766   1.6712   3.0337   3.8147   4.0835   4.9242

          k = 0.1000 0.1732 0.0000 ( 12937 PWs)   bands (ev):

   -59.3333 -33.4962 -33.3366 -33.2641 -13.2248 -11.7828  -4.7403  -2.6824
    -2.4173  -1.6467  -1.3369  -0.6693   0.0904   0.3188   0.6200   0.8346
     1.0243   1.2054   2.6052   3.0242   3.6648   3.9355

          k = 0.1000 0.1732-0.0871 ( 12920 PWs)   bands (ev):

   -59.3333 -33.4962 -33.3366 -33.2641 -13.2248 -11.7828  -4.7403  -2.6824
    -2.4173  -1.6467  -1.3369  -0.6693   0.0904   0.3188   0.6200   0.8346
     1.0243   1.2054   2.6052   3.0242   3.6648   3.9355

          k = 0.1000 0.2887 0.0000 ( 12944 PWs)   bands (ev):

   -59.3226 -33.4768 -33.4338 -33.2948 -12.7803 -11.4526  -4.3448  -3.5835
    -2.7234  -2.0609  -1.6273  -0.7172  -0.0574   0.2825   0.6403   0.7153
     1.1112   1.3803   2.4070   3.1503   3.9479   4.1093

          k = 0.1000 0.2887-0.0871 ( 12926 PWs)   bands (ev):

   -59.3226 -33.4768 -33.4338 -33.2948 -12.7803 -11.4526  -4.3448  -3.5835
    -2.7234  -2.0609  -1.6273  -0.7172  -0.0574   0.2825   0.6403   0.7153
     1.1112   1.3803   2.4070   3.1503   3.9478   4.1094

          k = 0.1000 0.4041 0.0000 ( 12898 PWs)   bands (ev):

   -59.3118 -33.5310 -33.4554 -33.3257 -12.2648 -11.0699  -4.6256  -4.0951
    -3.1595  -2.3954  -1.7543  -0.8794  -0.0685   0.3503   0.5817   0.9185
     1.2050   1.4955   2.4119   3.5860   4.2421   4.5795

          k = 0.1000 0.4041-0.0871 ( 12884 PWs)   bands (ev):

   -59.3118 -33.5310 -33.4554 -33.3257 -12.2648 -11.0699  -4.6256  -4.0951
    -3.1595  -2.3954  -1.7543  -0.8794  -0.0685   0.3503   0.5817   0.9185
     1.2050   1.4955   2.4119   3.5860   4.2421   4.5795

          k = 0.1000 0.5196 0.0000 ( 12858 PWs)   bands (ev):

   -59.3052 -33.5893 -33.4432 -33.3447 -11.8936 -10.7922  -5.3073  -4.1921
    -3.3049  -2.5298  -1.9506  -1.0039  -0.0710   0.5325   0.7450   1.0461
     1.2097   1.5867   2.8564   3.8517   4.3251   4.5856

          k = 0.1000 0.5196-0.0871 ( 12862 PWs)   bands (ev):

   -59.3052 -33.5893 -33.4432 -33.3447 -11.8936 -10.7922  -5.3073  -4.1921
    -3.3049  -2.5298  -1.9506  -1.0039  -0.0710   0.5325   0.7450   1.0460
     1.2097   1.5867   2.8564   3.8517   4.3251   4.5856

          k = 0.2000 0.3464 0.0000 ( 12917 PWs)   bands (ev):

   -59.3130 -33.5026 -33.4573 -33.3416 -12.3288 -11.1139  -4.2857  -4.0079
    -3.1222  -2.6985  -1.7109  -0.9366  -0.1856   0.3285   0.5428   0.9394
     1.2220   1.5002   2.3186   3.5616   4.0329   4.4461

          k = 0.2000 0.3464-0.0871 ( 12918 PWs)   bands (ev):

   -59.3130 -33.5026 -33.4573 -33.3416 -12.3288 -11.1139  -4.2857  -4.0079
    -3.1222  -2.6985  -1.7109  -0.9366  -0.1856   0.3285   0.5428   0.9394
     1.2220   1.5002   2.3186   3.5615   4.0329   4.4460

          k = 0.2000 0.4619 0.0000 ( 12869 PWs)   bands (ev):

   -59.3052 -33.5490 -33.4432 -33.3865 -11.9102 -10.7956  -4.8698  -3.9226
    -3.5177  -2.9810  -1.9109  -1.2652  -0.0728   0.3740   0.6888   1.0805
     1.2250   1.6023   2.5589   3.7713   4.2801   4.7386

          k = 0.2000 0.4619-0.0871 ( 12868 PWs)   bands (ev):

   -59.3052 -33.5490 -33.4432 -33.3865 -11.9102 -10.7956  -4.8698  -3.9226
    -3.5177  -2.9810  -1.9109  -1.2652  -0.0728   0.3740   0.6888   1.0805
     1.2250   1.6023   2.5589   3.7713   4.2801   4.7386

          k = 0.2000 0.5774 0.0000 ( 12850 PWs)   bands (ev):

   -59.3022 -33.5653 -33.4377 -33.4050 -11.7332 -10.6590  -5.1168  -4.0494
    -3.5725  -2.9971  -2.0672  -1.3993  -0.0226   0.4585   0.8094   1.0359
     1.3130   1.6047   3.0530   3.5548   4.1227   4.9749

          k = 0.2000 0.5774-0.0871 ( 12850 PWs)   bands (ev):

   -59.3022 -33.5653 -33.4377 -33.4050 -11.7332 -10.6590  -5.1168  -4.0494
    -3.5725  -2.9971  -2.0672  -1.3993  -0.0226   0.4585   0.8094   1.0359
     1.3130   1.6047   3.0530   3.5548   4.1227   4.9749

          k = 0.3000 0.5196 0.0000 ( 12860 PWs)   bands (ev):

   -59.3010 -33.5307 -33.4538 -33.4355 -11.6736 -10.6073  -4.7857  -4.2237
    -3.6208  -3.2089  -2.2588  -1.4687   0.0522   0.3993   0.8225   1.0268
     1.3085   1.6473   3.0228   3.4303   4.0323   5.5423

          k = 0.3000 0.5196-0.0871 ( 12870 PWs)   bands (ev):

   -59.3010 -33.5307 -33.4538 -33.4355 -11.6736 -10.6073  -4.7857  -4.2237
    -3.6208  -3.2089  -2.2588  -1.4687   0.0522   0.3993   0.8225   1.0268
     1.3085   1.6473   3.0228   3.4303   4.0323   5.5423

 ------ SPIN DOWN ----------


          k = 0.0000 0.0000 0.0000 ( 12991 PWs)   bands (ev):

   -59.4299 -33.6036 -33.3358 -33.3358 -13.5802 -12.0508  -5.1309  -2.6399
    -1.1404  -1.1404  -0.5141  -0.5141   0.8004   1.3056   1.3056   1.5787
     1.5787   1.7063   2.1066   4.1591   4.1591   4.3708

          k = 0.0000 0.0000-0.0871 ( 12974 PWs)   bands (ev):

   -59.4299 -33.6036 -33.3358 -33.3358 -13.5802 -12.0508  -5.1309  -2.6399
    -1.1404  -1.1404  -0.5141  -0.5141   0.8004   1.3056   1.3056   1.5787
     1.5787   1.7064   2.1065   4.1591   4.1591   4.3708

          k = 0.0000 0.1155 0.0000 ( 12953 PWs)   bands (ev):

   -59.4262 -33.5969 -33.3719 -33.3441 -13.4485 -11.9528  -4.9796  -2.5929
    -1.5944  -1.1208  -0.8613  -0.6078   0.7409   1.1374   1.3082   1.4621
     1.6323   1.8485   2.5136   3.8264   4.1004   4.1373

          k = 0.0000 0.1155-0.0871 ( 12970 PWs)   bands (ev):

   -59.4262 -33.5969 -33.3719 -33.3441 -13.4485 -11.9528  -4.9796  -2.5929
    -1.5944  -1.1208  -0.8613  -0.6078   0.7409   1.1374   1.3082   1.4621
     1.6323   1.8485   2.5136   3.8264   4.1004   4.1373

          k = 0.0000 0.2309 0.0000 ( 12929 PWs)   bands (ev):

   -59.4166 -33.5793 -33.4655 -33.3659 -13.0797 -11.6795  -4.5986  -2.8290
    -2.4637  -1.4393  -1.3000  -0.6386   0.6650   0.7852   1.3372   1.4853
     1.7332   2.0089   2.8272   3.6985   3.9105   4.1096

          k = 0.0000 0.2309-0.0871 ( 12940 PWs)   bands (ev):

   -59.4166 -33.5793 -33.4655 -33.3659 -13.0797 -11.6795  -4.5986  -2.8290
    -2.4637  -1.4393  -1.3000  -0.6386   0.6650   0.7852   1.3372   1.4853
     1.7332   2.0089   2.8272   3.6985   3.9105   4.1098

          k = 0.0000 0.3464 0.0000 ( 12915 PWs)   bands (ev):

   -59.4048 -33.5813 -33.5556 -33.3926 -12.5603 -11.2972  -4.2530  -3.9901
    -2.9049  -1.7060  -1.6673  -0.5823   0.3052   0.9749   1.2474   1.8780
     1.9443   2.0887   2.7296   3.7331   4.0078   4.8817

          k = 0.0000 0.3464-0.0871 ( 12918 PWs)   bands (ev):

   -59.4048 -33.5813 -33.5556 -33.3926 -12.5603 -11.2972  -4.2530  -3.9901
    -2.9049  -1.7060  -1.6673  -0.5823   0.3052   0.9749   1.2474   1.8780
     1.9443   2.0887   2.7296   3.7331   4.0077   4.8819

          k = 0.0000 0.4619 0.0000 ( 12872 PWs)   bands (ev):

   -59.3951 -33.6710 -33.5389 -33.4142 -12.0627 -10.9328  -5.0531  -4.1826
    -3.1742  -1.9524  -1.9046  -0.5917   0.2228   1.1628   1.4871   2.1180
     2.2109   2.3743   2.8876   3.6994   4.2133   5.0476

          k = 0.0000 0.4619-0.0871 ( 12884 PWs)   bands (ev):

   -59.3951 -33.6710 -33.5389 -33.4142 -12.0627 -10.9328  -5.0531  -4.1826
    -3.1742  -1.9524  -1.9046  -0.5917   0.2228   1.1628   1.4871   2.1180
     2.2109   2.3743   2.8876   3.6994   4.2133   5.0476

          k = 0.0000-0.5774 0.0000 ( 12854 PWs)   bands (ev):

   -59.3914 -33.7053 -33.5321 -33.4224 -11.8461 -10.7730  -5.4600  -4.2932
    -3.2006  -2.0556  -2.0127  -0.6082   0.2667   1.1670   1.7532   2.2359
     2.2827   2.5199   3.1629   3.7688   4.0462   5.0157

          k = 0.0000-0.5774-0.0871 ( 12864 PWs)   bands (ev):

   -59.3914 -33.7053 -33.5321 -33.4224 -11.8461 -10.7730  -5.4600  -4.2932
    -3.2006  -2.0556  -2.0127  -0.6082   0.2667   1.1670   1.7532   2.2359
     2.2827   2.5199   3.1629   3.7688   4.0462   5.0157

          k = 0.1000 0.1732 0.0000 ( 12937 PWs)   bands (ev):

   -59.4196 -33.5847 -33.4341 -33.3618 -13.1980 -11.7668  -4.7100  -2.6159
    -2.2661  -1.3181  -1.2779  -0.6737   0.7095   0.8444   1.3867   1.4928
     1.6298   2.0030   2.9471   3.4553   3.8991   4.0609

          k = 0.1000 0.1732-0.0871 ( 12920 PWs)   bands (ev):

   -59.4196 -33.5847 -33.4341 -33.3618 -13.1980 -11.7668  -4.7100  -2.6159
    -2.2661  -1.3181  -1.2779  -0.6737   0.7095   0.8444   1.3867   1.4928
     1.6298   2.0030   2.9471   3.4553   3.8991   4.0608

          k = 0.1000 0.2887 0.0000 ( 12944 PWs)   bands (ev):

   -59.4089 -33.5657 -33.5308 -33.3925 -12.7510 -11.4360  -4.3099  -3.4598
    -2.7107  -1.9074  -1.5073  -0.6580   0.4285   0.8050   1.3088   1.7632
     1.8566   2.1194   2.8995   3.4502   4.0426   4.2327

          k = 0.1000 0.2887-0.0871 ( 12926 PWs)   bands (ev):

   -59.4089 -33.5657 -33.5308 -33.3925 -12.7510 -11.4360  -4.3099  -3.4598
    -2.7107  -1.9074  -1.5073  -0.6580   0.4285   0.8050   1.3088   1.7632
     1.8566   2.1194   2.8995   3.4502   4.0426   4.2327

          k = 0.1000 0.4041 0.0000 ( 12898 PWs)   bands (ev):

   -59.3981 -33.6280 -33.5443 -33.4233 -12.2316 -11.0530  -4.5606  -4.0444
    -3.1388  -2.2509  -1.6830  -0.7980   0.2751   1.1330   1.2786   2.0335
     2.1504   2.2441   2.8385   3.6597   4.2931   4.6232

          k = 0.1000 0.4041-0.0871 ( 12884 PWs)   bands (ev):

   -59.3981 -33.6280 -33.5443 -33.4233 -12.2316 -11.0530  -4.5606  -4.0444
    -3.1388  -2.2509  -1.6830  -0.7980   0.2751   1.1330   1.2787   2.0335
     2.1504   2.2442   2.8385   3.6597   4.2931   4.6232

          k = 0.1000 0.5196 0.0000 ( 12858 PWs)   bands (ev):

   -59.3914 -33.6862 -33.5322 -33.4423 -11.8566 -10.7752  -5.2570  -4.1681
    -3.2538  -2.3673  -1.9179  -0.9305   0.3747   1.2308   1.5791   2.1991
     2.2824   2.5178   2.9883   3.8386   4.3149   4.6515

          k = 0.1000 0.5196-0.0871 ( 12862 PWs)   bands (ev):

   -59.3914 -33.6862 -33.5322 -33.4423 -11.8566 -10.7752  -5.2570  -4.1681
    -3.2538  -2.3673  -1.9179  -0.9305   0.3747   1.2308   1.5791   2.1991
     2.2824   2.5178   2.9883   3.8386   4.3149   4.6515

          k = 0.2000 0.3464 0.0000 ( 12917 PWs)   bands (ev):

   -59.3992 -33.5996 -33.5462 -33.4392 -12.2962 -11.0970  -4.2225  -3.9261
    -3.1223  -2.5676  -1.6676  -0.8764   0.2483   1.0169   1.2722   1.9720
     2.1575   2.2657   2.9130   3.6281   4.0430   4.5007

          k = 0.2000 0.3464-0.0871 ( 12918 PWs)   bands (ev):

   -59.3992 -33.5996 -33.5462 -33.4392 -12.2962 -11.0970  -4.2225  -3.9261
    -3.1223  -2.5676  -1.6676  -0.8764   0.2483   1.0169   1.2722   1.9720
     2.1575   2.2657   2.9129   3.6281   4.0430   4.5006

          k = 0.2000 0.4619 0.0000 ( 12869 PWs)   bands (ev):

   -59.3914 -33.6460 -33.5321 -33.4839 -11.8736 -10.7786  -4.8094  -3.8781
    -3.4685  -2.8751  -1.9064  -1.2258   0.4546   1.2457   1.3423   2.0888
     2.2478   2.6069   2.8613   3.7848   4.2595   4.7494

          k = 0.2000 0.4619-0.0871 ( 12868 PWs)   bands (ev):

   -59.3914 -33.6460 -33.5321 -33.4839 -11.8736 -10.7786  -4.8094  -3.8781
    -3.4685  -2.8751  -1.9064  -1.2258   0.4546   1.2457   1.3423   2.0888
     2.2478   2.6069   2.8613   3.7848   4.2595   4.7494

          k = 0.2000 0.5774 0.0000 ( 12850 PWs)   bands (ev):

   -59.3884 -33.6623 -33.5267 -33.5024 -11.6945 -10.6420  -5.0645  -4.0191
    -3.5055  -2.8814  -2.0712  -1.3823   0.6269   1.3104   1.4667   2.1614
     2.2133   2.7700   3.1161   3.5603   4.1732   5.0043

          k = 0.2000 0.5774-0.0871 ( 12850 PWs)   bands (ev):

   -59.3884 -33.6623 -33.5267 -33.5024 -11.6945 -10.6420  -5.0645  -4.0191
    -3.5055  -2.8814  -2.0712  -1.3823   0.6269   1.3104   1.4667   2.1614
     2.2133   2.7700   3.1161   3.5603   4.1732   5.0043

          k = 0.3000 0.5196 0.0000 ( 12860 PWs)   bands (ev):

   -59.3873 -33.6278 -33.5511 -33.5246 -11.6343 -10.5902  -4.7304  -4.1654
    -3.5321  -3.1828  -2.2473  -1.4567   0.8285   1.2537   1.3815   2.1233
     2.2144   2.8310   3.0629   3.4332   4.1325   5.5435

          k = 0.3000 0.5196-0.0871 ( 12870 PWs)   bands (ev):

   -59.3873 -33.6278 -33.5511 -33.5246 -11.6343 -10.5902  -4.7304  -4.1654
    -3.5321  -3.1828  -2.2473  -1.4567   0.8285   1.2537   1.3815   2.1233
     2.2144   2.8310   3.0629   3.4332   4.1325   5.5435

     the Fermi energy is     2.2145 ev

!    total energy              =    -658.56628002 Ry
     total all-electron energy =    -12481.740171 Ry
     estimated scf accuracy    <       0.00000007 Ry
     smearing contrib. (-TS)   =      -0.00979008 Ry
     internal energy E=F+TS    =    -658.55648994 Ry

     The total energy is F=E-TS. E is the sum of the following terms:
     one-electron contribution =   -1299.62988848 Ry
     hartree contribution      =     663.72408091 Ry
     xc contribution           =     -62.35237358 Ry
     ewald contribution        =     445.83292385 Ry
     one-center paw contrib.   =    -406.13123265 Ry

     total magnetization       =     1.18 Bohr mag/cell
     absolute magnetization    =     1.62 Bohr mag/cell

     convergence has been achieved in  10 iterations

     negative rho (up, down):  2.434E-04 2.182E-04

     Forces acting on atoms (cartesian axes, Ry/au):

     atom    1 type  1   force =     0.00000000    0.00000000    0.02354331
     atom    2 type  2   force =     0.00000000    0.00000000   -0.01506666
     atom    3 type  2   force =     0.00000000    0.00000000    0.02217478
     atom    4 type  3   force =     0.00000000    0.00000000   -0.03065144
     The non-local contrib.  to forces
     atom    1 type  1   force =     0.00000000    0.00000000   -0.07578032
     atom    2 type  2   force =     0.00000000    0.00000000   -0.00921590
     atom    3 type  2   force =     0.00000000    0.00000000    0.27334141
     atom    4 type  3   force =     0.00000000    0.00000000    0.12600445
     The ionic contribution  to forces
     atom    1 type  1   force =     0.00000000   -0.00000000  -33.16900139
     atom    2 type  2   force =    -0.00000000    0.00000000   18.81846550
     atom    3 type  2   force =    -0.00000000    0.00000000  -45.24296811
     atom    4 type  3   force =     0.00000000   -0.00000000   59.59350400
     The local contribution  to forces
     atom    1 type  1   force =    -0.00000000   -0.00000000   33.26340665
     atom    2 type  2   force =    -0.00000000    0.00000000  -18.82401273
     atom    3 type  2   force =    -0.00000000    0.00000000   44.99408982
     atom    4 type  3   force =     0.00000000   -0.00000000  -59.72395816
     The core correction contribution to forces
     atom    1 type  1   force =    -0.00000000    0.00000000    0.00548196
     atom    2 type  2   force =     0.00000000   -0.00000000    0.00029004
     atom    3 type  2   force =     0.00000000   -0.00000000   -0.00242572
     atom    4 type  3   force =     0.00000000   -0.00000000   -0.02578502
     The Hubbard contrib.    to forces
     atom    1 type  1   force =     0.00000000    0.00000000    0.00000000
     atom    2 type  2   force =     0.00000000    0.00000000    0.00000000
     atom    3 type  2   force =     0.00000000    0.00000000    0.00000000
     atom    4 type  3   force =     0.00000000    0.00000000    0.00000000
     The SCF correction term to forces
     atom    1 type  1   force =    -0.00000000    0.00000000   -0.00056267
     atom    2 type  2   force =    -0.00000000    0.00000000   -0.00059267
     atom    3 type  2   force =    -0.00000000    0.00000000    0.00013830
     atom    4 type  3   force =     0.00000000   -0.00000000   -0.00041580

     Total force =     0.047037     Total SCF correction =     0.000927


     Computing stress (Cartesian axis) and pressure


     negative rho (up, down):  2.434E-04 2.182E-04
          total   stress  (Ry/bohr**3)                   (kbar)     P=      -27.16
  -0.00013566   0.00000000   0.00000000          -19.96        0.00        0.00
   0.00000000  -0.00013566   0.00000000            0.00      -19.96        0.00
   0.00000000  -0.00000000  -0.00028251            0.00       -0.00      -41.56

     Energy error            =      2.4E-03 Ry
     Gradient error          =      3.1E-02 Ry/Bohr

     number of scf cycles    =  11
     number of bfgs steps    =  10

     energy             old  =    -658.5638638629 Ry
     energy             new  =    -658.5662800207 Ry

     CASE: energy            _new < energy            _old


     WARNING: bfgs curvature condition failed, Theta= 0.856
     new trust radius        =       0.0329401160 bohr
     new conv_thr            =       0.0000002416 Ry


ATOMIC_POSITIONS (crystal)
Mo            0.0000000000        0.0000000000        0.5028133141
S             0.6666666667        0.3333333333        0.6026645483
S             0.6666666667        0.3333333333        0.4165180394
Co            0.3333333333        0.6666666667        0.6756401619



     Writing config-only to output data dir ./tmp/relax.save/
     NEW-OLD atomic charge density approx. for the potential

     negative rho (up, down):  2.720E-04 2.337E-04
     Generating pointlists ...

     total cpu time spent up to now is      345.6 secs

     Self-consistent Calculation

     iteration #  1     ecut=    80.00 Ry     beta= 0.70
     Davidson diagonalization with overlap
     ethr =  1.00E-06,  avg # of iterations =  7.8

     negative rho (up, down):  2.684E-04 2.344E-04

     total cpu time spent up to now is      349.0 secs

     total energy              =    -658.56843552 Ry
     estimated scf accuracy    <       0.00036390 Ry

     total magnetization       =     1.15 Bohr mag/cell
     absolute magnetization    =     1.60 Bohr mag/cell

     iteration #  2     ecut=    80.00 Ry     beta= 0.70
     Davidson diagonalization with overlap
     ethr =  1.04E-06,  avg # of iterations =  4.7

     negative rho (up, down):  2.645E-04 2.313E-04

     total cpu time spent up to now is      351.2 secs

     total energy              =    -658.56792519 Ry
     estimated scf accuracy    <       0.00676870 Ry

     total magnetization       =     1.14 Bohr mag/cell
     absolute magnetization    =     1.58 Bohr mag/cell

     iteration #  3     ecut=    80.00 Ry     beta= 0.70
     Davidson diagonalization with overlap
     ethr =  1.04E-06,  avg # of iterations =  4.8

     negative rho (up, down):  2.629E-04 2.300E-04

     total cpu time spent up to now is      353.4 secs

     total energy              =    -658.56803455 Ry
     estimated scf accuracy    <       0.01804097 Ry

     total magnetization       =     1.20 Bohr mag/cell
     absolute magnetization    =     1.65 Bohr mag/cell

     iteration #  4     ecut=    80.00 Ry     beta= 0.70
     Davidson diagonalization with overlap
     ethr =  1.04E-06,  avg # of iterations =  3.2

     negative rho (up, down):  2.528E-04 2.231E-04

     total cpu time spent up to now is      355.3 secs

     total energy              =    -658.56861428 Ry
     estimated scf accuracy    <       0.00033308 Ry

     total magnetization       =     1.14 Bohr mag/cell
     absolute magnetization    =     1.58 Bohr mag/cell

     iteration #  5     ecut=    80.00 Ry     beta= 0.70
     Davidson diagonalization with overlap
     ethr =  9.52E-07,  avg # of iterations =  1.4

     negative rho (up, down):  2.492E-04 2.214E-04

     total cpu time spent up to now is      357.0 secs

     total energy              =    -658.56862534 Ry
     estimated scf accuracy    <       0.00010748 Ry

     total magnetization       =     1.13 Bohr mag/cell
     absolute magnetization    =     1.58 Bohr mag/cell

     iteration #  6     ecut=    80.00 Ry     beta= 0.70
     Davidson diagonalization with overlap
     ethr =  3.07E-07,  avg # of iterations =  2.0

     negative rho (up, down):  2.483E-04 2.211E-04

     total cpu time spent up to now is      358.8 secs

     total energy              =    -658.56863656 Ry
     estimated scf accuracy    <       0.00005555 Ry

     total magnetization       =     1.14 Bohr mag/cell
     absolute magnetization    =     1.58 Bohr mag/cell

     iteration #  7     ecut=    80.00 Ry     beta= 0.70
     Davidson diagonalization with overlap
     ethr =  1.59E-07,  avg # of iterations =  1.2

     negative rho (up, down):  2.486E-04 2.213E-04

     total cpu time spent up to now is      360.5 secs

     total energy              =    -658.56864039 Ry
     estimated scf accuracy    <       0.00002408 Ry

     total magnetization       =     1.13 Bohr mag/cell
     absolute magnetization    =     1.58 Bohr mag/cell

     iteration #  8     ecut=    80.00 Ry     beta= 0.70
     Davidson diagonalization with overlap
     ethr =  6.88E-08,  avg # of iterations =  1.0

     negative rho (up, down):  2.488E-04 2.214E-04

     total cpu time spent up to now is      362.1 secs

     total energy              =    -658.56864082 Ry
     estimated scf accuracy    <       0.00000951 Ry

     total magnetization       =     1.13 Bohr mag/cell
     absolute magnetization    =     1.58 Bohr mag/cell

     iteration #  9     ecut=    80.00 Ry     beta= 0.70
     Davidson diagonalization with overlap
     ethr =  2.72E-08,  avg # of iterations =  1.3

     negative rho (up, down):  2.487E-04 2.213E-04
 
     Magnetic moment per site  (integrated on atomic sphere of radius R)
     atom   1 (R=0.313)  charge= 10.7177  magn= -0.1037
     atom   2 (R=0.295)  charge=  3.7662  magn=  0.0148
     atom   3 (R=0.295)  charge=  3.7171  magn=  0.0143
     atom   4 (R=0.295)  charge=  7.1166  magn=  1.2398

     total cpu time spent up to now is      363.8 secs

     End of self-consistent calculation

 ------ SPIN UP ------------


          k = 0.0000 0.0000 0.0000 ( 12991 PWs)   bands (ev):

   -59.3529 -33.5307 -33.2479 -33.2479 -13.6583 -12.0698  -5.1934  -2.6577
    -1.5206  -1.5206  -0.6555  -0.6555   0.5039   0.6301   0.6301   0.8849
     0.8849   0.9771   2.1173   3.7247   3.7247   4.3365

          k = 0.0000 0.0000-0.0871 ( 12974 PWs)   bands (ev):

   -59.3529 -33.5307 -33.2479 -33.2479 -13.6583 -12.0698  -5.1934  -2.6577
    -1.5206  -1.5206  -0.6555  -0.6555   0.5039   0.6301   0.6301   0.8849
     0.8849   0.9771   2.1173   3.7247   3.7247   4.3365

          k = 0.0000 0.1155 0.0000 ( 12953 PWs)   bands (ev):

   -59.3493 -33.5238 -33.2843 -33.2562 -13.5273 -11.9725  -5.0446  -2.6097
    -1.9218  -1.5456  -0.9453  -0.6458   0.2684   0.5092   0.5684   0.9288
     0.9896   1.0569   2.3911   3.4105   3.7003   4.0980

          k = 0.0000 0.1155-0.0871 ( 12970 PWs)   bands (ev):

   -59.3493 -33.5238 -33.2843 -33.2562 -13.5273 -11.9725  -5.0446  -2.6097
    -1.9218  -1.5456  -0.9453  -0.6458   0.2684   0.5092   0.5684   0.9288
     0.9896   1.0569   2.3911   3.4105   3.7003   4.0979

          k = 0.0000 0.2309 0.0000 ( 12929 PWs)   bands (ev):

   -59.3397 -33.5058 -33.3785 -33.2781 -13.1608 -11.7008  -4.6705  -3.0097
    -2.5300  -1.6949  -1.4804  -0.6418   0.0621   0.3440   0.6011   0.8451
     1.0644   1.1526   2.4554   3.4753   3.5537   4.0464

          k = 0.0000 0.2309-0.0871 ( 12940 PWs)   bands (ev):

   -59.3397 -33.5058 -33.3785 -33.2781 -13.1608 -11.7008  -4.6705  -3.0097
    -2.5300  -1.6949  -1.4804  -0.6418   0.0621   0.3440   0.6011   0.8451
     1.0644   1.1526   2.4554   3.4752   3.5537   4.0465

          k = 0.0000 0.3464 0.0000 ( 12915 PWs)   bands (ev):

   -59.3277 -33.4957 -33.4811 -33.3050 -12.6464 -11.3201  -4.3266  -4.1559
    -2.9254  -1.9653  -1.7484  -0.6750   0.0346   0.2453   0.6223   0.7702
     1.2052   1.3656   2.3655   3.4702   3.9607   4.7000

          k = 0.0000 0.3464-0.0871 ( 12918 PWs)   bands (ev):

   -59.3277 -33.4957 -33.4811 -33.3050 -12.6464 -11.3201  -4.3266  -4.1559
    -2.9254  -1.9653  -1.7484  -0.6750   0.0346   0.2453   0.6223   0.7702
     1.2052   1.3656   2.3655   3.4702   3.9606   4.7001

          k = 0.0000 0.4619 0.0000 ( 12872 PWs)   bands (ev):

   -59.3181 -33.5852 -33.4648 -33.3266 -12.1562 -10.9562  -5.1706  -4.2433
    -3.2359  -2.2006  -1.9557  -0.7317  -0.0625   0.5308   0.6680   0.9581
     1.1777   1.6195   2.7245   3.6342   4.2431   4.9749

          k = 0.0000 0.4619-0.0871 ( 12884 PWs)   bands (ev):

   -59.3181 -33.5852 -33.4648 -33.3266 -12.1562 -10.9562  -5.1706  -4.2433
    -3.2359  -2.2006  -1.9557  -0.7317  -0.0625   0.5308   0.6680   0.9581
     1.1777   1.6195   2.7245   3.6342   4.2431   4.9749

          k = 0.0000-0.5774 0.0000 ( 12854 PWs)   bands (ev):

   -59.3144 -33.6197 -33.4579 -33.3349 -11.9435 -10.7964  -5.5650  -4.3372
    -3.2860  -2.2898  -2.0699  -0.7596  -0.0806   0.6275   0.8995   1.0503
     1.1169   1.6784   3.0727   3.8057   4.1017   4.9427

          k = 0.0000-0.5774-0.0871 ( 12864 PWs)   bands (ev):

   -59.3144 -33.6197 -33.4579 -33.3349 -11.9435 -10.7964  -5.5650  -4.3372
    -3.2860  -2.2898  -2.0700  -0.7596  -0.0806   0.6275   0.8995   1.0503
     1.1169   1.6784   3.0727   3.8057   4.1017   4.9427

          k = 0.1000 0.1732 0.0000 ( 12937 PWs)   bands (ev):

   -59.3426 -33.5114 -33.3469 -33.2740 -13.2782 -11.7876  -4.7799  -2.7055
    -2.4529  -1.7012  -1.3373  -0.6751   0.1026   0.3361   0.6506   0.8334
     1.0156   1.2169   2.6606   3.0769   3.7040   3.9085

          k = 0.1000 0.1732-0.0871 ( 12920 PWs)   bands (ev):

   -59.3426 -33.5114 -33.3469 -33.2740 -13.2782 -11.7876  -4.7799  -2.7055
    -2.4529  -1.7012  -1.3373  -0.6751   0.1026   0.3361   0.6506   0.8334
     1.0156   1.2169   2.6606   3.0769   3.7040   3.9085

          k = 0.1000 0.2887 0.0000 ( 12944 PWs)   bands (ev):

   -59.3319 -33.4915 -33.4447 -33.3048 -12.8350 -11.4584  -4.3878  -3.6467
    -2.7296  -2.1190  -1.6296  -0.7158  -0.0456   0.3017   0.6450   0.7434
     1.1233   1.3992   2.4615   3.1839   3.9542   4.1138

          k = 0.1000 0.2887-0.0871 ( 12926 PWs)   bands (ev):

   -59.3319 -33.4915 -33.4447 -33.3048 -12.8350 -11.4584  -4.3878  -3.6467
    -2.7295  -2.1190  -1.6296  -0.7158  -0.0456   0.3017   0.6450   0.7434
     1.1233   1.3992   2.4615   3.1839   3.9542   4.1139

          k = 0.1000 0.4041 0.0000 ( 12898 PWs)   bands (ev):

   -59.3211 -33.5419 -33.4703 -33.3358 -12.3222 -11.0762  -4.6919  -4.1323
    -3.1717  -2.4550  -1.7598  -0.8760  -0.0667   0.3791   0.5982   0.9513
     1.2423   1.5063   2.4586   3.5984   4.2375   4.5913

          k = 0.1000 0.4041-0.0871 ( 12884 PWs)   bands (ev):

   -59.3211 -33.5419 -33.4703 -33.3358 -12.3222 -11.0762  -4.6919  -4.1323
    -3.1717  -2.4550  -1.7598  -0.8760  -0.0667   0.3791   0.5982   0.9513
     1.2423   1.5063   2.4586   3.5984   4.2375   4.5913

          k = 0.1000 0.5196 0.0000 ( 12858 PWs)   bands (ev):

   -59.3144 -33.6005 -33.4579 -33.3549 -11.9537 -10.7985  -5.3677  -4.2194
    -3.3369  -2.5856  -1.9580  -0.9995  -0.0634   0.5677   0.7642   1.0832
     1.2458   1.6022   2.8938   3.8554   4.3368   4.5880

          k = 0.1000 0.5196-0.0871 ( 12862 PWs)   bands (ev):

   -59.3144 -33.6005 -33.4579 -33.3549 -11.9537 -10.7985  -5.3677  -4.2194
    -3.3369  -2.5856  -1.9580  -0.9995  -0.0634   0.5677   0.7642   1.0832
     1.2458   1.6022   2.8938   3.8554   4.3368   4.5880

          k = 0.2000 0.3464 0.0000 ( 12917 PWs)   bands (ev):

   -59.3222 -33.5134 -33.4722 -33.3518 -12.3857 -11.1202  -4.3564  -4.0468
    -3.1341  -2.7564  -1.7165  -0.9317  -0.1783   0.3578   0.5574   0.9728
     1.2328   1.5417   2.3676   3.5795   4.0124   4.4635

          k = 0.2000 0.3464-0.0871 ( 12918 PWs)   bands (ev):

   -59.3222 -33.5134 -33.4722 -33.3518 -12.3857 -11.1202  -4.3564  -4.0468
    -3.1341  -2.7564  -1.7165  -0.9317  -0.1783   0.3578   0.5574   0.9728
     1.2328   1.5417   2.3676   3.5795   4.0124   4.4635

          k = 0.2000 0.4619 0.0000 ( 12869 PWs)   bands (ev):

   -59.3144 -33.5601 -33.4579 -33.3968 -11.9699 -10.8017  -4.9340  -3.9608
    -3.5615  -3.0148  -1.9166  -1.2647  -0.0570   0.4036   0.7123   1.1089
     1.2528   1.6465   2.5956   3.7744   4.2786   4.7448

          k = 0.2000 0.4619-0.0871 ( 12868 PWs)   bands (ev):

   -59.3144 -33.5601 -33.4579 -33.3968 -11.9699 -10.8017  -4.9340  -3.9608
    -3.5615  -3.0148  -1.9166  -1.2647  -0.0570   0.4036   0.7123   1.1089
     1.2528   1.6465   2.5956   3.7744   4.2786   4.7448

          k = 0.2000 0.5774 0.0000 ( 12850 PWs)   bands (ev):

   -59.3114 -33.5764 -33.4523 -33.4154 -11.7944 -10.6650  -5.1789  -4.0814
    -3.6332  -3.0214  -2.0738  -1.3994  -0.0017   0.4913   0.8403   1.0566
     1.3450   1.6485   3.0741   3.5646   4.1427   4.9711

          k = 0.2000 0.5774-0.0871 ( 12850 PWs)   bands (ev):

   -59.3114 -33.5764 -33.4523 -33.4154 -11.7944 -10.6650  -5.1789  -4.0814
    -3.6332  -3.0214  -2.0738  -1.3994  -0.0017   0.4913   0.8403   1.0566
     1.3450   1.6485   3.0741   3.5646   4.1427   4.9711

          k = 0.3000 0.5196 0.0000 ( 12860 PWs)   bands (ev):

   -59.3103 -33.5418 -33.4643 -33.4501 -11.7352 -10.6131  -4.8511  -4.2828
    -3.6667  -3.2185  -2.2623  -1.4742   0.0821   0.4298   0.8604   1.0319
     1.3491   1.7001   3.0292   3.4255   4.0736   5.5384

          k = 0.3000 0.5196-0.0871 ( 12870 PWs)   bands (ev):

   -59.3103 -33.5418 -33.4643 -33.4501 -11.7352 -10.6131  -4.8511  -4.2828
    -3.6667  -3.2185  -2.2623  -1.4742   0.0821   0.4298   0.8604   1.0319
     1.3491   1.7001   3.0292   3.4255   4.0736   5.5384

 ------ SPIN DOWN ----------


          k = 0.0000 0.0000 0.0000 ( 12991 PWs)   bands (ev):

   -59.4410 -33.6186 -33.3487 -33.3487 -13.6373 -12.0556  -5.1729  -2.6146
    -1.2172  -1.2172  -0.5355  -0.5355   0.7696   1.2752   1.2752   1.5806
     1.5806   1.7133   2.1654   4.1907   4.1931   4.3442

          k = 0.0000 0.0000-0.0871 ( 12974 PWs)   bands (ev):

   -59.4410 -33.6186 -33.3487 -33.3487 -13.6373 -12.0556  -5.1729  -2.6146
    -1.2172  -1.2172  -0.5355  -0.5355   0.7696   1.2752   1.2752   1.5806
     1.5806   1.7133   2.1654   4.1907   4.1931   4.3442

          k = 0.0000 0.1155 0.0000 ( 12953 PWs)   bands (ev):

   -59.4373 -33.6118 -33.3850 -33.3571 -13.5057 -11.9581  -5.0220  -2.5738
    -1.6760  -1.2056  -0.8731  -0.6228   0.7177   1.1146   1.2821   1.4659
     1.6342   1.8619   2.5538   3.8581   4.1135   4.1224

          k = 0.0000 0.1155-0.0871 ( 12970 PWs)   bands (ev):

   -59.4373 -33.6118 -33.3850 -33.3571 -13.5057 -11.9581  -5.0220  -2.5738
    -1.6760  -1.2056  -0.8731  -0.6228   0.7177   1.1146   1.2821   1.4659
     1.6341   1.8619   2.5538   3.8580   4.1135   4.1224

          k = 0.0000 0.2309 0.0000 ( 12929 PWs)   bands (ev):

   -59.4277 -33.5940 -33.4790 -33.3789 -13.1378 -11.6857  -4.6430  -2.8838
    -2.4871  -1.4373  -1.3869  -0.6505   0.6467   0.7661   1.3437   1.4620
     1.7359   2.0277   2.8649   3.7181   3.9224   4.0976

          k = 0.0000 0.2309-0.0871 ( 12940 PWs)   bands (ev):

   -59.4277 -33.5940 -33.4790 -33.3789 -13.1378 -11.6857  -4.6430  -2.8838
    -2.4871  -1.4373  -1.3869  -0.6505   0.6467   0.7661   1.3437   1.4620
     1.7359   2.0277   2.8649   3.7181   3.9224   4.0978

          k = 0.0000 0.3464 0.0000 ( 12915 PWs)   bands (ev):

   -59.4158 -33.5950 -33.5703 -33.4057 -12.6204 -11.3044  -4.3113  -4.0493
    -2.9135  -1.7488  -1.7039  -0.5929   0.2714   0.9759   1.2571   1.8660
     1.9336   2.1138   2.7623   3.7382   4.0097   4.8932

          k = 0.0000 0.3464-0.0871 ( 12918 PWs)   bands (ev):

   -59.4158 -33.5950 -33.5703 -33.4057 -12.6204 -11.3044  -4.3113  -4.0493
    -2.9135  -1.7488  -1.7039  -0.5929   0.2714   0.9759   1.2571   1.8660
     1.9336   2.1138   2.7623   3.7382   4.0096   4.8934

          k = 0.0000 0.4619 0.0000 ( 12872 PWs)   bands (ev):

   -59.4061 -33.6852 -33.5532 -33.4274 -12.1262 -10.9403  -5.1208  -4.2166
    -3.1971  -2.0323  -1.9073  -0.5980   0.1927   1.1842   1.4847   2.1213
     2.2299   2.3488   2.9203   3.6954   4.2203   5.0610

          k = 0.0000 0.4619-0.0871 ( 12884 PWs)   bands (ev):

   -59.4061 -33.6852 -33.5533 -33.4274 -12.1262 -10.9403  -5.1208  -4.2166
    -3.1971  -2.0323  -1.9073  -0.5980   0.1927   1.1842   1.4847   2.1213
     2.2299   2.3488   2.9203   3.6954   4.2203   5.0610

          k = 0.0000-0.5774 0.0000 ( 12854 PWs)   bands (ev):

   -59.4024 -33.7196 -33.5464 -33.4356 -11.9114 -10.7805  -5.5235  -4.3206
    -3.2343  -2.1351  -2.0166  -0.6128   0.2402   1.1918   1.7531   2.2419
     2.2938   2.4949   3.1970   3.7569   4.0625   5.0331

          k = 0.0000-0.5774-0.0871 ( 12864 PWs)   bands (ev):

   -59.4024 -33.7196 -33.5464 -33.4356 -11.9114 -10.7805  -5.5235  -4.3206
    -3.2343  -2.1351  -2.0166  -0.6128   0.2402   1.1918   1.7531   2.2419
     2.2938   2.4949   3.1970   3.7569   4.0625   5.0331

          k = 0.1000 0.1732 0.0000 ( 12937 PWs)   bands (ev):

   -59.4307 -33.5994 -33.4475 -33.3748 -13.2557 -11.7727  -4.7535  -2.6223
    -2.3359  -1.3899  -1.2961  -0.6815   0.6966   0.8174   1.3837   1.4797
     1.6329   2.0192   2.9845   3.4866   3.8751   4.0721

          k = 0.1000 0.1732-0.0871 ( 12920 PWs)   bands (ev):

   -59.4307 -33.5994 -33.4475 -33.3748 -13.2557 -11.7727  -4.7535  -2.6223
    -2.3359  -1.3899  -1.2961  -0.6815   0.6966   0.8174   1.3837   1.4797
     1.6329   2.0192   2.9845   3.4866   3.8752   4.0721

          k = 0.1000 0.2887 0.0000 ( 12944 PWs)   bands (ev):

   -59.4199 -33.5800 -33.5447 -33.4056 -12.8102 -11.4429  -4.3585  -3.5295
    -2.7203  -1.9670  -1.5305  -0.6621   0.4033   0.7953   1.3145   1.7603
     1.8444   2.1420   2.9307   3.4696   4.0251   4.2432

          k = 0.1000 0.2887-0.0871 ( 12926 PWs)   bands (ev):

   -59.4199 -33.5800 -33.5447 -33.4056 -12.8102 -11.4429  -4.3585  -3.5295
    -2.7203  -1.9670  -1.5305  -0.6621   0.4033   0.7953   1.3145   1.7603
     1.8444   2.1420   2.9307   3.4696   4.0251   4.2431

          k = 0.1000 0.4041 0.0000 ( 12898 PWs)   bands (ev):

   -59.4091 -33.6420 -33.5587 -33.4365 -12.2937 -11.0604  -4.6341  -4.0842
    -3.1541  -2.3178  -1.6975  -0.8011   0.2468   1.1413   1.2813   2.0334
     2.1666   2.2406   2.8635   3.6656   4.2861   4.6327

          k = 0.1000 0.4041-0.0871 ( 12884 PWs)   bands (ev):

   -59.4091 -33.6420 -33.5587 -33.4365 -12.2937 -11.0604  -4.6341  -4.0842
    -3.1541  -2.3178  -1.6975  -0.8011   0.2468   1.1413   1.2813   2.0334
     2.1666   2.2406   2.8635   3.6656   4.2861   4.6327

          k = 0.1000 0.5196 0.0000 ( 12858 PWs)   bands (ev):

   -59.4024 -33.7005 -33.5464 -33.4556 -11.9217 -10.7826  -5.3224  -4.1974
    -3.2922  -2.4339  -1.9276  -0.9327   0.3505   1.2512   1.5780   2.2096
     2.2824   2.5114   3.0182   3.8381   4.3235   4.6554

          k = 0.1000 0.5196-0.0871 ( 12862 PWs)   bands (ev):

   -59.4024 -33.7005 -33.5464 -33.4556 -11.9217 -10.7826  -5.3224  -4.1974
    -3.2922  -2.4339  -1.9276  -0.9327   0.3505   1.2512   1.5780   2.2096
     2.2824   2.5114   3.0182   3.8381   4.3235   4.6554

          k = 0.2000 0.3464 0.0000 ( 12917 PWs)   bands (ev):

   -59.4102 -33.6135 -33.5607 -33.4525 -12.3578 -11.1043  -4.3017  -3.9682
    -3.1345  -2.6360  -1.6797  -0.8748   0.2265   1.0160   1.2751   1.9697
     2.1756   2.2731   2.9350   3.6448   4.0229   4.5076

          k = 0.2000 0.3464-0.0871 ( 12918 PWs)   bands (ev):

   -59.4102 -33.6135 -33.5607 -33.4525 -12.3578 -11.1043  -4.3017  -3.9682
    -3.1345  -2.6360  -1.6797  -0.8748   0.2265   1.0160   1.2751   1.9697
     2.1756   2.2731   2.9350   3.6448   4.0229   4.5075

          k = 0.2000 0.4619 0.0000 ( 12869 PWs)   bands (ev):

   -59.4024 -33.6601 -33.5464 -33.4973 -11.9383 -10.7857  -4.8798  -3.9184
    -3.5147  -2.9206  -1.9144  -1.2278   0.4376   1.2527   1.3440   2.0976
     2.2565   2.6178   2.8850   3.7866   4.2534   4.7525

          k = 0.2000 0.4619-0.0871 ( 12868 PWs)   bands (ev):

   -59.4024 -33.6601 -33.5464 -33.4973 -11.9383 -10.7857  -4.8798  -3.9184
    -3.5147  -2.9206  -1.9144  -1.2278   0.4376   1.2527   1.3440   2.0976
     2.2565   2.6178   2.8850   3.7866   4.2534   4.7525

          k = 0.2000 0.5774 0.0000 ( 12850 PWs)   bands (ev):

   -59.3994 -33.6765 -33.5409 -33.5159 -11.7609 -10.6490  -5.1317  -4.0523
    -3.5722  -2.9164  -2.0788  -1.3840   0.6131   1.3227   1.4664   2.1629
     2.2291   2.7837   3.1244   3.5702   4.1839   4.9985

          k = 0.2000 0.5774-0.0871 ( 12850 PWs)   bands (ev):

   -59.3994 -33.6765 -33.5409 -33.5159 -11.7609 -10.6490  -5.1317  -4.0523
    -3.5722  -2.9164  -2.0788  -1.3840   0.6131   1.3227   1.4664   2.1629
     2.2291   2.7837   3.1244   3.5702   4.1839   4.9985

          k = 0.3000 0.5196 0.0000 ( 12860 PWs)   bands (ev):

   -59.3983 -33.6419 -33.5647 -33.5387 -11.7010 -10.5970  -4.8016  -4.2280
    -3.5846  -3.1974  -2.2525  -1.4635   0.8253   1.2554   1.3842   2.1282
     2.2318   2.8582   3.0593   3.4239   4.1591   5.5363

          k = 0.3000 0.5196-0.0871 ( 12870 PWs)   bands (ev):

   -59.3983 -33.6419 -33.5647 -33.5387 -11.7010 -10.5970  -4.8016  -4.2280
    -3.5846  -3.1974  -2.2525  -1.4636   0.8253   1.2554   1.3842   2.1282
     2.2318   2.8582   3.0593   3.4239   4.1591   5.5363

     the Fermi energy is     2.2292 ev

!    total energy              =    -658.56864126 Ry
     total all-electron energy =    -12481.742532 Ry
     estimated scf accuracy    <       0.00000020 Ry
     smearing contrib. (-TS)   =      -0.00950277 Ry
     internal energy E=F+TS    =    -658.55913849 Ry

     The total energy is F=E-TS. E is the sum of the following terms:
     one-electron contribution =   -1308.15755599 Ry
     hartree contribution      =     667.97843107 Ry
     xc contribution           =     -62.36837267 Ry
     ewald contribution        =     450.11957237 Ry
     one-center paw contrib.   =    -406.13121327 Ry

     total magnetization       =     1.13 Bohr mag/cell
     absolute magnetization    =     1.58 Bohr mag/cell

     convergence has been achieved in   9 iterations

     negative rho (up, down):  2.487E-04 2.213E-04

     Forces acting on atoms (cartesian axes, Ry/au):

     atom    1 type  1   force =     0.00000000    0.00000000    0.01978079
     atom    2 type  2   force =     0.00000000    0.00000000   -0.01039511
     atom    3 type  2   force =     0.00000000    0.00000000    0.02212613
     atom    4 type  3   force =     0.00000000    0.00000000   -0.03151181
     The non-local contrib.  to forces
     atom    1 type  1   force =     0.00000000    0.00000000   -0.06895511
     atom    2 type  2   force =     0.00000000    0.00000000   -0.00659417
     atom    3 type  2   force =     0.00000000    0.00000000    0.27334098
     atom    4 type  3   force =     0.00000000    0.00000000    0.11676789
     The ionic contribution  to forces
     atom    1 type  1   force =     0.00000000   -0.00000000  -33.35222391
     atom    2 type  2   force =    -0.00000000    0.00000000   18.89386022
     atom    3 type  2   force =    -0.00000000    0.00000000  -45.35496277
     atom    4 type  3   force =     0.00000000   -0.00000000   59.81332647
     The local contribution  to forces
     atom    1 type  1   force =    -0.00000000   -0.00000000   33.43678653
     atom    2 type  2   force =    -0.00000000    0.00000000  -18.89707739
     atom    3 type  2   force =    -0.00000000    0.00000000   45.10612672
     atom    4 type  3   force =     0.00000000   -0.00000000  -59.93441108
     The core correction contribution to forces
     atom    1 type  1   force =     0.00000000    0.00000000    0.00515931
     atom    2 type  2   force =     0.00000000   -0.00000000    0.00012200
     atom    3 type  2   force =     0.00000000   -0.00000000   -0.00243220
     atom    4 type  3   force =     0.00000000   -0.00000000   -0.02629523
     The Hubbard contrib.    to forces
     atom    1 type  1   force =     0.00000000    0.00000000    0.00000000
     atom    2 type  2   force =     0.00000000    0.00000000    0.00000000
     atom    3 type  2   force =     0.00000000    0.00000000    0.00000000
     atom    4 type  3   force =     0.00000000    0.00000000    0.00000000
     The SCF correction term to forces
     atom    1 type  1   force =    -0.00000000    0.00000000   -0.00103177
     atom    2 type  2   force =    -0.00000000    0.00000000   -0.00075151
     atom    3 type  2   force =    -0.00000000   -0.00000000    0.00000765
     atom    4 type  3   force =    -0.00000000    0.00000000   -0.00094561

     Total force =     0.044519     Total SCF correction =     0.001589


     Computing stress (Cartesian axis) and pressure


     negative rho (up, down):  2.487E-04 2.213E-04
          total   stress  (Ry/bohr**3)                   (kbar)     P=      -25.08
  -0.00012195   0.00000000   0.00000000          -17.94        0.00        0.00
   0.00000000  -0.00012195   0.00000000            0.00      -17.94        0.00
   0.00000000  -0.00000000  -0.00026758            0.00       -0.00      -39.36

     Energy error            =      2.4E-03 Ry
     Gradient error          =      3.2E-02 Ry/Bohr

     number of scf cycles    =  12
     number of bfgs steps    =  11

     energy             old  =    -658.5662800207 Ry
     energy             new  =    -658.5686412555 Ry

     CASE: energy            _new < energy            _old

     new trust radius        =       0.0494101740 bohr
     new conv_thr            =       0.0000002361 Ry


ATOMIC_POSITIONS (crystal)
Mo            0.0000000000        0.0000000000        0.5038488599
S             0.6666666667        0.3333333333        0.6020582892
S             0.6666666667        0.3333333333        0.4175261765
Co            0.3333333333        0.6666666667        0.6742027381



     Writing config-only to output data dir ./tmp/relax.save/
     NEW-OLD atomic charge density approx. for the potential

     negative rho (up, down):  2.399E-04 2.345E-04
     Generating pointlists ...

     total cpu time spent up to now is      367.0 secs

     Self-consistent Calculation

     iteration #  1     ecut=    80.00 Ry     beta= 0.70
     Davidson diagonalization with overlap
     ethr =  1.00E-06,  avg # of iterations =  8.7

     negative rho (up, down):  2.496E-04 2.247E-04

     total cpu time spent up to now is      370.6 secs

     total energy              =    -658.57127492 Ry
     estimated scf accuracy    <       0.00078990 Ry

     total magnetization       =     1.09 Bohr mag/cell
     absolute magnetization    =     1.55 Bohr mag/cell

     iteration #  2     ecut=    80.00 Ry     beta= 0.70
     Davidson diagonalization with overlap
     ethr =  2.26E-06,  avg # of iterations =  4.8

     negative rho (up, down):  2.486E-04 2.235E-04

     total cpu time spent up to now is      372.8 secs

     total energy              =    -658.57030258 Ry
     estimated scf accuracy    <       0.01283877 Ry

     total magnetization       =     1.10 Bohr mag/cell
     absolute magnetization    =     1.53 Bohr mag/cell

     iteration #  3     ecut=    80.00 Ry     beta= 0.70
     Davidson diagonalization with overlap
     ethr =  2.26E-06,  avg # of iterations =  5.1

     negative rho (up, down):  2.485E-04 2.233E-04

     total cpu time spent up to now is      375.1 secs

     total energy              =    -658.57088777 Ry
     estimated scf accuracy    <       0.02224112 Ry

     total magnetization       =     1.14 Bohr mag/cell
     absolute magnetization    =     1.60 Bohr mag/cell

     iteration #  4     ecut=    80.00 Ry     beta= 0.70
     Davidson diagonalization with overlap
     ethr =  2.26E-06,  avg # of iterations =  3.9

     negative rho (up, down):  2.495E-04 2.230E-04

     total cpu time spent up to now is      377.0 secs

     total energy              =    -658.57165164 Ry
     estimated scf accuracy    <       0.00078795 Ry

     total magnetization       =     1.08 Bohr mag/cell
     absolute magnetization    =     1.53 Bohr mag/cell

     iteration #  5     ecut=    80.00 Ry     beta= 0.70
     Davidson diagonalization with overlap
     ethr =  2.25E-06,  avg # of iterations =  1.4

     negative rho (up, down):  2.513E-04 2.234E-04

     total cpu time spent up to now is      378.7 secs

     total energy              =    -658.57168447 Ry
     estimated scf accuracy    <       0.00018856 Ry

     total magnetization       =     1.08 Bohr mag/cell
     absolute magnetization    =     1.53 Bohr mag/cell

     iteration #  6     ecut=    80.00 Ry     beta= 0.70
     Davidson diagonalization with overlap
     ethr =  5.39E-07,  avg # of iterations =  2.0

     negative rho (up, down):  2.519E-04 2.235E-04

     total cpu time spent up to now is      380.5 secs

     total energy              =    -658.57170951 Ry
     estimated scf accuracy    <       0.00008309 Ry

     total magnetization       =     1.09 Bohr mag/cell
     absolute magnetization    =     1.53 Bohr mag/cell

     iteration #  7     ecut=    80.00 Ry     beta= 0.70
     Davidson diagonalization with overlap
     ethr =  2.37E-07,  avg # of iterations =  1.6

     negative rho (up, down):  2.524E-04 2.237E-04

     total cpu time spent up to now is      382.3 secs

     total energy              =    -658.57171824 Ry
     estimated scf accuracy    <       0.00003066 Ry

     total magnetization       =     1.08 Bohr mag/cell
     absolute magnetization    =     1.53 Bohr mag/cell

     iteration #  8     ecut=    80.00 Ry     beta= 0.70
     Davidson diagonalization with overlap
     ethr =  8.76E-08,  avg # of iterations =  1.0

     negative rho (up, down):  2.526E-04 2.239E-04

     total cpu time spent up to now is      383.9 secs

     total energy              =    -658.57171895 Ry
     estimated scf accuracy    <       0.00001290 Ry

     total magnetization       =     1.08 Bohr mag/cell
     absolute magnetization    =     1.52 Bohr mag/cell

     iteration #  9     ecut=    80.00 Ry     beta= 0.70
     Davidson diagonalization with overlap
     ethr =  3.69E-08,  avg # of iterations =  1.6

     negative rho (up, down):  2.525E-04 2.239E-04

     total cpu time spent up to now is      385.6 secs

     total energy              =    -658.57171985 Ry
     estimated scf accuracy    <       0.00000037 Ry

     total magnetization       =     1.08 Bohr mag/cell
     absolute magnetization    =     1.52 Bohr mag/cell

     iteration # 10     ecut=    80.00 Ry     beta= 0.70
     Davidson diagonalization with overlap
     ethr =  1.06E-09,  avg # of iterations =  6.0

     negative rho (up, down):  2.524E-04 2.239E-04
 
     Magnetic moment per site  (integrated on atomic sphere of radius R)
     atom   1 (R=0.313)  charge= 10.7231  magn= -0.1011
     atom   2 (R=0.295)  charge=  3.7779  magn=  0.0118
     atom   3 (R=0.295)  charge=  3.7181  magn=  0.0132
     atom   4 (R=0.295)  charge=  7.1263  magn=  1.1913

     total cpu time spent up to now is      387.9 secs

     End of self-consistent calculation

 ------ SPIN UP ------------


          k = 0.0000 0.0000 0.0000 ( 12991 PWs)   bands (ev):

   -59.3668 -33.5539 -33.2630 -33.2630 -13.7352 -12.0775  -5.2491  -2.6289
    -1.6085  -1.6085  -0.6728  -0.6728   0.5270   0.6588   0.6588   0.8444
     0.8444   0.9816   2.2027   3.7956   3.7956   4.3059

          k = 0.0000 0.0000-0.0871 ( 12974 PWs)   bands (ev):

   -59.3668 -33.5539 -33.2630 -33.2630 -13.7352 -12.0775  -5.2491  -2.6289
    -1.6085  -1.6085  -0.6728  -0.6728   0.5270   0.6588   0.6588   0.8445
     0.8445   0.9816   2.2026   3.7956   3.7956   4.3059

          k = 0.0000 0.1155 0.0000 ( 12953 PWs)   bands (ev):

   -59.3631 -33.5469 -33.2996 -33.2714 -13.6043 -11.9808  -5.1006  -2.5900
    -2.0166  -1.6351  -0.9590  -0.6664   0.2759   0.5370   0.5819   0.9127
     0.9965   1.0531   2.4705   3.4861   3.7694   4.0653

          k = 0.0000 0.1155-0.0871 ( 12970 PWs)   bands (ev):

   -59.3631 -33.5469 -33.2996 -33.2714 -13.6043 -11.9808  -5.1006  -2.5900
    -2.0166  -1.6351  -0.9590  -0.6664   0.2759   0.5370   0.5819   0.9127
     0.9965   1.0531   2.4705   3.4860   3.7692   4.0653

          k = 0.0000 0.2309 0.0000 ( 12929 PWs)   bands (ev):

   -59.3535 -33.5286 -33.3945 -33.2933 -13.2389 -11.7107  -4.7286  -3.1000
    -2.5425  -1.7892  -1.4823  -0.6620   0.0800   0.3611   0.6212   0.8295
     1.0556   1.2025   2.5341   3.5418   3.6048   4.0212

          k = 0.0000 0.2309-0.0871 ( 12940 PWs)   bands (ev):

   -59.3535 -33.5286 -33.3945 -33.2934 -13.2389 -11.7107  -4.7286  -3.1000
    -2.5425  -1.7892  -1.4823  -0.6620   0.0800   0.3611   0.6212   0.8295
     1.0556   1.2025   2.5341   3.5417   3.6048   4.0213

          k = 0.0000 0.3464 0.0000 ( 12915 PWs)   bands (ev):

   -59.3415 -33.5129 -33.5030 -33.3204 -12.7272 -11.3316  -4.4071  -4.2306
    -2.9397  -2.0637  -1.7489  -0.6861   0.0287   0.2672   0.6385   0.8019
     1.2675   1.3574   2.4326   3.4987   3.9797   4.7281

          k = 0.0000 0.3464-0.0871 ( 12918 PWs)   bands (ev):

   -59.3415 -33.5129 -33.5030 -33.3204 -12.7272 -11.3316  -4.4071  -4.2306
    -2.9397  -2.0637  -1.7489  -0.6861   0.0287   0.2672   0.6385   0.8019
     1.2675   1.3574   2.4326   3.4987   3.9796   4.7283

          k = 0.0000 0.4619 0.0000 ( 12872 PWs)   bands (ev):

   -59.3318 -33.6023 -33.4871 -33.3421 -12.2413 -10.9688  -5.2611  -4.2902
    -3.2624  -2.3008  -1.9635  -0.7354  -0.0695   0.5682   0.6912   0.9952
     1.2373   1.6245   2.7775   3.6338   4.2535   4.9947

          k = 0.0000 0.4619-0.0871 ( 12884 PWs)   bands (ev):

   -59.3318 -33.6023 -33.4871 -33.3421 -12.2413 -10.9688  -5.2611  -4.2902
    -3.2624  -2.3008  -1.9635  -0.7354  -0.0695   0.5682   0.6912   0.9952
     1.2373   1.6245   2.7775   3.6338   4.2535   4.9947

          k = 0.0000-0.5774 0.0000 ( 12854 PWs)   bands (ev):

   -59.3281 -33.6370 -33.4801 -33.3504 -12.0311 -10.8093  -5.6504  -4.3758
    -3.3233  -2.3905  -2.0799  -0.7608  -0.0801   0.6654   0.9300   1.0896
     1.1681   1.6904   3.1218   3.7899   4.1235   4.9691

          k = 0.0000-0.5774-0.0871 ( 12864 PWs)   bands (ev):

   -59.3281 -33.6370 -33.4801 -33.3504 -12.0311 -10.8093  -5.6504  -4.3758
    -3.3233  -2.3905  -2.0799  -0.7608  -0.0801   0.6654   0.9300   1.0896
     1.1681   1.6904   3.1218   3.7899   4.1235   4.9691

          k = 0.1000 0.1732 0.0000 ( 12937 PWs)   bands (ev):

   -59.3564 -33.5343 -33.3627 -33.2893 -13.3558 -11.7970  -4.8372  -2.7653
    -2.4917  -1.7911  -1.3463  -0.6927   0.1171   0.3491   0.6828   0.8345
     0.9993   1.2440   2.7409   3.1477   3.7494   3.8838

          k = 0.1000 0.1732-0.0871 ( 12920 PWs)   bands (ev):

   -59.3564 -33.5342 -33.3627 -33.2893 -13.3558 -11.7970  -4.8372  -2.7653
    -2.4917  -1.7911  -1.3463  -0.6927   0.1171   0.3491   0.6828   0.8345
     0.9993   1.2440   2.7409   3.1477   3.7494   3.8837

          k = 0.1000 0.2887 0.0000 ( 12944 PWs)   bands (ev):

   -59.3456 -33.5140 -33.4612 -33.3202 -12.9146 -11.4693  -4.4502  -3.7413
    -2.7445  -2.2104  -1.6385  -0.7232  -0.0359   0.3175   0.6525   0.7750
     1.1354   1.4349   2.5361   3.2271   3.9501   4.1376

          k = 0.1000 0.2887-0.0871 ( 12926 PWs)   bands (ev):

   -59.3456 -33.5140 -33.4612 -33.3202 -12.9146 -11.4693  -4.4502  -3.7413
    -2.7445  -2.2104  -1.6385  -0.7232  -0.0359   0.3175   0.6525   0.7750
     1.1354   1.4349   2.5361   3.2271   3.9501   4.1377

          k = 0.1000 0.4041 0.0000 ( 12898 PWs)   bands (ev):

   -59.3348 -33.5587 -33.4927 -33.3513 -12.4055 -11.0884  -4.7889  -4.1858
    -3.1938  -2.5456  -1.7716  -0.8793  -0.0720   0.4085   0.6222   0.9887
     1.2878   1.5286   2.5197   3.6105   4.2327   4.6114

          k = 0.1000 0.4041-0.0871 ( 12884 PWs)   bands (ev):

   -59.3348 -33.5587 -33.4927 -33.3513 -12.4055 -11.0884  -4.7889  -4.1858
    -3.1938  -2.5456  -1.7716  -0.8793  -0.0720   0.4085   0.6222   0.9887
     1.2878   1.5286   2.5197   3.6105   4.2327   4.6114

          k = 0.1000 0.5196 0.0000 ( 12858 PWs)   bands (ev):

   -59.3281 -33.6177 -33.4801 -33.3705 -12.0409 -10.8112  -5.4555  -4.2610
    -3.3833  -2.6700  -1.9719  -1.0012  -0.0600   0.6072   0.7902   1.1280
     1.2903   1.6269   2.9393   3.8559   4.3508   4.5950

          k = 0.1000 0.5196-0.0871 ( 12862 PWs)   bands (ev):

   -59.3281 -33.6177 -33.4801 -33.3705 -12.0409 -10.8112  -5.4555  -4.2610
    -3.3833  -2.6700  -1.9719  -1.0012  -0.0600   0.6072   0.7902   1.1280
     1.2903   1.6269   2.9393   3.8559   4.3508   4.5950

          k = 0.2000 0.3464 0.0000 ( 12917 PWs)   bands (ev):

   -59.3359 -33.5300 -33.4946 -33.3674 -12.4684 -11.1321  -4.4597  -4.1024
    -3.1600  -2.8402  -1.7291  -0.9304  -0.1773   0.3880   0.5756   1.0106
     1.2467   1.6027   2.4336   3.5986   3.9892   4.4886

          k = 0.2000 0.3464-0.0871 ( 12918 PWs)   bands (ev):

   -59.3359 -33.5300 -33.4946 -33.3674 -12.4684 -11.1321  -4.4597  -4.1024
    -3.1600  -2.8402  -1.7291  -0.9304  -0.1773   0.3880   0.5756   1.0106
     1.2467   1.6027   2.4336   3.5986   3.9892   4.4886

          k = 0.2000 0.4619 0.0000 ( 12869 PWs)   bands (ev):

   -59.3281 -33.5770 -33.4801 -33.4127 -12.0567 -10.8140  -5.0276  -4.0177
    -3.6277  -3.0635  -1.9289  -1.2669  -0.0449   0.4342   0.7417   1.1406
     1.2885   1.7099   2.6413   3.7771   4.2731   4.7566

          k = 0.2000 0.4619-0.0871 ( 12868 PWs)   bands (ev):

   -59.3281 -33.5770 -33.4801 -33.4127 -12.0567 -10.8140  -5.0276  -4.0177
    -3.6277  -3.0635  -1.9289  -1.2669  -0.0449   0.4342   0.7417   1.1406
     1.2885   1.7099   2.6413   3.7771   4.2731   4.7566

          k = 0.2000 0.5774 0.0000 ( 12850 PWs)   bands (ev):

   -59.3251 -33.5935 -33.4744 -33.4314 -11.8832 -10.6774  -5.2689  -4.1313
    -3.7184  -3.0589  -2.0868  -1.4021   0.0183   0.5267   0.8788   1.0772
     1.3866   1.7107   3.0942   3.5765   4.1672   4.9684

          k = 0.2000 0.5774-0.0871 ( 12850 PWs)   bands (ev):

   -59.3251 -33.5935 -33.4744 -33.4314 -11.8832 -10.6774  -5.2689  -4.1313
    -3.7184  -3.0589  -2.0868  -1.4021   0.0183   0.5267   0.8788   1.0772
     1.3866   1.7107   3.0942   3.5765   4.1672   4.9684

          k = 0.3000 0.5196 0.0000 ( 12860 PWs)   bands (ev):

   -59.3239 -33.5587 -33.4804 -33.4722 -11.8245 -10.6253  -4.9458  -4.3699
    -3.7303  -3.2368  -2.2704  -1.4826   0.1147   0.4612   0.9079   1.0313
     1.4019   1.7733   3.0319   3.4177   4.1240   5.5365

          k = 0.3000 0.5196-0.0871 ( 12870 PWs)   bands (ev):

   -59.3239 -33.5587 -33.4804 -33.4722 -11.8245 -10.6253  -4.9458  -4.3699
    -3.7303  -3.2368  -2.2704  -1.4826   0.1147   0.4612   0.9079   1.0313
     1.4019   1.7733   3.0319   3.4177   4.1240   5.5365

 ------ SPIN DOWN ----------


          k = 0.0000 0.0000 0.0000 ( 12991 PWs)   bands (ev):

   -59.4528 -33.6360 -33.3632 -33.3632 -13.7175 -12.0648  -5.2306  -2.5848
    -1.3343  -1.3343  -0.5720  -0.5720   0.7382   1.2314   1.2314   1.5765
     1.5765   1.7171   2.2589   4.2391   4.2391   4.3150

          k = 0.0000 0.0000-0.0871 ( 12974 PWs)   bands (ev):

   -59.4528 -33.6360 -33.3632 -33.3632 -13.7175 -12.0648  -5.2306  -2.5848
    -1.3343  -1.3343  -0.5720  -0.5720   0.7383   1.2314   1.2314   1.5766
     1.5766   1.7171   2.2589   4.2391   4.2391   4.3149

          k = 0.0000 0.1155 0.0000 ( 12953 PWs)   bands (ev):

   -59.4491 -33.6291 -33.3998 -33.3717 -13.5862 -11.9678  -5.0802  -2.5528
    -1.7963  -1.3326  -0.8966  -0.6503   0.6914   1.0846   1.2426   1.4651
     1.6310   1.8750   2.6197   3.9024   4.0922   4.1529

          k = 0.0000 0.1155-0.0871 ( 12970 PWs)   bands (ev):

   -59.4491 -33.6291 -33.3998 -33.3717 -13.5862 -11.9678  -5.0802  -2.5528
    -1.7963  -1.3326  -0.8966  -0.6503   0.6914   1.0846   1.2426   1.4651
     1.6310   1.8750   2.6197   3.9024   4.0922   4.1528

          k = 0.0000 0.2309 0.0000 ( 12929 PWs)   bands (ev):

   -59.4394 -33.6110 -33.4944 -33.3936 -13.2195 -11.6970  -4.7040  -2.9759
    -2.5124  -1.5149  -1.4409  -0.6738   0.6198   0.7458   1.3476   1.4260
     1.7344   2.0501   2.9206   3.7441   3.9405   4.0960

          k = 0.0000 0.2309-0.0871 ( 12940 PWs)   bands (ev):

   -59.4394 -33.6110 -33.4944 -33.3936 -13.2195 -11.6970  -4.7040  -2.9759
    -2.5124  -1.5149  -1.4409  -0.6738   0.6198   0.7458   1.3476   1.4260
     1.7344   2.0501   2.9206   3.7440   3.9405   4.0962

          k = 0.0000 0.3464 0.0000 ( 12915 PWs)   bands (ev):

   -59.4275 -33.6107 -33.5873 -33.4205 -12.7051 -11.3173  -4.3950  -4.1306
    -2.9298  -1.8678  -1.7046  -0.6156   0.2284   0.9730   1.2670   1.8353
     1.9257   2.1462   2.8064   3.7468   4.0174   4.9170

          k = 0.0000 0.3464-0.0871 ( 12918 PWs)   bands (ev):

   -59.4275 -33.6107 -33.5873 -33.4205 -12.7051 -11.3173  -4.3950  -4.1306
    -2.9298  -1.8678  -1.7046  -0.6156   0.2284   0.9730   1.2669   1.8353
     1.9257   2.1462   2.8064   3.7468   4.0174   4.9172

          k = 0.0000 0.4619 0.0000 ( 12872 PWs)   bands (ev):

   -59.4178 -33.7017 -33.5698 -33.4423 -12.2156 -10.9542  -5.2159  -4.2650
    -3.2287  -2.1476  -1.9141  -0.6154   0.1534   1.2125   1.4740   2.1173
     2.2524   2.3164   2.9622   3.6911   4.2342   5.0835

          k = 0.0000 0.4619-0.0871 ( 12884 PWs)   bands (ev):

   -59.4178 -33.7017 -33.5698 -33.4423 -12.2156 -10.9542  -5.2159  -4.2650
    -3.2287  -2.1476  -1.9141  -0.6154   0.1534   1.2125   1.4740   2.1173
     2.2524   2.3164   2.9622   3.6911   4.2342   5.0835

          k = 0.0000-0.5774 0.0000 ( 12854 PWs)   bands (ev):

   -59.4141 -33.7363 -33.5628 -33.4505 -12.0034 -10.7948  -5.6124  -4.3607
    -3.2786  -2.2496  -2.0252  -0.6280   0.2049   1.2262   1.7457   2.2423
     2.3023   2.4626   3.2402   3.7428   4.0874   5.0598

          k = 0.0000-0.5774-0.0871 ( 12864 PWs)   bands (ev):

   -59.4141 -33.7364 -33.5628 -33.4505 -12.0034 -10.7948  -5.6124  -4.3607
    -3.2786  -2.2496  -2.0252  -0.6280   0.2049   1.2262   1.7457   2.2423
     2.3023   2.4626   3.2402   3.7428   4.0874   5.0598

          k = 0.1000 0.1732 0.0000 ( 12937 PWs)   bands (ev):

   -59.4424 -33.6166 -33.4627 -33.3895 -13.3369 -11.7835  -4.8134  -2.6544
    -2.4197  -1.5128  -1.3116  -0.6995   0.6800   0.7835   1.3671   1.4661
     1.6305   2.0379   3.0426   3.5308   3.8503   4.0913

          k = 0.1000 0.1732-0.0871 ( 12920 PWs)   bands (ev):

   -59.4424 -33.6166 -33.4627 -33.3895 -13.3369 -11.7835  -4.8134  -2.6544
    -2.4197  -1.5128  -1.3116  -0.6995   0.6800   0.7835   1.3671   1.4661
     1.6305   2.0379   3.0426   3.5308   3.8504   4.0912

          k = 0.1000 0.2887 0.0000 ( 12944 PWs)   bands (ev):

   -59.4316 -33.5967 -33.5607 -33.4204 -12.8936 -11.4552  -4.4253  -3.6306
    -2.7374  -2.0617  -1.5600  -0.6751   0.3683   0.7834   1.3158   1.7478
     1.8272   2.1722   2.9747   3.4974   4.0080   4.2652

          k = 0.1000 0.2887-0.0871 ( 12926 PWs)   bands (ev):

   -59.4316 -33.5967 -33.5607 -33.4204 -12.8936 -11.4552  -4.4253  -3.6306
    -2.7374  -2.0617  -1.5600  -0.6751   0.3683   0.7834   1.3158   1.7478
     1.8272   2.1722   2.9747   3.4974   4.0080   4.2652

          k = 0.1000 0.4041 0.0000 ( 12898 PWs)   bands (ev):

   -59.4208 -33.6582 -33.5754 -33.4515 -12.3812 -11.0738  -4.7373  -4.1399
    -3.1786  -2.4163  -1.7179  -0.8113   0.2075   1.1478   1.2800   2.0274
     2.1743   2.2469   2.8977   3.6736   4.2821   4.6527

          k = 0.1000 0.4041-0.0871 ( 12884 PWs)   bands (ev):

   -59.4208 -33.6582 -33.5754 -33.4515 -12.3812 -11.0738  -4.7373  -4.1399
    -3.1786  -2.4163  -1.7179  -0.8113   0.2075   1.1478   1.2800   2.0274
     2.1743   2.2469   2.8977   3.6736   4.2821   4.6527

          k = 0.1000 0.5196 0.0000 ( 12858 PWs)   bands (ev):

   -59.4141 -33.7171 -33.5628 -33.4706 -12.0134 -10.7966  -5.4142  -4.2402
    -3.3448  -2.5301  -1.9424  -0.9412   0.3155   1.2779   1.5687   2.2186
     2.2782   2.5006   3.0567   3.8375   4.3390   4.6656

          k = 0.1000 0.5196-0.0871 ( 12862 PWs)   bands (ev):

   -59.4141 -33.7171 -33.5628 -33.4706 -12.0134 -10.7966  -5.4142  -4.2402
    -3.3448  -2.5301  -1.9424  -0.9412   0.3155   1.2779   1.5687   2.2186
     2.2782   2.5006   3.0567   3.8375   4.3390   4.6656

          k = 0.2000 0.3464 0.0000 ( 12917 PWs)   bands (ev):

   -59.4219 -33.6295 -33.5774 -33.4675 -12.4446 -11.1175  -4.4116  -4.0280
    -3.1578  -2.7319  -1.6988  -0.8770   0.1932   1.0129   1.2716   1.9637
     2.1854   2.2929   2.9658   3.6665   4.0025   4.5238

          k = 0.2000 0.3464-0.0871 ( 12918 PWs)   bands (ev):

   -59.4219 -33.6295 -33.5774 -33.4675 -12.4446 -11.1175  -4.4116  -4.0280
    -3.1578  -2.7319  -1.6988  -0.8770   0.1932   1.0129   1.2716   1.9637
     2.1854   2.2929   2.9658   3.6665   4.0025   4.5238

          k = 0.2000 0.4619 0.0000 ( 12869 PWs)   bands (ev):

   -59.4141 -33.6765 -33.5628 -33.5126 -12.0294 -10.7993  -4.9786  -3.9769
    -3.5814  -2.9825  -1.9284  -1.2322   0.4100   1.2560   1.3403   2.1062
     2.2654   2.6288   2.9173   3.7908   4.2466   4.7633

          k = 0.2000 0.4619-0.0871 ( 12868 PWs)   bands (ev):

   -59.4141 -33.6765 -33.5628 -33.5126 -12.0294 -10.7993  -4.9786  -3.9769
    -3.5814  -2.9825  -1.9284  -1.2322   0.4100   1.2560   1.3403   2.1062
     2.2654   2.6288   2.9173   3.7908   4.2466   4.7632

          k = 0.2000 0.5774 0.0000 ( 12850 PWs)   bands (ev):

   -59.4111 -33.6930 -33.5572 -33.5313 -11.8542 -10.6627  -5.2259  -4.1022
    -3.6627  -2.9660  -2.0919  -1.3878   0.5895   1.3354   1.4587   2.1581
     2.2500   2.7977   3.1321   3.5869   4.2001   4.9962

          k = 0.2000 0.5774-0.0871 ( 12850 PWs)   bands (ev):

   -59.4111 -33.6930 -33.5572 -33.5313 -11.8542 -10.6627  -5.2259  -4.1022
    -3.6627  -2.9660  -2.0919  -1.3878   0.5895   1.3354   1.4587   2.1581
     2.2500   2.7977   3.1321   3.5869   4.2001   4.9962

          k = 0.3000 0.5196 0.0000 ( 12860 PWs)   bands (ev):

   -59.4099 -33.6583 -33.5802 -33.5550 -11.7950 -10.6105  -4.9012  -4.3174
    -3.6548  -3.2205  -2.2620  -1.4727   0.8162   1.2489   1.3822   2.1260
     2.2571   2.8906   3.0548   3.4142   4.1939   5.5333

          k = 0.3000 0.5196-0.0871 ( 12870 PWs)   bands (ev):

   -59.4099 -33.6583 -33.5802 -33.5550 -11.7950 -10.6105  -4.9012  -4.3174
    -3.6548  -3.2205  -2.2620  -1.4727   0.8162   1.2489   1.3822   2.1260
     2.2571   2.8906   3.0548   3.4142   4.1939   5.5334

     the Fermi energy is     2.2445 ev

!    total energy              =    -658.57172011 Ry
     total all-electron energy =    -12481.745611 Ry
     estimated scf accuracy    <       0.00000004 Ry
     smearing contrib. (-TS)   =      -0.00909522 Ry
     internal energy E=F+TS    =    -658.56262489 Ry

     The total energy is F=E-TS. E is the sum of the following terms:
     one-electron contribution =   -1320.33550971 Ry
     hartree contribution      =     674.05370138 Ry
     xc contribution           =     -62.39273759 Ry
     ewald contribution        =     456.24347675 Ry
     one-center paw contrib.   =    -406.13155571 Ry

     total magnetization       =     1.08 Bohr mag/cell
     absolute magnetization    =     1.52 Bohr mag/cell

     convergence has been achieved in  10 iterations

     negative rho (up, down):  2.524E-04 2.239E-04

     Forces acting on atoms (cartesian axes, Ry/au):

     atom    1 type  1   force =     0.00000000    0.00000000    0.01495735
     atom    2 type  2   force =     0.00000000    0.00000000   -0.00376791
     atom    3 type  2   force =     0.00000000    0.00000000    0.02096774
     atom    4 type  3   force =     0.00000000    0.00000000   -0.03215718
     The non-local contrib.  to forces
     atom    1 type  1   force =     0.00000000    0.00000000   -0.06107094
     atom    2 type  2   force =     0.00000000    0.00000000   -0.00355589
     atom    3 type  2   force =     0.00000000    0.00000000    0.27291415
     atom    4 type  3   force =     0.00000000    0.00000000    0.10465661
     The ionic contribution  to forces
     atom    1 type  1   force =     0.00000000   -0.00000000  -33.60530580
     atom    2 type  2   force =    -0.00000000    0.00000000   19.00277530
     atom    3 type  2   force =    -0.00000000    0.00000000  -45.51213536
     atom    4 type  3   force =     0.00000000   -0.00000000   60.11466586
     The local contribution  to forces
     atom    1 type  1   force =     0.00000000   -0.00000000   33.67658950
     atom    2 type  2   force =    -0.00000000    0.00000000  -19.00261019
     atom    3 type  2   force =    -0.00000000    0.00000000   45.26250827
     atom    4 type  3   force =     0.00000000   -0.00000000  -60.22404420
     The core correction contribution to forces
     atom    1 type  1   force =     0.00000000   -0.00000000    0.00480515
     atom    2 type  2   force =     0.00000000   -0.00000000   -0.00005733
     atom    3 type  2   force =     0.00000000   -0.00000000   -0.00241862
     atom    4 type  3   force =     0.00000000   -0.00000000   -0.02718496
     The Hubbard contrib.    to forces
     atom    1 type  1   force =     0.00000000    0.00000000    0.00000000
     atom    2 type  2   force =     0.00000000    0.00000000    0.00000000
     atom    3 type  2   force =     0.00000000    0.00000000    0.00000000
     atom    4 type  3   force =     0.00000000    0.00000000    0.00000000
     The SCF correction term to forces
     atom    1 type  1   force =    -0.00000000    0.00000000   -0.00006130
     atom    2 type  2   force =    -0.00000000   -0.00000000   -0.00032054
     atom    3 type  2   force =     0.00000000    0.00000000    0.00009856
     atom    4 type  3   force =    -0.00000000   -0.00000000   -0.00025123

     Total force =     0.041372     Total SCF correction =     0.000423


     Computing stress (Cartesian axis) and pressure


     negative rho (up, down):  2.524E-04 2.239E-04
          total   stress  (Ry/bohr**3)                   (kbar)     P=      -22.31
  -0.00010359   0.00000000   0.00000000          -15.24        0.00        0.00
   0.00000000  -0.00010359  -0.00000000            0.00      -15.24       -0.00
   0.00000000   0.00000000  -0.00024784            0.00        0.00      -36.46

     Energy error            =      3.1E-03 Ry
     Gradient error          =      3.2E-02 Ry/Bohr

     number of scf cycles    =  13
     number of bfgs steps    =  12

     energy             old  =    -658.5686412555 Ry
     energy             new  =    -658.5717201066 Ry

     CASE: energy            _new < energy            _old

     new trust radius        =       0.0741152609 bohr
     new conv_thr            =       0.0000003079 Ry


ATOMIC_POSITIONS (crystal)
Mo            0.0000000000        0.0000000000        0.5052315236
S             0.6666666667        0.3333333333        0.6013804138
S             0.6666666667        0.3333333333        0.4189775239
Co            0.3333333333        0.6666666667        0.6720466025



     Writing config-only to output data dir ./tmp/relax.save/
     NEW-OLD atomic charge density approx. for the potential

     negative rho (up, down):  2.382E-04 2.301E-04
     Generating pointlists ...
     new r_m :   0.2911 (alat units)  1.7428 (a.u.) for type    2
     new r_m :   0.2911 (alat units)  1.7428 (a.u.) for type    3

     total cpu time spent up to now is      391.1 secs

     Self-consistent Calculation

     iteration #  1     ecut=    80.00 Ry     beta= 0.70
     Davidson diagonalization with overlap
     ethr =  1.00E-06,  avg # of iterations =  9.9

     negative rho (up, down):  2.471E-04 2.218E-04

     total cpu time spent up to now is      394.9 secs

     total energy              =    -658.57449222 Ry
     estimated scf accuracy    <       0.00193406 Ry

     total magnetization       =     1.04 Bohr mag/cell
     absolute magnetization    =     1.48 Bohr mag/cell

     iteration #  2     ecut=    80.00 Ry     beta= 0.70
     Davidson diagonalization with overlap
     ethr =  5.53E-06,  avg # of iterations =  5.7

     negative rho (up, down):  2.461E-04 2.209E-04

     total cpu time spent up to now is      397.3 secs

     total energy              =    -658.56767881 Ry
     estimated scf accuracy    <       0.15581486 Ry

     total magnetization       =     1.16 Bohr mag/cell
     absolute magnetization    =     1.61 Bohr mag/cell

     iteration #  3     ecut=    80.00 Ry     beta= 0.70
     Davidson diagonalization with overlap
     ethr =  5.53E-06,  avg # of iterations =  8.2

     negative rho (up, down):  2.449E-04 2.194E-04

     total cpu time spent up to now is      399.8 secs

     total energy              =    -658.57285806 Ry
     estimated scf accuracy    <       0.05841505 Ry

     total magnetization       =     1.02 Bohr mag/cell
     absolute magnetization    =     1.40 Bohr mag/cell

     iteration #  4     ecut=    80.00 Ry     beta= 0.70
     Davidson diagonalization with overlap
     ethr =  5.53E-06,  avg # of iterations =  5.0

     negative rho (up, down):  2.460E-04 2.192E-04

     total cpu time spent up to now is      401.9 secs

     total energy              =    -658.57554138 Ry
     estimated scf accuracy    <       0.00040471 Ry

     total magnetization       =     1.04 Bohr mag/cell
     absolute magnetization    =     1.47 Bohr mag/cell

     iteration #  5     ecut=    80.00 Ry     beta= 0.70
     Davidson diagonalization with overlap
     ethr =  1.16E-06,  avg # of iterations =  3.3

     negative rho (up, down):  2.482E-04 2.200E-04

     total cpu time spent up to now is      403.9 secs

     total energy              =    -658.57560187 Ry
     estimated scf accuracy    <       0.00031863 Ry

     total magnetization       =     1.04 Bohr mag/cell
     absolute magnetization    =     1.46 Bohr mag/cell

     iteration #  6     ecut=    80.00 Ry     beta= 0.70
     Davidson diagonalization with overlap
     ethr =  9.10E-07,  avg # of iterations =  2.0

     negative rho (up, down):  2.488E-04 2.203E-04

     total cpu time spent up to now is      405.7 secs

     total energy              =    -658.57564527 Ry
     estimated scf accuracy    <       0.00008965 Ry

     total magnetization       =     1.04 Bohr mag/cell
     absolute magnetization    =     1.46 Bohr mag/cell

     iteration #  7     ecut=    80.00 Ry     beta= 0.70
     Davidson diagonalization with overlap
     ethr =  2.56E-07,  avg # of iterations =  2.0

     negative rho (up, down):  2.493E-04 2.206E-04

     total cpu time spent up to now is      407.5 secs

     total energy              =    -658.57566381 Ry
     estimated scf accuracy    <       0.00001302 Ry

     total magnetization       =     1.04 Bohr mag/cell
     absolute magnetization    =     1.45 Bohr mag/cell

     iteration #  8     ecut=    80.00 Ry     beta= 0.70
     Davidson diagonalization with overlap
     ethr =  3.72E-08,  avg # of iterations =  2.2

     negative rho (up, down):  2.494E-04 2.210E-04

     total cpu time spent up to now is      409.3 secs

     total energy              =    -658.57566565 Ry
     estimated scf accuracy    <       0.00001344 Ry

     total magnetization       =     1.03 Bohr mag/cell
     absolute magnetization    =     1.45 Bohr mag/cell

     iteration #  9     ecut=    80.00 Ry     beta= 0.70
     Davidson diagonalization with overlap
     ethr =  3.72E-08,  avg # of iterations =  1.8

     negative rho (up, down):  2.493E-04 2.210E-04

     total cpu time spent up to now is      411.1 secs

     total energy              =    -658.57566684 Ry
     estimated scf accuracy    <       0.00000357 Ry

     total magnetization       =     1.03 Bohr mag/cell
     absolute magnetization    =     1.44 Bohr mag/cell

     iteration # 10     ecut=    80.00 Ry     beta= 0.70
     Davidson diagonalization with overlap
     ethr =  1.02E-08,  avg # of iterations =  3.1

     negative rho (up, down):  2.493E-04 2.211E-04

     total cpu time spent up to now is      412.9 secs

     total energy              =    -658.57566726 Ry
     estimated scf accuracy    <       0.00000033 Ry

     total magnetization       =     1.03 Bohr mag/cell
     absolute magnetization    =     1.44 Bohr mag/cell

     iteration # 11     ecut=    80.00 Ry     beta= 0.70
     Davidson diagonalization with overlap
     ethr =  9.51E-10,  avg # of iterations =  5.3

     negative rho (up, down):  2.492E-04 2.211E-04
 
     Magnetic moment per site  (integrated on atomic sphere of radius R)
     atom   1 (R=0.313)  charge= 10.7321  magn= -0.0910
     atom   2 (R=0.291)  charge=  3.6907  magn=  0.0099
     atom   3 (R=0.291)  charge=  3.6213  magn=  0.0114
     atom   4 (R=0.291)  charge=  7.0775  magn=  1.1276

     total cpu time spent up to now is      415.0 secs

     End of self-consistent calculation

 ------ SPIN UP ------------


          k = 0.0000 0.0000 0.0000 ( 12991 PWs)   bands (ev):

   -59.3891 -33.5903 -33.2878 -33.2878 -13.8484 -12.0934  -5.3319  -2.5988
    -1.7590  -1.7590  -0.7117  -0.7117   0.5413   0.6686   0.6686   0.7927
     0.7927   0.9960   2.3298   3.8943   3.8943   4.2670

          k = 0.0000 0.0000-0.0871 ( 12974 PWs)   bands (ev):

   -59.3891 -33.5903 -33.2878 -33.2878 -13.8484 -12.0934  -5.3319  -2.5988
    -1.7590  -1.7590  -0.7117  -0.7117   0.5413   0.6686   0.6686   0.7927
     0.7927   0.9960   2.3297   3.8943   3.8943   4.2670

          k = 0.0000 0.1155 0.0000 ( 12953 PWs)   bands (ev):

   -59.3853 -33.5831 -33.3248 -33.2963 -13.7178 -11.9976  -5.1840  -2.5742
    -2.1702  -1.7881  -0.9916  -0.7082   0.2736   0.5534   0.5754   0.8895
     0.9651   1.0863   2.5861   3.5894   3.8627   4.0243

          k = 0.0000 0.1155-0.0871 ( 12970 PWs)   bands (ev):

   -59.3853 -33.5831 -33.3248 -33.2963 -13.7178 -11.9976  -5.1840  -2.5742
    -2.1702  -1.7881  -0.9916  -0.7082   0.2736   0.5534   0.5754   0.8895
     0.9651   1.0863   2.5861   3.5893   3.8627   4.0243

          k = 0.0000 0.2309 0.0000 ( 12929 PWs)   bands (ev):

   -59.3756 -33.5645 -33.4206 -33.3184 -13.3540 -11.7296  -4.8147  -3.2457
    -2.5647  -1.9458  -1.4957  -0.7022   0.0883   0.3621   0.6271   0.8123
     1.0390   1.2653   2.6414   3.6260   3.6684   3.9965

          k = 0.0000 0.2309-0.0871 ( 12940 PWs)   bands (ev):

   -59.3756 -33.5645 -33.4206 -33.3184 -13.3540 -11.7296  -4.8147  -3.2457
    -2.5647  -1.9458  -1.4957  -0.7022   0.0883   0.3621   0.6271   0.8123
     1.0389   1.2653   2.6415   3.6259   3.6684   3.9966

          k = 0.0000 0.3464 0.0000 ( 12915 PWs)   bands (ev):

   -59.3636 -33.5432 -33.5352 -33.3456 -12.8465 -11.3532  -4.5353  -4.3332
    -2.9680  -2.2210  -1.7583  -0.7155  -0.0006   0.2801   0.6614   0.8243
     1.3411   1.3460   2.5198   3.5297   3.9991   4.7725

          k = 0.0000 0.3464-0.0871 ( 12918 PWs)   bands (ev):

   -59.3636 -33.5432 -33.5352 -33.3456 -12.8465 -11.3532  -4.5353  -4.3332
    -2.9680  -2.2210  -1.7583  -0.7155  -0.0006   0.2801   0.6614   0.8243
     1.3411   1.3460   2.5198   3.5297   3.9990   4.7726

          k = 0.0000 0.4619 0.0000 ( 12872 PWs)   bands (ev):

   -59.3538 -33.6301 -33.5222 -33.3675 -12.3669 -10.9923  -5.3950  -4.3609
    -3.3033  -2.4576  -1.9833  -0.7555  -0.0945   0.5970   0.7219   1.0262
     1.3088   1.6249   2.8441   3.6258   4.2648   5.0219

          k = 0.0000 0.4619-0.0871 ( 12884 PWs)   bands (ev):

   -59.3538 -33.6301 -33.5222 -33.3675 -12.3669 -10.9923  -5.3950  -4.3609
    -3.3033  -2.4576  -1.9833  -0.7555  -0.0945   0.5970   0.7219   1.0262
     1.3088   1.6249   2.8441   3.6258   4.2648   5.0219

          k = 0.0000-0.5774 0.0000 ( 12854 PWs)   bands (ev):

   -59.3501 -33.6652 -33.5151 -33.3758 -12.1603 -10.8336  -5.7763  -4.4359
    -3.3769  -2.5470  -2.1033  -0.7776  -0.0942   0.7049   0.9614   1.1243
     1.2239   1.6995   3.1829   3.7620   4.1481   5.0031

          k = 0.0000-0.5774-0.0871 ( 12864 PWs)   bands (ev):

   -59.3501 -33.6652 -33.5151 -33.3758 -12.1603 -10.8336  -5.7763  -4.4359
    -3.3769  -2.5470  -2.1033  -0.7776  -0.0942   0.7049   0.9614   1.1243
     1.2239   1.6995   3.1829   3.7620   4.1481   5.0031

          k = 0.1000 0.1732 0.0000 ( 12937 PWs)   bands (ev):

   -59.3786 -33.5702 -33.3885 -33.3143 -13.4704 -11.8153  -4.9221  -2.8933
    -2.5300  -1.9405  -1.3703  -0.7293   0.1260   0.3425   0.7029   0.8326
     0.9695   1.2853   2.8534   3.2431   3.7699   3.8891

          k = 0.1000 0.1732-0.0871 ( 12920 PWs)   bands (ev):

   -59.3786 -33.5702 -33.3885 -33.3143 -13.4704 -11.8153  -4.9221  -2.8933
    -2.5300  -1.9405  -1.3703  -0.7293   0.1260   0.3425   0.7029   0.8326
     0.9695   1.2853   2.8534   3.2430   3.7700   3.8890

          k = 0.1000 0.2887 0.0000 ( 12944 PWs)   bands (ev):

   -59.3678 -33.5494 -33.4880 -33.3455 -13.0321 -11.4900  -4.5430  -3.8846
    -2.7749  -2.3565  -1.6594  -0.7464  -0.0403   0.3162   0.6599   0.7975
     1.1399   1.4891   2.6344   3.2804   3.9291   4.1851

          k = 0.1000 0.2887-0.0871 ( 12926 PWs)   bands (ev):

   -59.3678 -33.5494 -33.4880 -33.3455 -13.0321 -11.4900  -4.5430  -3.8846
    -2.7749  -2.3565  -1.6594  -0.7464  -0.0403   0.3162   0.6599   0.7975
     1.1399   1.4891   2.6344   3.2804   3.9291   4.1851

          k = 0.1000 0.4041 0.0000 ( 12898 PWs)   bands (ev):

   -59.3569 -33.5862 -33.5280 -33.3768 -12.5286 -11.1111  -4.9329  -4.2647
    -3.2333  -2.6858  -1.7957  -0.8957  -0.0977   0.4252   0.6521   1.0189
     1.3301   1.5667   2.5976   3.6184   4.2240   4.6414

          k = 0.1000 0.4041-0.0871 ( 12884 PWs)   bands (ev):

   -59.3569 -33.5862 -33.5280 -33.3768 -12.5286 -11.1111  -4.9329  -4.2647
    -3.2333  -2.6858  -1.7957  -0.8957  -0.0977   0.4252   0.6521   1.0189
     1.3301   1.5667   2.5976   3.6184   4.2240   4.6414

          k = 0.1000 0.5196 0.0000 ( 12858 PWs)   bands (ev):

   -59.3501 -33.6457 -33.5151 -33.3962 -12.1697 -10.8351  -5.5851  -4.3253
    -3.4542  -2.7984  -1.9986  -1.0148  -0.0734   0.6378   0.8226   1.1707
     1.3334   1.6579   2.9934   3.8481   4.3663   4.6056

          k = 0.1000 0.5196-0.0871 ( 12862 PWs)   bands (ev):

   -59.3501 -33.6457 -33.5151 -33.3962 -12.1697 -10.8351  -5.5851  -4.3253
    -3.4542  -2.7984  -1.9986  -1.0148  -0.0734   0.6378   0.8226   1.1707
     1.3334   1.6579   2.9934   3.8481   4.3663   4.6056

          k = 0.2000 0.3464 0.0000 ( 12917 PWs)   bands (ev):

   -59.3580 -33.5572 -33.5300 -33.3931 -12.5905 -11.1544  -4.6122  -4.1849
    -3.2163  -2.9577  -1.7546  -0.9369  -0.1968   0.4052   0.5938   1.0403
     1.2581   1.6850   2.5187   3.6156   3.9591   4.5225

          k = 0.2000 0.3464-0.0871 ( 12918 PWs)   bands (ev):

   -59.3580 -33.5572 -33.5300 -33.3931 -12.5905 -11.1544  -4.6122  -4.1849
    -3.2163  -2.9577  -1.7546  -0.9369  -0.1968   0.4052   0.5938   1.0403
     1.2581   1.6850   2.5187   3.6156   3.9591   4.5224

          k = 0.2000 0.4619 0.0000 ( 12869 PWs)   bands (ev):

   -59.3501 -33.6047 -33.5151 -33.4386 -12.1848 -10.8373  -5.1661  -4.1040
    -3.7317  -3.1333  -1.9526  -1.2756  -0.0514   0.4526   0.7736   1.1661
     1.3230   1.7921   2.6970   3.7748   4.2589   4.7745

          k = 0.2000 0.4619-0.0871 ( 12868 PWs)   bands (ev):

   -59.3501 -33.6047 -33.5151 -33.4386 -12.1848 -10.8373  -5.1661  -4.1040
    -3.7317  -3.1333  -1.9526  -1.2756  -0.0514   0.4526   0.7736   1.1661
     1.3230   1.7921   2.6970   3.7748   4.2589   4.7745

          k = 0.2000 0.5774 0.0000 ( 12850 PWs)   bands (ev):

   -59.3471 -33.6214 -33.5093 -33.4575 -12.0143 -10.7011  -5.4013  -4.2114
    -3.8404  -3.1169  -2.1111  -1.4111   0.0231   0.5515   0.9216   1.0881
     1.4308   1.7889   3.1082   3.5883   4.1955   4.9655

          k = 0.2000 0.5774-0.0871 ( 12850 PWs)   bands (ev):

   -59.3471 -33.6214 -33.5093 -33.4575 -12.0143 -10.7011  -5.4013  -4.2114
    -3.8404  -3.1169  -2.1111  -1.4111   0.0231   0.5515   0.9216   1.0881
     1.4308   1.7889   3.1082   3.5883   4.1955   4.9655

          k = 0.3000 0.5196 0.0000 ( 12860 PWs)   bands (ev):

   -59.3459 -33.5865 -33.5072 -33.5067 -11.9565 -10.6487  -5.0849  -4.5008
    -3.8205  -3.2692  -2.2876  -1.4974   0.1372   0.4799   0.9589   1.0178
     1.4601   1.8647   3.0256   3.4021   4.1840   5.5347

          k = 0.3000 0.5196-0.0871 ( 12870 PWs)   bands (ev):

   -59.3459 -33.5865 -33.5072 -33.5067 -11.9565 -10.6487  -5.0849  -4.5008
    -3.8205  -3.2692  -2.2876  -1.4974   0.1372   0.4799   0.9589   1.0178
     1.4601   1.8647   3.0256   3.4021   4.1840   5.5347

 ------ SPIN DOWN ----------


          k = 0.0000 0.0000 0.0000 ( 12991 PWs)   bands (ev):

   -59.4665 -33.6581 -33.3811 -33.3811 -13.8323 -12.0823  -5.3130  -2.5505
    -1.5149  -1.5149  -0.6307  -0.6307   0.7039   1.1652   1.1652   1.5593
     1.5593   1.7122   2.4058   4.2774   4.2774   4.3165

          k = 0.0000 0.0000-0.0871 ( 12974 PWs)   bands (ev):

   -59.4665 -33.6580 -33.3811 -33.3811 -13.8323 -12.0823  -5.3130  -2.5505
    -1.5149  -1.5149  -0.6307  -0.6307   0.7039   1.1652   1.1652   1.5593
     1.5593   1.7122   2.4058   4.2774   4.2774   4.3165

          k = 0.0000 0.1155 0.0000 ( 12953 PWs)   bands (ev):

   -59.4628 -33.6510 -33.4180 -33.3895 -13.7014 -11.9862  -5.1633  -2.5319
    -1.9760  -1.5244  -0.9380  -0.6969   0.6583   1.0405   1.1801   1.4526
     1.6162   1.8816   2.7282   3.9528   4.0870   4.1883

          k = 0.0000 0.1155-0.0871 ( 12970 PWs)   bands (ev):

   -59.4628 -33.6510 -33.4180 -33.3895 -13.7014 -11.9862  -5.1633  -2.5319
    -1.9760  -1.5244  -0.9380  -0.6969   0.6583   1.0405   1.1801   1.4526
     1.6162   1.8816   2.7282   3.9528   4.0870   4.1883

          k = 0.0000 0.2309 0.0000 ( 12929 PWs)   bands (ev):

   -59.4531 -33.6325 -33.5135 -33.4116 -13.3363 -11.7176  -4.7907  -3.1256
    -2.5416  -1.7056  -1.4543  -0.7149   0.5770   0.7204   1.3441   1.3681
     1.7225   2.0725   3.0047   3.7702   3.9654   4.1188

          k = 0.0000 0.2309-0.0871 ( 12940 PWs)   bands (ev):

   -59.4531 -33.6325 -33.5135 -33.4116 -13.3363 -11.7176  -4.7907  -3.1256
    -2.5416  -1.7056  -1.4543  -0.7149   0.5770   0.7204   1.3441   1.3681
     1.7225   2.0725   3.0047   3.7701   3.9654   4.1189

          k = 0.0000 0.3464 0.0000 ( 12915 PWs)   bands (ev):

   -59.4410 -33.6306 -33.6087 -33.4388 -12.8264 -11.3406  -4.5198  -4.2424
    -2.9587  -2.0440  -1.7119  -0.6567   0.1689   0.9587   1.2757   1.7799
     1.9124   2.1848   2.8668   3.7589   4.0312   4.9608

          k = 0.0000 0.3464-0.0871 ( 12918 PWs)   bands (ev):

   -59.4410 -33.6306 -33.6087 -33.4388 -12.8264 -11.3406  -4.5198  -4.2424
    -2.9587  -2.0440  -1.7119  -0.6567   0.1689   0.9587   1.2757   1.7799
     1.9124   2.1848   2.8668   3.7589   4.0311   4.9610

          k = 0.0000 0.4619 0.0000 ( 12872 PWs)   bands (ev):

   -59.4313 -33.7226 -33.5905 -33.4606 -12.3435 -10.9795  -5.3522  -4.3353
    -3.2742  -2.3170  -1.9299  -0.6501   0.0976   1.2480   1.4476   2.0947
     2.2742   2.2753   3.0167   3.6854   4.2564   5.1171

          k = 0.0000 0.4619-0.0871 ( 12884 PWs)   bands (ev):

   -59.4313 -33.7226 -33.5906 -33.4606 -12.3435 -10.9795  -5.3522  -4.3353
    -3.2742  -2.3170  -1.9299  -0.6501   0.0976   1.2480   1.4476   2.0947
     2.2742   2.2753   3.0167   3.6854   4.2563   5.1171

          k = 0.0000-0.5774 0.0000 ( 12854 PWs)   bands (ev):

   -59.4275 -33.7576 -33.5834 -33.4690 -12.1351 -10.8208  -5.7396  -4.4202
    -3.3387  -2.4171  -2.0441  -0.6597   0.1531   1.2734   1.7235   2.2264
     2.2991   2.4215   3.2951   3.7242   4.1241   5.0972

          k = 0.0000-0.5774-0.0871 ( 12864 PWs)   bands (ev):

   -59.4275 -33.7576 -33.5834 -33.4690 -12.1351 -10.8208  -5.7396  -4.4202
    -3.3387  -2.4171  -2.0441  -0.6597   0.1531   1.2734   1.7235   2.2264
     2.2991   2.4215   3.2951   3.7242   4.1241   5.0972

          k = 0.1000 0.1732 0.0000 ( 12937 PWs)   bands (ev):

   -59.4561 -33.6382 -33.4815 -33.4075 -13.4531 -11.8035  -4.8986  -2.7599
    -2.4933  -1.6975  -1.3395  -0.7337   0.6554   0.7357   1.3245   1.4507
     1.6149   2.0555   3.1340   3.5895   3.8291   4.1197

          k = 0.1000 0.1732-0.0871 ( 12920 PWs)   bands (ev):

   -59.4561 -33.6382 -33.4815 -33.4075 -13.4531 -11.8035  -4.8986  -2.7599
    -2.4933  -1.6975  -1.3395  -0.7337   0.6554   0.7357   1.3245   1.4507
     1.6149   2.0555   3.1340   3.5895   3.8291   4.1196

          k = 0.1000 0.2887 0.0000 ( 12944 PWs)   bands (ev):

   -59.4452 -33.6177 -33.5806 -33.4386 -13.0129 -11.4775  -4.5205  -3.7792
    -2.7671  -2.2124  -1.5981  -0.7025   0.3154   0.7652   1.3061   1.7168
     1.8006   2.2100   3.0370   3.5352   3.9910   4.3048

          k = 0.1000 0.2887-0.0871 ( 12926 PWs)   bands (ev):

   -59.4452 -33.6177 -33.5806 -33.4386 -13.0129 -11.4775  -4.5205  -3.7792
    -2.7671  -2.2124  -1.5980  -0.7025   0.3154   0.7652   1.3061   1.7168
     1.8006   2.2100   3.0370   3.5352   3.9911   4.3048

          k = 0.1000 0.4041 0.0000 ( 12898 PWs)   bands (ev):

   -59.4343 -33.6787 -33.5963 -33.4700 -12.5065 -11.0983  -4.8848  -4.2197
    -3.2189  -2.5633  -1.7481  -0.8336   0.1485   1.1437   1.2730   2.0085
     2.1534   2.2777   2.9440   3.6826   4.2807   4.6874

          k = 0.1000 0.4041-0.0871 ( 12884 PWs)   bands (ev):

   -59.4343 -33.6787 -33.5963 -33.4700 -12.5065 -11.0983  -4.8848  -4.2197
    -3.2189  -2.5633  -1.7481  -0.8336   0.1485   1.1437   1.2730   2.0085
     2.1534   2.2778   2.9440   3.6826   4.2807   4.6874

          k = 0.1000 0.5196 0.0000 ( 12858 PWs)   bands (ev):

   -59.4275 -33.7382 -33.5834 -33.4893 -12.1446 -10.8222  -5.5455  -4.3037
    -3.4202  -2.6696  -1.9669  -0.9603   0.2605   1.3111   1.5430   2.2175
     2.2636   2.4824   3.1061   3.8348   4.3640   4.6827

          k = 0.1000 0.5196-0.0871 ( 12862 PWs)   bands (ev):

   -59.4275 -33.7382 -33.5834 -33.4893 -12.1446 -10.8222  -5.5455  -4.3037
    -3.4202  -2.6696  -1.9669  -0.9603   0.2605   1.3111   1.5430   2.2175
     2.2636   2.4824   3.1061   3.8348   4.3640   4.6827

          k = 0.2000 0.3464 0.0000 ( 12917 PWs)   bands (ev):

   -59.4354 -33.6497 -33.5984 -33.4861 -12.5688 -11.1415  -4.5668  -4.1148
    -3.2032  -2.8659  -1.7295  -0.8869   0.1390   1.0029   1.2535   1.9496
     2.1672   2.3401   3.0078   3.6937   3.9797   4.5540

          k = 0.2000 0.3464-0.0871 ( 12918 PWs)   bands (ev):

   -59.4354 -33.6497 -33.5984 -33.4861 -12.5688 -11.1415  -4.5668  -4.1148
    -3.2032  -2.8659  -1.7295  -0.8869   0.1390   1.0029   1.2535   1.9496
     2.1672   2.3401   3.0078   3.6937   3.9797   4.5540

          k = 0.2000 0.4619 0.0000 ( 12869 PWs)   bands (ev):

   -59.4275 -33.6972 -33.5835 -33.5316 -12.1599 -10.8244  -5.1199  -4.0633
    -3.6819  -3.0660  -1.9524  -1.2421   0.3621   1.2472   1.3267   2.1078
     2.2694   2.6406   2.9606   3.7956   4.2369   4.7843

          k = 0.2000 0.4619-0.0871 ( 12868 PWs)   bands (ev):

   -59.4275 -33.6972 -33.5835 -33.5316 -12.1599 -10.8244  -5.1199  -4.0633
    -3.6819  -3.0660  -1.9524  -1.2421   0.3621   1.2472   1.3267   2.1078
     2.2694   2.6406   2.9606   3.7956   4.2369   4.7843

          k = 0.2000 0.5774 0.0000 ( 12850 PWs)   bands (ev):

   -59.4245 -33.7139 -33.5777 -33.5504 -11.9879 -10.6881  -5.3602  -4.1797
    -3.7877  -3.0365  -2.1146  -1.3964   0.5461   1.3427   1.4382   2.1349
     2.2773   2.8082   3.1370   3.6123   4.2230   4.9978

          k = 0.2000 0.5774-0.0871 ( 12850 PWs)   bands (ev):

   -59.4245 -33.7139 -33.5777 -33.5504 -11.9879 -10.6881  -5.3602  -4.1797
    -3.7877  -3.0365  -2.1146  -1.3964   0.5461   1.3427   1.4382   2.1349
     2.2773   2.8082   3.1370   3.6123   4.2230   4.9978

          k = 0.3000 0.5196 0.0000 ( 12860 PWs)   bands (ev):

   -59.4234 -33.6790 -33.5997 -33.5755 -11.9295 -10.6357  -5.0430  -4.4478
    -3.7504  -3.2568  -2.2797  -1.4871   0.7930   1.2243   1.3715   2.1027
     2.2945   2.9257   3.0481   3.4024   4.2390   5.5340

          k = 0.3000 0.5196-0.0871 ( 12870 PWs)   bands (ev):

   -59.4234 -33.6790 -33.5997 -33.5755 -11.9295 -10.6357  -5.0430  -4.4478
    -3.7504  -3.2568  -2.2797  -1.4871   0.7930   1.2243   1.3715   2.1027
     2.2945   2.9257   3.0481   3.4024   4.2390   5.5340

     the Fermi energy is     2.2559 ev

!    total energy              =    -658.57566747 Ry
     total all-electron energy =    -12481.749558 Ry
     estimated scf accuracy    <       0.00000002 Ry
     smearing contrib. (-TS)   =      -0.00850049 Ry
     internal energy E=F+TS    =    -658.56716699 Ry

     The total energy is F=E-TS. E is the sum of the following terms:
     one-electron contribution =   -1337.81262472 Ry
     hartree contribution      =     682.76781829 Ry
     xc contribution           =     -62.43026253 Ry
     ewald contribution        =     465.04055439 Ry
     one-center paw contrib.   =    -406.13265242 Ry

     total magnetization       =     1.03 Bohr mag/cell
     absolute magnetization    =     1.44 Bohr mag/cell

     convergence has been achieved in  11 iterations

     negative rho (up, down):  2.492E-04 2.211E-04

     Forces acting on atoms (cartesian axes, Ry/au):

     atom    1 type  1   force =     0.00000000    0.00000000    0.00874459
     atom    2 type  2   force =     0.00000000    0.00000000    0.00609484
     atom    3 type  2   force =     0.00000000    0.00000000    0.01827783
     atom    4 type  3   force =     0.00000000    0.00000000   -0.03311727
     The non-local contrib.  to forces
     atom    1 type  1   force =     0.00000000    0.00000000   -0.05217020
     atom    2 type  2   force =     0.00000000    0.00000000   -0.00083536
     atom    3 type  2   force =     0.00000000    0.00000000    0.27198886
     atom    4 type  3   force =     0.00000000    0.00000000    0.08717554
     The ionic contribution  to forces
     atom    1 type  1   force =     0.00000000   -0.00000000  -33.95683125
     atom    2 type  2   force =    -0.00000000    0.00000000   19.16355629
     atom    3 type  2   force =    -0.00000000    0.00000000  -45.73351530
     atom    4 type  3   force =     0.00000000   -0.00000000   60.52679026
     The local contribution  to forces
     atom    1 type  1   force =     0.00000000   -0.00000000   34.01332546
     atom    2 type  2   force =    -0.00000000    0.00000000  -19.15645056
     atom    3 type  2   force =    -0.00000000    0.00000000   45.48216807
     atom    4 type  3   force =     0.00000000   -0.00000000  -60.61854628
     The core correction contribution to forces
     atom    1 type  1   force =     0.00000000    0.00000000    0.00445969
     atom    2 type  2   force =     0.00000000   -0.00000000   -0.00021333
     atom    3 type  2   force =     0.00000000   -0.00000000   -0.00238109
     atom    4 type  3   force =     0.00000000   -0.00000000   -0.02858710
     The Hubbard contrib.    to forces
     atom    1 type  1   force =     0.00000000    0.00000000    0.00000000
     atom    2 type  2   force =     0.00000000    0.00000000    0.00000000
     atom    3 type  2   force =     0.00000000    0.00000000    0.00000000
     atom    4 type  3   force =     0.00000000    0.00000000    0.00000000
     The SCF correction term to forces
     atom    1 type  1   force =    -0.00000000   -0.00000000   -0.00003620
     atom    2 type  2   force =     0.00000000   -0.00000000    0.00004074
     atom    3 type  2   force =     0.00000000    0.00000000    0.00002021
     atom    4 type  3   force =    -0.00000000   -0.00000000    0.00005323

     Total force =     0.039299     Total SCF correction =     0.000079


     Computing stress (Cartesian axis) and pressure


     negative rho (up, down):  2.492E-04 2.211E-04
          total   stress  (Ry/bohr**3)                   (kbar)     P=      -17.08
  -0.00006834   0.00000000   0.00000000          -10.05        0.00        0.00
   0.00000000  -0.00006834  -0.00000000            0.00      -10.05       -0.00
   0.00000000   0.00000000  -0.00021162            0.00        0.00      -31.13

     Energy error            =      3.9E-03 Ry
     Gradient error          =      3.3E-02 Ry/Bohr

     number of scf cycles    =  14
     number of bfgs steps    =  13

     energy             old  =    -658.5717201066 Ry
     energy             new  =    -658.5756674741 Ry

     CASE: energy            _new < energy            _old

     new trust radius        =       0.1111728914 bohr
     new conv_thr            =       0.0000003312 Ry


ATOMIC_POSITIONS (crystal)
Mo            0.0000000000        0.0000000000        0.5070998323
S             0.6666666667        0.3333333333        0.6006946771
S             0.6666666667        0.3333333333        0.4210291552
Co            0.3333333333        0.6666666667        0.6688123991



     Writing config-only to output data dir ./tmp/relax.save/
     NEW-OLD atomic charge density approx. for the potential

     negative rho (up, down):  2.683E-04 2.272E-04
     Generating pointlists ...
     new r_m :   0.2876 (alat units)  1.7223 (a.u.) for type    2
     new r_m :   0.2876 (alat units)  1.7223 (a.u.) for type    3

     total cpu time spent up to now is      418.3 secs

     Self-consistent Calculation

     iteration #  1     ecut=    80.00 Ry     beta= 0.70
     Davidson diagonalization with overlap
     ethr =  1.00E-06,  avg # of iterations = 11.1

     negative rho (up, down):  2.673E-04 2.303E-04

     total cpu time spent up to now is      422.4 secs

     total energy              =    -658.57720971 Ry
     estimated scf accuracy    <       0.00495385 Ry

     total magnetization       =     1.00 Bohr mag/cell
     absolute magnetization    =     1.38 Bohr mag/cell

     iteration #  2     ecut=    80.00 Ry     beta= 0.70
     Davidson diagonalization with overlap
     ethr =  1.42E-05,  avg # of iterations =  6.8

     negative rho (up, down):  2.653E-04 2.288E-04

     total cpu time spent up to now is      424.9 secs

     total energy              =    -658.54833477 Ry
     estimated scf accuracy    <       0.89852765 Ry

     total magnetization       =     1.25 Bohr mag/cell
     absolute magnetization    =     1.71 Bohr mag/cell

     iteration #  3     ecut=    80.00 Ry     beta= 0.70
     Davidson diagonalization with overlap
     ethr =  1.42E-05,  avg # of iterations =  8.4

     negative rho (up, down):  2.602E-04 2.247E-04

     total cpu time spent up to now is      427.4 secs

     total energy              =    -658.57569488 Ry
     estimated scf accuracy    <       0.06318567 Ry

     total magnetization       =     1.00 Bohr mag/cell
     absolute magnetization    =     1.32 Bohr mag/cell

     iteration #  4     ecut=    80.00 Ry     beta= 0.70
     Davidson diagonalization with overlap
     ethr =  1.42E-05,  avg # of iterations =  4.5

     negative rho (up, down):  2.561E-04 2.226E-04

     total cpu time spent up to now is      429.5 secs

     total energy              =    -658.58020204 Ry
     estimated scf accuracy    <       0.00097381 Ry

     total magnetization       =     1.00 Bohr mag/cell
     absolute magnetization    =     1.38 Bohr mag/cell

     iteration #  5     ecut=    80.00 Ry     beta= 0.70
     Davidson diagonalization with overlap
     ethr =  2.78E-06,  avg # of iterations =  4.0

     negative rho (up, down):  2.546E-04 2.232E-04

     total cpu time spent up to now is      431.5 secs

     total energy              =    -658.58034734 Ry
     estimated scf accuracy    <       0.00067434 Ry

     total magnetization       =     1.00 Bohr mag/cell
     absolute magnetization    =     1.37 Bohr mag/cell

     iteration #  6     ecut=    80.00 Ry     beta= 0.70
     Davidson diagonalization with overlap
     ethr =  1.93E-06,  avg # of iterations =  2.0

     negative rho (up, down):  2.544E-04 2.238E-04

     total cpu time spent up to now is      433.3 secs

     total energy              =    -658.58043894 Ry
     estimated scf accuracy    <       0.00020009 Ry

     total magnetization       =     1.00 Bohr mag/cell
     absolute magnetization    =     1.36 Bohr mag/cell

     iteration #  7     ecut=    80.00 Ry     beta= 0.70
     Davidson diagonalization with overlap
     ethr =  5.72E-07,  avg # of iterations =  2.1

     negative rho (up, down):  2.545E-04 2.247E-04

     total cpu time spent up to now is      435.1 secs

     total energy              =    -658.58047663 Ry
     estimated scf accuracy    <       0.00001509 Ry

     total magnetization       =     1.00 Bohr mag/cell
     absolute magnetization    =     1.35 Bohr mag/cell

     iteration #  8     ecut=    80.00 Ry     beta= 0.70
     Davidson diagonalization with overlap
     ethr =  4.31E-08,  avg # of iterations =  3.3

     negative rho (up, down):  2.545E-04 2.257E-04

     total cpu time spent up to now is      437.1 secs

     total energy              =    -658.58048227 Ry
     estimated scf accuracy    <       0.00001498 Ry

     total magnetization       =     1.00 Bohr mag/cell
     absolute magnetization    =     1.35 Bohr mag/cell

     iteration #  9     ecut=    80.00 Ry     beta= 0.70
     Davidson diagonalization with overlap
     ethr =  4.28E-08,  avg # of iterations =  2.0

     negative rho (up, down):  2.543E-04 2.258E-04

     total cpu time spent up to now is      438.8 secs

     total energy              =    -658.58048417 Ry
     estimated scf accuracy    <       0.00001611 Ry

     total magnetization       =     1.00 Bohr mag/cell
     absolute magnetization    =     1.34 Bohr mag/cell

     iteration # 10     ecut=    80.00 Ry     beta= 0.70
     Davidson diagonalization with overlap
     ethr =  4.28E-08,  avg # of iterations =  1.3

     negative rho (up, down):  2.542E-04 2.257E-04

     total cpu time spent up to now is      440.5 secs

     total energy              =    -658.58048481 Ry
     estimated scf accuracy    <       0.00000299 Ry

     total magnetization       =     1.00 Bohr mag/cell
     absolute magnetization    =     1.33 Bohr mag/cell

     iteration # 11     ecut=    80.00 Ry     beta= 0.70
     Davidson diagonalization with overlap
     ethr =  8.54E-09,  avg # of iterations =  3.5

     negative rho (up, down):  2.542E-04 2.256E-04
 
     Magnetic moment per site  (integrated on atomic sphere of radius R)
     atom   1 (R=0.313)  charge= 10.7466  magn= -0.0704
     atom   2 (R=0.288)  charge=  3.6307  magn=  0.0101
     atom   3 (R=0.288)  charge=  3.5429  magn=  0.0095
     atom   4 (R=0.288)  charge=  7.0460  magn=  1.0506

     total cpu time spent up to now is      442.4 secs

     End of self-consistent calculation

 ------ SPIN UP ------------


          k = 0.0000 0.0000 0.0000 ( 12991 PWs)   bands (ev):

   -59.4270 -33.6481 -33.3304 -33.3304 -14.0148 -12.1239  -5.4561  -2.5704
    -2.0130  -2.0130  -0.7866  -0.7866   0.5340   0.6231   0.6231   0.7307
     0.7307   1.0155   2.5268   4.0305   4.0305   4.2172

          k = 0.0000 0.0000-0.0871 ( 12974 PWs)   bands (ev):

   -59.4270 -33.6481 -33.3304 -33.3304 -14.0148 -12.1239  -5.4561  -2.5704
    -2.0130  -2.0130  -0.7866  -0.7866   0.5340   0.6231   0.6231   0.7307
     0.7307   1.0155   2.5267   4.0305   4.0305   4.2172

          k = 0.0000 0.1155 0.0000 ( 12953 PWs)   bands (ev):

   -59.4233 -33.6407 -33.3679 -33.3390 -13.8847 -12.0292  -5.3089  -2.5814
    -2.4053  -2.0450  -1.0553  -0.7833   0.2441   0.5271   0.5405   0.8455
     0.9075   1.1287   2.7598   3.7306   3.9722   3.9857

          k = 0.0000 0.1155-0.0871 ( 12970 PWs)   bands (ev):

   -59.4233 -33.6407 -33.3679 -33.3390 -13.8847 -12.0292  -5.3089  -2.5814
    -2.4053  -2.0450  -1.0553  -0.7833   0.2441   0.5271   0.5405   0.8455
     0.9075   1.1287   2.7598   3.7306   3.9722   3.9857

          k = 0.0000 0.2309 0.0000 ( 12929 PWs)   bands (ev):

   -59.4135 -33.6215 -33.4651 -33.3613 -13.5235 -11.7644  -4.9430  -3.4775
    -2.6044  -2.2023  -1.5293  -0.7731   0.0630   0.3327   0.5963   0.7897
     1.0013   1.3369   2.7876   3.7101   3.7417   3.9978

          k = 0.0000 0.2309-0.0871 ( 12940 PWs)   bands (ev):

   -59.4135 -33.6215 -33.4651 -33.3613 -13.5235 -11.7644  -4.9430  -3.4775
    -2.6044  -2.2023  -1.5293  -0.7731   0.0630   0.3327   0.5963   0.7897
     1.0013   1.3369   2.7876   3.7100   3.7417   3.9979

          k = 0.0000 0.3464 0.0000 ( 12915 PWs)   bands (ev):

   -59.4013 -33.5980 -33.5829 -33.3888 -13.0223 -11.3918  -4.7375  -4.4743
    -3.0191  -2.4705  -1.7867  -0.7746  -0.0742   0.2650   0.6881   0.8139
     1.3061   1.4392   2.6309   3.5582   4.0129   4.8430

          k = 0.0000 0.3464-0.0871 ( 12918 PWs)   bands (ev):

   -59.4013 -33.5980 -33.5829 -33.3888 -13.0223 -11.3918  -4.7375  -4.4743
    -3.0191  -2.4705  -1.7867  -0.7746  -0.0742   0.2650   0.6881   0.8139
     1.3061   1.4392   2.6309   3.5582   4.0128   4.8431

          k = 0.0000 0.4619 0.0000 ( 12872 PWs)   bands (ev):

   -59.3915 -33.6772 -33.5783 -33.4109 -12.5522 -11.0341  -5.5924  -4.4664
    -3.3663  -2.7014  -2.0284  -0.8033  -0.1538   0.5898   0.7630   1.0283
     1.3841   1.6110   2.9266   3.6026   4.2757   5.0547

          k = 0.0000 0.4619-0.0871 ( 12884 PWs)   bands (ev):

   -59.3915 -33.6772 -33.5783 -33.4109 -12.5522 -11.0341  -5.5924  -4.4664
    -3.3663  -2.7014  -2.0284  -0.8033  -0.1538   0.5898   0.7630   1.0283
     1.3841   1.6110   2.9266   3.6026   4.2757   5.0547

          k = 0.0000-0.5774 0.0000 ( 12854 PWs)   bands (ev):

   -59.3877 -33.7128 -33.5709 -33.4193 -12.3508 -10.8767  -5.9611  -4.5277
    -3.4542  -2.7889  -2.1544  -0.8213  -0.1381   0.7335   0.9840   1.1326
     1.2692   1.6961   3.2576   3.7137   4.1759   5.0415

          k = 0.0000-0.5774-0.0871 ( 12864 PWs)   bands (ev):

   -59.3877 -33.7128 -33.5709 -33.4193 -12.3508 -10.8767  -5.9611  -4.5277
    -3.4542  -2.7889  -2.1544  -0.8213  -0.1381   0.7335   0.9840   1.1326
     1.2692   1.6961   3.2576   3.7137   4.1759   5.0415

          k = 0.1000 0.1732 0.0000 ( 12937 PWs)   bands (ev):

   -59.4165 -33.6275 -33.4325 -33.3572 -13.6388 -11.8491  -5.0490  -3.1237
    -2.5797  -2.1806  -1.4191  -0.7960   0.1148   0.2919   0.6886   0.8189
     0.9178   1.3362   3.0107   3.3727   3.7297   3.9545

          k = 0.1000 0.1732-0.0871 ( 12920 PWs)   bands (ev):

   -59.4165 -33.6275 -33.4325 -33.3572 -13.6388 -11.8491  -5.0490  -3.1237
    -2.5797  -2.1806  -1.4191  -0.7960   0.1148   0.2919   0.6886   0.8189
     0.9178   1.3362   3.0108   3.3726   3.7297   3.9544

          k = 0.1000 0.2887 0.0000 ( 12944 PWs)   bands (ev):

   -59.4055 -33.6060 -33.5334 -33.3887 -13.2051 -11.5271  -4.6822  -4.1011
    -2.8344  -2.5857  -1.7010  -0.7965  -0.0811   0.2801   0.6585   0.7886
     1.1263   1.5635   2.7602   3.3432   3.8883   4.2589

          k = 0.1000 0.2887-0.0871 ( 12926 PWs)   bands (ev):

   -59.4055 -33.6060 -33.5334 -33.3887 -13.2051 -11.5271  -4.6822  -4.1011
    -2.8344  -2.5857  -1.7010  -0.7965  -0.0811   0.2801   0.6585   0.7886
     1.1263   1.5635   2.7602   3.3432   3.8883   4.2589

          k = 0.1000 0.4041 0.0000 ( 12898 PWs)   bands (ev):

   -59.3945 -33.6327 -33.5842 -33.4204 -12.7101 -11.1515  -5.1455  -4.3814
    -3.3064  -2.8973  -1.8423  -0.9350  -0.1647   0.4062   0.6845   1.0184
     1.3479   1.6309   2.6936   3.6150   4.2067   4.6840

          k = 0.1000 0.4041-0.0871 ( 12884 PWs)   bands (ev):

   -59.3945 -33.6327 -33.5842 -33.4204 -12.7101 -11.1515  -5.1455  -4.3814
    -3.3064  -2.8973  -1.8423  -0.9350  -0.1647   0.4062   0.6845   1.0184
     1.3479   1.6309   2.6936   3.6150   4.2067   4.6840

          k = 0.1000 0.5196 0.0000 ( 12858 PWs)   bands (ev):

   -59.3877 -33.6931 -33.5709 -33.4399 -12.3596 -10.8776  -5.7755  -4.4231
    -3.5687  -2.9874  -2.0492  -1.0494  -0.1236   0.6347   0.8621   1.1900
     1.3545   1.6936   3.0555   3.8243   4.3835   4.6173

          k = 0.1000 0.5196-0.0871 ( 12862 PWs)   bands (ev):

   -59.3877 -33.6931 -33.5709 -33.4399 -12.3596 -10.8776  -5.7755  -4.4231
    -3.5687  -2.9874  -2.0492  -1.0494  -0.1236   0.6347   0.8621   1.1900
     1.3545   1.6936   3.0555   3.8243   4.3835   4.6173

          k = 0.2000 0.3464 0.0000 ( 12917 PWs)   bands (ev):

   -59.3957 -33.6033 -33.5864 -33.4368 -12.7706 -11.1941  -4.8362  -4.3084
    -3.3514  -3.0960  -1.8017  -0.9588  -0.2626   0.3868   0.6053   1.0380
     1.2575   1.7931   2.6241   3.6237   3.9154   4.5687

          k = 0.2000 0.3464-0.0871 ( 12918 PWs)   bands (ev):

   -59.3957 -33.6033 -33.5864 -33.4368 -12.7706 -11.1941  -4.8362  -4.3084
    -3.3514  -3.0960  -1.8017  -0.9588  -0.2626   0.3868   0.6053   1.0380
     1.2575   1.7931   2.6241   3.6237   3.9154   4.5686

          k = 0.2000 0.4619 0.0000 ( 12869 PWs)   bands (ev):

   -59.3877 -33.6516 -33.5709 -33.4829 -12.3738 -10.8788  -5.3700  -4.2359
    -3.8955  -3.2295  -1.9957  -1.2979  -0.1038   0.4373   0.8021   1.1677
     1.3388   1.8921   2.7637   3.7590   4.2286   4.8004

          k = 0.2000 0.4619-0.0871 ( 12868 PWs)   bands (ev):

   -59.3877 -33.6516 -33.5709 -33.4829 -12.3738 -10.8788  -5.3700  -4.2359
    -3.8955  -3.2295  -1.9957  -1.2979  -0.1038   0.4373   0.8021   1.1677
     1.3388   1.8921   2.7637   3.7590   4.2286   4.8004

          k = 0.2000 0.5774 0.0000 ( 12850 PWs)   bands (ev):

   -59.3846 -33.6685 -33.5650 -33.5020 -12.2079 -10.7433  -5.5953  -4.3439
    -4.0109  -3.2037  -2.1541  -1.4335  -0.0132   0.5435   0.9618   1.0706
     1.4641   1.8767   3.1077   3.5965   4.2262   4.9619

          k = 0.2000 0.5774-0.0871 ( 12850 PWs)   bands (ev):

   -59.3846 -33.6685 -33.5650 -33.5020 -12.2079 -10.7433  -5.5953  -4.3439
    -4.0109  -3.2037  -2.1541  -1.4335  -0.0132   0.5435   0.9618   1.0706
     1.4641   1.8767   3.1077   3.5965   4.2262   4.9619

          k = 0.3000 0.5196 0.0000 ( 12860 PWs)   bands (ev):

   -59.3835 -33.6333 -33.5627 -33.5517 -12.1513 -10.6906  -5.2881  -4.6973
    -3.9478  -3.3235  -2.3203  -1.5254   0.1223   0.4641   0.9521   1.0254
     1.5124   1.9676   3.0010   3.3744   4.2517   5.5305

          k = 0.3000 0.5196-0.0871 ( 12870 PWs)   bands (ev):

   -59.3835 -33.6333 -33.5627 -33.5517 -12.1513 -10.6906  -5.2881  -4.6973
    -3.9478  -3.3235  -2.3203  -1.5254   0.1223   0.4641   0.9521   1.0254
     1.5124   1.9676   3.0010   3.3744   4.2517   5.5305

 ------ SPIN DOWN ----------


          k = 0.0000 0.0000 0.0000 ( 12991 PWs)   bands (ev):

   -59.4872 -33.6908 -33.4078 -33.4078 -13.9974 -12.1143  -5.4333  -2.5137
    -1.7962  -1.7962  -0.7225  -0.7225   0.6618   1.0600   1.0600   1.5070
     1.5070   1.6886   2.6371   4.2307   4.2307   4.4325

          k = 0.0000 0.0000-0.0871 ( 12974 PWs)   bands (ev):

   -59.4872 -33.6908 -33.4078 -33.4078 -13.9974 -12.1143  -5.4333  -2.5137
    -1.7962  -1.7962  -0.7225  -0.7225   0.6618   1.0600   1.0600   1.5070
     1.5070   1.6886   2.6371   4.2307   4.2307   4.4325

          k = 0.0000 0.1155 0.0000 ( 12953 PWs)   bands (ev):

   -59.4835 -33.6835 -33.4452 -33.4164 -13.8670 -12.0193  -5.2845  -2.5202
    -2.2434  -1.8169  -1.0073  -0.7728   0.6085   0.9686   1.0760   1.4102
     1.5697   1.8696   2.9070   3.9628   4.1544   4.2073

          k = 0.0000 0.1155-0.0871 ( 12970 PWs)   bands (ev):

   -59.4835 -33.6835 -33.4452 -33.4164 -13.8670 -12.0193  -5.2845  -2.5202
    -2.2434  -1.8169  -1.0073  -0.7728   0.6085   0.9686   1.0760   1.4102
     1.5697   1.8696   2.9070   3.9628   4.1543   4.2073

          k = 0.0000 0.2309 0.0000 ( 12929 PWs)   bands (ev):

   -59.4737 -33.6644 -33.5422 -33.4387 -13.5045 -11.7539  -4.9160  -3.3617
    -2.5814  -1.9924  -1.4852  -0.7829   0.5022   0.6796   1.2688   1.3201
     1.6819   2.0863   3.1320   3.7791   3.9921   4.1949

          k = 0.0000 0.2309-0.0871 ( 12940 PWs)   bands (ev):

   -59.4737 -33.6644 -33.5422 -33.4387 -13.5045 -11.7539  -4.9160  -3.3617
    -2.5814  -1.9924  -1.4852  -0.7829   0.5022   0.6796   1.2688   1.3201
     1.6819   2.0863   3.1320   3.7790   3.9921   4.1950

          k = 0.0000 0.3464 0.0000 ( 12915 PWs)   bands (ev):

   -59.4615 -33.6604 -33.6404 -33.4661 -13.0010 -11.3807  -4.7097  -4.3952
    -3.0079  -2.3080  -1.7348  -0.7259   0.0791   0.9118   1.2788   1.6826
     1.8752   2.2242   2.9489   3.7702   4.0487   5.0376

          k = 0.0000 0.3464-0.0871 ( 12918 PWs)   bands (ev):

   -59.4615 -33.6604 -33.6404 -33.4661 -13.0010 -11.3807  -4.7097  -4.3952
    -3.0079  -2.3080  -1.7348  -0.7259   0.0791   0.9118   1.2788   1.6826
     1.8752   2.2242   2.9489   3.7702   4.0486   5.0377

          k = 0.0000 0.4619 0.0000 ( 12872 PWs)   bands (ev):

   -59.4517 -33.7540 -33.6214 -33.4882 -12.5278 -11.0229  -5.5487  -4.4375
    -3.3404  -2.5684  -1.9663  -0.7120   0.0118   1.2787   1.3931   2.0227
     2.2222   2.2830   3.0859   3.6730   4.2883   5.1607

          k = 0.0000 0.4619-0.0871 ( 12884 PWs)   bands (ev):

   -59.4517 -33.7540 -33.6214 -33.4882 -12.5278 -11.0229  -5.5487  -4.4375
    -3.3404  -2.5684  -1.9663  -0.7120   0.0118   1.2787   1.3931   2.0227
     2.2222   2.2830   3.0859   3.6730   4.2883   5.1607

          k = 0.0000-0.5774 0.0000 ( 12854 PWs)   bands (ev):

   -59.4479 -33.7894 -33.6140 -33.4966 -12.3247 -10.8656  -5.9229  -4.5084
    -3.4212  -2.6648  -2.0856  -0.7178   0.0713   1.3351   1.6654   2.1612
     2.2603   2.3708   3.3632   3.6960   4.1772   5.1428

          k = 0.0000-0.5774-0.0871 ( 12864 PWs)   bands (ev):

   -59.4479 -33.7894 -33.6140 -33.4966 -12.3247 -10.8656  -5.9229  -4.5084
    -3.4212  -2.6648  -2.0856  -0.7178   0.0713   1.3351   1.6654   2.1612
     2.2603   2.3708   3.3632   3.6960   4.1772   5.1428

          k = 0.1000 0.1732 0.0000 ( 12937 PWs)   bands (ev):

   -59.4767 -33.6703 -33.5097 -33.4345 -13.6203 -11.8387  -5.0221  -2.9897
    -2.5468  -1.9725  -1.3893  -0.7933   0.6105   0.6600   1.2378   1.4211
     1.5649   2.0630   3.2774   3.6421   3.8392   4.1531

          k = 0.1000 0.1732-0.0871 ( 12920 PWs)   bands (ev):

   -59.4767 -33.6703 -33.5097 -33.4345 -13.6203 -11.8387  -5.0221  -2.9897
    -2.5468  -1.9725  -1.3893  -0.7933   0.6105   0.6600   1.2378   1.4211
     1.5649   2.0630   3.2774   3.6421   3.8392   4.1530

          k = 0.1000 0.2887 0.0000 ( 12944 PWs)   bands (ev):

   -59.4657 -33.6491 -33.6103 -33.4660 -13.1847 -11.5162  -4.6581  -3.9989
    -2.8192  -2.4491  -1.6508  -0.7532   0.2285   0.7287   1.2670   1.6489
     1.7510   2.2515   3.1232   3.5787   3.9752   4.3719

          k = 0.1000 0.2887-0.0871 ( 12926 PWs)   bands (ev):

   -59.4657 -33.6490 -33.6103 -33.4660 -13.1847 -11.5162  -4.6581  -3.9989
    -2.8192  -2.4491  -1.6508  -0.7532   0.2285   0.7287   1.2670   1.6489
     1.7510   2.2515   3.1232   3.5787   3.9752   4.3718

          k = 0.1000 0.4041 0.0000 ( 12898 PWs)   bands (ev):

   -59.4547 -33.7095 -33.6273 -33.4977 -12.6868 -11.1403  -5.0969  -4.3351
    -3.2876  -2.7817  -1.7962  -0.8758   0.0530   1.1027   1.2568   1.9544
     2.0953   2.3278   3.0025   3.6878   4.2794   4.7418

          k = 0.1000 0.4041-0.0871 ( 12884 PWs)   bands (ev):

   -59.4547 -33.7095 -33.6273 -33.4977 -12.6868 -11.1403  -5.0969  -4.3351
    -3.2876  -2.7817  -1.7962  -0.8758   0.0530   1.1027   1.2568   1.9544
     2.0953   2.3278   3.0025   3.6878   4.2794   4.7418

          k = 0.1000 0.5196 0.0000 ( 12858 PWs)   bands (ev):

   -59.4479 -33.7698 -33.6141 -33.5172 -12.3336 -10.8664  -5.7346  -4.3978
    -3.5343  -2.8694  -2.0109  -0.9975   0.1678   1.3448   1.4814   2.1739
     2.2261   2.4525   3.1664   3.8249   4.4021   4.7049

          k = 0.1000 0.5196-0.0871 ( 12862 PWs)   bands (ev):

   -59.4479 -33.7698 -33.6141 -33.5172 -12.3336 -10.8664  -5.7346  -4.3978
    -3.5343  -2.8694  -2.0109  -0.9975   0.1678   1.3448   1.4814   2.1739
     2.2261   2.4525   3.1664   3.8249   4.4021   4.7049

          k = 0.2000 0.3464 0.0000 ( 12917 PWs)   bands (ev):

   -59.4559 -33.6800 -33.6296 -33.5141 -12.7478 -11.1828  -4.7885  -4.2418
    -3.3036  -3.0377  -1.7789  -0.9110   0.0438   0.9742   1.2003   1.9121
     2.1016   2.4199   3.0589   3.7228   3.9494   4.6050

          k = 0.2000 0.3464-0.0871 ( 12918 PWs)   bands (ev):

   -59.4559 -33.6800 -33.6296 -33.5141 -12.7478 -11.1828  -4.7885  -4.2418
    -3.3036  -3.0377  -1.7789  -0.9110   0.0438   0.9742   1.2003   1.9121
     2.1016   2.4199   3.0589   3.7228   3.9494   4.6050

          k = 0.2000 0.4619 0.0000 ( 12869 PWs)   bands (ev):

   -59.4479 -33.7284 -33.6141 -33.5601 -12.3480 -10.8676  -5.3233  -4.1924
    -3.8368  -3.1757  -1.9933  -1.2639   0.2729   1.2007   1.2958   2.0791
     2.2498   2.6589   3.0131   3.7953   4.2184   4.8196

          k = 0.2000 0.4619-0.0871 ( 12868 PWs)   bands (ev):

   -59.4479 -33.7284 -33.6141 -33.5601 -12.3480 -10.8676  -5.3233  -4.1924
    -3.8368  -3.1757  -1.9933  -1.2639   0.2729   1.2007   1.2958   2.0791
     2.2498   2.6589   3.0131   3.7953   4.2184   4.8196

          k = 0.2000 0.5774 0.0000 ( 12850 PWs)   bands (ev):

   -59.4449 -33.7452 -33.6082 -33.5791 -12.1806 -10.7321  -5.5531  -4.3046
    -3.9582  -3.1357  -2.1536  -1.4159   0.4614   1.3191   1.3995   2.0660
     2.3045   2.8015   3.1341   3.6466   4.2529   5.0044

          k = 0.2000 0.5774-0.0871 ( 12850 PWs)   bands (ev):

   -59.4449 -33.7452 -33.6082 -33.5791 -12.1806 -10.7321  -5.5531  -4.3046
    -3.9582  -3.1357  -2.1536  -1.4159   0.4614   1.3191   1.3995   2.0659
     2.3045   2.8015   3.1341   3.6466   4.2529   5.0044

          k = 0.3000 0.5196 0.0000 ( 12860 PWs)   bands (ev):

   -59.4437 -33.7102 -33.6288 -33.6059 -12.1235 -10.6794  -5.2459  -4.6395
    -3.8808  -3.3133  -2.3116  -1.5125   0.7344   1.1580   1.3395   2.0315
     2.3405   2.9477   3.0368   3.3867   4.2953   5.5371

          k = 0.3000 0.5196-0.0871 ( 12870 PWs)   bands (ev):

   -59.4437 -33.7102 -33.6288 -33.6059 -12.1235 -10.6794  -5.2459  -4.6395
    -3.8808  -3.3133  -2.3116  -1.5125   0.7344   1.1580   1.3395   2.0315
     2.3405   2.9477   3.0368   3.3867   4.2953   5.5371

     the Fermi energy is     2.2503 ev

!    total energy              =    -658.58048521 Ry
     total all-electron energy =    -12481.754376 Ry
     estimated scf accuracy    <       0.00000009 Ry
     smearing contrib. (-TS)   =      -0.00759872 Ry
     internal energy E=F+TS    =    -658.57288649 Ry

     The total energy is F=E-TS. E is the sum of the following terms:
     one-electron contribution =   -1362.89941886 Ry
     hartree contribution      =     695.26043419 Ry
     xc contribution           =     -62.48643671 Ry
     ewald contribution        =     477.68772509 Ry
     one-center paw contrib.   =    -406.13519020 Ry

     total magnetization       =     0.99 Bohr mag/cell
     absolute magnetization    =     1.33 Bohr mag/cell

     convergence has been achieved in  11 iterations

     negative rho (up, down):  2.542E-04 2.256E-04

     Forces acting on atoms (cartesian axes, Ry/au):

     atom    1 type  1   force =     0.00000000    0.00000000   -0.00033479
     atom    2 type  2   force =     0.00000000    0.00000000    0.01999833
     atom    3 type  2   force =     0.00000000    0.00000000    0.01370211
     atom    4 type  3   force =     0.00000000    0.00000000   -0.03336566
     The non-local contrib.  to forces
     atom    1 type  1   force =     0.00000000   -0.00000000   -0.04268863
     atom    2 type  2   force =     0.00000000   -0.00000000   -0.00074151
     atom    3 type  2   force =     0.00000000    0.00000000    0.27039595
     atom    4 type  3   force =     0.00000000    0.00000000    0.06144319
     The ionic contribution  to forces
     atom    1 type  1   force =     0.00000000   -0.00000000  -34.44412819
     atom    2 type  2   force =    -0.00000000    0.00000000   19.41143125
     atom    3 type  2   force =    -0.00000000    0.00000000  -46.04419190
     atom    4 type  3   force =     0.00000000   -0.00000000   61.07688883
     The local contribution  to forces
     atom    1 type  1   force =     0.00000000    0.00000000   34.48358299
     atom    2 type  2   force =    -0.00000000    0.00000000  -19.38999520
     atom    3 type  2   force =    -0.00000000    0.00000000   45.78986510
     atom    4 type  3   force =     0.00000000   -0.00000000  -61.14077932
     The core correction contribution to forces
     atom    1 type  1   force =    -0.00000000    0.00000000    0.00411651
     atom    2 type  2   force =     0.00000000   -0.00000000   -0.00024674
     atom    3 type  2   force =     0.00000000   -0.00000000   -0.00231212
     atom    4 type  3   force =     0.00000000   -0.00000000   -0.03052984
     The Hubbard contrib.    to forces
     atom    1 type  1   force =     0.00000000    0.00000000    0.00000000
     atom    2 type  2   force =     0.00000000    0.00000000    0.00000000
     atom    3 type  2   force =     0.00000000    0.00000000    0.00000000
     atom    4 type  3   force =     0.00000000    0.00000000    0.00000000
     The SCF correction term to forces
     atom    1 type  1   force =    -0.00000000   -0.00000000   -0.00119694
     atom    2 type  2   force =     0.00000000    0.00000000   -0.00042895
     atom    3 type  2   force =     0.00000000    0.00000000   -0.00003439
     atom    4 type  3   force =    -0.00000000   -0.00000000   -0.00036800

     Total force =     0.041244     Total SCF correction =     0.001324


     Computing stress (Cartesian axis) and pressure


     negative rho (up, down):  2.542E-04 2.256E-04
          total   stress  (Ry/bohr**3)                   (kbar)     P=       -8.25
  -0.00000875   0.00000000   0.00000000           -1.29        0.00        0.00
   0.00000000  -0.00000875   0.00000000            0.00       -1.29        0.00
   0.00000000   0.00000000  -0.00015071            0.00        0.00      -22.17

     Energy error            =      4.8E-03 Ry
     Gradient error          =      3.3E-02 Ry/Bohr

     number of scf cycles    =  15
     number of bfgs steps    =  14

     energy             old  =    -658.5756674741 Ry
     energy             new  =    -658.5804852078 Ry

     CASE: energy            _new < energy            _old

     new trust radius        =       0.1667593371 bohr
     new conv_thr            =       0.0000003337 Ry


ATOMIC_POSITIONS (crystal)
Mo            0.0000000000        0.0000000000        0.5096021794
S             0.6666666667        0.3333333333        0.6001564512
S             0.6666666667        0.3333333333        0.4239163392
Co            0.3333333333        0.6666666667        0.6639610939



     Writing config-only to output data dir ./tmp/relax.save/
     NEW-OLD atomic charge density approx. for the potential

     negative rho (up, down):  2.880E-04 2.318E-04
     Generating pointlists ...
     new r_m :   0.2820 (alat units)  1.6888 (a.u.) for type    2
     new r_m :   0.2820 (alat units)  1.6888 (a.u.) for type    3

     total cpu time spent up to now is      445.6 secs

     Self-consistent Calculation

     iteration #  1     ecut=    80.00 Ry     beta= 0.70
     Davidson diagonalization with overlap
     ethr =  1.00E-06,  avg # of iterations = 12.6

     negative rho (up, down):  2.853E-04 2.433E-04

     total cpu time spent up to now is      450.2 secs

     total energy              =    -658.57607573 Ry
     estimated scf accuracy    <       0.01356799 Ry

     total magnetization       =     0.96 Bohr mag/cell
     absolute magnetization    =     1.24 Bohr mag/cell

     iteration #  2     ecut=    80.00 Ry     beta= 0.70
     Davidson diagonalization with overlap
     ethr =  3.88E-05,  avg # of iterations =  6.2

     negative rho (up, down):  2.821E-04 2.402E-04

     total cpu time spent up to now is      452.7 secs

     total energy              =    -658.46351510 Ry
     estimated scf accuracy    <       4.08485787 Ry

     total magnetization       =     1.51 Bohr mag/cell
     absolute magnetization    =     1.85 Bohr mag/cell

     iteration #  3     ecut=    80.00 Ry     beta= 0.70
     Davidson diagonalization with overlap
     ethr =  3.88E-05,  avg # of iterations =  7.8

     negative rho (up, down):  2.722E-04 2.315E-04

     total cpu time spent up to now is      455.2 secs

     total energy              =    -658.57515172 Ry
     estimated scf accuracy    <       0.10928392 Ry

     total magnetization       =     0.94 Bohr mag/cell
     absolute magnetization    =     1.19 Bohr mag/cell

     iteration #  4     ecut=    80.00 Ry     beta= 0.70
     Davidson diagonalization with overlap
     ethr =  3.88E-05,  avg # of iterations =  4.3

     negative rho (up, down):  2.661E-04 2.301E-04

     total cpu time spent up to now is      457.3 secs

     total energy              =    -658.58497866 Ry
     estimated scf accuracy    <       0.00268918 Ry

     total magnetization       =     0.95 Bohr mag/cell
     absolute magnetization    =     1.24 Bohr mag/cell

     iteration #  5     ecut=    80.00 Ry     beta= 0.70
     Davidson diagonalization with overlap
     ethr =  7.68E-06,  avg # of iterations =  3.5

     negative rho (up, down):  2.627E-04 2.330E-04

     total cpu time spent up to now is      459.2 secs

     total energy              =    -658.58530781 Ry
     estimated scf accuracy    <       0.00199135 Ry

     total magnetization       =     0.95 Bohr mag/cell
     absolute magnetization    =     1.22 Bohr mag/cell

     iteration #  6     ecut=    80.00 Ry     beta= 0.70
     Davidson diagonalization with overlap
     ethr =  5.69E-06,  avg # of iterations =  2.1

     negative rho (up, down):  2.616E-04 2.349E-04

     total cpu time spent up to now is      461.0 secs

     total energy              =    -658.58556124 Ry
     estimated scf accuracy    <       0.00079613 Ry

     total magnetization       =     0.94 Bohr mag/cell
     absolute magnetization    =     1.21 Bohr mag/cell

     iteration #  7     ecut=    80.00 Ry     beta= 0.70
     Davidson diagonalization with overlap
     ethr =  2.27E-06,  avg # of iterations =  1.8

     negative rho (up, down):  2.614E-04 2.365E-04

     total cpu time spent up to now is      462.8 secs

     total energy              =    -658.58563685 Ry
     estimated scf accuracy    <       0.00022823 Ry

     total magnetization       =     0.94 Bohr mag/cell
     absolute magnetization    =     1.20 Bohr mag/cell

     iteration #  8     ecut=    80.00 Ry     beta= 0.70
     Davidson diagonalization with overlap
     ethr =  6.52E-07,  avg # of iterations =  1.5

     negative rho (up, down):  2.609E-04 2.376E-04

     total cpu time spent up to now is      464.5 secs

     total energy              =    -658.58565675 Ry
     estimated scf accuracy    <       0.00001434 Ry

     total magnetization       =     0.93 Bohr mag/cell
     absolute magnetization    =     1.18 Bohr mag/cell

     iteration #  9     ecut=    80.00 Ry     beta= 0.70
     Davidson diagonalization with overlap
     ethr =  4.10E-08,  avg # of iterations =  5.6

     negative rho (up, down):  2.603E-04 2.378E-04

     total cpu time spent up to now is      466.7 secs

     total energy              =    -658.58567537 Ry
     estimated scf accuracy    <       0.00012839 Ry

     total magnetization       =     0.92 Bohr mag/cell
     absolute magnetization    =     1.15 Bohr mag/cell

     iteration # 10     ecut=    80.00 Ry     beta= 0.70
     Davidson diagonalization with overlap
     ethr =  4.10E-08,  avg # of iterations =  2.4

     negative rho (up, down):  2.601E-04 2.379E-04

     total cpu time spent up to now is      468.5 secs

     total energy              =    -658.58567789 Ry
     estimated scf accuracy    <       0.00009583 Ry

     total magnetization       =     0.91 Bohr mag/cell
     absolute magnetization    =     1.14 Bohr mag/cell

     iteration # 11     ecut=    80.00 Ry     beta= 0.70
     Davidson diagonalization with overlap
     ethr =  4.10E-08,  avg # of iterations =  2.1

     negative rho (up, down):  2.602E-04 2.380E-04

     total cpu time spent up to now is      470.3 secs

     total energy              =    -658.58567800 Ry
     estimated scf accuracy    <       0.00003090 Ry

     total magnetization       =     0.91 Bohr mag/cell
     absolute magnetization    =     1.13 Bohr mag/cell

     iteration # 12     ecut=    80.00 Ry     beta= 0.70
     Davidson diagonalization with overlap
     ethr =  4.10E-08,  avg # of iterations =  1.9

     negative rho (up, down):  2.601E-04 2.380E-04

     total cpu time spent up to now is      472.0 secs

     total energy              =    -658.58567985 Ry
     estimated scf accuracy    <       0.00000065 Ry

     total magnetization       =     0.91 Bohr mag/cell
     absolute magnetization    =     1.12 Bohr mag/cell

     iteration # 13     ecut=    80.00 Ry     beta= 0.70
     Davidson diagonalization with overlap
     ethr =  1.87E-09,  avg # of iterations =  5.4

     negative rho (up, down):  2.601E-04 2.380E-04
 
     Magnetic moment per site  (integrated on atomic sphere of radius R)
     atom   1 (R=0.313)  charge= 10.7667  magn= -0.0348
     atom   2 (R=0.282)  charge=  3.5252  magn=  0.0120
     atom   3 (R=0.282)  charge=  3.4148  magn=  0.0066
     atom   4 (R=0.282)  charge=  6.9906  magn=  0.8894

     total cpu time spent up to now is      474.1 secs

     End of self-consistent calculation

 ------ SPIN UP ------------


          k = 0.0000 0.0000 0.0000 ( 12991 PWs)   bands (ev):

   -59.4844 -33.7303 -33.3971 -33.3971 -14.2525 -12.1729  -5.6383  -2.5446
    -2.4208  -2.4208  -0.9162  -0.9162   0.5113   0.5113   0.5134   0.6698
     0.6698   1.0413   2.8502   4.1216   4.1216   4.2806

          k = 0.0000 0.0000-0.0871 ( 12974 PWs)   bands (ev):

   -59.4844 -33.7303 -33.3971 -33.3971 -14.2525 -12.1729  -5.6383  -2.5446
    -2.4208  -2.4208  -0.9162  -0.9162   0.5113   0.5113   0.5134   0.6698
     0.6698   1.0413   2.8502   4.1216   4.1216   4.2806

          k = 0.0000 0.1155 0.0000 ( 12953 PWs)   bands (ev):

   -59.4806 -33.7227 -33.4353 -33.4058 -14.1235 -12.0798  -5.4915  -2.8493
    -2.5329  -2.4540  -1.1651  -0.9084   0.1753   0.4302   0.5098   0.7867
     0.8347   1.1807   3.0349   3.8806   3.9841   4.1129

          k = 0.0000 0.1155-0.0871 ( 12970 PWs)   bands (ev):

   -59.4806 -33.7227 -33.4353 -33.4058 -14.1235 -12.0798  -5.4915  -2.8493
    -2.5329  -2.4540  -1.1651  -0.9084   0.1753   0.4302   0.5098   0.7867
     0.8347   1.1807   3.0350   3.8805   3.9840   4.1129

          k = 0.0000 0.2309 0.0000 ( 12929 PWs)   bands (ev):

   -59.4707 -33.7028 -33.5344 -33.4284 -13.7664 -11.8192  -5.1292  -3.8299
    -2.6709  -2.6014  -1.5928  -0.8888  -0.0260   0.2921   0.5182   0.7747
     0.9528   1.4321   2.9986   3.7350   3.8255   4.1274

          k = 0.0000 0.2309-0.0871 ( 12940 PWs)   bands (ev):

   -59.4707 -33.7028 -33.5344 -33.4284 -13.7664 -11.8192  -5.1292  -3.8299
    -2.6709  -2.6014  -1.5928  -0.8888  -0.0260   0.2921   0.5182   0.7747
     0.9528   1.4321   2.9986   3.7349   3.8255   4.1274

          k = 0.0000 0.3464 0.0000 ( 12915 PWs)   bands (ev):

   -59.4583 -33.6781 -33.6547 -33.4563 -13.2752 -11.4522  -5.0403  -4.6647
    -3.1020  -2.8491  -1.8462  -0.8754  -0.2034   0.2127   0.7410   0.7607
     1.2651   1.5687   2.7795   3.5851   4.0259   4.9657

          k = 0.0000 0.3464-0.0871 ( 12918 PWs)   bands (ev):

   -59.4583 -33.6781 -33.6547 -33.4563 -13.2752 -11.4522  -5.0403  -4.6647
    -3.1020  -2.8491  -1.8462  -0.8754  -0.2034   0.2127   0.7410   0.7607
     1.2651   1.5687   2.7795   3.5851   4.0259   4.9658

          k = 0.0000 0.4619 0.0000 ( 12872 PWs)   bands (ev):

   -59.4484 -33.7505 -33.6580 -33.4788 -12.8194 -11.0996  -5.8718  -4.6157
    -3.4564  -3.0651  -2.1173  -0.8882  -0.2509   0.5262   0.8431   0.9930
     1.4748   1.5982   3.0341   3.5605   4.2985   5.0973

          k = 0.0000 0.4619-0.0871 ( 12884 PWs)   bands (ev):

   -59.4484 -33.7505 -33.6580 -33.4788 -12.8194 -11.0996  -5.8718  -4.6157
    -3.4564  -3.0651  -2.1173  -0.8882  -0.2509   0.5262   0.8431   0.9930
     1.4748   1.5982   3.0341   3.5605   4.2985   5.0973

          k = 0.0000-0.5774 0.0000 ( 12854 PWs)   bands (ev):

   -59.4445 -33.7867 -33.6503 -33.4873 -12.6260 -10.9445  -6.2205  -4.6589
    -3.5575  -3.1477  -2.2541  -0.8999  -0.2125   0.7378   1.0176   1.1062
     1.3066   1.6970   3.3531   3.6395   4.2211   5.0851

          k = 0.0000-0.5774-0.0871 ( 12864 PWs)   bands (ev):

   -59.4445 -33.7867 -33.6503 -33.4873 -12.6260 -10.9445  -6.2205  -4.6589
    -3.5575  -3.1477  -2.2541  -0.8999  -0.2125   0.7378   1.0176   1.1062
     1.3066   1.6970   3.3531   3.6395   4.2211   5.0851

          k = 0.1000 0.1732 0.0000 ( 12937 PWs)   bands (ev):

   -59.4737 -33.7089 -33.5012 -33.4242 -13.8801 -11.9025  -5.2334  -3.4902
    -2.7198  -2.4885  -1.5029  -0.9090   0.0760   0.1875   0.6416   0.8059
     0.8482   1.4112   3.2366   3.5562   3.6814   4.0535

          k = 0.1000 0.1732-0.0871 ( 12920 PWs)   bands (ev):

   -59.4737 -33.7089 -33.5012 -33.4242 -13.8801 -11.9025  -5.2334  -3.4902
    -2.7198  -2.4885  -1.5029  -0.9090   0.0760   0.1875   0.6416   0.8059
     0.8482   1.4112   3.2367   3.5561   3.6814   4.0533

          k = 0.1000 0.2887 0.0000 ( 12944 PWs)   bands (ev):

   -59.4626 -33.6866 -33.6041 -33.4562 -13.4536 -11.5853  -4.8883  -4.4137
    -3.0129  -2.8555  -1.7702  -0.8889  -0.1775   0.2126   0.6467   0.7513
     1.1075   1.6832   2.9289   3.4206   3.8411   4.3768

          k = 0.1000 0.2887-0.0871 ( 12926 PWs)   bands (ev):

   -59.4626 -33.6866 -33.6041 -33.4562 -13.4536 -11.5853  -4.8883  -4.4137
    -3.0129  -2.8555  -1.7702  -0.8889  -0.1775   0.2126   0.6467   0.7513
     1.1075   1.6832   2.9289   3.4206   3.8411   4.3768

          k = 0.1000 0.4041 0.0000 ( 12898 PWs)   bands (ev):

   -59.4515 -33.7051 -33.6642 -33.4884 -12.9716 -11.2147  -5.4475  -4.5469
    -3.4634  -3.1689  -1.9222  -1.0078  -0.2864   0.3425   0.7352   0.9787
     1.3461   1.7533   2.8192   3.5958   4.1888   4.7521

          k = 0.1000 0.4041-0.0871 ( 12884 PWs)   bands (ev):

   -59.4515 -33.7051 -33.6642 -33.4884 -12.9716 -11.2147  -5.4475  -4.5469
    -3.4634  -3.1689  -1.9222  -1.0078  -0.2864   0.3425   0.7352   0.9787
     1.3461   1.7533   2.8192   3.5958   4.1888   4.7521

          k = 0.1000 0.5196 0.0000 ( 12858 PWs)   bands (ev):

   -59.4445 -33.7667 -33.6503 -33.5083 -12.6340 -10.9444  -6.0431  -4.5634
    -3.7639  -3.2312  -2.1392  -1.1133  -0.2192   0.5866   0.9297   1.1747
     1.3489   1.7611   3.1297   3.7803   4.4149   4.6364

          k = 0.1000 0.5196-0.0871 ( 12862 PWs)   bands (ev):

   -59.4445 -33.7667 -33.6503 -33.5083 -12.6340 -10.9444  -6.0431  -4.5634
    -3.7639  -3.2312  -2.1392  -1.1133  -0.2192   0.5866   0.9297   1.1747
     1.3489   1.7611   3.1297   3.7803   4.4149   4.6364

          k = 0.2000 0.3464 0.0000 ( 12917 PWs)   bands (ev):

   -59.4526 -33.6750 -33.6666 -33.5052 -13.0300 -11.2561  -5.1541  -4.4852
    -3.6354  -3.2219  -1.8766  -1.0025  -0.4012   0.3334   0.6139   0.9979
     1.2546   1.9618   2.7630   3.6166   3.8617   4.6450

          k = 0.2000 0.3464-0.0871 ( 12918 PWs)   bands (ev):

   -59.4526 -33.6750 -33.6666 -33.5052 -13.0300 -11.2561  -5.1541  -4.4852
    -3.6354  -3.2219  -1.8766  -1.0025  -0.4012   0.3334   0.6139   0.9979
     1.2546   1.9618   2.7630   3.6166   3.8617   4.6450

          k = 0.2000 0.4619 0.0000 ( 12869 PWs)   bands (ev):

   -59.4446 -33.7245 -33.6504 -33.5520 -12.6469 -10.9440  -5.6575  -4.4353
    -4.1363  -3.3506  -2.0644  -1.3393  -0.2291   0.3873   0.8318   1.1440
     1.3361   2.0364   2.8529   3.7257   4.1814   4.8466

          k = 0.2000 0.4619-0.0871 ( 12868 PWs)   bands (ev):

   -59.4446 -33.7245 -33.6504 -33.5520 -12.6469 -10.9440  -5.6575  -4.4353
    -4.1363  -3.3506  -2.0644  -1.3393  -0.2291   0.3873   0.8318   1.1440
     1.3361   2.0364   2.8529   3.7257   4.1814   4.8466

          k = 0.2000 0.5774 0.0000 ( 12850 PWs)   bands (ev):

   -59.4415 -33.7417 -33.6442 -33.5714 -12.4879 -10.8098  -5.8667  -4.5651
    -4.2256  -3.3217  -2.2219  -1.4754  -0.1122   0.4999   0.9597   1.0623
     1.4937   1.9905   3.0865   3.6091   4.2631   4.9691

          k = 0.2000 0.5774-0.0871 ( 12850 PWs)   bands (ev):

   -59.4415 -33.7417 -33.6442 -33.5714 -12.4879 -10.8098  -5.8667  -4.5651
    -4.2256  -3.3217  -2.2219  -1.4754  -0.1122   0.4999   0.9597   1.0623
     1.4937   1.9905   3.0865   3.6091   4.2631   4.9691

          k = 0.3000 0.5196 0.0000 ( 12860 PWs)   bands (ev):

   -59.4403 -33.7063 -33.6418 -33.6217 -12.4334 -10.7567  -5.5715  -4.9801
    -4.1185  -3.4049  -2.3715  -1.5703   0.0425   0.4159   0.8398   1.0913
     1.5722   2.0948   2.9488   3.3491   4.3289   5.5303

          k = 0.3000 0.5196-0.0871 ( 12870 PWs)   bands (ev):

   -59.4403 -33.7063 -33.6418 -33.6217 -12.4334 -10.7567  -5.5715  -4.9801
    -4.1185  -3.4049  -2.3715  -1.5703   0.0425   0.4159   0.8398   1.0913
     1.5722   2.0948   2.9488   3.3491   4.3289   5.5303

 ------ SPIN DOWN ----------


          k = 0.0000 0.0000 0.0000 ( 12991 PWs)   bands (ev):

   -59.5145 -33.7359 -33.4434 -33.4434 -14.2319 -12.1653  -5.6081  -2.4799
    -2.2379  -2.2379  -0.8656  -0.8656   0.6152   0.8887   0.8887   1.3547
     1.3547   1.6206   3.0029   4.1742   4.1742   4.6041

          k = 0.0000 0.0000-0.0871 ( 12974 PWs)   bands (ev):

   -59.5145 -33.7359 -33.4434 -33.4434 -14.2319 -12.1652  -5.6081  -2.4799
    -2.2379  -2.2379  -0.8656  -0.8656   0.6152   0.8887   0.8887   1.3547
     1.3547   1.6206   3.0029   4.1742   4.1742   4.6041

          k = 0.0000 0.1155 0.0000 ( 12953 PWs)   bands (ev):

   -59.5107 -33.7283 -33.4816 -33.4521 -14.1025 -12.0719  -5.4599  -2.7025
    -2.4744  -2.2668  -1.1203  -0.8934   0.5216   0.8504   0.8938   1.2894
     1.4326   1.8078   3.1936   3.9449   4.1899   4.3063

          k = 0.0000 0.1155-0.0871 ( 12970 PWs)   bands (ev):

   -59.5107 -33.7284 -33.4816 -33.4521 -14.1025 -12.0719  -5.4599  -2.7025
    -2.4744  -2.2668  -1.1203  -0.8934   0.5216   0.8504   0.8938   1.2894
     1.4326   1.8078   3.1936   3.9448   4.1899   4.3063

          k = 0.0000 0.2309 0.0000 ( 12929 PWs)   bands (ev):

   -59.5008 -33.7085 -33.5806 -33.4748 -13.7441 -11.8108  -5.0954  -3.7245
    -2.6436  -2.4269  -1.5452  -0.8899   0.3603   0.6020   1.0828   1.2448
     1.5605   2.0653   3.3102   3.7726   4.0097   4.3570

          k = 0.0000 0.2309-0.0871 ( 12940 PWs)   bands (ev):

   -59.5008 -33.7085 -33.5806 -33.4748 -13.7441 -11.8108  -5.0954  -3.7245
    -2.6436  -2.4269  -1.5452  -0.8899   0.3603   0.6020   1.0828   1.2448
     1.5604   2.0653   3.3102   3.7726   4.0097   4.3571

          k = 0.0000 0.3464 0.0000 ( 12915 PWs)   bands (ev):

   -59.4885 -33.7009 -33.6838 -33.5026 -13.2504 -11.4435  -4.9969  -4.5999
    -3.0869  -2.7050  -1.7883  -0.8358  -0.0593   0.7751   1.2606   1.4876
     1.7730   2.2394   3.0523   3.7704   4.0754   5.1652

          k = 0.0000 0.3464-0.0871 ( 12918 PWs)   bands (ev):

   -59.4885 -33.7009 -33.6838 -33.5026 -13.2504 -11.4435  -4.9969  -4.5999
    -3.0869  -2.7050  -1.7883  -0.8358  -0.0593   0.7751   1.2606   1.4876
     1.7730   2.2394   3.0523   3.7704   4.0754   5.1654

          k = 0.0000 0.4619 0.0000 ( 12872 PWs)   bands (ev):

   -59.4785 -33.7965 -33.6639 -33.5251 -12.7915 -11.0908  -5.8274  -4.5815
    -3.4330  -2.9421  -2.0455  -0.8144  -0.1185   1.1753   1.3631   1.8223
     2.1348   2.2319   3.1728   3.6462   4.3416   5.2090

          k = 0.0000 0.4619-0.0871 ( 12884 PWs)   bands (ev):

   -59.4785 -33.7965 -33.6639 -33.5251 -12.7915 -11.0908  -5.8274  -4.5815
    -3.4330  -2.9421  -2.0455  -0.8144  -0.1185   1.1753   1.3631   1.8223
     2.1348   2.2319   3.1728   3.6462   4.3416   5.2090

          k = 0.0000-0.5774 0.0000 ( 12854 PWs)   bands (ev):

   -59.4747 -33.8327 -33.6562 -33.5336 -12.5964 -10.9358  -6.1813  -4.6332
    -3.5297  -3.0314  -2.1750  -0.8154  -0.0548   1.4032   1.5111   1.9606
     2.1148   2.2908   3.4488   3.6545   4.2623   5.1886

          k = 0.0000-0.5774-0.0871 ( 12864 PWs)   bands (ev):

   -59.4747 -33.8327 -33.6562 -33.5336 -12.5964 -10.9358  -6.1813  -4.6332
    -3.5297  -3.0314  -2.1750  -0.8154  -0.0548   1.4032   1.5111   1.9606
     2.1148   2.2908   3.4488   3.6545   4.2623   5.1886

          k = 0.1000 0.1732 0.0000 ( 12937 PWs)   bands (ev):

   -59.5039 -33.7146 -33.5474 -33.4706 -13.8583 -11.8943  -5.1997  -3.3702
    -2.6429  -2.3557  -1.4722  -0.8931   0.4947   0.5487   1.0765   1.3430
     1.4190   2.0327   3.4677   3.6760   3.9330   4.1910

          k = 0.1000 0.1732-0.0871 ( 12920 PWs)   bands (ev):

   -59.5039 -33.7146 -33.5474 -33.4706 -13.8583 -11.8943  -5.1997  -3.3702
    -2.6429  -2.3557  -1.4722  -0.8931   0.4947   0.5487   1.0765   1.3430
     1.4190   2.0327   3.4678   3.6759   3.9330   4.1909

          k = 0.1000 0.2887 0.0000 ( 12944 PWs)   bands (ev):

   -59.4927 -33.6924 -33.6503 -33.5026 -13.4298 -11.5767  -4.8574  -4.3202
    -2.9334  -2.7875  -1.7274  -0.8421   0.0789   0.6433   1.1511   1.4858
     1.6509   2.2776   3.2314   3.6140   3.9670   4.4893

          k = 0.1000 0.2887-0.0871 ( 12926 PWs)   bands (ev):

   -59.4927 -33.6924 -33.6503 -33.5026 -13.4298 -11.5767  -4.8574  -4.3202
    -2.9334  -2.7875  -1.7274  -0.8421   0.0789   0.6433   1.1511   1.4858
     1.6509   2.2776   3.2314   3.6141   3.9670   4.4892

          k = 0.1000 0.4041 0.0000 ( 12898 PWs)   bands (ev):

   -59.4816 -33.7512 -33.6701 -33.5347 -12.9449 -11.2059  -5.3978  -4.4991
    -3.4204  -3.0824  -1.8751  -0.9498  -0.1048   0.9603   1.2139   1.7854
     1.9807   2.3724   3.0692   3.6806   4.2803   4.8249

          k = 0.1000 0.4041-0.0871 ( 12884 PWs)   bands (ev):

   -59.4816 -33.7512 -33.6701 -33.5347 -12.9449 -11.2059  -5.3978  -4.4991
    -3.4204  -3.0824  -1.8751  -0.9498  -0.1048   0.9603   1.2139   1.7854
     1.9807   2.3724   3.0692   3.6806   4.2803   4.8249

          k = 0.1000 0.5196 0.0000 ( 12858 PWs)   bands (ev):

   -59.4747 -33.8127 -33.6562 -33.5546 -12.6045 -10.9357  -6.0014  -4.5321
    -3.7188  -3.1373  -2.0915  -1.0627   0.0106   1.2902   1.3928   2.0054
     2.1024   2.3977   3.2367   3.8053   4.4661   4.7303

          k = 0.1000 0.5196-0.0871 ( 12862 PWs)   bands (ev):

   -59.4747 -33.8127 -33.6562 -33.5546 -12.6045 -10.9357  -6.0014  -4.5321
    -3.7188  -3.1373  -2.0915  -1.0627   0.0106   1.2902   1.3928   2.0054
     2.1024   2.3977   3.2367   3.8053   4.4661   4.7303

          k = 0.2000 0.3464 0.0000 ( 12917 PWs)   bands (ev):

   -59.4828 -33.7211 -33.6724 -33.5515 -13.0037 -11.2474  -5.1028  -4.4238
    -3.5506  -3.1993  -1.8540  -0.9571  -0.1332   0.8982   1.0596   1.7853
     1.9528   2.5249   3.1062   3.7394   3.9124   4.6960

          k = 0.2000 0.3464-0.0871 ( 12918 PWs)   bands (ev):

   -59.4828 -33.7211 -33.6724 -33.5515 -13.0037 -11.2474  -5.1028  -4.4238
    -3.5506  -3.1993  -1.8540  -0.9571  -0.1332   0.8982   1.0596   1.7853
     1.9528   2.5249   3.1062   3.7394   3.9124   4.6960

          k = 0.2000 0.4619 0.0000 ( 12869 PWs)   bands (ev):

   -59.4747 -33.7705 -33.6563 -33.5983 -12.6176 -10.9353  -5.6107  -4.3869
    -4.0703  -3.3117  -2.0573  -1.3039   0.0969   1.0543   1.2247   1.9526
     2.1328   2.6893   3.0646   3.7845   4.1903   4.8824

          k = 0.2000 0.4619-0.0871 ( 12868 PWs)   bands (ev):

   -59.4747 -33.7705 -33.6563 -33.5983 -12.6176 -10.9353  -5.6107  -4.3869
    -4.0703  -3.3117  -2.0573  -1.3039   0.0969   1.0543   1.2247   1.9526
     2.1328   2.6893   3.0646   3.7845   4.1903   4.8824

          k = 0.2000 0.5774 0.0000 ( 12850 PWs)   bands (ev):

   -59.4716 -33.7878 -33.6501 -33.6176 -12.4572 -10.8012  -5.8239  -4.5146
    -4.1741  -3.2695  -2.2150  -1.4525   0.2872   1.1836   1.3337   1.8862
     2.2768   2.7372   3.1221   3.6919   4.2946   5.0268

          k = 0.2000 0.5774-0.0871 ( 12850 PWs)   bands (ev):

   -59.4716 -33.7878 -33.6501 -33.6176 -12.4572 -10.8012  -5.8239  -4.5146
    -4.1741  -3.2695  -2.2150  -1.4525   0.2872   1.1836   1.3337   1.8862
     2.2768   2.7372   3.1221   3.6919   4.2946   5.0268

          k = 0.3000 0.5196 0.0000 ( 12860 PWs)   bands (ev):

   -59.4704 -33.7524 -33.6679 -33.6477 -12.4022 -10.7481  -5.5291  -4.9184
    -4.0548  -3.3955  -2.3614  -1.5532   0.5797   1.0005   1.2422   1.8565
     2.3466   2.9055   3.0097   3.3838   4.3674   5.5497

          k = 0.3000 0.5196-0.0871 ( 12870 PWs)   bands (ev):

   -59.4704 -33.7524 -33.6679 -33.6477 -12.4022 -10.7481  -5.5291  -4.9184
    -4.0548  -3.3955  -2.3614  -1.5532   0.5797   1.0005   1.2422   1.8565
     2.3466   2.9055   3.0097   3.3838   4.3674   5.5497

     the Fermi energy is     2.1965 ev

!    total energy              =    -658.58568017 Ry
     total all-electron energy =    -12481.759571 Ry
     estimated scf accuracy    <       0.00000016 Ry
     smearing contrib. (-TS)   =      -0.00653785 Ry
     internal energy E=F+TS    =    -658.57914232 Ry

     The total energy is F=E-TS. E is the sum of the following terms:
     one-electron contribution =   -1398.94016569 Ry
     hartree contribution      =     713.19215299 Ry
     xc contribution           =     -62.56841795 Ry
     ewald contribution        =     495.87731647 Ry
     one-center paw contrib.   =    -406.14002814 Ry

     total magnetization       =     0.90 Bohr mag/cell
     absolute magnetization    =     1.12 Bohr mag/cell

     convergence has been achieved in  13 iterations

     negative rho (up, down):  2.601E-04 2.380E-04

     Forces acting on atoms (cartesian axes, Ry/au):

     atom    1 type  1   force =     0.00000000    0.00000000   -0.01361814
     atom    2 type  2   force =     0.00000000    0.00000000    0.03772656
     atom    3 type  2   force =     0.00000000    0.00000000    0.00603747
     atom    4 type  3   force =     0.00000000    0.00000000   -0.03014589
     The non-local contrib.  to forces
     atom    1 type  1   force =     0.00000000    0.00000000   -0.03412035
     atom    2 type  2   force =     0.00000000    0.00000000   -0.00483496
     atom    3 type  2   force =     0.00000000    0.00000000    0.26751527
     atom    4 type  3   force =     0.00000000    0.00000000    0.02554126
     The ionic contribution  to forces
     atom    1 type  1   force =     0.00000000   -0.00000000  -35.11372833
     atom    2 type  2   force =    -0.00000000    0.00000000   19.82828257
     atom    3 type  2   force =    -0.00000000    0.00000000  -46.47806191
     atom    4 type  3   force =     0.00000000   -0.00000000   61.76350766
     The local contribution  to forces
     atom    1 type  1   force =     0.00000000   -0.00000000   35.12909552
     atom    2 type  2   force =    -0.00000000    0.00000000  -19.78637143
     atom    3 type  2   force =    -0.00000000    0.00000000   46.21854713
     atom    4 type  3   force =     0.00000000   -0.00000000  -61.78635999
     The core correction contribution to forces
     atom    1 type  1   force =    -0.00000000    0.00000000    0.00384734
     atom    2 type  2   force =     0.00000000   -0.00000000   -0.00005881
     atom    3 type  2   force =     0.00000000   -0.00000000   -0.00218730
     atom    4 type  3   force =     0.00000000   -0.00000000   -0.03305432
     The Hubbard contrib.    to forces
     atom    1 type  1   force =     0.00000000    0.00000000    0.00000000
     atom    2 type  2   force =     0.00000000    0.00000000    0.00000000
     atom    3 type  2   force =     0.00000000    0.00000000    0.00000000
     atom    4 type  3   force =     0.00000000    0.00000000    0.00000000
     The SCF correction term to forces
     atom    1 type  1   force =     0.00000000    0.00000000    0.00123709
     atom    2 type  2   force =    -0.00000000   -0.00000000    0.00065858
     atom    3 type  2   force =    -0.00000000   -0.00000000    0.00017367
     atom    4 type  3   force =     0.00000000    0.00000000    0.00016890

     Total force =     0.050537     Total SCF correction =     0.001422


     Computing stress (Cartesian axis) and pressure


     negative rho (up, down):  2.601E-04 2.380E-04
          total   stress  (Ry/bohr**3)                   (kbar)     P=        4.15
   0.00007406   0.00000000   0.00000000           10.90        0.00        0.00
   0.00000000   0.00007406  -0.00000000            0.00       10.90       -0.00
   0.00000000  -0.00000000  -0.00006353            0.00       -0.00       -9.35

     Energy error            =      5.2E-03 Ry
     Gradient error          =      3.8E-02 Ry/Bohr

     number of scf cycles    =  16
     number of bfgs steps    =  15

     energy             old  =    -658.5804852078 Ry
     energy             new  =    -658.5856801743 Ry

     CASE: energy            _new < energy            _old

     new trust radius        =       0.2501390057 bohr
     new conv_thr            =       0.0000003773 Ry


ATOMIC_POSITIONS (crystal)
Mo            0.0000000000        0.0000000000        0.5127618685
S             0.6666666667        0.3333333333        0.6002882886
S             0.6666666667        0.3333333333        0.4279017705
Co            0.3333333333        0.6666666667        0.6566841362



     Writing config-only to output data dir ./tmp/relax.save/
     NEW-OLD atomic charge density approx. for the potential

     negative rho (up, down):  3.583E-04 2.385E-04
     Generating pointlists ...
     new r_m :   0.2730 (alat units)  1.6349 (a.u.) for type    2
     new r_m :   0.2730 (alat units)  1.6349 (a.u.) for type    3

     total cpu time spent up to now is      477.3 secs

     Self-consistent Calculation

     iteration #  1     ecut=    80.00 Ry     beta= 0.70
     Davidson diagonalization with overlap
     ethr =  1.00E-06,  avg # of iterations = 12.7

     negative rho (up, down):  3.833E-04 3.193E-04

     total cpu time spent up to now is      482.0 secs

     total energy              =    -658.55491256 Ry
     estimated scf accuracy    <       0.04501126 Ry

     total magnetization       =     0.77 Bohr mag/cell
     absolute magnetization    =     0.94 Bohr mag/cell

     iteration #  2     ecut=    80.00 Ry     beta= 0.70
     Davidson diagonalization with overlap
     ethr =  1.29E-04,  avg # of iterations =  6.7

     negative rho (up, down):  3.719E-04 3.098E-04

     total cpu time spent up to now is      484.5 secs

     total energy              =    -657.96301024 Ry
     estimated scf accuracy    <      26.73491725 Ry

     total magnetization       =     0.99 Bohr mag/cell
     absolute magnetization    =     1.19 Bohr mag/cell

     iteration #  3     ecut=    80.00 Ry     beta= 0.70
     Davidson diagonalization with overlap
     ethr =  1.29E-04,  avg # of iterations =  7.4

     negative rho (up, down):  3.341E-04 2.757E-04

     total cpu time spent up to now is      487.0 secs

     total energy              =    -658.56540578 Ry
     estimated scf accuracy    <       0.23028358 Ry

     total magnetization       =     0.60 Bohr mag/cell
     absolute magnetization    =     0.77 Bohr mag/cell

     iteration #  4     ecut=    80.00 Ry     beta= 0.70
     Davidson diagonalization with overlap
     ethr =  1.29E-04,  avg # of iterations =  3.3

     negative rho (up, down):  3.090E-04 2.653E-04

     total cpu time spent up to now is      488.9 secs

     total energy              =    -658.58808230 Ry
     estimated scf accuracy    <       0.00794496 Ry

     total magnetization       =     0.66 Bohr mag/cell
     absolute magnetization    =     0.83 Bohr mag/cell

     iteration #  5     ecut=    80.00 Ry     beta= 0.70
     Davidson diagonalization with overlap
     ethr =  2.27E-05,  avg # of iterations =  4.6

     negative rho (up, down):  2.878E-04 2.605E-04

     total cpu time spent up to now is      490.9 secs

     total energy              =    -658.58864203 Ry
     estimated scf accuracy    <       0.00908327 Ry

     total magnetization       =     0.64 Bohr mag/cell
     absolute magnetization    =     0.80 Bohr mag/cell

     iteration #  6     ecut=    80.00 Ry     beta= 0.70
     Davidson diagonalization with overlap
     ethr =  2.27E-05,  avg # of iterations =  2.0

     negative rho (up, down):  2.794E-04 2.625E-04

     total cpu time spent up to now is      492.7 secs

     total energy              =    -658.58979361 Ry
     estimated scf accuracy    <       0.00451941 Ry

     total magnetization       =     0.60 Bohr mag/cell
     absolute magnetization    =     0.75 Bohr mag/cell

     iteration #  7     ecut=    80.00 Ry     beta= 0.70
     Davidson diagonalization with overlap
     ethr =  1.29E-05,  avg # of iterations =  1.4

     negative rho (up, down):  2.784E-04 2.658E-04

     total cpu time spent up to now is      494.5 secs

     total energy              =    -658.59010405 Ry
     estimated scf accuracy    <       0.00261373 Ry

     total magnetization       =     0.55 Bohr mag/cell
     absolute magnetization    =     0.69 Bohr mag/cell

     iteration #  8     ecut=    80.00 Ry     beta= 0.70
     Davidson diagonalization with overlap
     ethr =  7.47E-06,  avg # of iterations =  1.2

     negative rho (up, down):  2.754E-04 2.679E-04

     total cpu time spent up to now is      496.5 secs

     total energy              =    -658.59010070 Ry
     estimated scf accuracy    <       0.00093713 Ry

     total magnetization       =     0.50 Bohr mag/cell
     absolute magnetization    =     0.62 Bohr mag/cell

     iteration #  9     ecut=    80.00 Ry     beta= 0.70
     Davidson diagonalization with overlap
     ethr =  2.68E-06,  avg # of iterations =  3.6

     negative rho (up, down):  2.669E-04 2.625E-04

     total cpu time spent up to now is      498.9 secs

     total energy              =    -658.59010681 Ry
     estimated scf accuracy    <       0.00051845 Ry

     total magnetization       =     0.37 Bohr mag/cell
     absolute magnetization    =     0.46 Bohr mag/cell

     iteration # 10     ecut=    80.00 Ry     beta= 0.70
     Davidson diagonalization with overlap
     ethr =  1.48E-06,  avg # of iterations =  4.9

     negative rho (up, down):  2.660E-04 2.637E-04

     total cpu time spent up to now is      501.7 secs

     total energy              =    -658.59098749 Ry
     estimated scf accuracy    <       0.00229015 Ry

     total magnetization       =     0.18 Bohr mag/cell
     absolute magnetization    =     0.22 Bohr mag/cell

     iteration # 11     ecut=    80.00 Ry     beta= 0.70
     Davidson diagonalization with overlap
     ethr =  1.48E-06,  avg # of iterations =  2.0

     negative rho (up, down):  2.690E-04 2.673E-04

     total cpu time spent up to now is      504.0 secs

     total energy              =    -658.59099303 Ry
     estimated scf accuracy    <       0.00165585 Ry

     total magnetization       =     0.10 Bohr mag/cell
     absolute magnetization    =     0.13 Bohr mag/cell

     iteration # 12     ecut=    80.00 Ry     beta= 0.70
     Davidson diagonalization with overlap
     ethr =  1.48E-06,  avg # of iterations =  1.8

     negative rho (up, down):  2.688E-04 2.678E-04

     total cpu time spent up to now is      506.2 secs

     total energy              =    -658.59105322 Ry
     estimated scf accuracy    <       0.00005401 Ry

     total magnetization       =     0.07 Bohr mag/cell
     absolute magnetization    =     0.09 Bohr mag/cell

     iteration # 13     ecut=    80.00 Ry     beta= 0.70
     Davidson diagonalization with overlap
     ethr =  1.54E-07,  avg # of iterations =  3.8

     negative rho (up, down):  2.681E-04 2.676E-04

     total cpu time spent up to now is      508.8 secs

     total energy              =    -658.59108372 Ry
     estimated scf accuracy    <       0.00000252 Ry

     total magnetization       =     0.04 Bohr mag/cell
     absolute magnetization    =     0.05 Bohr mag/cell

     iteration # 14     ecut=    80.00 Ry     beta= 0.70
     Davidson diagonalization with overlap
     ethr =  7.21E-09,  avg # of iterations =  5.2

     negative rho (up, down):  2.679E-04 2.676E-04

     total cpu time spent up to now is      511.9 secs

     total energy              =    -658.59109507 Ry
     estimated scf accuracy    <       0.00000099 Ry

     total magnetization       =     0.02 Bohr mag/cell
     absolute magnetization    =     0.02 Bohr mag/cell

     iteration # 15     ecut=    80.00 Ry     beta= 0.70
     Davidson diagonalization with overlap
     ethr =  2.81E-09,  avg # of iterations =  4.5

     negative rho (up, down):  2.677E-04 2.676E-04

     total cpu time spent up to now is      514.6 secs

     total energy              =    -658.59109695 Ry
     estimated scf accuracy    <       0.00000101 Ry

     total magnetization       =     0.01 Bohr mag/cell
     absolute magnetization    =     0.01 Bohr mag/cell

     iteration # 16     ecut=    80.00 Ry     beta= 0.70
     Davidson diagonalization with overlap
     ethr =  2.81E-09,  avg # of iterations =  2.1

     negative rho (up, down):  2.677E-04 2.676E-04
 
     Magnetic moment per site  (integrated on atomic sphere of radius R)
     atom   1 (R=0.313)  charge= 10.7971  magn=  0.0002
     atom   2 (R=0.273)  charge=  3.3433  magn=  0.0000
     atom   3 (R=0.273)  charge=  3.2067  magn= -0.0000
     atom   4 (R=0.273)  charge=  6.8937  magn=  0.0026

     total cpu time spent up to now is      516.9 secs

     End of self-consistent calculation

 ------ SPIN UP ------------


          k = 0.0000 0.0000 0.0000 ( 12991 PWs)   bands (ev):

   -59.5752 -33.8407 -33.5079 -33.5079 -14.6194 -12.2696  -5.9113  -3.0536
    -3.0536  -2.5297  -1.1468  -1.1468   0.4770   0.4770   0.5296   0.7215
     0.7215   1.2510   3.4892   4.0789   4.0789   4.6857

          k = 0.0000 0.0000-0.0871 ( 12974 PWs)   bands (ev):

   -59.5752 -33.8407 -33.5079 -33.5079 -14.6194 -12.2696  -5.9113  -3.0536
    -3.0536  -2.5297  -1.1468  -1.1468   0.4770   0.4770   0.5296   0.7215
     0.7215   1.2510   3.4892   4.0789   4.0789   4.6857

          k = 0.0000 0.1155 0.0000 ( 12953 PWs)   bands (ev):

   -59.5713 -33.8327 -33.5472 -33.5168 -14.4920 -12.1779  -5.7645  -3.4457
    -3.0803  -2.5698  -1.3604  -1.1284   0.1469   0.3819   0.5782   0.8514
     0.8733   1.4258   3.4971   3.9663   4.1177   4.3634

          k = 0.0000 0.1155-0.0871 ( 12970 PWs)   bands (ev):

   -59.5713 -33.8328 -33.5472 -33.5168 -14.4920 -12.1779  -5.7645  -3.4457
    -3.0803  -2.5698  -1.3604  -1.1284   0.1469   0.3819   0.5782   0.8514
     0.8733   1.4258   3.4972   3.9661   4.1177   4.3633

          k = 0.0000 0.2309 0.0000 ( 12929 PWs)   bands (ev):

   -59.5612 -33.8119 -33.6490 -33.5400 -14.1415 -11.9216  -5.4048  -4.3597
    -3.1959  -2.7991  -1.7135  -1.0903  -0.1336   0.3519   0.4755   0.9148
     1.0709   1.7397   3.3513   3.7584   3.9322   4.5384

          k = 0.0000 0.2309-0.0871 ( 12940 PWs)   bands (ev):

   -59.5612 -33.8119 -33.6490 -33.5400 -14.1415 -11.9216  -5.4048  -4.3597
    -3.1959  -2.7991  -1.7135  -1.0903  -0.1336   0.3519   0.4755   0.9148
     1.0709   1.7397   3.3513   3.7584   3.9322   4.5384

          k = 0.0000 0.3464 0.0000 ( 12915 PWs)   bands (ev):

   -59.5487 -33.7862 -33.7725 -33.5684 -13.6647 -11.5613  -5.4899  -4.9335
    -3.3973  -3.2522  -1.9685  -1.0514  -0.3708   0.2359   0.7685   1.0066
     1.3822   1.9266   3.0283   3.6452   4.0758   5.1099

          k = 0.0000 0.3464-0.0871 ( 12918 PWs)   bands (ev):

   -59.5487 -33.7862 -33.7725 -33.5684 -13.6647 -11.5613  -5.4899  -4.9335
    -3.3973  -3.2522  -1.9685  -1.0514  -0.3708   0.2359   0.7685   1.0066
     1.3822   1.9266   3.0283   3.6452   4.0757   5.1099

          k = 0.0000 0.4619 0.0000 ( 12872 PWs)   bands (ev):

   -59.5385 -33.8708 -33.7651 -33.5914 -13.2292 -11.2162  -6.2751  -4.8318
    -3.5966  -3.5812  -2.2920  -1.0327  -0.3648   0.5297   1.0337   1.1537
     1.7431   1.7651   3.1950   3.5155   4.3745   5.1502

          k = 0.0000 0.4619-0.0871 ( 12884 PWs)   bands (ev):

   -59.5385 -33.8708 -33.7651 -33.5914 -13.2292 -11.2162  -6.2751  -4.8318
    -3.5966  -3.5812  -2.2920  -1.0327  -0.3648   0.5297   1.0337   1.1537
     1.7431   1.7651   3.1950   3.5155   4.3745   5.1502

          k = 0.0000-0.5774 0.0000 ( 12854 PWs)   bands (ev):

   -59.5346 -33.9079 -33.7570 -33.6001 -13.0466 -11.0650  -6.5951  -4.8516
    -3.7012  -3.6532  -2.4501  -1.0305  -0.2899   0.8456   1.1547   1.2567
     1.4679   1.9004   3.4796   3.5419   4.3285   5.1221

          k = 0.0000-0.5774-0.0871 ( 12864 PWs)   bands (ev):

   -59.5346 -33.9079 -33.7570 -33.6001 -13.0466 -11.0650  -6.5951  -4.8516
    -3.7012  -3.6532  -2.4501  -1.0305  -0.2899   0.8456   1.1547   1.2567
     1.4679   1.9004   3.4796   3.5419   4.3285   5.1221

          k = 0.1000 0.1732 0.0000 ( 12937 PWs)   bands (ev):

   -59.5643 -33.8184 -33.6149 -33.5357 -14.2528 -12.0035  -5.5069  -4.0496
    -3.2332  -2.6722  -1.6512  -1.1116   0.0367   0.1520   0.6959   0.8507
     0.9831   1.6970   3.4590   3.8047   3.9175   4.2368

          k = 0.1000 0.1732-0.0871 ( 12920 PWs)   bands (ev):

   -59.5643 -33.8184 -33.6149 -33.5357 -14.2528 -12.0035  -5.5069  -4.0496
    -3.2332  -2.6722  -1.6512  -1.1116   0.0367   0.1520   0.6959   0.8507
     0.9831   1.6970   3.4591   3.8047   3.9175   4.2366

          k = 0.1000 0.2887 0.0000 ( 12944 PWs)   bands (ev):

   -59.5530 -33.7950 -33.7206 -33.5684 -13.8371 -11.6916  -5.2142  -4.8503
    -3.5190  -3.0396  -1.8906  -1.0684  -0.3126   0.2473   0.6986   0.8510
     1.2805   2.0317   3.2003   3.5438   3.8604   4.6269

          k = 0.1000 0.2887-0.0871 ( 12926 PWs)   bands (ev):

   -59.5530 -33.7950 -33.7206 -33.5684 -13.8371 -11.6916  -5.2142  -4.8503
    -3.5190  -3.0396  -1.8906  -1.0684  -0.3126   0.2473   0.6986   0.8510
     1.2805   2.0317   3.2003   3.5438   3.8604   4.6268

          k = 0.1000 0.4041 0.0000 ( 12898 PWs)   bands (ev):

   -59.5416 -33.8242 -33.7716 -33.6013 -13.3736 -11.3279  -5.8818  -4.7859
    -3.8584  -3.4132  -2.0667  -1.1470  -0.4521   0.3744   0.9169   1.0517
     1.5214   2.1138   3.0283   3.5700   4.2138   4.8687

          k = 0.1000 0.4041-0.0871 ( 12884 PWs)   bands (ev):

   -59.5416 -33.8242 -33.7716 -33.6013 -13.3736 -11.3279  -5.8818  -4.7859
    -3.8584  -3.4132  -2.0667  -1.1470  -0.4521   0.3744   0.9169   1.0517
     1.5214   2.1138   3.0283   3.5700   4.2138   4.8687

          k = 0.1000 0.5196 0.0000 ( 12858 PWs)   bands (ev):

   -59.5346 -33.8874 -33.7571 -33.6216 -13.0538 -11.0634  -6.4277  -4.7707
    -4.1195  -3.4956  -2.3098  -1.2344  -0.3341   0.6429   1.1620   1.2666
     1.4709   2.0479   3.2293   3.7243   4.4979   4.6768

          k = 0.1000 0.5196-0.0871 ( 12862 PWs)   bands (ev):

   -59.5346 -33.8874 -33.7571 -33.6216 -13.0538 -11.0634  -6.4277  -4.7707
    -4.1195  -3.4956  -2.3098  -1.2344  -0.3341   0.6429   1.1620   1.2666
     1.4709   2.0479   3.2293   3.7243   4.4979   4.6768

          k = 0.2000 0.3464 0.0000 ( 12917 PWs)   bands (ev):

   -59.5428 -33.7935 -33.7740 -33.6185 -13.4291 -11.3676  -5.6096  -4.7396
    -4.0943  -3.3817  -2.0029  -1.1010  -0.6129   0.4304   0.6809   1.0605
     1.4601   2.3888   3.0001   3.6087   3.8198   4.7985

          k = 0.2000 0.3464-0.0871 ( 12918 PWs)   bands (ev):

   -59.5428 -33.7935 -33.7740 -33.6185 -13.4291 -11.3676  -5.6096  -4.7396
    -4.0943  -3.3817  -2.0029  -1.1010  -0.6129   0.4304   0.6809   1.0605
     1.4601   2.3888   3.0001   3.6087   3.8198   4.7984

          k = 0.2000 0.4619 0.0000 ( 12869 PWs)   bands (ev):

   -59.5346 -33.8442 -33.7571 -33.6664 -13.0653 -11.0605  -6.0672  -4.7575
    -4.4584  -3.5158  -2.1865  -1.4256  -0.4249   0.4734   0.9239   1.2744
     1.4996   2.4127   3.0121   3.6860   4.1210   4.9360

          k = 0.2000 0.4619-0.0871 ( 12868 PWs)   bands (ev):

   -59.5346 -33.8442 -33.7571 -33.6664 -13.0653 -11.0605  -6.0672  -4.7575
    -4.4584  -3.5158  -2.1865  -1.4256  -0.4249   0.4734   0.9239   1.2744
     1.4996   2.4127   3.0121   3.6860   4.1210   4.9360

          k = 0.2000 0.5774 0.0000 ( 12850 PWs)   bands (ev):

   -59.5314 -33.8620 -33.7506 -33.6862 -12.9160 -10.9288  -6.2512  -4.9331
    -4.4799  -3.4886  -2.3430  -1.5683  -0.2474   0.5833   0.9324   1.2969
     1.6976   2.2987   3.0387   3.6682   4.3034   5.0258

          k = 0.2000 0.5774-0.0871 ( 12850 PWs)   bands (ev):

   -59.5314 -33.8620 -33.7506 -33.6862 -12.9160 -10.9288  -6.2512  -4.9331
    -4.4799  -3.4886  -2.3430  -1.5683  -0.2474   0.5833   0.9324   1.2969
     1.6976   2.2987   3.0387   3.6682   4.3034   5.0258

          k = 0.3000 0.5196 0.0000 ( 12860 PWs)   bands (ev):

   -59.5302 -33.8262 -33.7481 -33.7373 -12.8646 -10.8751  -5.9667  -5.3812
    -4.3503  -3.5422  -2.4620  -1.6566  -0.0765   0.4890   0.7501   1.3236
     1.8382   2.4025   2.8629   3.3867   4.4107   5.5408

          k = 0.3000 0.5196-0.0871 ( 12870 PWs)   bands (ev):

   -59.5302 -33.8262 -33.7481 -33.7373 -12.8646 -10.8751  -5.9667  -5.3812
    -4.3503  -3.5422  -2.4620  -1.6566  -0.0765   0.4890   0.7501   1.3236
     1.8382   2.4025   2.8629   3.3867   4.4107   5.5408

 ------ SPIN DOWN ----------


          k = 0.0000 0.0000 0.0000 ( 12991 PWs)   bands (ev):

   -59.5748 -33.8401 -33.5075 -33.5075 -14.6195 -12.2697  -5.9111  -3.0533
    -3.0533  -2.5293  -1.1465  -1.1465   0.4783   0.4783   0.5302   0.7241
     0.7241   1.2541   3.4905   4.0792   4.0792   4.6862

          k = 0.0000 0.0000-0.0871 ( 12974 PWs)   bands (ev):

   -59.5748 -33.8401 -33.5075 -33.5075 -14.6195 -12.2697  -5.9111  -3.0533
    -3.0533  -2.5293  -1.1465  -1.1465   0.4783   0.4783   0.5302   0.7241
     0.7241   1.2541   3.4905   4.0792   4.0792   4.6862

          k = 0.0000 0.1155 0.0000 ( 12953 PWs)   bands (ev):

   -59.5709 -33.8322 -33.5468 -33.5164 -14.4920 -12.1780  -5.7643  -3.4455
    -3.0800  -2.5695  -1.3601  -1.1282   0.1482   0.3833   0.5795   0.8532
     0.8758   1.4289   3.4980   3.9669   4.1179   4.3641

          k = 0.0000 0.1155-0.0871 ( 12970 PWs)   bands (ev):

   -59.5709 -33.8322 -33.5468 -33.5164 -14.4920 -12.1780  -5.7643  -3.4455
    -3.0800  -2.5695  -1.3601  -1.1282   0.1482   0.3833   0.5795   0.8532
     0.8757   1.4289   3.4981   3.9667   4.1179   4.3640

          k = 0.0000 0.2309 0.0000 ( 12929 PWs)   bands (ev):

   -59.5608 -33.8113 -33.6486 -33.5396 -14.1415 -11.9217  -5.4046  -4.3595
    -3.1956  -2.7990  -1.7132  -1.0901  -0.1322   0.3529   0.4770   0.9169
     1.0733   1.7427   3.3521   3.7588   3.9326   4.5395

          k = 0.0000 0.2309-0.0871 ( 12940 PWs)   bands (ev):

   -59.5608 -33.8114 -33.6486 -33.5396 -14.1415 -11.9217  -5.4046  -4.3595
    -3.1956  -2.7990  -1.7132  -1.0901  -0.1322   0.3529   0.4770   0.9169
     1.0733   1.7427   3.3522   3.7588   3.9326   4.5395

          k = 0.0000 0.3464 0.0000 ( 12915 PWs)   bands (ev):

   -59.5483 -33.7856 -33.7721 -33.5680 -13.6647 -11.5614  -5.4897  -4.9334
    -3.3970  -3.2521  -1.9682  -1.0512  -0.3701   0.2374   0.7704   1.0089
     1.3842   1.9294   3.0291   3.6458   4.0762   5.1104

          k = 0.0000 0.3464-0.0871 ( 12918 PWs)   bands (ev):

   -59.5483 -33.7856 -33.7721 -33.5680 -13.6647 -11.5614  -5.4897  -4.9334
    -3.3970  -3.2521  -1.9682  -1.0512  -0.3701   0.2374   0.7704   1.0089
     1.3842   1.9294   3.0291   3.6458   4.0762   5.1104

          k = 0.0000 0.4619 0.0000 ( 12872 PWs)   bands (ev):

   -59.5381 -33.8704 -33.7645 -33.5910 -13.2292 -11.2163  -6.2750  -4.8317
    -3.5966  -3.5808  -2.2916  -1.0325  -0.3643   0.5316   1.0358   1.1562
     1.7456   1.7671   3.1958   3.5161   4.3750   5.1506

          k = 0.0000 0.4619-0.0871 ( 12884 PWs)   bands (ev):

   -59.5381 -33.8704 -33.7645 -33.5910 -13.2292 -11.2163  -6.2750  -4.8317
    -3.5966  -3.5808  -2.2916  -1.0325  -0.3643   0.5316   1.0358   1.1562
     1.7456   1.7671   3.1958   3.5161   4.3750   5.1506

          k = 0.0000-0.5774 0.0000 ( 12854 PWs)   bands (ev):

   -59.5342 -33.9075 -33.7565 -33.5997 -13.0466 -11.0651  -6.5950  -4.8515
    -3.7011  -3.6528  -2.4498  -1.0303  -0.2895   0.8478   1.1569   1.2592
     1.4699   1.9025   3.4804   3.5424   4.3291   5.1225

          k = 0.0000-0.5774-0.0871 ( 12864 PWs)   bands (ev):

   -59.5342 -33.9075 -33.7565 -33.5997 -13.0466 -11.0651  -6.5950  -4.8515
    -3.7011  -3.6528  -2.4498  -1.0303  -0.2895   0.8478   1.1569   1.2592
     1.4699   1.9025   3.4804   3.5424   4.3291   5.1225

          k = 0.1000 0.1732 0.0000 ( 12937 PWs)   bands (ev):

   -59.5639 -33.8178 -33.6145 -33.5353 -14.2528 -12.0036  -5.5067  -4.0494
    -3.2329  -2.6720  -1.6510  -1.1113   0.0378   0.1534   0.6974   0.8527
     0.9854   1.6999   3.4596   3.8053   3.9183   4.2375

          k = 0.1000 0.1732-0.0871 ( 12920 PWs)   bands (ev):

   -59.5639 -33.8178 -33.6145 -33.5353 -14.2528 -12.0036  -5.5067  -4.0494
    -3.2329  -2.6720  -1.6510  -1.1113   0.0378   0.1534   0.6974   0.8527
     0.9854   1.6999   3.4597   3.8053   3.9183   4.2373

          k = 0.1000 0.2887 0.0000 ( 12944 PWs)   bands (ev):

   -59.5526 -33.7945 -33.7202 -33.5680 -13.8371 -11.6917  -5.2140  -4.8502
    -3.5187  -3.0395  -1.8904  -1.0682  -0.3119   0.2488   0.7003   0.8534
     1.2828   2.0344   3.2012   3.5444   3.8610   4.6276

          k = 0.1000 0.2887-0.0871 ( 12926 PWs)   bands (ev):

   -59.5526 -33.7945 -33.7202 -33.5680 -13.8371 -11.6917  -5.2140  -4.8502
    -3.5187  -3.0395  -1.8904  -1.0682  -0.3119   0.2488   0.7003   0.8534
     1.2828   2.0344   3.2012   3.5444   3.8610   4.6276

          k = 0.1000 0.4041 0.0000 ( 12898 PWs)   bands (ev):

   -59.5412 -33.8239 -33.7710 -33.6009 -13.3736 -11.3280  -5.8816  -4.7857
    -3.8581  -3.4131  -2.0664  -1.1468  -0.4516   0.3762   0.9185   1.0542
     1.5239   2.1161   3.0292   3.5706   4.2143   4.8691

          k = 0.1000 0.4041-0.0871 ( 12884 PWs)   bands (ev):

   -59.5412 -33.8238 -33.7710 -33.6009 -13.3736 -11.3280  -5.8816  -4.7857
    -3.8581  -3.4131  -2.0664  -1.1468  -0.4516   0.3762   0.9185   1.0542
     1.5239   2.1161   3.0292   3.5706   4.2143   4.8691

          k = 0.1000 0.5196 0.0000 ( 12858 PWs)   bands (ev):

   -59.5342 -33.8870 -33.7565 -33.6212 -13.0538 -11.0635  -6.4276  -4.7706
    -4.1192  -3.4955  -2.3095  -1.2342  -0.3336   0.6449   1.1638   1.2694
     1.4733   2.0498   3.2301   3.7249   4.4984   4.6772

          k = 0.1000 0.5196-0.0871 ( 12862 PWs)   bands (ev):

   -59.5342 -33.8870 -33.7565 -33.6212 -13.0538 -11.0635  -6.4276  -4.7706
    -4.1192  -3.4955  -2.3095  -1.2342  -0.3336   0.6449   1.1638   1.2694
     1.4733   2.0498   3.2301   3.7249   4.4984   4.6772

          k = 0.2000 0.3464 0.0000 ( 12917 PWs)   bands (ev):

   -59.5424 -33.7931 -33.7734 -33.6181 -13.4291 -11.3677  -5.6094  -4.7395
    -4.0940  -3.3817  -2.0028  -1.1009  -0.6122   0.4327   0.6819   1.0631
     1.4629   2.3911   3.0010   3.6094   3.8201   4.7990

          k = 0.2000 0.3464-0.0871 ( 12918 PWs)   bands (ev):

   -59.5424 -33.7931 -33.7734 -33.6181 -13.4291 -11.3677  -5.6094  -4.7395
    -4.0940  -3.3817  -2.0028  -1.1009  -0.6122   0.4327   0.6819   1.0631
     1.4629   2.3911   3.0010   3.6094   3.8201   4.7989

          k = 0.2000 0.4619 0.0000 ( 12869 PWs)   bands (ev):

   -59.5342 -33.8438 -33.7565 -33.6660 -13.0653 -11.0606  -6.0670  -4.7572
    -4.4582  -3.5158  -2.1865  -1.4255  -0.4242   0.4756   0.9251   1.2773
     1.5025   2.4146   3.0130   3.6866   4.1214   4.9364

          k = 0.2000 0.4619-0.0871 ( 12868 PWs)   bands (ev):

   -59.5342 -33.8438 -33.7565 -33.6660 -13.0653 -11.0606  -6.0670  -4.7572
    -4.4582  -3.5158  -2.1865  -1.4255  -0.4242   0.4756   0.9251   1.2773
     1.5025   2.4146   3.0130   3.6866   4.1214   4.9364

          k = 0.2000 0.5774 0.0000 ( 12850 PWs)   bands (ev):

   -59.5310 -33.8616 -33.7500 -33.6858 -12.9160 -10.9289  -6.2511  -4.9328
    -4.4797  -3.4885  -2.3429  -1.5682  -0.2466   0.5853   0.9344   1.2995
     1.7005   2.3003   3.0394   3.6689   4.3039   5.0263

          k = 0.2000 0.5774-0.0871 ( 12850 PWs)   bands (ev):

   -59.5310 -33.8616 -33.7500 -33.6858 -12.9160 -10.9289  -6.2511  -4.9328
    -4.4797  -3.4885  -2.3429  -1.5682  -0.2466   0.5853   0.9344   1.2995
     1.7005   2.3003   3.0394   3.6689   4.3039   5.0263

          k = 0.3000 0.5196 0.0000 ( 12860 PWs)   bands (ev):

   -59.5298 -33.8258 -33.7476 -33.7369 -12.8646 -10.8752  -5.9666  -5.3810
    -4.3501  -3.5422  -2.4620  -1.6565  -0.0756   0.4909   0.7522   1.3261
     1.8413   2.4039   2.8636   3.3873   4.4112   5.5411

          k = 0.3000 0.5196-0.0871 ( 12870 PWs)   bands (ev):

   -59.5298 -33.8258 -33.7476 -33.7369 -12.8646 -10.8752  -5.9666  -5.3810
    -4.3501  -3.5422  -2.4620  -1.6565  -0.0756   0.4909   0.7522   1.3261
     1.8413   2.4039   2.8636   3.3873   4.4112   5.5411

     the Fermi energy is     2.0655 ev

!    total energy              =    -658.59109719 Ry
     total all-electron energy =    -12481.764988 Ry
     estimated scf accuracy    <       0.00000022 Ry
     smearing contrib. (-TS)   =      -0.00560467 Ry
     internal energy E=F+TS    =    -658.58549252 Ry

     The total energy is F=E-TS. E is the sum of the following terms:
     one-electron contribution =   -1449.75781317 Ry
     hartree contribution      =     738.40742340 Ry
     xc contribution           =     -62.68239209 Ry
     ewald contribution        =     521.59574921 Ry
     one-center paw contrib.   =    -406.14845987 Ry

     total magnetization       =     0.00 Bohr mag/cell
     absolute magnetization    =     0.00 Bohr mag/cell

     convergence has been achieved in  16 iterations

     negative rho (up, down):  2.677E-04 2.676E-04

     Forces acting on atoms (cartesian axes, Ry/au):

     atom    1 type  1   force =     0.00000000    0.00000000   -0.02435235
     atom    2 type  2   force =     0.00000000    0.00000000    0.04914794
     atom    3 type  2   force =     0.00000000    0.00000000   -0.00729540
     atom    4 type  3   force =     0.00000000    0.00000000   -0.01750019
     The non-local contrib.  to forces
     atom    1 type  1   force =     0.00000000   -0.00000000   -0.03081176
     atom    2 type  2   force =     0.00000000    0.00000000   -0.01455869
     atom    3 type  2   force =     0.00000000    0.00000000    0.26214606
     atom    4 type  3   force =     0.00000000    0.00000000   -0.03114694
     The ionic contribution  to forces
     atom    1 type  1   force =     0.00000000   -0.00000000  -36.01838436
     atom    2 type  2   force =    -0.00000000    0.00000000   20.65448581
     atom    3 type  2   force =    -0.00000000    0.00000000  -47.06550255
     atom    4 type  3   force =     0.00000000   -0.00000000   62.42940111
     The local contribution  to forces
     atom    1 type  1   force =    -0.00000000   -0.00000000   36.01989712
     atom    2 type  2   force =    -0.00000000    0.00000000  -20.59170847
     atom    3 type  2   force =    -0.00000000    0.00000000   46.79744868
     atom    4 type  3   force =     0.00000000   -0.00000000  -62.37919707
     The core correction contribution to forces
     atom    1 type  1   force =     0.00000000    0.00000000    0.00403666
     atom    2 type  2   force =     0.00000000   -0.00000000    0.00054775
     atom    3 type  2   force =     0.00000000   -0.00000000   -0.00194605
     atom    4 type  3   force =     0.00000000   -0.00000000   -0.03735346
     The Hubbard contrib.    to forces
     atom    1 type  1   force =     0.00000000    0.00000000    0.00000000
     atom    2 type  2   force =     0.00000000    0.00000000    0.00000000
     atom    3 type  2   force =     0.00000000    0.00000000    0.00000000
     atom    4 type  3   force =     0.00000000    0.00000000    0.00000000
     The SCF correction term to forces
     atom    1 type  1   force =    -0.00000000    0.00000000    0.00093970
     atom    2 type  2   force =    -0.00000000   -0.00000000    0.00041125
     atom    3 type  2   force =     0.00000000    0.00000000    0.00058817
     atom    4 type  3   force =     0.00000000    0.00000000    0.00082587

     Total force =     0.058035     Total SCF correction =     0.001442


     Computing stress (Cartesian axis) and pressure


     negative rho (up, down):  2.677E-04 2.676E-04
          total   stress  (Ry/bohr**3)                   (kbar)     P=       24.31
   0.00021326   0.00000000   0.00000000           31.37        0.00        0.00
   0.00000000   0.00021326  -0.00000000            0.00       31.37       -0.00
   0.00000000  -0.00000000   0.00006919            0.00       -0.00       10.18

     Energy error            =      5.4E-03 Ry
     Gradient error          =      4.9E-02 Ry/Bohr

     number of scf cycles    =  17
     number of bfgs steps    =  16

     energy             old  =    -658.5856801743 Ry
     energy             new  =    -658.5910971906 Ry

     CASE: energy            _new < energy            _old

     new trust radius        =       0.0694664292 bohr
     new conv_thr            =       0.0000004915 Ry


ATOMIC_POSITIONS (crystal)
Mo            0.0000000000        0.0000000000        0.5131197238
S             0.6666666667        0.3333333333        0.6012482635
S             0.6666666667        0.3333333333        0.4286048337
Co            0.3333333333        0.6666666667        0.6546632428



     Writing config-only to output data dir ./tmp/relax.save/
     NEW-OLD atomic charge density approx. for the potential

     negative rho (up, down):  2.613E-04 2.613E-04
     Generating pointlists ...
     new r_m :   0.2697 (alat units)  1.6146 (a.u.) for type    2
     new r_m :   0.2697 (alat units)  1.6146 (a.u.) for type    3

     total cpu time spent up to now is      521.1 secs

     Self-consistent Calculation

     iteration #  1     ecut=    80.00 Ry     beta= 0.70
     Davidson diagonalization with overlap
     ethr =  1.00E-06,  avg # of iterations =  9.0

     negative rho (up, down):  2.623E-04 2.622E-04

     total cpu time spent up to now is      524.7 secs

     total energy              =    -658.59179151 Ry
     estimated scf accuracy    <       0.00180237 Ry

     total magnetization       =     0.00 Bohr mag/cell
     absolute magnetization    =     0.00 Bohr mag/cell

     iteration #  2     ecut=    80.00 Ry     beta= 0.70
     Davidson diagonalization with overlap
     ethr =  5.15E-06,  avg # of iterations =  7.3

     negative rho (up, down):  2.621E-04 2.621E-04

     total cpu time spent up to now is      527.2 secs

     total energy              =    -658.58605529 Ry
     estimated scf accuracy    <       0.10291084 Ry

     total magnetization       =     0.00 Bohr mag/cell
     absolute magnetization    =     0.00 Bohr mag/cell

     iteration #  3     ecut=    80.00 Ry     beta= 0.70
     Davidson diagonalization with overlap
     ethr =  5.15E-06,  avg # of iterations =  7.9

     negative rho (up, down):  2.613E-04 2.612E-04

     total cpu time spent up to now is      529.7 secs

     total energy              =    -658.59210024 Ry
     estimated scf accuracy    <       0.00683451 Ry

     total magnetization       =     0.00 Bohr mag/cell
     absolute magnetization    =     0.00 Bohr mag/cell

     iteration #  4     ecut=    80.00 Ry     beta= 0.70
     Davidson diagonalization with overlap
     ethr =  5.15E-06,  avg # of iterations =  2.6

     negative rho (up, down):  2.614E-04 2.613E-04

     total cpu time spent up to now is      531.6 secs

     total energy              =    -658.59254555 Ry
     estimated scf accuracy    <       0.00109145 Ry

     total magnetization       =     0.00 Bohr mag/cell
     absolute magnetization    =     0.00 Bohr mag/cell

     iteration #  5     ecut=    80.00 Ry     beta= 0.70
     Davidson diagonalization with overlap
     ethr =  3.12E-06,  avg # of iterations =  2.0

     negative rho (up, down):  2.623E-04 2.623E-04

     total cpu time spent up to now is      533.4 secs

     total energy              =    -658.59270458 Ry
     estimated scf accuracy    <       0.00016298 Ry

     total magnetization       =     0.00 Bohr mag/cell
     absolute magnetization    =     0.00 Bohr mag/cell

     iteration #  6     ecut=    80.00 Ry     beta= 0.70
     Davidson diagonalization with overlap
     ethr =  4.66E-07,  avg # of iterations =  1.7

     negative rho (up, down):  2.625E-04 2.624E-04

     total cpu time spent up to now is      535.1 secs

     total energy              =    -658.59272496 Ry
     estimated scf accuracy    <       0.00000413 Ry

     total magnetization       =     0.00 Bohr mag/cell
     absolute magnetization    =     0.00 Bohr mag/cell

     iteration #  7     ecut=    80.00 Ry     beta= 0.70
     Davidson diagonalization with overlap
     ethr =  1.18E-08,  avg # of iterations =  4.8

     negative rho (up, down):  2.626E-04 2.625E-04

     total cpu time spent up to now is      537.4 secs

     total energy              =    -658.59272692 Ry
     estimated scf accuracy    <       0.00000731 Ry

     total magnetization       =     0.00 Bohr mag/cell
     absolute magnetization    =     0.00 Bohr mag/cell

     iteration #  8     ecut=    80.00 Ry     beta= 0.70
     Davidson diagonalization with overlap
     ethr =  1.18E-08,  avg # of iterations =  2.1

     negative rho (up, down):  2.626E-04 2.626E-04
 
     Magnetic moment per site  (integrated on atomic sphere of radius R)
     atom   1 (R=0.313)  charge= 10.7983  magn=  0.0000
     atom   2 (R=0.270)  charge=  3.2661  magn=  0.0000
     atom   3 (R=0.270)  charge=  3.1256  magn=  0.0000
     atom   4 (R=0.270)  charge=  6.8517  magn=  0.0013

     total cpu time spent up to now is      539.2 secs

     End of self-consistent calculation

 ------ SPIN UP ------------


          k = 0.0000 0.0000 0.0000 ( 12991 PWs)   bands (ev):

   -59.5715 -33.8386 -33.5039 -33.5039 -14.6910 -12.2758  -5.9473  -3.2513
    -3.2513  -2.5680  -1.1987  -1.1987   0.4195   0.4195   0.5679   0.6392
     0.6392   1.1876   3.6705   4.1108   4.1108   4.7541

          k = 0.0000 0.0000-0.0871 ( 12974 PWs)   bands (ev):

   -59.5715 -33.8386 -33.5039 -33.5039 -14.6910 -12.2758  -5.9473  -3.2513
    -3.2513  -2.5680  -1.1987  -1.1987   0.4195   0.4195   0.5679   0.6392
     0.6392   1.1876   3.6705   4.1108   4.1108   4.7541

          k = 0.0000 0.1155 0.0000 ( 12953 PWs)   bands (ev):

   -59.5676 -33.8306 -33.5432 -33.5127 -14.5643 -12.1833  -5.8009  -3.6225
    -3.2732  -2.6067  -1.4084  -1.1661   0.0666   0.2898   0.5576   0.8126
     0.8377   1.3676   3.6046   4.0530   4.1518   4.4180

          k = 0.0000 0.1155-0.0871 ( 12970 PWs)   bands (ev):

   -59.5676 -33.8306 -33.5432 -33.5127 -14.5643 -12.1833  -5.8009  -3.6225
    -3.2732  -2.6067  -1.4084  -1.1661   0.0666   0.2898   0.5576   0.8126
     0.8377   1.3676   3.6048   4.0528   4.1518   4.4180

          k = 0.0000 0.2309 0.0000 ( 12929 PWs)   bands (ev):

   -59.5575 -33.8098 -33.6449 -33.5359 -14.2158 -11.9251  -5.4398  -4.5006
    -3.3684  -2.8330  -1.7519  -1.1167  -0.2598   0.3449   0.3478   0.8999
     1.0339   1.7009   3.3957   3.7986   3.9591   4.6369

          k = 0.0000 0.2309-0.0871 ( 12940 PWs)   bands (ev):

   -59.5575 -33.8098 -33.6449 -33.5359 -14.2158 -11.9251  -5.4398  -4.5006
    -3.3684  -2.8330  -1.7519  -1.1167  -0.2598   0.3449   0.3478   0.8999
     1.0339   1.7009   3.3957   3.7986   3.9591   4.6369

          k = 0.0000 0.3464 0.0000 ( 12915 PWs)   bands (ev):

   -59.5450 -33.7840 -33.7684 -33.5644 -13.7419 -11.5636  -5.5778  -4.9858
    -3.5396  -3.2786  -2.0119  -1.0881  -0.4360   0.1400   0.6106   0.9977
     1.3737   1.8928   3.0347   3.6495   4.1172   5.1079

          k = 0.0000 0.3464-0.0871 ( 12918 PWs)   bands (ev):

   -59.5450 -33.7840 -33.7684 -33.5644 -13.7419 -11.5636  -5.5778  -4.9858
    -3.5396  -3.2786  -2.0119  -1.0881  -0.4360   0.1400   0.6106   0.9977
     1.3737   1.8928   3.0347   3.6495   4.1172   5.1079

          k = 0.0000 0.4619 0.0000 ( 12872 PWs)   bands (ev):

   -59.5348 -33.8666 -33.7629 -33.5873 -13.3094 -11.2186  -6.3566  -4.8585
    -3.7014  -3.6102  -2.3548  -1.0763  -0.3811   0.3682   0.8673   1.1405
     1.6645   1.7613   3.2060   3.5096   4.4081   5.1269

          k = 0.0000 0.4619-0.0871 ( 12884 PWs)   bands (ev):

   -59.5348 -33.8666 -33.7629 -33.5873 -13.3094 -11.2186  -6.3566  -4.8585
    -3.7014  -3.6102  -2.3548  -1.0763  -0.3811   0.3682   0.8673   1.1405
     1.6645   1.7613   3.2060   3.5096   4.4081   5.1269

          k = 0.0000-0.5774 0.0000 ( 12854 PWs)   bands (ev):

   -59.5309 -33.9037 -33.7549 -33.5960 -13.1282 -11.0679  -6.6705  -4.8711
    -3.7660  -3.7056  -2.5245  -1.0751  -0.2943   0.6822   0.9870   1.1572
     1.4263   1.8896   3.4889   3.5413   4.3572   5.0876

          k = 0.0000-0.5774-0.0871 ( 12864 PWs)   bands (ev):

   -59.5309 -33.9037 -33.7549 -33.5960 -13.1282 -11.0679  -6.6705  -4.8711
    -3.7660  -3.7056  -2.5245  -1.0751  -0.2943   0.6822   0.9870   1.1572
     1.4263   1.8896   3.4889   3.5413   4.3572   5.0876

          k = 0.1000 0.1732 0.0000 ( 12937 PWs)   bands (ev):

   -59.5606 -33.8162 -33.6108 -33.5316 -14.3265 -12.0075  -5.5428  -4.2030
    -3.4004  -2.7152  -1.6833  -1.1527  -0.0593   0.0583   0.6362   0.8215
     0.9599   1.6569   3.5067   3.8717   3.9451   4.3166

          k = 0.1000 0.1732-0.0871 ( 12920 PWs)   bands (ev):

   -59.5606 -33.8162 -33.6108 -33.5316 -14.3265 -12.0075  -5.5428  -4.2030
    -3.4004  -2.7152  -1.6833  -1.1527  -0.0593   0.0583   0.6362   0.8215
     0.9599   1.6569   3.5067   3.8717   3.9451   4.3165

          k = 0.1000 0.2887 0.0000 ( 12944 PWs)   bands (ev):

   -59.5493 -33.7929 -33.7165 -33.5643 -13.9132 -11.6941  -5.2595  -4.9624
    -3.6573  -3.0714  -1.9178  -1.1262  -0.3916   0.1620   0.5960   0.8010
     1.2555   2.0197   3.2118   3.5694   3.8785   4.6937

          k = 0.1000 0.2887-0.0871 ( 12926 PWs)   bands (ev):

   -59.5493 -33.7929 -33.7165 -33.5643 -13.9132 -11.6941  -5.2595  -4.9624
    -3.6573  -3.0714  -1.9178  -1.1262  -0.3916   0.1620   0.5960   0.8010
     1.2555   2.0197   3.2118   3.5694   3.8785   4.6936

          k = 0.1000 0.4041 0.0000 ( 12898 PWs)   bands (ev):

   -59.5379 -33.8201 -33.7694 -33.5973 -13.4529 -11.3300  -5.9688  -4.8222
    -3.9603  -3.4482  -2.1048  -1.1978  -0.5071   0.2503   0.8144   0.9828
     1.4566   2.1076   3.0337   3.5672   4.2379   4.8821

          k = 0.1000 0.4041-0.0871 ( 12884 PWs)   bands (ev):

   -59.5379 -33.8200 -33.7694 -33.5972 -13.4529 -11.3300  -5.9688  -4.8222
    -3.9603  -3.4482  -2.1048  -1.1978  -0.5071   0.2503   0.8144   0.9828
     1.4567   2.1076   3.0337   3.5672   4.2379   4.8821

          k = 0.1000 0.5196 0.0000 ( 12858 PWs)   bands (ev):

   -59.5309 -33.8832 -33.7549 -33.6175 -13.1355 -11.0662  -6.5042  -4.7966
    -4.1867  -3.5431  -2.3586  -1.2769  -0.3792   0.4963   1.0571   1.1695
     1.3691   2.0387   3.2363   3.7244   4.5233   4.6675

          k = 0.1000 0.5196-0.0871 ( 12862 PWs)   bands (ev):

   -59.5309 -33.8832 -33.7549 -33.6175 -13.1355 -11.0662  -6.5042  -4.7966
    -4.1867  -3.5431  -2.3586  -1.2769  -0.3792   0.4963   1.0571   1.1695
     1.3691   2.0387   3.2363   3.7244   4.5233   4.6675

          k = 0.2000 0.3464 0.0000 ( 12917 PWs)   bands (ev):

   -59.5391 -33.7893 -33.7719 -33.6144 -13.5081 -11.3696  -5.6994  -4.7822
    -4.2024  -3.4050  -2.0205  -1.1416  -0.7206   0.3268   0.6553   0.9161
     1.3880   2.4041   2.9967   3.6027   3.8384   4.8394

          k = 0.2000 0.3464-0.0871 ( 12918 PWs)   bands (ev):

   -59.5391 -33.7893 -33.7719 -33.6144 -13.5081 -11.3696  -5.6994  -4.7822
    -4.2024  -3.4050  -2.0205  -1.1416  -0.7206   0.3268   0.6553   0.9161
     1.3880   2.4041   2.9967   3.6027   3.8384   4.8394

          k = 0.2000 0.4619 0.0000 ( 12869 PWs)   bands (ev):

   -59.5309 -33.8400 -33.7550 -33.6623 -13.1473 -11.0630  -6.1463  -4.8152
    -4.5126  -3.5436  -2.1968  -1.4499  -0.5616   0.3660   0.8962   1.1250
     1.3788   2.3949   3.0193   3.6844   4.1367   4.9578

          k = 0.2000 0.4619-0.0871 ( 12868 PWs)   bands (ev):

   -59.5309 -33.8400 -33.7550 -33.6623 -13.1473 -11.0630  -6.1463  -4.8152
    -4.5126  -3.5436  -2.1968  -1.4499  -0.5616   0.3660   0.8962   1.1250
     1.3788   2.3949   3.0193   3.6844   4.1367   4.9578

          k = 0.2000 0.5774 0.0000 ( 12850 PWs)   bands (ev):

   -59.5278 -33.8578 -33.7485 -33.6821 -12.9994 -10.9318  -6.3236  -5.0034
    -4.5066  -3.5209  -2.3520  -1.5933  -0.3808   0.4635   0.8030   1.2472
     1.5718   2.2566   3.0417   3.6729   4.3149   5.0451

          k = 0.2000 0.5774-0.0871 ( 12850 PWs)   bands (ev):

   -59.5278 -33.8578 -33.7485 -33.6821 -12.9994 -10.9318  -6.3236  -5.0034
    -4.5066  -3.5209  -2.3520  -1.5933  -0.3808   0.4635   0.8030   1.2472
     1.5718   2.2566   3.0417   3.6729   4.3149   5.0451

          k = 0.3000 0.5196 0.0000 ( 12860 PWs)   bands (ev):

   -59.5266 -33.8219 -33.7460 -33.7332 -12.9487 -10.8782  -6.0341  -5.4580
    -4.3838  -3.5573  -2.4641  -1.6654  -0.2645   0.3746   0.6305   1.2790
     1.7316   2.3241   2.8641   3.4164   4.4151   5.5553

          k = 0.3000 0.5196-0.0871 ( 12870 PWs)   bands (ev):

   -59.5266 -33.8219 -33.7460 -33.7332 -12.9487 -10.8782  -6.0341  -5.4580
    -4.3838  -3.5573  -2.4641  -1.6654  -0.2645   0.3746   0.6305   1.2790
     1.7316   2.3241   2.8641   3.4164   4.4151   5.5553

 ------ SPIN DOWN ----------


          k = 0.0000 0.0000 0.0000 ( 12991 PWs)   bands (ev):

   -59.5715 -33.8385 -33.5039 -33.5039 -14.6909 -12.2758  -5.9473  -3.2509
    -3.2509  -2.5679  -1.1986  -1.1986   0.4205   0.4205   0.5681   0.6401
     0.6401   1.1887   3.6709   4.1109   4.1110   4.7547

          k = 0.0000 0.0000-0.0871 ( 12974 PWs)   bands (ev):

   -59.5715 -33.8385 -33.5039 -33.5039 -14.6909 -12.2758  -5.9473  -3.2509
    -3.2509  -2.5679  -1.1986  -1.1986   0.4205   0.4205   0.5681   0.6401
     0.6401   1.1887   3.6709   4.1109   4.1110   4.7547

          k = 0.0000 0.1155 0.0000 ( 12953 PWs)   bands (ev):

   -59.5676 -33.8305 -33.5432 -33.5128 -14.5642 -12.1833  -5.8008  -3.6222
    -3.2728  -2.6066  -1.4082  -1.1660   0.0675   0.2907   0.5583   0.8136
     0.8382   1.3688   3.6049   4.0533   4.1520   4.4187

          k = 0.0000 0.1155-0.0871 ( 12970 PWs)   bands (ev):

   -59.5676 -33.8305 -33.5432 -33.5128 -14.5642 -12.1833  -5.8008  -3.6222
    -3.2728  -2.6066  -1.4083  -1.1660   0.0675   0.2907   0.5583   0.8136
     0.8382   1.3688   3.6050   4.0531   4.1519   4.4186

          k = 0.0000 0.2309 0.0000 ( 12929 PWs)   bands (ev):

   -59.5575 -33.8097 -33.6449 -33.5359 -14.2157 -11.9251  -5.4397  -4.5004
    -3.3681  -2.8330  -1.7518  -1.1167  -0.2589   0.3460   0.3483   0.9007
     1.0349   1.7020   3.3963   3.7988   3.9594   4.6374

          k = 0.0000 0.2309-0.0871 ( 12940 PWs)   bands (ev):

   -59.5575 -33.8097 -33.6449 -33.5359 -14.2157 -11.9251  -5.4397  -4.5004
    -3.3681  -2.8330  -1.7518  -1.1167  -0.2589   0.3460   0.3483   0.9007
     1.0349   1.7020   3.3963   3.7988   3.9594   4.6374

          k = 0.0000 0.3464 0.0000 ( 12915 PWs)   bands (ev):

   -59.5449 -33.7839 -33.7684 -33.5644 -13.7418 -11.5636  -5.5777  -4.9857
    -3.5393  -3.2785  -2.0117  -1.0880  -0.4355   0.1408   0.6119   0.9987
     1.3746   1.8940   3.0352   3.6499   4.1174   5.1082

          k = 0.0000 0.3464-0.0871 ( 12918 PWs)   bands (ev):

   -59.5449 -33.7839 -33.7684 -33.5644 -13.7418 -11.5636  -5.5777  -4.9857
    -3.5393  -3.2785  -2.0117  -1.0880  -0.4355   0.1408   0.6119   0.9987
     1.3746   1.8940   3.0352   3.6499   4.1173   5.1082

          k = 0.0000 0.4619 0.0000 ( 12872 PWs)   bands (ev):

   -59.5348 -33.8666 -33.7628 -33.5873 -13.3093 -11.2186  -6.3565  -4.8584
    -3.7012  -3.6102  -2.3546  -1.0761  -0.3808   0.3694   0.8687   1.1416
     1.6657   1.7624   3.2063   3.5098   4.4083   5.1271

          k = 0.0000 0.4619-0.0871 ( 12884 PWs)   bands (ev):

   -59.5348 -33.8666 -33.7628 -33.5873 -13.3093 -11.2186  -6.3565  -4.8584
    -3.7012  -3.6102  -2.3546  -1.0761  -0.3808   0.3694   0.8687   1.1416
     1.6657   1.7624   3.2063   3.5098   4.4083   5.1271

          k = 0.0000-0.5774 0.0000 ( 12854 PWs)   bands (ev):

   -59.5309 -33.9037 -33.7548 -33.5960 -13.1282 -11.0679  -6.6704  -4.8710
    -3.7657  -3.7056  -2.5243  -1.0749  -0.2941   0.6836   0.9885   1.1586
     1.4271   1.8908   3.4891   3.5414   4.3574   5.0878

          k = 0.0000-0.5774-0.0871 ( 12864 PWs)   bands (ev):

   -59.5309 -33.9037 -33.7548 -33.5960 -13.1282 -11.0679  -6.6704  -4.8710
    -3.7657  -3.7056  -2.5243  -1.0749  -0.2941   0.6836   0.9885   1.1586
     1.4271   1.8908   3.4891   3.5414   4.3574   5.0878

          k = 0.1000 0.1732 0.0000 ( 12937 PWs)   bands (ev):

   -59.5606 -33.8161 -33.6108 -33.5316 -14.3264 -12.0075  -5.5427  -4.2027
    -3.4000  -2.7151  -1.6833  -1.1526  -0.0585   0.0592   0.6372   0.8221
     0.9609   1.6580   3.5069   3.8720   3.9458   4.3169

          k = 0.1000 0.1732-0.0871 ( 12920 PWs)   bands (ev):

   -59.5606 -33.8161 -33.6108 -33.5316 -14.3264 -12.0075  -5.5427  -4.2027
    -3.4000  -2.7151  -1.6833  -1.1526  -0.0585   0.0592   0.6372   0.8221
     0.9609   1.6580   3.5069   3.8720   3.9458   4.3167

          k = 0.1000 0.2887 0.0000 ( 12944 PWs)   bands (ev):

   -59.5493 -33.7928 -33.7165 -33.5644 -13.9131 -11.6941  -5.2594  -4.9622
    -3.6570  -3.0713  -1.9177  -1.1260  -0.3910   0.1630   0.5971   0.8018
     1.2566   2.0208   3.2124   3.5698   3.8788   4.6939

          k = 0.1000 0.2887-0.0871 ( 12926 PWs)   bands (ev):

   -59.5493 -33.7928 -33.7165 -33.5644 -13.9131 -11.6941  -5.2594  -4.9622
    -3.6570  -3.0713  -1.9177  -1.1260  -0.3910   0.1630   0.5971   0.8018
     1.2566   2.0208   3.2124   3.5698   3.8788   4.6939

          k = 0.1000 0.4041 0.0000 ( 12898 PWs)   bands (ev):

   -59.5379 -33.8201 -33.7693 -33.5973 -13.4528 -11.3300  -5.9687  -4.8221
    -3.9600  -3.4482  -2.1047  -1.1976  -0.5068   0.2514   0.8156   0.9838
     1.4579   2.1088   3.0342   3.5675   4.2382   4.8823

          k = 0.1000 0.4041-0.0871 ( 12884 PWs)   bands (ev):

   -59.5379 -33.8201 -33.7693 -33.5973 -13.4528 -11.3300  -5.9687  -4.8221
    -3.9600  -3.4482  -2.1047  -1.1976  -0.5068   0.2514   0.8156   0.9838
     1.4579   2.1088   3.0342   3.5675   4.2382   4.8823

          k = 0.1000 0.5196 0.0000 ( 12858 PWs)   bands (ev):

   -59.5309 -33.8832 -33.7548 -33.6175 -13.1355 -11.0662  -6.5041  -4.7965
    -4.1866  -3.5430  -2.3584  -1.2767  -0.3788   0.4976   1.0584   1.1708
     1.3702   2.0399   3.2365   3.7246   4.5235   4.6677

          k = 0.1000 0.5196-0.0871 ( 12862 PWs)   bands (ev):

   -59.5309 -33.8832 -33.7548 -33.6175 -13.1355 -11.0662  -6.5041  -4.7965
    -4.1866  -3.5430  -2.3584  -1.2767  -0.3788   0.4976   1.0584   1.1708
     1.3702   2.0399   3.2365   3.7246   4.5235   4.6677

          k = 0.2000 0.3464 0.0000 ( 12917 PWs)   bands (ev):

   -59.5391 -33.7893 -33.7718 -33.6144 -13.5080 -11.3696  -5.6993  -4.7820
    -4.2022  -3.4050  -2.0204  -1.1414  -0.7201   0.3280   0.6559   0.9174
     1.3894   2.4053   2.9973   3.6030   3.8385   4.8396

          k = 0.2000 0.3464-0.0871 ( 12918 PWs)   bands (ev):

   -59.5391 -33.7893 -33.7718 -33.6144 -13.5080 -11.3696  -5.6993  -4.7820
    -4.2022  -3.4050  -2.0204  -1.1414  -0.7201   0.3280   0.6559   0.9174
     1.3894   2.4053   2.9973   3.6030   3.8385   4.8395

          k = 0.2000 0.4619 0.0000 ( 12869 PWs)   bands (ev):

   -59.5309 -33.8400 -33.7549 -33.6623 -13.1472 -11.0630  -6.1462  -4.8151
    -4.5124  -3.5436  -2.1968  -1.4498  -0.5609   0.3672   0.8969   1.1264
     1.3802   2.3962   3.0197   3.6846   4.1368   4.9580

          k = 0.2000 0.4619-0.0871 ( 12868 PWs)   bands (ev):

   -59.5309 -33.8400 -33.7549 -33.6623 -13.1472 -11.0630  -6.1462  -4.8151
    -4.5124  -3.5436  -2.1968  -1.4498  -0.5609   0.3672   0.8969   1.1264
     1.3802   2.3962   3.0197   3.6846   4.1368   4.9580

          k = 0.2000 0.5774 0.0000 ( 12850 PWs)   bands (ev):

   -59.5277 -33.8578 -33.7484 -33.6821 -12.9993 -10.9318  -6.3235  -5.0033
    -4.5065  -3.5209  -2.3520  -1.5932  -0.3801   0.4647   0.8041   1.2481
     1.5733   2.2579   3.0419   3.6732   4.3150   5.0453

          k = 0.2000 0.5774-0.0871 ( 12850 PWs)   bands (ev):

   -59.5277 -33.8578 -33.7484 -33.6821 -12.9993 -10.9318  -6.3235  -5.0033
    -4.5065  -3.5209  -2.3520  -1.5932  -0.3801   0.4647   0.8041   1.2481
     1.5733   2.2580   3.0419   3.6732   4.3150   5.0453

          k = 0.3000 0.5196 0.0000 ( 12860 PWs)   bands (ev):

   -59.5265 -33.8219 -33.7459 -33.7332 -12.9486 -10.8782  -6.0341  -5.4578
    -4.3836  -3.5573  -2.4641  -1.6653  -0.2634   0.3755   0.6317   1.2798
     1.7332   2.3255   2.8643   3.4165   4.4153   5.5554

          k = 0.3000 0.5196-0.0871 ( 12870 PWs)   bands (ev):

   -59.5265 -33.8219 -33.7459 -33.7332 -12.9487 -10.8782  -6.0341  -5.4578
    -4.3836  -3.5573  -2.4641  -1.6653  -0.2634   0.3755   0.6317   1.2798
     1.7332   2.3255   2.8643   3.4165   4.4153   5.5554

     the Fermi energy is     2.0462 ev

!    total energy              =    -658.59272756 Ry
     total all-electron energy =    -12481.766618 Ry
     estimated scf accuracy    <       0.00000039 Ry
     smearing contrib. (-TS)   =      -0.00534731 Ry
     internal energy E=F+TS    =    -658.58738024 Ry

     The total energy is F=E-TS. E is the sum of the following terms:
     one-electron contribution =   -1460.07808485 Ry
     hartree contribution      =     743.53129509 Ry
     xc contribution           =     -62.71437790 Ry
     ewald contribution        =     526.82629572 Ry
     one-center paw contrib.   =    -406.15250830 Ry

     total magnetization       =     0.00 Bohr mag/cell
     absolute magnetization    =     0.00 Bohr mag/cell

     convergence has been achieved in   8 iterations

     negative rho (up, down):  2.626E-04 2.626E-04

     Forces acting on atoms (cartesian axes, Ry/au):

     atom    1 type  1   force =     0.00000000    0.00000000   -0.01879305
     atom    2 type  2   force =     0.00000000    0.00000000    0.03305972
     atom    3 type  2   force =     0.00000000    0.00000000   -0.01054161
     atom    4 type  3   force =     0.00000000    0.00000000   -0.00372505
     The non-local contrib.  to forces
     atom    1 type  1   force =     0.00000000    0.00000000   -0.03688877
     atom    2 type  2   force =     0.00000000    0.00000000   -0.03282075
     atom    3 type  2   force =     0.00000000    0.00000000    0.26126828
     atom    4 type  3   force =     0.00000000    0.00000000   -0.03536469
     The ionic contribution  to forces
     atom    1 type  1   force =     0.00000000   -0.00000000  -36.24743551
     atom    2 type  2   force =    -0.00000000    0.00000000   21.03562423
     atom    3 type  2   force =    -0.00000000    0.00000000  -47.16448391
     atom    4 type  3   force =     0.00000000   -0.00000000   62.37629519
     The local contribution  to forces
     atom    1 type  1   force =    -0.00000000    0.00000000   36.26230558
     atom    2 type  2   force =    -0.00000000    0.00000000  -20.96985726
     atom    3 type  2   force =    -0.00000000    0.00000000   46.89485952
     atom    4 type  3   force =     0.00000000   -0.00000000  -62.30466755
     The core correction contribution to forces
     atom    1 type  1   force =     0.00000000    0.00000000    0.00440887
     atom    2 type  2   force =     0.00000000   -0.00000000    0.00134629
     atom    3 type  2   force =     0.00000000   -0.00000000   -0.00188245
     atom    4 type  3   force =     0.00000000   -0.00000000   -0.03862911
     The Hubbard contrib.    to forces
     atom    1 type  1   force =     0.00000000    0.00000000    0.00000000
     atom    2 type  2   force =     0.00000000    0.00000000    0.00000000
     atom    3 type  2   force =     0.00000000    0.00000000    0.00000000
     atom    4 type  3   force =     0.00000000    0.00000000    0.00000000
     The SCF correction term to forces
     atom    1 type  1   force =     0.00000000    0.00000000   -0.00126540
     atom    2 type  2   force =     0.00000000   -0.00000000   -0.00131496
     atom    3 type  2   force =    -0.00000000    0.00000000   -0.00038524
     atom    4 type  3   force =    -0.00000000   -0.00000000   -0.00144106

     Total force =     0.039637     Total SCF correction =     0.002357


     Computing stress (Cartesian axis) and pressure


     negative rho (up, down):  2.626E-04 2.626E-04
          total   stress  (Ry/bohr**3)                   (kbar)     P=       32.20
   0.00027273   0.00000000   0.00000000           40.12        0.00        0.00
   0.00000000   0.00027273   0.00000000            0.00       40.12        0.00
   0.00000000   0.00000000   0.00011116            0.00        0.00       16.35

     Energy error            =      1.6E-03 Ry
     Gradient error          =      3.3E-02 Ry/Bohr

     number of scf cycles    =  18
     number of bfgs steps    =  17

     energy             old  =    -658.5910971906 Ry
     energy             new  =    -658.5927275577 Ry

     CASE: energy            _new < energy            _old

     new trust radius        =       0.0717965636 bohr
     new conv_thr            =       0.0000001630 Ry


ATOMIC_POSITIONS (crystal)
Mo            0.0000000000        0.0000000000        0.5115376817
S             0.6666666667        0.3333333333        0.6033369443
S             0.6666666667        0.3333333333        0.4271801872
Co            0.3333333333        0.6666666667        0.6555812505



     Writing config-only to output data dir ./tmp/relax.save/
     NEW-OLD atomic charge density approx. for the potential

     negative rho (up, down):  2.617E-04 2.617E-04
     Generating pointlists ...

     total cpu time spent up to now is      542.4 secs

     Self-consistent Calculation

     iteration #  1     ecut=    80.00 Ry     beta= 0.70
     Davidson diagonalization with overlap
     ethr =  1.00E-06,  avg # of iterations =  9.7

     negative rho (up, down):  2.660E-04 2.660E-04

     total cpu time spent up to now is      546.3 secs

     total energy              =    -658.59385001 Ry
     estimated scf accuracy    <       0.00175216 Ry

     total magnetization       =     0.00 Bohr mag/cell
     absolute magnetization    =     0.00 Bohr mag/cell

     iteration #  2     ecut=    80.00 Ry     beta= 0.70
     Davidson diagonalization with overlap
     ethr =  5.01E-06,  avg # of iterations =  3.9

     negative rho (up, down):  2.670E-04 2.670E-04

     total cpu time spent up to now is      548.5 secs

     total energy              =    -658.59190493 Ry
     estimated scf accuracy    <       0.02503185 Ry

     total magnetization       =     0.00 Bohr mag/cell
     absolute magnetization    =     0.00 Bohr mag/cell

     iteration #  3     ecut=    80.00 Ry     beta= 0.70
     Davidson diagonalization with overlap
     ethr =  5.01E-06,  avg # of iterations =  3.8

     negative rho (up, down):  2.677E-04 2.677E-04

     total cpu time spent up to now is      550.6 secs

     total energy              =    -658.59479878 Ry
     estimated scf accuracy    <       0.00036324 Ry

     total magnetization       =     0.00 Bohr mag/cell
     absolute magnetization    =     0.00 Bohr mag/cell

     iteration #  4     ecut=    80.00 Ry     beta= 0.70
     Davidson diagonalization with overlap
     ethr =  1.04E-06,  avg # of iterations =  3.7

     negative rho (up, down):  2.678E-04 2.678E-04

     total cpu time spent up to now is      552.6 secs

     total energy              =    -658.59472479 Ry
     estimated scf accuracy    <       0.00235570 Ry

     total magnetization       =     0.00 Bohr mag/cell
     absolute magnetization    =     0.00 Bohr mag/cell

     iteration #  5     ecut=    80.00 Ry     beta= 0.70
     Davidson diagonalization with overlap
     ethr =  1.04E-06,  avg # of iterations =  2.9

     negative rho (up, down):  2.680E-04 2.680E-04

     total cpu time spent up to now is      554.5 secs

     total energy              =    -658.59488674 Ry
     estimated scf accuracy    <       0.00051379 Ry

     total magnetization       =     0.00 Bohr mag/cell
     absolute magnetization    =     0.00 Bohr mag/cell

     iteration #  6     ecut=    80.00 Ry     beta= 0.70
     Davidson diagonalization with overlap
     ethr =  1.04E-06,  avg # of iterations =  1.4

     negative rho (up, down):  2.684E-04 2.683E-04

     total cpu time spent up to now is      556.2 secs

     total energy              =    -658.59491781 Ry
     estimated scf accuracy    <       0.00000702 Ry

     total magnetization       =     0.00 Bohr mag/cell
     absolute magnetization    =     0.00 Bohr mag/cell

     iteration #  7     ecut=    80.00 Ry     beta= 0.70
     Davidson diagonalization with overlap
     ethr =  2.01E-08,  avg # of iterations =  4.6

     negative rho (up, down):  2.684E-04 2.684E-04

     total cpu time spent up to now is      558.3 secs

     total energy              =    -658.59492023 Ry
     estimated scf accuracy    <       0.00000740 Ry

     total magnetization       =     0.00 Bohr mag/cell
     absolute magnetization    =     0.00 Bohr mag/cell

     iteration #  8     ecut=    80.00 Ry     beta= 0.70
     Davidson diagonalization with overlap
     ethr =  2.01E-08,  avg # of iterations =  2.1

     negative rho (up, down):  2.685E-04 2.684E-04

     total cpu time spent up to now is      560.1 secs

     total energy              =    -658.59492126 Ry
     estimated scf accuracy    <       0.00000017 Ry

     total magnetization       =     0.00 Bohr mag/cell
     absolute magnetization    =     0.00 Bohr mag/cell

     iteration #  9     ecut=    80.00 Ry     beta= 0.70
     Davidson diagonalization with overlap
     ethr =  5.00E-10,  avg # of iterations =  5.2

     negative rho (up, down):  2.685E-04 2.684E-04
 
     Magnetic moment per site  (integrated on atomic sphere of radius R)
     atom   1 (R=0.313)  charge= 10.7814  magn=  0.0000
     atom   2 (R=0.270)  charge=  3.2560  magn=  0.0000
     atom   3 (R=0.270)  charge=  3.1243  magn=  0.0000
     atom   4 (R=0.270)  charge=  6.8547  magn=  0.0006

     total cpu time spent up to now is      562.4 secs

     End of self-consistent calculation

 ------ SPIN UP ------------


          k = 0.0000 0.0000 0.0000 ( 12991 PWs)   bands (ev):

   -59.5434 -33.7969 -33.4657 -33.4657 -14.6205 -12.2734  -5.8496  -3.1740
    -3.1740  -2.6844  -1.1536  -1.1536   0.4472   0.4472   0.6459   0.6840
     0.6840   1.1647   3.6570   4.1804   4.1804   4.6822

          k = 0.0000 0.0000-0.0871 ( 12974 PWs)   bands (ev):

   -59.5434 -33.7968 -33.4657 -33.4657 -14.6205 -12.2734  -5.8496  -3.1740
    -3.1740  -2.6844  -1.1536  -1.1536   0.4472   0.4472   0.6459   0.6840
     0.6840   1.1647   3.6571   4.1804   4.1804   4.6822

          k = 0.0000 0.1155 0.0000 ( 12953 PWs)   bands (ev):

   -59.5395 -33.7892 -33.5043 -33.4745 -14.4941 -12.1783  -5.7039  -3.5366
    -3.1935  -2.6904  -1.3829  -1.1142   0.0928   0.3131   0.5880   0.8452
     0.8914   1.3400   3.6599   4.0575   4.2117   4.3371

          k = 0.0000 0.1155-0.0871 ( 12970 PWs)   bands (ev):

   -59.5395 -33.7892 -33.5043 -33.4745 -14.4941 -12.1783  -5.7039  -3.5366
    -3.1935  -2.6904  -1.3829  -1.1142   0.0928   0.3131   0.5880   0.8452
     0.8914   1.3400   3.6600   4.0573   4.2117   4.3370

          k = 0.0000 0.2309 0.0000 ( 12929 PWs)   bands (ev):

   -59.5296 -33.7691 -33.6040 -33.4973 -14.1452 -11.9133  -5.3381  -4.4128
    -3.2771  -2.8474  -1.7634  -1.0687  -0.2620   0.3393   0.4012   0.8893
     1.0750   1.6669   3.3597   3.8303   3.9733   4.6058

          k = 0.0000 0.2309-0.0871 ( 12940 PWs)   bands (ev):

   -59.5296 -33.7691 -33.6040 -33.4973 -14.1452 -11.9133  -5.3381  -4.4128
    -3.2771  -2.8474  -1.7634  -1.0687  -0.2620   0.3393   0.4012   0.8893
     1.0750   1.6669   3.3598   3.8303   3.9733   4.6058

          k = 0.0000 0.3464 0.0000 ( 12915 PWs)   bands (ev):

   -59.5172 -33.7442 -33.7250 -33.5254 -13.6670 -11.5440  -5.4582  -4.9238
    -3.4300  -3.2658  -2.0205  -1.0704  -0.3996   0.1375   0.5734   0.9627
     1.4477   1.8566   2.9407   3.6516   4.1426   5.0560

          k = 0.0000 0.3464-0.0871 ( 12918 PWs)   bands (ev):

   -59.5172 -33.7442 -33.7250 -33.5254 -13.6670 -11.5440  -5.4582  -4.9238
    -3.4300  -3.2658  -2.0205  -1.0704  -0.3996   0.1375   0.5734   0.9627
     1.4477   1.8566   2.9407   3.6516   4.1426   5.0560

          k = 0.0000 0.4619 0.0000 ( 12872 PWs)   bands (ev):

   -59.5071 -33.8215 -33.7237 -33.5479 -13.2260 -11.1938  -6.2679  -4.7871
    -3.5837  -3.5781  -2.3467  -1.0862  -0.3157   0.3095   0.8173   1.0919
     1.6145   1.8433   3.1193   3.5268   4.3804   5.0493

          k = 0.0000 0.4619-0.0871 ( 12884 PWs)   bands (ev):

   -59.5072 -33.8215 -33.7237 -33.5479 -13.2260 -11.1938  -6.2679  -4.7871
    -3.5837  -3.5781  -2.3467  -1.0862  -0.3157   0.3095   0.8173   1.0919
     1.6145   1.8433   3.1193   3.5268   4.3804   5.0493

          k = 0.0000-0.5774 0.0000 ( 12854 PWs)   bands (ev):

   -59.5033 -33.8579 -33.7160 -33.5565 -13.0397 -11.0415  -6.5921  -4.8069
    -3.6621  -3.6380  -2.5149  -1.0947  -0.2289   0.6177   0.9348   1.0914
     1.3635   1.9614   3.4156   3.5806   4.2930   4.9940

          k = 0.0000-0.5774-0.0871 ( 12864 PWs)   bands (ev):

   -59.5033 -33.8579 -33.7160 -33.5565 -13.0397 -11.0415  -6.5921  -4.8069
    -3.6621  -3.6380  -2.5149  -1.0947  -0.2289   0.6177   0.9348   1.0914
     1.3635   1.9614   3.4156   3.5806   4.2930   4.9940

          k = 0.1000 0.1732 0.0000 ( 12937 PWs)   bands (ev):

   -59.5327 -33.7753 -33.5706 -33.4931 -14.2562 -11.9978  -5.4446  -4.1132
    -3.3101  -2.7508  -1.6755  -1.1109  -0.0456   0.0652   0.6374   0.8658
     0.9850   1.6253   3.6046   3.8188   3.8930   4.3204

          k = 0.1000 0.1732-0.0871 ( 12920 PWs)   bands (ev):

   -59.5326 -33.7753 -33.5706 -33.4931 -14.2562 -11.9978  -5.4446  -4.1132
    -3.3101  -2.7508  -1.6755  -1.1109  -0.0456   0.0652   0.6374   0.8658
     0.9850   1.6253   3.6046   3.8188   3.8931   4.3203

          k = 0.1000 0.2887 0.0000 ( 12944 PWs)   bands (ev):

   -59.5215 -33.7527 -33.6742 -33.5253 -13.8405 -11.6774  -5.1064  -4.9291
    -3.5520  -3.0623  -1.9207  -1.1120  -0.3695   0.1518   0.5775   0.8007
     1.2902   1.9871   3.1370   3.5768   3.9099   4.6742

          k = 0.1000 0.2887-0.0871 ( 12926 PWs)   bands (ev):

   -59.5215 -33.7527 -33.6742 -33.5253 -13.8405 -11.6774  -5.1064  -4.9291
    -3.5520  -3.0623  -1.9207  -1.1120  -0.3695   0.1518   0.5775   0.8007
     1.2902   1.9871   3.1370   3.5768   3.9099   4.6741

          k = 0.1000 0.4041 0.0000 ( 12898 PWs)   bands (ev):

   -59.5103 -33.7758 -33.7300 -33.5577 -13.3732 -11.3072  -5.8673  -4.7479
    -3.8429  -3.4321  -2.0973  -1.2059  -0.4599   0.2126   0.7731   0.9592
     1.4683   2.0941   2.9462   3.5740   4.2616   4.8173

          k = 0.1000 0.4041-0.0871 ( 12884 PWs)   bands (ev):

   -59.5103 -33.7758 -33.7300 -33.5577 -13.3732 -11.3072  -5.8673  -4.7479
    -3.8429  -3.4321  -2.0973  -1.2059  -0.4599   0.2126   0.7731   0.9592
     1.4683   2.0941   2.9462   3.5740   4.2616   4.8173

          k = 0.1000 0.5196 0.0000 ( 12858 PWs)   bands (ev):

   -59.5033 -33.8377 -33.7160 -33.5776 -13.0479 -11.0406  -6.4207  -4.7300
    -4.0494  -3.5249  -2.3382  -1.2985  -0.3334   0.4437   1.0048   1.1223
     1.3398   2.0593   3.1773   3.7320   4.4901   4.6027

          k = 0.1000 0.5196-0.0871 ( 12862 PWs)   bands (ev):

   -59.5033 -33.8377 -33.7160 -33.5776 -13.0479 -11.0406  -6.4207  -4.7300
    -4.0494  -3.5249  -2.3382  -1.2985  -0.3334   0.4437   1.0048   1.1223
     1.3398   2.0593   3.1773   3.7320   4.4901   4.6027

          k = 0.2000 0.3464 0.0000 ( 12917 PWs)   bands (ev):

   -59.5114 -33.7457 -33.7323 -33.5745 -13.4298 -11.3480  -5.5874  -4.7060
    -4.0921  -3.3899  -2.0110  -1.1552  -0.6930   0.2913   0.6579   0.8802
     1.3846   2.3640   2.9157   3.6007   3.8850   4.7992

          k = 0.2000 0.3464-0.0871 ( 12918 PWs)   bands (ev):

   -59.5114 -33.7457 -33.7323 -33.5745 -13.4298 -11.3480  -5.5874  -4.7060
    -4.0921  -3.3899  -2.0110  -1.1552  -0.6930   0.2913   0.6579   0.8802
     1.3846   2.3640   2.9157   3.6007   3.8850   4.7991

          k = 0.2000 0.4619 0.0000 ( 12869 PWs)   bands (ev):

   -59.5033 -33.7953 -33.7160 -33.6217 -13.0610 -11.0390  -6.0501  -4.7007
    -4.4241  -3.5347  -2.1776  -1.4623  -0.5559   0.3297   0.9026   1.0697
     1.3364   2.3660   2.9405   3.6874   4.1615   4.9044

          k = 0.2000 0.4619-0.0871 ( 12868 PWs)   bands (ev):

   -59.5033 -33.7953 -33.7160 -33.6217 -13.0610 -11.0390  -6.0501  -4.7007
    -4.4241  -3.5347  -2.1776  -1.4623  -0.5559   0.3297   0.9026   1.0697
     1.3364   2.3660   2.9405   3.6874   4.1615   4.9044

          k = 0.2000 0.5774 0.0000 ( 12850 PWs)   bands (ev):

   -59.5002 -33.8127 -33.7098 -33.6411 -12.9089 -10.9073  -6.2338  -4.8928
    -4.4084  -3.5160  -2.3271  -1.6067  -0.3875   0.4247   0.7595   1.2227
     1.5262   2.2342   3.0430   3.6254   4.2581   5.0214

          k = 0.2000 0.5774-0.0871 ( 12850 PWs)   bands (ev):

   -59.5002 -33.8127 -33.7098 -33.6411 -12.9089 -10.9073  -6.2338  -4.8928
    -4.4084  -3.5160  -2.3271  -1.6067  -0.3875   0.4247   0.7595   1.2227
     1.5262   2.2342   3.0430   3.6254   4.2581   5.0214

          k = 0.3000 0.5196 0.0000 ( 12860 PWs)   bands (ev):

   -59.4990 -33.7771 -33.7074 -33.6917 -12.8574 -10.8544  -5.9307  -5.3471
    -4.3005  -3.5442  -2.4577  -1.6565  -0.3065   0.3411   0.5916   1.2612
     1.6839   2.2777   2.8969   3.4014   4.3071   5.5449

          k = 0.3000 0.5196-0.0871 ( 12870 PWs)   bands (ev):

   -59.4990 -33.7771 -33.7074 -33.6917 -12.8574 -10.8544  -5.9307  -5.3471
    -4.3005  -3.5442  -2.4577  -1.6565  -0.3065   0.3411   0.5916   1.2612
     1.6839   2.2777   2.8969   3.4014   4.3071   5.5449

 ------ SPIN DOWN ----------


          k = 0.0000 0.0000 0.0000 ( 12991 PWs)   bands (ev):

   -59.5433 -33.7968 -33.4657 -33.4657 -14.6204 -12.2734  -5.8495  -3.1738
    -3.1738  -2.6844  -1.1536  -1.1536   0.4478   0.4478   0.6460   0.6843
     0.6843   1.1651   3.6572   4.1804   4.1804   4.6825

          k = 0.0000 0.0000-0.0871 ( 12974 PWs)   bands (ev):

   -59.5433 -33.7968 -33.4657 -33.4657 -14.6204 -12.2734  -5.8495  -3.1738
    -3.1738  -2.6844  -1.1536  -1.1536   0.4478   0.4478   0.6460   0.6843
     0.6843   1.1651   3.6572   4.1804   4.1804   4.6825

          k = 0.0000 0.1155 0.0000 ( 12953 PWs)   bands (ev):

   -59.5395 -33.7891 -33.5042 -33.4745 -14.4941 -12.1783  -5.7038  -3.5365
    -3.1933  -2.6904  -1.3828  -1.1142   0.0932   0.3136   0.5884   0.8456
     0.8916   1.3405   3.6600   4.0576   4.2118   4.3374

          k = 0.0000 0.1155-0.0871 ( 12970 PWs)   bands (ev):

   -59.5395 -33.7891 -33.5042 -33.4745 -14.4941 -12.1783  -5.7038  -3.5365
    -3.1933  -2.6904  -1.3828  -1.1142   0.0932   0.3136   0.5884   0.8456
     0.8916   1.3405   3.6601   4.0574   4.2118   4.3373

          k = 0.0000 0.2309 0.0000 ( 12929 PWs)   bands (ev):

   -59.5295 -33.7690 -33.6039 -33.4973 -14.1451 -11.9133  -5.3381  -4.4127
    -3.2769  -2.8474  -1.7633  -1.0687  -0.2616   0.3398   0.4015   0.8896
     1.0754   1.6673   3.3600   3.8304   3.9734   4.6060

          k = 0.0000 0.2309-0.0871 ( 12940 PWs)   bands (ev):

   -59.5295 -33.7690 -33.6039 -33.4973 -14.1451 -11.9133  -5.3381  -4.4127
    -3.2769  -2.8474  -1.7633  -1.0687  -0.2616   0.3398   0.4015   0.8896
     1.0754   1.6673   3.3601   3.8303   3.9735   4.6060

          k = 0.0000 0.3464 0.0000 ( 12915 PWs)   bands (ev):

   -59.5172 -33.7441 -33.7250 -33.5253 -13.6669 -11.5440  -5.4581  -4.9237
    -3.4298  -3.2657  -2.0204  -1.0703  -0.3993   0.1379   0.5740   0.9631
     1.4482   1.8571   2.9409   3.6518   4.1427   5.0561

          k = 0.0000 0.3464-0.0871 ( 12918 PWs)   bands (ev):

   -59.5172 -33.7441 -33.7250 -33.5253 -13.6669 -11.5440  -5.4581  -4.9237
    -3.4298  -3.2657  -2.0204  -1.0703  -0.3993   0.1379   0.5740   0.9631
     1.4482   1.8571   2.9409   3.6518   4.1427   5.0561

          k = 0.0000 0.4619 0.0000 ( 12872 PWs)   bands (ev):

   -59.5071 -33.8215 -33.7237 -33.5479 -13.2259 -11.1938  -6.2678  -4.7870
    -3.5836  -3.5779  -2.3466  -1.0861  -0.3155   0.3100   0.8179   1.0923
     1.6151   1.8438   3.1195   3.5269   4.3805   5.0494

          k = 0.0000 0.4619-0.0871 ( 12884 PWs)   bands (ev):

   -59.5071 -33.8215 -33.7237 -33.5479 -13.2259 -11.1938  -6.2678  -4.7870
    -3.5837  -3.5780  -2.3466  -1.0861  -0.3155   0.3100   0.8179   1.0923
     1.6151   1.8438   3.1195   3.5269   4.3805   5.0494

          k = 0.0000-0.5774 0.0000 ( 12854 PWs)   bands (ev):

   -59.5033 -33.8579 -33.7159 -33.5565 -13.0396 -11.0415  -6.5920  -4.8069
    -3.6621  -3.6378  -2.5148  -1.0946  -0.2288   0.6183   0.9354   1.0920
     1.3639   1.9619   3.4158   3.5807   4.2931   4.9941

          k = 0.0000-0.5774-0.0871 ( 12864 PWs)   bands (ev):

   -59.5033 -33.8579 -33.7159 -33.5565 -13.0396 -11.0415  -6.5920  -4.8069
    -3.6621  -3.6378  -2.5148  -1.0946  -0.2288   0.6183   0.9354   1.0920
     1.3639   1.9619   3.4158   3.5807   4.2931   4.9941

          k = 0.1000 0.1732 0.0000 ( 12937 PWs)   bands (ev):

   -59.5326 -33.7752 -33.5705 -33.4930 -14.2562 -11.9978  -5.4445  -4.1131
    -3.3099  -2.7508  -1.6754  -1.1109  -0.0452   0.0656   0.6379   0.8660
     0.9854   1.6258   3.6047   3.8190   3.8933   4.3205

          k = 0.1000 0.1732-0.0871 ( 12920 PWs)   bands (ev):

   -59.5326 -33.7752 -33.5705 -33.4930 -14.2562 -11.9978  -5.4445  -4.1131
    -3.3099  -2.7508  -1.6754  -1.1109  -0.0452   0.0656   0.6379   0.8660
     0.9854   1.6258   3.6048   3.8190   3.8933   4.3204

          k = 0.1000 0.2887 0.0000 ( 12944 PWs)   bands (ev):

   -59.5214 -33.7527 -33.6741 -33.5253 -13.8404 -11.6773  -5.1063  -4.9290
    -3.5518  -3.0623  -1.9207  -1.1119  -0.3692   0.1523   0.5780   0.8010
     1.2906   1.9876   3.1372   3.5770   3.9100   4.6743

          k = 0.1000 0.2887-0.0871 ( 12926 PWs)   bands (ev):

   -59.5214 -33.7527 -33.6741 -33.5253 -13.8404 -11.6773  -5.1063  -4.9290
    -3.5518  -3.0623  -1.9207  -1.1119  -0.3692   0.1523   0.5780   0.8010
     1.2906   1.9876   3.1372   3.5770   3.9100   4.6742

          k = 0.1000 0.4041 0.0000 ( 12898 PWs)   bands (ev):

   -59.5102 -33.7758 -33.7299 -33.5576 -13.3731 -11.3072  -5.8672  -4.7478
    -3.8428  -3.4321  -2.0972  -1.2058  -0.4597   0.2131   0.7737   0.9597
     1.4689   2.0946   2.9465   3.5741   4.2617   4.8174

          k = 0.1000 0.4041-0.0871 ( 12884 PWs)   bands (ev):

   -59.5102 -33.7758 -33.7299 -33.5576 -13.3731 -11.3072  -5.8672  -4.7478
    -3.8428  -3.4321  -2.0972  -1.2058  -0.4597   0.2131   0.7737   0.9597
     1.4689   2.0946   2.9465   3.5741   4.2617   4.8174

          k = 0.1000 0.5196 0.0000 ( 12858 PWs)   bands (ev):

   -59.5033 -33.8377 -33.7159 -33.5776 -13.0478 -11.0406  -6.4206  -4.7299
    -4.0494  -3.5248  -2.3382  -1.2984  -0.3332   0.4442   1.0054   1.1228
     1.3403   2.0599   3.1775   3.7320   4.4902   4.6028

          k = 0.1000 0.5196-0.0871 ( 12862 PWs)   bands (ev):

   -59.5033 -33.8377 -33.7159 -33.5776 -13.0478 -11.0406  -6.4206  -4.7299
    -4.0494  -3.5248  -2.3382  -1.2984  -0.3332   0.4442   1.0054   1.1228
     1.3403   2.0599   3.1775   3.7320   4.4902   4.6028

          k = 0.2000 0.3464 0.0000 ( 12917 PWs)   bands (ev):

   -59.5114 -33.7457 -33.7322 -33.5745 -13.4298 -11.3480  -5.5874  -4.7059
    -4.0920  -3.3899  -2.0110  -1.1551  -0.6927   0.2919   0.6582   0.8807
     1.3852   2.3645   2.9160   3.6009   3.8851   4.7992

          k = 0.2000 0.3464-0.0871 ( 12918 PWs)   bands (ev):

   -59.5114 -33.7456 -33.7322 -33.5745 -13.4298 -11.3480  -5.5874  -4.7059
    -4.0920  -3.3899  -2.0110  -1.1551  -0.6927   0.2919   0.6582   0.8807
     1.3852   2.3645   2.9160   3.6009   3.8851   4.7992

          k = 0.2000 0.4619 0.0000 ( 12869 PWs)   bands (ev):

   -59.5033 -33.7953 -33.7160 -33.6216 -13.0610 -11.0390  -6.0500  -4.7006
    -4.4240  -3.5347  -2.1776  -1.4622  -0.5556   0.3302   0.9030   1.0703
     1.3371   2.3666   2.9407   3.6875   4.1615   4.9045

          k = 0.2000 0.4619-0.0871 ( 12868 PWs)   bands (ev):

   -59.5033 -33.7953 -33.7160 -33.6216 -13.0610 -11.0390  -6.0500  -4.7006
    -4.4240  -3.5347  -2.1776  -1.4622  -0.5556   0.3302   0.9030   1.0703
     1.3371   2.3666   2.9407   3.6875   4.1615   4.9045

          k = 0.2000 0.5774 0.0000 ( 12850 PWs)   bands (ev):

   -59.5002 -33.8126 -33.7097 -33.6411 -12.9088 -10.9073  -6.2337  -4.8927
    -4.4083  -3.5159  -2.3271  -1.6066  -0.3872   0.4253   0.7600   1.2231
     1.5268   2.2348   3.0430   3.6255   4.2582   5.0215

          k = 0.2000 0.5774-0.0871 ( 12850 PWs)   bands (ev):

   -59.5002 -33.8126 -33.7097 -33.6411 -12.9088 -10.9073  -6.2337  -4.8927
    -4.4083  -3.5159  -2.3271  -1.6066  -0.3872   0.4253   0.7600   1.2231
     1.5268   2.2348   3.0430   3.6255   4.2582   5.0215

          k = 0.3000 0.5196 0.0000 ( 12860 PWs)   bands (ev):

   -59.4990 -33.7770 -33.7073 -33.6917 -12.8573 -10.8544  -5.9307  -5.3470
    -4.3004  -3.5442  -2.4577  -1.6565  -0.3060   0.3415   0.5922   1.2616
     1.6846   2.2784   2.8969   3.4015   4.3072   5.5450

          k = 0.3000 0.5196-0.0871 ( 12870 PWs)   bands (ev):

   -59.4990 -33.7770 -33.7073 -33.6917 -12.8573 -10.8544  -5.9307  -5.3470
    -4.3004  -3.5442  -2.4577  -1.6565  -0.3060   0.3415   0.5922   1.2616
     1.6846   2.2784   2.8969   3.4015   4.3072   5.5450

     the Fermi energy is     2.0386 ev

!    total energy              =    -658.59492132 Ry
     total all-electron energy =    -12481.768812 Ry
     estimated scf accuracy    <       0.00000006 Ry
     smearing contrib. (-TS)   =      -0.00551313 Ry
     internal energy E=F+TS    =    -658.58940818 Ry

     The total energy is F=E-TS. E is the sum of the following terms:
     one-electron contribution =   -1444.69198459 Ry
     hartree contribution      =     735.85503309 Ry
     xc contribution           =     -62.68025032 Ry
     ewald contribution        =     519.07966565 Ry
     one-center paw contrib.   =    -406.15187202 Ry

     total magnetization       =     0.00 Bohr mag/cell
     absolute magnetization    =     0.00 Bohr mag/cell

     convergence has been achieved in   9 iterations

     negative rho (up, down):  2.685E-04 2.684E-04

     Forces acting on atoms (cartesian axes, Ry/au):

     atom    1 type  1   force =     0.00000000    0.00000000    0.00055351
     atom    2 type  2   force =     0.00000000    0.00000000    0.00557503
     atom    3 type  2   force =     0.00000000    0.00000000   -0.00643128
     atom    4 type  3   force =     0.00000000    0.00000000    0.00030274
     The non-local contrib.  to forces
     atom    1 type  1   force =     0.00000000    0.00000000   -0.05078037
     atom    2 type  2   force =     0.00000000    0.00000000   -0.05636513
     atom    3 type  2   force =     0.00000000    0.00000000    0.26273764
     atom    4 type  3   force =     0.00000000    0.00000000   -0.02220513
     The ionic contribution  to forces
     atom    1 type  1   force =     0.00000000   -0.00000000  -36.09427019
     atom    2 type  2   force =    -0.00000000    0.00000000   21.14024499
     atom    3 type  2   force =    -0.00000000    0.00000000  -46.94583786
     atom    4 type  3   force =     0.00000000   -0.00000000   61.89986305
     The local contribution  to forces
     atom    1 type  1   force =    -0.00000000   -0.00000000   36.13998538
     atom    2 type  2   force =    -0.00000000    0.00000000  -21.08102751
     atom    3 type  2   force =    -0.00000000    0.00000000   46.67868871
     atom    4 type  3   force =     0.00000000   -0.00000000  -61.83837907
     The core correction contribution to forces
     atom    1 type  1   force =    -0.00000000   -0.00000000    0.00520695
     atom    2 type  2   force =     0.00000000   -0.00000000    0.00245841
     atom    3 type  2   force =     0.00000000   -0.00000000   -0.00191592
     atom    4 type  3   force =     0.00000000   -0.00000000   -0.03914000
     The Hubbard contrib.    to forces
     atom    1 type  1   force =     0.00000000    0.00000000    0.00000000
     atom    2 type  2   force =     0.00000000    0.00000000    0.00000000
     atom    3 type  2   force =     0.00000000    0.00000000    0.00000000
     atom    4 type  3   force =     0.00000000    0.00000000    0.00000000
     The SCF correction term to forces
     atom    1 type  1   force =    -0.00000000   -0.00000000    0.00040997
     atom    2 type  2   force =     0.00000000    0.00000000    0.00026250
     atom    3 type  2   force =    -0.00000000   -0.00000000   -0.00010563
     atom    4 type  3   force =    -0.00000000   -0.00000000    0.00016211

     Total force =     0.008535     Total SCF correction =     0.000524


     Computing stress (Cartesian axis) and pressure


     negative rho (up, down):  2.685E-04 2.684E-04
          total   stress  (Ry/bohr**3)                   (kbar)     P=       25.70
   0.00024498   0.00000000   0.00000000           36.04        0.00        0.00
   0.00000000   0.00024498  -0.00000000            0.00       36.04       -0.00
   0.00000000   0.00000000   0.00003414            0.00        0.00        5.02

     Energy error            =      2.2E-03 Ry
     Gradient error          =      6.4E-03 Ry/Bohr

     number of scf cycles    =  19
     number of bfgs steps    =  18

     energy             old  =    -658.5927275577 Ry
     energy             new  =    -658.5949213172 Ry

     CASE: energy            _new < energy            _old

     new trust radius        =       0.0208136556 bohr
     new conv_thr            =       0.0000000643 Ry


ATOMIC_POSITIONS (crystal)
Mo            0.0000000000        0.0000000000        0.5111926459
S             0.6666666667        0.3333333333        0.6038089318
S             0.6666666667        0.3333333333        0.4265746835
Co            0.3333333333        0.6666666667        0.6560598025



     Writing config-only to output data dir ./tmp/relax.save/
     NEW-OLD atomic charge density approx. for the potential

     negative rho (up, down):  2.673E-04 2.673E-04
     Generating pointlists ...

     total cpu time spent up to now is      565.6 secs

     Self-consistent Calculation

     iteration #  1     ecut=    80.00 Ry     beta= 0.70
     Davidson diagonalization with overlap
     ethr =  1.00E-06,  avg # of iterations =  6.8

     negative rho (up, down):  2.679E-04 2.679E-04

     total cpu time spent up to now is      568.6 secs

     total energy              =    -658.59484178 Ry
     estimated scf accuracy    <       0.00029335 Ry

     total magnetization       =     0.00 Bohr mag/cell
     absolute magnetization    =     0.00 Bohr mag/cell

     iteration #  2     ecut=    80.00 Ry     beta= 0.70
     Davidson diagonalization with overlap
     ethr =  8.38E-07,  avg # of iterations =  6.0

     negative rho (up, down):  2.679E-04 2.679E-04

     total cpu time spent up to now is      571.0 secs

     total energy              =    -658.59337220 Ry
     estimated scf accuracy    <       0.03233027 Ry

     total magnetization       =     0.00 Bohr mag/cell
     absolute magnetization    =     0.00 Bohr mag/cell

     iteration #  3     ecut=    80.00 Ry     beta= 0.70
     Davidson diagonalization with overlap
     ethr =  8.38E-07,  avg # of iterations =  6.1

     negative rho (up, down):  2.681E-04 2.681E-04

     total cpu time spent up to now is      573.4 secs

     total energy              =    -658.59491527 Ry
     estimated scf accuracy    <       0.00131625 Ry

     total magnetization       =     0.00 Bohr mag/cell
     absolute magnetization    =     0.00 Bohr mag/cell

     iteration #  4     ecut=    80.00 Ry     beta= 0.70
     Davidson diagonalization with overlap
     ethr =  8.38E-07,  avg # of iterations =  2.1

     negative rho (up, down):  2.682E-04 2.682E-04

     total cpu time spent up to now is      575.2 secs

     total energy              =    -658.59503892 Ry
     estimated scf accuracy    <       0.00004335 Ry

     total magnetization       =     0.00 Bohr mag/cell
     absolute magnetization    =     0.00 Bohr mag/cell

     iteration #  5     ecut=    80.00 Ry     beta= 0.70
     Davidson diagonalization with overlap
     ethr =  1.24E-07,  avg # of iterations =  2.9

     negative rho (up, down):  2.680E-04 2.680E-04

     total cpu time spent up to now is      577.1 secs

     total energy              =    -658.59504704 Ry
     estimated scf accuracy    <       0.00000771 Ry

     total magnetization       =     0.00 Bohr mag/cell
     absolute magnetization    =     0.00 Bohr mag/cell

     iteration #  6     ecut=    80.00 Ry     beta= 0.70
     Davidson diagonalization with overlap
     ethr =  2.20E-08,  avg # of iterations =  2.9

     negative rho (up, down):  2.680E-04 2.680E-04

     total cpu time spent up to now is      579.0 secs

     total energy              =    -658.59504816 Ry
     estimated scf accuracy    <       0.00000159 Ry

     total magnetization       =     0.00 Bohr mag/cell
     absolute magnetization    =     0.00 Bohr mag/cell

     iteration #  7     ecut=    80.00 Ry     beta= 0.70
     Davidson diagonalization with overlap
     ethr =  4.53E-09,  avg # of iterations =  2.8

     negative rho (up, down):  2.680E-04 2.680E-04

     total cpu time spent up to now is      580.9 secs

     total energy              =    -658.59504850 Ry
     estimated scf accuracy    <       0.00000063 Ry

     total magnetization       =     0.00 Bohr mag/cell
     absolute magnetization    =     0.00 Bohr mag/cell

     iteration #  8     ecut=    80.00 Ry     beta= 0.70
     Davidson diagonalization with overlap
     ethr =  1.79E-09,  avg # of iterations =  2.0

     negative rho (up, down):  2.680E-04 2.680E-04
 
     Magnetic moment per site  (integrated on atomic sphere of radius R)
     atom   1 (R=0.313)  charge= 10.7754  magn=  0.0000
     atom   2 (R=0.270)  charge=  3.2525  magn=  0.0000
     atom   3 (R=0.270)  charge=  3.1223  magn=  0.0000
     atom   4 (R=0.270)  charge=  6.8537  magn=  0.0003

     total cpu time spent up to now is      582.7 secs

     End of self-consistent calculation

 ------ SPIN UP ------------


          k = 0.0000 0.0000 0.0000 ( 12991 PWs)   bands (ev):

   -59.5376 -33.7871 -33.4567 -33.4567 -14.5940 -12.2666  -5.8214  -3.1365
    -3.1365  -2.6996  -1.1183  -1.1183   0.4604   0.4604   0.6449   0.7094
     0.7094   1.1665   3.6382   4.1822   4.1822   4.6629

          k = 0.0000 0.0000-0.0871 ( 12974 PWs)   bands (ev):

   -59.5376 -33.7871 -33.4567 -33.4567 -14.5940 -12.2666  -5.8214  -3.1365
    -3.1365  -2.6996  -1.1183  -1.1183   0.4604   0.4604   0.6449   0.7094
     0.7094   1.1665   3.6382   4.1822   4.1822   4.6630

          k = 0.0000 0.1155 0.0000 ( 12953 PWs)   bands (ev):

   -59.5339 -33.7796 -33.4949 -33.4654 -14.4678 -12.1706  -5.6756  -3.4986
    -3.1560  -2.6980  -1.3539  -1.0781   0.1082   0.3302   0.5946   0.8634
     0.8983   1.3413   3.6570   4.0453   4.2089   4.3169

          k = 0.0000 0.1155-0.0871 ( 12970 PWs)   bands (ev):

   -59.5339 -33.7796 -33.4949 -33.4654 -14.4678 -12.1706  -5.6756  -3.4986
    -3.1560  -2.6980  -1.3540  -1.0781   0.1082   0.3302   0.5946   0.8634
     0.8983   1.3413   3.6572   4.0451   4.2089   4.3168

          k = 0.0000 0.2309 0.0000 ( 12929 PWs)   bands (ev):

   -59.5239 -33.7596 -33.5940 -33.4881 -14.1189 -11.9035  -5.3087  -4.3764
    -3.2388  -2.8363  -1.7509  -1.0347  -0.2490   0.3535   0.4108   0.8845
     1.0924   1.6652   3.3433   3.8272   3.9666   4.5912

          k = 0.0000 0.2309-0.0871 ( 12940 PWs)   bands (ev):

   -59.5239 -33.7596 -33.5940 -33.4881 -14.1189 -11.9035  -5.3087  -4.3764
    -3.2388  -2.8363  -1.7509  -1.0347  -0.2490   0.3535   0.4108   0.8845
     1.0924   1.6652   3.3434   3.8271   3.9666   4.5912

          k = 0.0000 0.3464 0.0000 ( 12915 PWs)   bands (ev):

   -59.5116 -33.7351 -33.7143 -33.5160 -13.6399 -11.5311  -5.4199  -4.8992
    -3.3896  -3.2483  -2.0143  -1.0445  -0.3849   0.1427   0.5824   0.9571
     1.4705   1.8538   2.9191   3.6491   4.1331   5.0375

          k = 0.0000 0.3464-0.0871 ( 12918 PWs)   bands (ev):

   -59.5116 -33.7351 -33.7143 -33.5160 -13.6399 -11.5311  -5.4199  -4.8992
    -3.3896  -3.2483  -2.0143  -1.0445  -0.3849   0.1427   0.5824   0.9571
     1.4705   1.8538   2.9191   3.6491   4.1331   5.0375

          k = 0.0000 0.4619 0.0000 ( 12872 PWs)   bands (ev):

   -59.5016 -33.8103 -33.7148 -33.5385 -13.1970 -11.1780  -6.2372  -4.7605
    -3.5696  -3.5358  -2.3359  -1.0679  -0.3030   0.3116   0.8238   1.0857
     1.6128   1.8663   3.0987   3.5324   4.3624   5.0255

          k = 0.0000 0.4619-0.0871 ( 12884 PWs)   bands (ev):

   -59.5016 -33.8103 -33.7148 -33.5385 -13.1970 -11.1780  -6.2372  -4.7605
    -3.5696  -3.5358  -2.3359  -1.0679  -0.3030   0.3116   0.8238   1.0857
     1.6128   1.8663   3.0987   3.5324   4.3624   5.0255

          k = 0.0000-0.5774 0.0000 ( 12854 PWs)   bands (ev):

   -59.4978 -33.8465 -33.7071 -33.5470 -13.0096 -11.0245  -6.5642  -4.7821
    -3.6480  -3.5950  -2.5018  -1.0792  -0.2191   0.6204   0.9409   1.0914
     1.3533   1.9816   3.3957   3.5925   4.2724   4.9678

          k = 0.0000-0.5774-0.0871 ( 12864 PWs)   bands (ev):

   -59.4978 -33.8465 -33.7071 -33.5470 -13.0096 -11.0245  -6.5642  -4.7821
    -3.6480  -3.5950  -2.5018  -1.0792  -0.2191   0.6204   0.9409   1.0914
     1.3533   1.9816   3.3957   3.5925   4.2724   4.9678

          k = 0.1000 0.1732 0.0000 ( 12937 PWs)   bands (ev):

   -59.5270 -33.7658 -33.5608 -33.4839 -14.2300 -11.9887  -5.4158  -4.0757
    -3.2723  -2.7453  -1.6560  -1.0780  -0.0305   0.0786   0.6433   0.8675
     0.9999   1.6250   3.6101   3.7980   3.8818   4.3073

          k = 0.1000 0.1732-0.0871 ( 12920 PWs)   bands (ev):

   -59.5270 -33.7658 -33.5608 -33.4839 -14.2300 -11.9887  -5.4158  -4.0757
    -3.2723  -2.7453  -1.6560  -1.0780  -0.0305   0.0786   0.6433   0.8675
     0.9999   1.6250   3.6102   3.7979   3.8818   4.3071

          k = 0.1000 0.2887 0.0000 ( 12944 PWs)   bands (ev):

   -59.5159 -33.7435 -33.6638 -33.5159 -13.8139 -11.6656  -5.0634  -4.9076
    -3.5131  -3.0436  -1.9118  -1.0873  -0.3548   0.1584   0.5841   0.8007
     1.3055   1.9842   3.1172   3.5711   3.9101   4.6578

          k = 0.1000 0.2887-0.0871 ( 12926 PWs)   bands (ev):

   -59.5159 -33.7435 -33.6638 -33.5159 -13.8139 -11.6656  -5.0634  -4.9076
    -3.5131  -3.0436  -1.9118  -1.0873  -0.3548   0.1584   0.5841   0.8007
     1.3055   1.9842   3.1172   3.5711   3.9101   4.6577

          k = 0.1000 0.4041 0.0000 ( 12898 PWs)   bands (ev):

   -59.5047 -33.7649 -33.7210 -33.5482 -13.3451 -11.2926  -5.8333  -4.7209
    -3.8030  -3.4154  -2.0883  -1.1894  -0.4450   0.2155   0.7796   0.9582
     1.4803   2.0947   2.9252   3.5766   4.2554   4.7931

          k = 0.1000 0.4041-0.0871 ( 12884 PWs)   bands (ev):

   -59.5047 -33.7649 -33.7210 -33.5481 -13.3451 -11.2926  -5.8333  -4.7209
    -3.8030  -3.4154  -2.0883  -1.1894  -0.4450   0.2155   0.7796   0.9582
     1.4803   2.0947   2.9252   3.5766   4.2554   4.7931

          k = 0.1000 0.5196 0.0000 ( 12858 PWs)   bands (ev):

   -59.4978 -33.8265 -33.7071 -33.5680 -13.0179 -11.0240  -6.3916  -4.7041
    -4.0076  -3.5119  -2.3248  -1.2870  -0.3219   0.4461   1.0106   1.1207
     1.3425   2.0678   3.1624   3.7350   4.4739   4.5833

          k = 0.1000 0.5196-0.0871 ( 12862 PWs)   bands (ev):

   -59.4978 -33.8265 -33.7071 -33.5680 -13.0179 -11.0240  -6.3916  -4.7041
    -4.0076  -3.5119  -2.3248  -1.2870  -0.3219   0.4461   1.0106   1.1207
     1.3425   2.0678   3.1624   3.7350   4.4739   4.5833

          k = 0.2000 0.3464 0.0000 ( 12917 PWs)   bands (ev):

   -59.5059 -33.7350 -33.7232 -33.5649 -13.4020 -11.3339  -5.5508  -4.6789
    -4.0536  -3.3714  -2.0009  -1.1453  -0.6761   0.2941   0.6636   0.8842
     1.3943   2.3551   2.8980   3.6023   3.8836   4.7781

          k = 0.2000 0.3464-0.0871 ( 12918 PWs)   bands (ev):

   -59.5059 -33.7350 -33.7232 -33.5649 -13.4020 -11.3339  -5.5508  -4.6789
    -4.0536  -3.3714  -2.0009  -1.1453  -0.6761   0.2941   0.6636   0.8842
     1.3943   2.3551   2.8980   3.6023   3.8836   4.7781

          k = 0.2000 0.4619 0.0000 ( 12869 PWs)   bands (ev):

   -59.4978 -33.7842 -33.7072 -33.6118 -13.0314 -11.0229  -6.0178  -4.6636
    -4.3930  -3.5212  -2.1655  -1.4598  -0.5401   0.3320   0.9108   1.0721
     1.3409   2.3628   2.9217   3.6844   4.1591   4.8865

          k = 0.2000 0.4619-0.0871 ( 12868 PWs)   bands (ev):

   -59.4978 -33.7842 -33.7072 -33.6118 -13.0314 -11.0229  -6.0178  -4.6636
    -4.3930  -3.5212  -2.1655  -1.4598  -0.5401   0.3320   0.9108   1.0721
     1.3409   2.3628   2.9217   3.6844   4.1591   4.8865

          k = 0.2000 0.5774 0.0000 ( 12850 PWs)   bands (ev):

   -59.4947 -33.8015 -33.7010 -33.6312 -12.8782 -10.8904  -6.2036  -4.8558
    -4.3765  -3.5052  -2.3139  -1.6044  -0.3757   0.4274   0.7661   1.2231
     1.5303   2.2346   3.0436   3.6105   4.2380   5.0130

          k = 0.2000 0.5774-0.0871 ( 12850 PWs)   bands (ev):

   -59.4947 -33.8015 -33.7010 -33.6312 -12.8782 -10.8904  -6.2036  -4.8558
    -4.3765  -3.5052  -2.3139  -1.6044  -0.3757   0.4274   0.7661   1.2231
     1.5303   2.2346   3.0436   3.6105   4.2380   5.0130

          k = 0.3000 0.5196 0.0000 ( 12860 PWs)   bands (ev):

   -59.4935 -33.7659 -33.6986 -33.6816 -12.8265 -10.8375  -5.8980  -5.3097
    -4.2724  -3.5288  -2.4514  -1.6544  -0.2960   0.3464   0.5966   1.2629
     1.6861   2.2765   2.9064   3.3881   4.2784   5.5333

          k = 0.3000 0.5196-0.0871 ( 12870 PWs)   bands (ev):

   -59.4935 -33.7660 -33.6986 -33.6816 -12.8265 -10.8375  -5.8980  -5.3097
    -4.2724  -3.5288  -2.4514  -1.6544  -0.2960   0.3464   0.5966   1.2629
     1.6861   2.2765   2.9064   3.3881   4.2784   5.5333

 ------ SPIN DOWN ----------


          k = 0.0000 0.0000 0.0000 ( 12991 PWs)   bands (ev):

   -59.5376 -33.7871 -33.4567 -33.4567 -14.5940 -12.2666  -5.8213  -3.1364
    -3.1364  -2.6995  -1.1183  -1.1183   0.4608   0.4608   0.6449   0.7095
     0.7095   1.1667   3.6382   4.1823   4.1823   4.6631

          k = 0.0000 0.0000-0.0871 ( 12974 PWs)   bands (ev):

   -59.5376 -33.7871 -33.4567 -33.4567 -14.5940 -12.2666  -5.8213  -3.1364
    -3.1364  -2.6995  -1.1183  -1.1183   0.4608   0.4608   0.6449   0.7095
     0.7095   1.1667   3.6383   4.1823   4.1823   4.6631

          k = 0.0000 0.1155 0.0000 ( 12953 PWs)   bands (ev):

   -59.5338 -33.7795 -33.4949 -33.4654 -14.4678 -12.1706  -5.6756  -3.4985
    -3.1559  -2.6980  -1.3539  -1.0780   0.1085   0.3305   0.5948   0.8636
     0.8984   1.3415   3.6571   4.0453   4.2089   4.3171

          k = 0.0000 0.1155-0.0871 ( 12970 PWs)   bands (ev):

   -59.5338 -33.7795 -33.4949 -33.4654 -14.4678 -12.1706  -5.6756  -3.4985
    -3.1559  -2.6980  -1.3539  -1.0780   0.1085   0.3305   0.5948   0.8636
     0.8984   1.3416   3.6573   4.0452   4.2089   4.3170

          k = 0.0000 0.2309 0.0000 ( 12929 PWs)   bands (ev):

   -59.5239 -33.7596 -33.5940 -33.4881 -14.1189 -11.9035  -5.3086  -4.3764
    -3.2387  -2.8363  -1.7509  -1.0347  -0.2487   0.3537   0.4110   0.8847
     1.0926   1.6655   3.3435   3.8272   3.9666   4.5913

          k = 0.0000 0.2309-0.0871 ( 12940 PWs)   bands (ev):

   -59.5239 -33.7596 -33.5940 -33.4881 -14.1189 -11.9035  -5.3086  -4.3764
    -3.2387  -2.8363  -1.7509  -1.0347  -0.2487   0.3537   0.4110   0.8847
     1.0926   1.6655   3.3435   3.8272   3.9667   4.5913

          k = 0.0000 0.3464 0.0000 ( 12915 PWs)   bands (ev):

   -59.5116 -33.7351 -33.7143 -33.5160 -13.6399 -11.5311  -5.4199  -4.8992
    -3.3895  -3.2483  -2.0143  -1.0445  -0.3847   0.1429   0.5827   0.9573
     1.4707   1.8540   2.9192   3.6492   4.1331   5.0376

          k = 0.0000 0.3464-0.0871 ( 12918 PWs)   bands (ev):

   -59.5116 -33.7351 -33.7143 -33.5160 -13.6399 -11.5311  -5.4199  -4.8992
    -3.3895  -3.2483  -2.0143  -1.0445  -0.3847   0.1429   0.5827   0.9573
     1.4707   1.8540   2.9192   3.6492   4.1331   5.0376

          k = 0.0000 0.4619 0.0000 ( 12872 PWs)   bands (ev):

   -59.5016 -33.8103 -33.7148 -33.5385 -13.1970 -11.1780  -6.2372  -4.7604
    -3.5696  -3.5357  -2.3359  -1.0678  -0.3030   0.3119   0.8241   1.0860
     1.6131   1.8665   3.0988   3.5325   4.3624   5.0256

          k = 0.0000 0.4619-0.0871 ( 12884 PWs)   bands (ev):

   -59.5016 -33.8103 -33.7148 -33.5385 -13.1970 -11.1780  -6.2372  -4.7604
    -3.5696  -3.5357  -2.3359  -1.0678  -0.3030   0.3119   0.8241   1.0860
     1.6131   1.8665   3.0988   3.5325   4.3624   5.0256

          k = 0.0000-0.5774 0.0000 ( 12854 PWs)   bands (ev):

   -59.4978 -33.8465 -33.7071 -33.5470 -13.0095 -11.0245  -6.5642  -4.7821
    -3.6480  -3.5949  -2.5017  -1.0791  -0.2191   0.6208   0.9413   1.0917
     1.3535   1.9819   3.3958   3.5925   4.2724   4.9679

          k = 0.0000-0.5774-0.0871 ( 12864 PWs)   bands (ev):

   -59.4978 -33.8465 -33.7071 -33.5470 -13.0095 -11.0245  -6.5642  -4.7821
    -3.6480  -3.5949  -2.5017  -1.0791  -0.2191   0.6208   0.9413   1.0917
     1.3535   1.9819   3.3958   3.5925   4.2724   4.9679

          k = 0.1000 0.1732 0.0000 ( 12937 PWs)   bands (ev):

   -59.5270 -33.7658 -33.5608 -33.4839 -14.2300 -11.9887  -5.4158  -4.0756
    -3.2722  -2.7453  -1.6559  -1.0779  -0.0303   0.0788   0.6436   0.8676
     1.0001   1.6253   3.6102   3.7981   3.8820   4.3074

          k = 0.1000 0.1732-0.0871 ( 12920 PWs)   bands (ev):

   -59.5270 -33.7658 -33.5608 -33.4839 -14.2300 -11.9887  -5.4158  -4.0756
    -3.2722  -2.7453  -1.6559  -1.0779  -0.0303   0.0788   0.6436   0.8676
     1.0001   1.6253   3.6103   3.7981   3.8820   4.3072

          k = 0.1000 0.2887 0.0000 ( 12944 PWs)   bands (ev):

   -59.5158 -33.7435 -33.6638 -33.5159 -13.8139 -11.6656  -5.0633  -4.9076
    -3.5130  -3.0436  -1.9117  -1.0873  -0.3547   0.1587   0.5844   0.8009
     1.3057   1.9844   3.1173   3.5712   3.9102   4.6578

          k = 0.1000 0.2887-0.0871 ( 12926 PWs)   bands (ev):

   -59.5158 -33.7435 -33.6638 -33.5159 -13.8139 -11.6656  -5.0633  -4.9076
    -3.5130  -3.0436  -1.9117  -1.0873  -0.3547   0.1587   0.5844   0.8009
     1.3057   1.9844   3.1173   3.5712   3.9102   4.6578

          k = 0.1000 0.4041 0.0000 ( 12898 PWs)   bands (ev):

   -59.5047 -33.7649 -33.7210 -33.5481 -13.3451 -11.2926  -5.8332  -4.7209
    -3.8030  -3.4154  -2.0883  -1.1893  -0.4449   0.2158   0.7799   0.9585
     1.4806   2.0950   2.9254   3.5767   4.2555   4.7932

          k = 0.1000 0.4041-0.0871 ( 12884 PWs)   bands (ev):

   -59.5047 -33.7649 -33.7210 -33.5481 -13.3451 -11.2926  -5.8332  -4.7208
    -3.8030  -3.4154  -2.0883  -1.1893  -0.4449   0.2158   0.7799   0.9585
     1.4806   2.0950   2.9254   3.5767   4.2555   4.7932

          k = 0.1000 0.5196 0.0000 ( 12858 PWs)   bands (ev):

   -59.4978 -33.8264 -33.7071 -33.5680 -13.0179 -11.0240  -6.3916  -4.7041
    -4.0076  -3.5119  -2.3247  -1.2869  -0.3218   0.4465   1.0110   1.1210
     1.3428   2.0681   3.1624   3.7351   4.4739   4.5833

          k = 0.1000 0.5196-0.0871 ( 12862 PWs)   bands (ev):

   -59.4978 -33.8264 -33.7071 -33.5680 -13.0179 -11.0240  -6.3916  -4.7041
    -4.0076  -3.5119  -2.3247  -1.2869  -0.3218   0.4465   1.0110   1.1210
     1.3428   2.0681   3.1624   3.7351   4.4739   4.5833

          k = 0.2000 0.3464 0.0000 ( 12917 PWs)   bands (ev):

   -59.5059 -33.7350 -33.7231 -33.5649 -13.4020 -11.3339  -5.5507  -4.6789
    -4.0536  -3.3714  -2.0009  -1.1453  -0.6760   0.2944   0.6638   0.8845
     1.3946   2.3554   2.8981   3.6024   3.8836   4.7782

          k = 0.2000 0.3464-0.0871 ( 12918 PWs)   bands (ev):

   -59.5059 -33.7350 -33.7231 -33.5649 -13.4020 -11.3339  -5.5507  -4.6789
    -4.0536  -3.3714  -2.0009  -1.1453  -0.6760   0.2944   0.6638   0.8845
     1.3946   2.3554   2.8981   3.6024   3.8836   4.7782

          k = 0.2000 0.4619 0.0000 ( 12869 PWs)   bands (ev):

   -59.4978 -33.7842 -33.7071 -33.6118 -13.0314 -11.0229  -6.0178  -4.6636
    -4.3929  -3.5212  -2.1655  -1.4598  -0.5400   0.3323   0.9110   1.0724
     1.3413   2.3632   2.9218   3.6844   4.1591   4.8865

          k = 0.2000 0.4619-0.0871 ( 12868 PWs)   bands (ev):

   -59.4978 -33.7842 -33.7071 -33.6118 -13.0314 -11.0229  -6.0178  -4.6636
    -4.3929  -3.5212  -2.1655  -1.4598  -0.5400   0.3323   0.9110   1.0724
     1.3413   2.3632   2.9218   3.6844   4.1591   4.8865

          k = 0.2000 0.5774 0.0000 ( 12850 PWs)   bands (ev):

   -59.4947 -33.8015 -33.7009 -33.6312 -12.8782 -10.8904  -6.2035  -4.8557
    -4.3764  -3.5052  -2.3139  -1.6044  -0.3755   0.4277   0.7664   1.2233
     1.5306   2.2349   3.0436   3.6106   4.2381   5.0130

          k = 0.2000 0.5774-0.0871 ( 12850 PWs)   bands (ev):

   -59.4947 -33.8015 -33.7009 -33.6312 -12.8782 -10.8904  -6.2035  -4.8557
    -4.3764  -3.5052  -2.3139  -1.6044  -0.3755   0.4277   0.7664   1.2233
     1.5306   2.2349   3.0436   3.6106   4.2381   5.0130

          k = 0.3000 0.5196 0.0000 ( 12860 PWs)   bands (ev):

   -59.4935 -33.7659 -33.6986 -33.6816 -12.8265 -10.8375  -5.8980  -5.3096
    -4.2723  -3.5288  -2.4514  -1.6543  -0.2957   0.3467   0.5969   1.2631
     1.6865   2.2769   2.9064   3.3881   4.2784   5.5333

          k = 0.3000 0.5196-0.0871 ( 12870 PWs)   bands (ev):

   -59.4935 -33.7659 -33.6986 -33.6816 -12.8265 -10.8375  -5.8980  -5.3096
    -4.2723  -3.5288  -2.4514  -1.6543  -0.2957   0.3467   0.5969   1.2631
     1.6865   2.2769   2.9064   3.3881   4.2784   5.5333

     the Fermi energy is     2.0419 ev

!    total energy              =    -658.59504858 Ry
     total all-electron energy =    -12481.768939 Ry
     estimated scf accuracy    <       0.00000002 Ry
     smearing contrib. (-TS)   =      -0.00557139 Ry
     internal energy E=F+TS    =    -658.58947718 Ry

     The total energy is F=E-TS. E is the sum of the following terms:
     one-electron contribution =   -1439.20662156 Ry
     hartree contribution      =     733.11789048 Ry
     xc contribution           =     -62.66539952 Ry
     ewald contribution        =     516.31561582 Ry
     one-center paw contrib.   =    -406.15096240 Ry

     total magnetization       =     0.00 Bohr mag/cell
     absolute magnetization    =     0.00 Bohr mag/cell

     convergence has been achieved in   8 iterations

     negative rho (up, down):  2.680E-04 2.680E-04

     Forces acting on atoms (cartesian axes, Ry/au):

     atom    1 type  1   force =     0.00000000    0.00000000    0.00143380
     atom    2 type  2   force =     0.00000000    0.00000000    0.00112075
     atom    3 type  2   force =     0.00000000    0.00000000   -0.00198408
     atom    4 type  3   force =     0.00000000    0.00000000   -0.00057047
     The non-local contrib.  to forces
     atom    1 type  1   force =     0.00000000    0.00000000   -0.05245228
     atom    2 type  2   force =     0.00000000    0.00000000   -0.06025203
     atom    3 type  2   force =     0.00000000    0.00000000    0.26444004
     atom    4 type  3   force =     0.00000000    0.00000000   -0.01929331
     The ionic contribution  to forces
     atom    1 type  1   force =     0.00000000   -0.00000000  -36.02103652
     atom    2 type  2   force =    -0.00000000    0.00000000   21.11258553
     atom    3 type  2   force =    -0.00000000    0.00000000  -46.87346894
     atom    4 type  3   force =     0.00000000   -0.00000000   61.78191993
     The local contribution  to forces
     atom    1 type  1   force =    -0.00000000   -0.00000000   36.06890649
     atom    2 type  2   force =    -0.00000000    0.00000000  -21.05405486
     atom    3 type  2   force =    -0.00000000    0.00000000   46.60892229
     atom    4 type  3   force =     0.00000000   -0.00000000  -61.72388444
     The core correction contribution to forces
     atom    1 type  1   force =     0.00000000    0.00000000    0.00529695
     atom    2 type  2   force =     0.00000000   -0.00000000    0.00265144
     atom    3 type  2   force =     0.00000000   -0.00000000   -0.00199229
     atom    4 type  3   force =     0.00000000   -0.00000000   -0.03918186
     The Hubbard contrib.    to forces
     atom    1 type  1   force =     0.00000000    0.00000000    0.00000000
     atom    2 type  2   force =     0.00000000    0.00000000    0.00000000
     atom    3 type  2   force =     0.00000000    0.00000000    0.00000000
     atom    4 type  3   force =     0.00000000    0.00000000    0.00000000
     The SCF correction term to forces
     atom    1 type  1   force =    -0.00000000   -0.00000000    0.00067286
     atom    2 type  2   force =     0.00000000    0.00000000    0.00014436
     atom    3 type  2   force =     0.00000000   -0.00000000    0.00006853
     atom    4 type  3   force =    -0.00000000   -0.00000000   -0.00017709

     Total force =     0.002752     Total SCF correction =     0.000714
     SCF correction compared to forces is large: reduce conv_thr to get better values


     Computing stress (Cartesian axis) and pressure


     negative rho (up, down):  2.680E-04 2.680E-04
          total   stress  (Ry/bohr**3)                   (kbar)     P=       22.65
   0.00022959  -0.00000000   0.00000000           33.77       -0.00        0.00
  -0.00000000   0.00022959   0.00000000           -0.00       33.77        0.00
   0.00000000  -0.00000000   0.00000265            0.00       -0.00        0.39

     Energy error            =      1.3E-04 Ry
     Gradient error          =      2.0E-03 Ry/Bohr

     number of scf cycles    =  20
     number of bfgs steps    =  19

     energy             old  =    -658.5949213172 Ry
     energy             new  =    -658.5950485769 Ry

     CASE: energy            _new < energy            _old

     new trust radius        =       0.0039792557 bohr
     new conv_thr            =       0.0000000127 Ry


ATOMIC_POSITIONS (crystal)
Mo            0.0000000000        0.0000000000        0.5112068050
S             0.6666666667        0.3333333333        0.6039246949
S             0.6666666667        0.3333333333        0.4264670028
Co            0.3333333333        0.6666666667        0.6560375610



     Writing config-only to output data dir ./tmp/relax.save/
     NEW-OLD atomic charge density approx. for the potential

     negative rho (up, down):  2.678E-04 2.678E-04
     Generating pointlists ...

     total cpu time spent up to now is      585.9 secs

     Self-consistent Calculation

     iteration #  1     ecut=    80.00 Ry     beta= 0.70
     Davidson diagonalization with overlap
     ethr =  1.00E-06,  avg # of iterations =  3.0

     Threshold (ethr) on eigenvalues was too large:
     Diagonalizing with lowered threshold

     Davidson diagonalization with overlap
     ethr =  1.32E-08,  avg # of iterations =  4.2

     negative rho (up, down):  2.679E-04 2.679E-04

     total cpu time spent up to now is      589.9 secs

     total energy              =    -658.59505120 Ry
     estimated scf accuracy    <       0.00000563 Ry

     total magnetization       =     0.00 Bohr mag/cell
     absolute magnetization    =     0.00 Bohr mag/cell

     iteration #  2     ecut=    80.00 Ry     beta= 0.70
     Davidson diagonalization with overlap
     ethr =  1.61E-08,  avg # of iterations =  5.4

     negative rho (up, down):  2.679E-04 2.679E-04

     total cpu time spent up to now is      592.1 secs

     total energy              =    -658.59501742 Ry
     estimated scf accuracy    <       0.00081520 Ry

     total magnetization       =     0.00 Bohr mag/cell
     absolute magnetization    =     0.00 Bohr mag/cell

     iteration #  3     ecut=    80.00 Ry     beta= 0.70
     Davidson diagonalization with overlap
     ethr =  1.61E-08,  avg # of iterations =  5.2

     negative rho (up, down):  2.679E-04 2.679E-04

     total cpu time spent up to now is      594.3 secs

     total energy              =    -658.59505481 Ry
     estimated scf accuracy    <       0.00000304 Ry

     total magnetization       =     0.00 Bohr mag/cell
     absolute magnetization    =     0.00 Bohr mag/cell

     iteration #  4     ecut=    80.00 Ry     beta= 0.70
     Davidson diagonalization with overlap
     ethr =  8.69E-09,  avg # of iterations =  2.2

     negative rho (up, down):  2.679E-04 2.679E-04

     total cpu time spent up to now is      596.1 secs

     total energy              =    -658.59505535 Ry
     estimated scf accuracy    <       0.00000027 Ry

     total magnetization       =     0.00 Bohr mag/cell
     absolute magnetization    =     0.00 Bohr mag/cell

     iteration #  5     ecut=    80.00 Ry     beta= 0.70
     Davidson diagonalization with overlap
     ethr =  7.79E-10,  avg # of iterations =  2.6

     negative rho (up, down):  2.679E-04 2.679E-04

     total cpu time spent up to now is      598.0 secs

     total energy              =    -658.59505541 Ry
     estimated scf accuracy    <       0.00000011 Ry

     total magnetization       =     0.00 Bohr mag/cell
     absolute magnetization    =     0.00 Bohr mag/cell

     iteration #  6     ecut=    80.00 Ry     beta= 0.70
     Davidson diagonalization with overlap
     ethr =  3.06E-10,  avg # of iterations =  2.1

     negative rho (up, down):  2.679E-04 2.679E-04

     total cpu time spent up to now is      599.8 secs

     total energy              =    -658.59505542 Ry
     estimated scf accuracy    <       0.00000002 Ry

     total magnetization       =     0.00 Bohr mag/cell
     absolute magnetization    =     0.00 Bohr mag/cell

     iteration #  7     ecut=    80.00 Ry     beta= 0.70
     Davidson diagonalization with overlap
     ethr =  6.80E-11,  avg # of iterations =  2.3

     negative rho (up, down):  2.679E-04 2.679E-04

     total cpu time spent up to now is      601.7 secs

     total energy              =    -658.59505542 Ry
     estimated scf accuracy    <       0.00000002 Ry

     total magnetization       =     0.00 Bohr mag/cell
     absolute magnetization    =     0.00 Bohr mag/cell

     iteration #  8     ecut=    80.00 Ry     beta= 0.70
     Davidson diagonalization with overlap
     ethr =  6.80E-11,  avg # of iterations =  2.0

     negative rho (up, down):  2.679E-04 2.679E-04
 
     Magnetic moment per site  (integrated on atomic sphere of radius R)
     atom   1 (R=0.313)  charge= 10.7741  magn=  0.0000
     atom   2 (R=0.270)  charge=  3.2529  magn=  0.0000
     atom   3 (R=0.270)  charge=  3.1215  magn=  0.0000
     atom   4 (R=0.270)  charge=  6.8545  magn=  0.0002

     total cpu time spent up to now is      603.5 secs

     End of self-consistent calculation

 ------ SPIN UP ------------


          k = 0.0000 0.0000 0.0000 ( 12991 PWs)   bands (ev):

   -59.5374 -33.7863 -33.4556 -33.4556 -14.5943 -12.2638  -5.8197  -3.1431
    -3.1431  -2.6994  -1.1084  -1.1084   0.4573   0.4573   0.6395   0.7131
     0.7131   1.1637   3.6460   4.1788   4.1788   4.6657

          k = 0.0000 0.0000-0.0871 ( 12974 PWs)   bands (ev):

   -59.5374 -33.7863 -33.4556 -33.4556 -14.5943 -12.2638  -5.8197  -3.1431
    -3.1431  -2.6994  -1.1084  -1.1084   0.4573   0.4573   0.6395   0.7131
     0.7131   1.1637   3.6460   4.1788   4.1788   4.6657

          k = 0.0000 0.1155 0.0000 ( 12953 PWs)   bands (ev):

   -59.5336 -33.7787 -33.4938 -33.4642 -14.4682 -12.1676  -5.6740  -3.5040
    -3.1624  -2.6969  -1.3454  -1.0674   0.1055   0.3277   0.5928   0.8653
     0.8964   1.3391   3.6610   4.0445   4.2046   4.3188

          k = 0.0000 0.1155-0.0871 ( 12970 PWs)   bands (ev):

   -59.5336 -33.7787 -33.4938 -33.4642 -14.4682 -12.1676  -5.6740  -3.5040
    -3.1624  -2.6969  -1.3454  -1.0674   0.1055   0.3277   0.5928   0.8653
     0.8964   1.3391   3.6611   4.0443   4.2046   4.3187

          k = 0.0000 0.2309 0.0000 ( 12929 PWs)   bands (ev):

   -59.5237 -33.7588 -33.5927 -33.4869 -14.1196 -11.8998  -5.3067  -4.3798
    -3.2439  -2.8319  -1.7464  -1.0240  -0.2537   0.3493   0.4100   0.8820
     1.0946   1.6636   3.3437   3.8239   3.9641   4.5954

          k = 0.0000 0.2309-0.0871 ( 12940 PWs)   bands (ev):

   -59.5237 -33.7588 -33.5927 -33.4869 -14.1196 -11.8998  -5.3067  -4.3798
    -3.2439  -2.8319  -1.7464  -1.0240  -0.2537   0.3493   0.4100   0.8820
     1.0946   1.6636   3.3437   3.8239   3.9641   4.5954

          k = 0.0000 0.3464 0.0000 ( 12915 PWs)   bands (ev):

   -59.5114 -33.7343 -33.7128 -33.5148 -13.6408 -11.5265  -5.4210  -4.8974
    -3.3926  -3.2427  -2.0136  -1.0358  -0.3892   0.1391   0.5764   0.9566
     1.4742   1.8521   2.9179   3.6476   4.1289   5.0322

          k = 0.0000 0.3464-0.0871 ( 12918 PWs)   bands (ev):

   -59.5114 -33.7343 -33.7128 -33.5148 -13.6408 -11.5265  -5.4210  -4.8974
    -3.3926  -3.2427  -2.0136  -1.0358  -0.3892   0.1391   0.5764   0.9566
     1.4742   1.8521   2.9179   3.6476   4.1289   5.0322

          k = 0.0000 0.4619 0.0000 ( 12872 PWs)   bands (ev):

   -59.5014 -33.8087 -33.7141 -33.5373 -13.1980 -11.1724  -6.2381  -4.7565
    -3.5665  -3.5372  -2.3360  -1.0610  -0.3055   0.3047   0.8170   1.0851
     1.6095   1.8692   3.0981   3.5328   4.3585   5.0183

          k = 0.0000 0.4619-0.0871 ( 12884 PWs)   bands (ev):

   -59.5014 -33.8087 -33.7141 -33.5373 -13.1980 -11.1724  -6.2381  -4.7565
    -3.5665  -3.5372  -2.3360  -1.0610  -0.3055   0.3047   0.8170   1.0851
     1.6095   1.8692   3.0981   3.5328   4.3585   5.0183

          k = 0.0000-0.5774 0.0000 ( 12854 PWs)   bands (ev):

   -59.4975 -33.8449 -33.7064 -33.5458 -13.0105 -11.0185  -6.5650  -4.7777
    -3.6460  -3.5958  -2.5018  -1.0729  -0.2211   0.6130   0.9340   1.0855
     1.3530   1.9833   3.3944   3.5944   4.2705   4.9600

          k = 0.0000-0.5774-0.0871 ( 12864 PWs)   bands (ev):

   -59.4975 -33.8449 -33.7064 -33.5458 -13.0105 -11.0185  -6.5650  -4.7777
    -3.6460  -3.5958  -2.5018  -1.0729  -0.2211   0.6130   0.9340   1.0855
     1.3530   1.9833   3.3944   3.5944   4.2705   4.9600

          k = 0.1000 0.1732 0.0000 ( 12937 PWs)   bands (ev):

   -59.5267 -33.7650 -33.5596 -33.4827 -14.2306 -11.9852  -5.4140  -4.0797
    -3.2773  -2.7424  -1.6494  -1.0684  -0.0337   0.0763   0.6401   0.8645
     1.0019   1.6239   3.6074   3.7987   3.8830   4.3067

          k = 0.1000 0.1732-0.0871 ( 12920 PWs)   bands (ev):

   -59.5267 -33.7650 -33.5596 -33.4827 -14.2306 -11.9852  -5.4140  -4.0797
    -3.2773  -2.7424  -1.6494  -1.0684  -0.0337   0.0763   0.6401   0.8645
     1.0019   1.6239   3.6075   3.7987   3.8830   4.3065

          k = 0.1000 0.2887 0.0000 ( 12944 PWs)   bands (ev):

   -59.5156 -33.7427 -33.6624 -33.5147 -13.8146 -11.6614  -5.0605  -4.9107
    -3.5163  -3.0375  -1.9089  -1.0811  -0.3571   0.1546   0.5798   0.7987
     1.3067   1.9843   3.1153   3.5700   3.9076   4.6563

          k = 0.1000 0.2887-0.0871 ( 12926 PWs)   bands (ev):

   -59.5156 -33.7427 -33.6624 -33.5147 -13.8146 -11.6614  -5.0605  -4.9107
    -3.5163  -3.0375  -1.9089  -1.0811  -0.3571   0.1546   0.5798   0.7987
     1.3067   1.9843   3.1153   3.5700   3.9077   4.6562

          k = 0.1000 0.4041 0.0000 ( 12898 PWs)   bands (ev):

   -59.5045 -33.7634 -33.7202 -33.5469 -13.3460 -11.2874  -5.8343  -4.7180
    -3.8034  -3.4116  -2.0874  -1.1846  -0.4477   0.2104   0.7736   0.9582
     1.4783   2.0955   2.9234   3.5771   4.2514   4.7877

          k = 0.1000 0.4041-0.0871 ( 12884 PWs)   bands (ev):

   -59.5045 -33.7634 -33.7202 -33.5469 -13.3460 -11.2874  -5.8343  -4.7180
    -3.8034  -3.4116  -2.0874  -1.1846  -0.4477   0.2105   0.7736   0.9582
     1.4783   2.0955   2.9234   3.5771   4.2514   4.7877

          k = 0.1000 0.5196 0.0000 ( 12858 PWs)   bands (ev):

   -59.4975 -33.8248 -33.7064 -33.5668 -13.0189 -11.0180  -6.3923  -4.7000
    -4.0060  -3.5114  -2.3237  -1.2826  -0.3249   0.4399   1.0034   1.1185
     1.3402   2.0682   3.1619   3.7357   4.4714   4.5775

          k = 0.1000 0.5196-0.0871 ( 12862 PWs)   bands (ev):

   -59.4975 -33.8248 -33.7064 -33.5668 -13.0189 -11.0180  -6.3923  -4.7000
    -4.0060  -3.5114  -2.3237  -1.2826  -0.3249   0.4399   1.0034   1.1185
     1.3402   2.0682   3.1619   3.7357   4.4714   4.5775

          k = 0.2000 0.3464 0.0000 ( 12917 PWs)   bands (ev):

   -59.5056 -33.7335 -33.7224 -33.5637 -13.4029 -11.3289  -5.5517  -4.6767
    -4.0548  -3.3652  -1.9981  -1.1428  -0.6796   0.2898   0.6628   0.8792
     1.3916   2.3556   2.8958   3.6032   3.8795   4.7740

          k = 0.2000 0.3464-0.0871 ( 12918 PWs)   bands (ev):

   -59.5056 -33.7335 -33.7224 -33.5637 -13.4029 -11.3289  -5.5517  -4.6767
    -4.0548  -3.3652  -1.9981  -1.1428  -0.6796   0.2898   0.6628   0.8792
     1.3916   2.3556   2.8958   3.6032   3.8795   4.7740

          k = 0.2000 0.4619 0.0000 ( 12869 PWs)   bands (ev):

   -59.4976 -33.7827 -33.7064 -33.6105 -13.0323 -11.0171  -6.0184  -4.6610
    -4.3915  -3.5175  -2.1619  -1.4596  -0.5450   0.3277   0.9101   1.0674
     1.3355   2.3618   2.9205   3.6823   4.1569   4.8836

          k = 0.2000 0.4619-0.0871 ( 12868 PWs)   bands (ev):

   -59.4976 -33.7827 -33.7064 -33.6105 -13.0323 -11.0171  -6.0184  -4.6610
    -4.3915  -3.5175  -2.1619  -1.4596  -0.5450   0.3277   0.9101   1.0674
     1.3355   2.3618   2.9205   3.6823   4.1569   4.8836

          k = 0.2000 0.5774 0.0000 ( 12850 PWs)   bands (ev):

   -59.4945 -33.7999 -33.7003 -33.6299 -12.8792 -10.8842  -6.2040  -4.8538
    -4.3733  -3.5029  -2.3101  -1.6044  -0.3812   0.4224   0.7598   1.2234
     1.5249   2.2323   3.0451   3.6074   4.2346   5.0114

          k = 0.2000 0.5774-0.0871 ( 12850 PWs)   bands (ev):

   -59.4945 -33.7999 -33.7003 -33.6299 -12.8792 -10.8842  -6.2040  -4.8538
    -4.3733  -3.5029  -2.3101  -1.6044  -0.3812   0.4224   0.7598   1.2234
     1.5249   2.2323   3.0451   3.6074   4.2346   5.0114

          k = 0.3000 0.5196 0.0000 ( 12860 PWs)   bands (ev):

   -59.4933 -33.7644 -33.6979 -33.6802 -12.8275 -10.8313  -5.8980  -5.3084
    -4.2699  -3.5233  -2.4488  -1.6549  -0.3035   0.3419   0.5914   1.2634
     1.6811   2.2728   2.9090   3.3843   4.2751   5.5287

          k = 0.3000 0.5196-0.0871 ( 12870 PWs)   bands (ev):

   -59.4933 -33.7644 -33.6979 -33.6802 -12.8275 -10.8313  -5.8980  -5.3084
    -4.2699  -3.5233  -2.4488  -1.6549  -0.3035   0.3419   0.5914   1.2634
     1.6811   2.2728   2.9090   3.3843   4.2751   5.5287

 ------ SPIN DOWN ----------


          k = 0.0000 0.0000 0.0000 ( 12991 PWs)   bands (ev):

   -59.5374 -33.7862 -33.4556 -33.4556 -14.5943 -12.2638  -5.8197  -3.1431
    -3.1431  -2.6994  -1.1084  -1.1084   0.4575   0.4575   0.6395   0.7131
     0.7131   1.1638   3.6460   4.1788   4.1788   4.6658

          k = 0.0000 0.0000-0.0871 ( 12974 PWs)   bands (ev):

   -59.5374 -33.7862 -33.4556 -33.4556 -14.5943 -12.2638  -5.8197  -3.1431
    -3.1431  -2.6994  -1.1084  -1.1084   0.4575   0.4575   0.6395   0.7131
     0.7131   1.1638   3.6461   4.1788   4.1788   4.6658

          k = 0.0000 0.1155 0.0000 ( 12953 PWs)   bands (ev):

   -59.5336 -33.7787 -33.4938 -33.4642 -14.4682 -12.1676  -5.6739  -3.5039
    -3.1623  -2.6969  -1.3453  -1.0674   0.1057   0.3279   0.5929   0.8654
     0.8965   1.3393   3.6610   4.0445   4.2047   4.3189

          k = 0.0000 0.1155-0.0871 ( 12970 PWs)   bands (ev):

   -59.5336 -33.7787 -33.4938 -33.4642 -14.4682 -12.1676  -5.6739  -3.5039
    -3.1623  -2.6969  -1.3453  -1.0674   0.1057   0.3279   0.5929   0.8654
     0.8965   1.3393   3.6612   4.0443   4.2047   4.3188

          k = 0.0000 0.2309 0.0000 ( 12929 PWs)   bands (ev):

   -59.5237 -33.7588 -33.5927 -33.4869 -14.1196 -11.8998  -5.3066  -4.3798
    -3.2438  -2.8319  -1.7464  -1.0240  -0.2535   0.3494   0.4100   0.8821
     1.0947   1.6638   3.3438   3.8240   3.9641   4.5954

          k = 0.0000 0.2309-0.0871 ( 12940 PWs)   bands (ev):

   -59.5237 -33.7588 -33.5927 -33.4869 -14.1196 -11.8998  -5.3066  -4.3798
    -3.2438  -2.8319  -1.7464  -1.0240  -0.2535   0.3494   0.4101   0.8821
     1.0947   1.6638   3.3438   3.8239   3.9641   4.5955

          k = 0.0000 0.3464 0.0000 ( 12915 PWs)   bands (ev):

   -59.5113 -33.7343 -33.7128 -33.5148 -13.6407 -11.5265  -5.4209  -4.8974
    -3.3925  -3.2427  -2.0136  -1.0358  -0.3891   0.1392   0.5766   0.9567
     1.4743   1.8523   2.9179   3.6476   4.1289   5.0322

          k = 0.0000 0.3464-0.0871 ( 12918 PWs)   bands (ev):

   -59.5113 -33.7343 -33.7128 -33.5148 -13.6407 -11.5265  -5.4209  -4.8974
    -3.3925  -3.2427  -2.0136  -1.0358  -0.3891   0.1392   0.5766   0.9567
     1.4743   1.8523   2.9179   3.6476   4.1289   5.0322

          k = 0.0000 0.4619 0.0000 ( 12872 PWs)   bands (ev):

   -59.5014 -33.8087 -33.7140 -33.5373 -13.1979 -11.1724  -6.2381  -4.7565
    -3.5665  -3.5371  -2.3360  -1.0610  -0.3054   0.3048   0.8172   1.0852
     1.6097   1.8694   3.0981   3.5328   4.3586   5.0184

          k = 0.0000 0.4619-0.0871 ( 12884 PWs)   bands (ev):

   -59.5014 -33.8087 -33.7140 -33.5373 -13.1979 -11.1724  -6.2381  -4.7565
    -3.5665  -3.5371  -2.3360  -1.0610  -0.3054   0.3048   0.8172   1.0852
     1.6097   1.8694   3.0981   3.5328   4.3586   5.0184

          k = 0.0000-0.5774 0.0000 ( 12854 PWs)   bands (ev):

   -59.4975 -33.8449 -33.7064 -33.5458 -13.0105 -11.0185  -6.5650  -4.7777
    -3.6460  -3.5957  -2.5018  -1.0728  -0.2211   0.6132   0.9342   1.0857
     1.3531   1.9834   3.3944   3.5944   4.2705   4.9601

          k = 0.0000-0.5774-0.0871 ( 12864 PWs)   bands (ev):

   -59.4975 -33.8449 -33.7064 -33.5458 -13.0105 -11.0185  -6.5650  -4.7777
    -3.6460  -3.5957  -2.5018  -1.0728  -0.2211   0.6132   0.9342   1.0857
     1.3531   1.9834   3.3944   3.5944   4.2705   4.9601

          k = 0.1000 0.1732 0.0000 ( 12937 PWs)   bands (ev):

   -59.5267 -33.7649 -33.5596 -33.4827 -14.2306 -11.9852  -5.4140  -4.0796
    -3.2772  -2.7423  -1.6494  -1.0684  -0.0335   0.0764   0.6403   0.8646
     1.0020   1.6241   3.6074   3.7988   3.8831   4.3067

          k = 0.1000 0.1732-0.0871 ( 12920 PWs)   bands (ev):

   -59.5267 -33.7649 -33.5596 -33.4827 -14.2306 -11.9852  -5.4140  -4.0796
    -3.2772  -2.7423  -1.6494  -1.0684  -0.0335   0.0764   0.6403   0.8646
     1.0020   1.6241   3.6075   3.7988   3.8831   4.3065

          k = 0.1000 0.2887 0.0000 ( 12944 PWs)   bands (ev):

   -59.5156 -33.7427 -33.6624 -33.5147 -13.8146 -11.6614  -5.0605  -4.9107
    -3.5162  -3.0375  -1.9089  -1.0810  -0.3570   0.1547   0.5799   0.7988
     1.3069   1.9844   3.1154   3.5701   3.9077   4.6563

          k = 0.1000 0.2887-0.0871 ( 12926 PWs)   bands (ev):

   -59.5156 -33.7427 -33.6624 -33.5147 -13.8146 -11.6614  -5.0605  -4.9107
    -3.5162  -3.0375  -1.9089  -1.0810  -0.3570   0.1547   0.5799   0.7988
     1.3069   1.9844   3.1154   3.5701   3.9077   4.6563

          k = 0.1000 0.4041 0.0000 ( 12898 PWs)   bands (ev):

   -59.5045 -33.7634 -33.7202 -33.5469 -13.3460 -11.2874  -5.8342  -4.7179
    -3.8033  -3.4116  -2.0874  -1.1845  -0.4477   0.2106   0.7738   0.9584
     1.4785   2.0957   2.9235   3.5772   4.2514   4.7877

          k = 0.1000 0.4041-0.0871 ( 12884 PWs)   bands (ev):

   -59.5045 -33.7634 -33.7202 -33.5469 -13.3460 -11.2874  -5.8342  -4.7179
    -3.8033  -3.4116  -2.0874  -1.1845  -0.4477   0.2106   0.7738   0.9584
     1.4785   2.0957   2.9235   3.5772   4.2514   4.7877

          k = 0.1000 0.5196 0.0000 ( 12858 PWs)   bands (ev):

   -59.4975 -33.8248 -33.7064 -33.5668 -13.0189 -11.0180  -6.3923  -4.7000
    -4.0060  -3.5114  -2.3237  -1.2826  -0.3248   0.4401   1.0035   1.1187
     1.3403   2.0684   3.1620   3.7357   4.4714   4.5776

          k = 0.1000 0.5196-0.0871 ( 12862 PWs)   bands (ev):

   -59.4975 -33.8248 -33.7064 -33.5668 -13.0189 -11.0180  -6.3923  -4.7000
    -4.0060  -3.5114  -2.3237  -1.2826  -0.3248   0.4401   1.0035   1.1187
     1.3403   2.0684   3.1620   3.7357   4.4714   4.5776

          k = 0.2000 0.3464 0.0000 ( 12917 PWs)   bands (ev):

   -59.5056 -33.7335 -33.7224 -33.5637 -13.4029 -11.3288  -5.5517  -4.6766
    -4.0547  -3.3652  -1.9980  -1.1428  -0.6795   0.2900   0.6629   0.8794
     1.3918   2.3558   2.8959   3.6033   3.8795   4.7740

          k = 0.2000 0.3464-0.0871 ( 12918 PWs)   bands (ev):

   -59.5056 -33.7335 -33.7224 -33.5637 -13.4029 -11.3288  -5.5517  -4.6766
    -4.0547  -3.3652  -1.9980  -1.1428  -0.6795   0.2900   0.6629   0.8794
     1.3918   2.3558   2.8959   3.6033   3.8795   4.7740

          k = 0.2000 0.4619 0.0000 ( 12869 PWs)   bands (ev):

   -59.4975 -33.7827 -33.7064 -33.6105 -13.0323 -11.0171  -6.0184  -4.6610
    -4.3915  -3.5175  -2.1619  -1.4596  -0.5449   0.3279   0.9102   1.0676
     1.3357   2.3620   2.9206   3.6824   4.1570   4.8836

          k = 0.2000 0.4619-0.0871 ( 12868 PWs)   bands (ev):

   -59.4975 -33.7827 -33.7064 -33.6105 -13.0323 -11.0171  -6.0184  -4.6610
    -4.3915  -3.5175  -2.1619  -1.4596  -0.5449   0.3279   0.9102   1.0676
     1.3357   2.3620   2.9206   3.6824   4.1570   4.8836

          k = 0.2000 0.5774 0.0000 ( 12850 PWs)   bands (ev):

   -59.4945 -33.7999 -33.7002 -33.6299 -12.8792 -10.8842  -6.2039  -4.8537
    -4.3732  -3.5029  -2.3101  -1.6044  -0.3810   0.4226   0.7600   1.2235
     1.5251   2.2325   3.0452   3.6074   4.2347   5.0115

          k = 0.2000 0.5774-0.0871 ( 12850 PWs)   bands (ev):

   -59.4945 -33.7999 -33.7002 -33.6299 -12.8792 -10.8842  -6.2039  -4.8537
    -4.3732  -3.5029  -2.3101  -1.6044  -0.3810   0.4226   0.7600   1.2235
     1.5251   2.2325   3.0452   3.6074   4.2347   5.0115

          k = 0.3000 0.5196 0.0000 ( 12860 PWs)   bands (ev):

   -59.4933 -33.7644 -33.6979 -33.6802 -12.8275 -10.8313  -5.8980  -5.3084
    -4.2699  -3.5233  -2.4488  -1.6549  -0.3033   0.3420   0.5915   1.2635
     1.6813   2.2730   2.9090   3.3843   4.2752   5.5287

          k = 0.3000 0.5196-0.0871 ( 12870 PWs)   bands (ev):

   -59.4933 -33.7644 -33.6979 -33.6802 -12.8275 -10.8313  -5.8980  -5.3084
    -4.2699  -3.5233  -2.4488  -1.6549  -0.3033   0.3420   0.5915   1.2635
     1.6813   2.2730   2.9090   3.3843   4.2752   5.5287

     the Fermi energy is     2.0419 ev

!    total energy              =    -658.59505543 Ry
     total all-electron energy =    -12481.768946 Ry
     estimated scf accuracy    <          2.6E-10 Ry
     smearing contrib. (-TS)   =      -0.00557590 Ry
     internal energy E=F+TS    =    -658.58947953 Ry

     The total energy is F=E-TS. E is the sum of the following terms:
     one-electron contribution =   -1438.82476724 Ry
     hartree contribution      =     732.92748583 Ry
     xc contribution           =     -62.66410391 Ry
     ewald contribution        =     516.12284958 Ry
     one-center paw contrib.   =    -406.15094379 Ry

     total magnetization       =     0.00 Bohr mag/cell
     absolute magnetization    =     0.00 Bohr mag/cell

     convergence has been achieved in   8 iterations

     negative rho (up, down):  2.679E-04 2.679E-04

     Forces acting on atoms (cartesian axes, Ry/au):

     atom    1 type  1   force =     0.00000000    0.00000000    0.00059680
     atom    2 type  2   force =     0.00000000    0.00000000   -0.00029280
     atom    3 type  2   force =     0.00000000    0.00000000   -0.00048083
     atom    4 type  3   force =     0.00000000    0.00000000    0.00017683
     The non-local contrib.  to forces
     atom    1 type  1   force =     0.00000000    0.00000000   -0.05231020
     atom    2 type  2   force =     0.00000000    0.00000000   -0.06153799
     atom    3 type  2   force =     0.00000000    0.00000000    0.26517254
     atom    4 type  3   force =     0.00000000    0.00000000   -0.01910250
     The ionic contribution  to forces
     atom    1 type  1   force =     0.00000000   -0.00000000  -36.02097791
     atom    2 type  2   force =    -0.00000000    0.00000000   21.12558029
     atom    3 type  2   force =    -0.00000000    0.00000000  -46.86672752
     atom    4 type  3   force =     0.00000000   -0.00000000   61.76212515
     The local contribution  to forces
     atom    1 type  1   force =    -0.00000000   -0.00000000   36.06863067
     atom    2 type  2   force =    -0.00000000    0.00000000  -21.06703541
     atom    3 type  2   force =    -0.00000000    0.00000000   46.60307731
     atom    4 type  3   force =     0.00000000   -0.00000000  -61.70362763
     The core correction contribution to forces
     atom    1 type  1   force =    -0.00000000    0.00000000    0.00529308
     atom    2 type  2   force =     0.00000000   -0.00000000    0.00270528
     atom    3 type  2   force =     0.00000000   -0.00000000   -0.00202725
     atom    4 type  3   force =     0.00000000   -0.00000000   -0.03922532
     The Hubbard contrib.    to forces
     atom    1 type  1   force =     0.00000000    0.00000000    0.00000000
     atom    2 type  2   force =     0.00000000    0.00000000    0.00000000
     atom    3 type  2   force =     0.00000000    0.00000000    0.00000000
     atom    4 type  3   force =     0.00000000    0.00000000    0.00000000
     The SCF correction term to forces
     atom    1 type  1   force =     0.00000000    0.00000000   -0.00004510
     atom    2 type  2   force =    -0.00000000   -0.00000000   -0.00001124
     atom    3 type  2   force =     0.00000000    0.00000000    0.00001782
     atom    4 type  3   force =    -0.00000000   -0.00000000    0.00000087

     Total force =     0.000839     Total SCF correction =     0.000050


     Computing stress (Cartesian axis) and pressure


     negative rho (up, down):  2.679E-04 2.679E-04
          total   stress  (Ry/bohr**3)                   (kbar)     P=       22.59
   0.00023088   0.00000000   0.00000000           33.96        0.00        0.00
   0.00000000   0.00023088  -0.00000000            0.00       33.96       -0.00
   0.00000000  -0.00000000  -0.00000099            0.00       -0.00       -0.15

     Energy error            =      6.8E-06 Ry
     Gradient error          =      6.0E-04 Ry/Bohr

     bfgs converged in  21 scf cycles and  20 bfgs steps
     (criteria: energy <  1.0E-04 Ry, force <  1.0E-03 Ry/Bohr)

     End of BFGS Geometry Optimization

     Final energy             =    -658.5950554261 Ry

     File ./tmp/relax.bfgs deleted, as requested
Begin final coordinates

ATOMIC_POSITIONS (crystal)
Mo            0.0000000000        0.0000000000        0.5112068050
S             0.6666666667        0.3333333333        0.6039246949
S             0.6666666667        0.3333333333        0.4264670028
Co            0.3333333333        0.6666666667        0.6560375610
End final coordinates



     Writing all to output data dir ./tmp/relax.save/
 
     init_run     :      1.13s CPU      1.23s WALL (       1 calls)
     electrons    :    520.64s CPU    537.94s WALL (      21 calls)
     update_pot   :      7.26s CPU      8.84s WALL (      20 calls)
     forces       :      6.76s CPU      6.84s WALL (      21 calls)
     stress       :     46.64s CPU     46.92s WALL (      21 calls)

     Called by init_run:
     wfcinit      :      0.37s CPU      0.39s WALL (       1 calls)
     potinit      :      0.52s CPU      0.55s WALL (       1 calls)
     hinit0       :      0.15s CPU      0.19s WALL (       1 calls)

     Called by electrons:
     c_bands      :    414.44s CPU    428.01s WALL (     255 calls)
     sum_band     :     60.56s CPU     63.63s WALL (     255 calls)
     v_of_rho     :      2.89s CPU      3.28s WALL (     275 calls)
     newd         :     15.88s CPU     15.99s WALL (     275 calls)
     PAW_pot      :     31.37s CPU     31.53s WALL (     295 calls)
     mix_rho      :      1.06s CPU      1.09s WALL (     255 calls)

     Called by c_bands:
     init_us_2    :      7.54s CPU      7.81s WALL (   32088 calls)
     init_us_2:cp :      7.49s CPU      7.76s WALL (   32088 calls)
     cegterg      :    271.66s CPU    284.12s WALL (   14290 calls)

     Called by *egterg:
     cdiaghg      :     29.00s CPU     29.97s WALL (   71387 calls)
     h_psi        :    189.66s CPU    199.20s WALL (   72629 calls)
     s_psi        :      7.67s CPU      8.00s WALL (   72629 calls)
     g_psi        :      1.15s CPU      1.19s WALL (   58283 calls)

     Called by h_psi:
     h_psi:calbec :     19.89s CPU     20.86s WALL (   72629 calls)
     vloc_psi     :    159.02s CPU    167.14s WALL (   72629 calls)
     add_vuspsi   :      8.77s CPU      9.18s WALL (   72629 calls)

     General routines
     calbec       :     28.09s CPU     29.41s WALL (   93909 calls)
     fft          :      4.37s CPU      6.28s WALL (    6679 calls)
     ffts         :      0.09s CPU      0.10s WALL (     510 calls)
     fftw         :    157.76s CPU    166.14s WALL ( 2177932 calls)
 
     Parallel routines
 
     PWSCF        :   9m46.68s CPU  10m 6.28s WALL

 
   This run was terminated on:  10:43:53  13Jun2025            

=------------------------------------------------------------------------------=
   JOB DONE.
=------------------------------------------------------------------------------=
