
     Program PWSCF v.7.2 starts on 25Jul2025 at  0: 9:26 

     This program is part of the open-source Quantum ESPRESSO suite
     for quantum simulation of materials; please cite
         "P. Giannozzi et al., J. Phys.:Condens. Matter 21 395502 (2009);
         "P. Giannozzi et al., J. Phys.:Condens. Matter 29 465901 (2017);
         "P. Giannozzi et al., J. Chem. Phys. 152 154105 (2020);
          URL http://www.quantum-espresso.org", 
     in publications or presentations arising from this work. More details at
     http://www.quantum-espresso.org/quote

     Parallel version (MPI), running on    16 processors

     MPI processes distributed on     1 nodes
     16867 MiB available memory on the printing compute node when the environment starts
 
     Waiting for input...
     Reading input from standard input

     Current dimensions of program PWSCF are:
     Max number of different atomic species (ntypx) = 10
     Max number of k-points (npk) =  40000
     Max angular momentum in pseudopotentials (lmaxx) =  4
     file Co.rel-pbe-n-kjpaw_psl.1.0.0.UPF: wavefunction(s)  4S 3D 3D renormalized
 
     R & G space division:  proc/nbgrp/npool/nimage =      16
     Subspace diagonalization in iterative solution of the eigenvalue problem:
     a serial algorithm will be used

 
     Parallelization info
     --------------------
     sticks:   dense  smooth     PW     G-vecs:    dense   smooth      PW
     Min         108      42     13                28601     7220    1267
     Max         110      43     14                28616     7259    1300
     Sum        1735     685    211               457675   115763   20511
 
     Using Slab Decomposition
 


     bravais-lattice index     =            0
     lattice parameter (alat)  =       5.9812  a.u.
     unit-cell volume          =    1463.6779 (a.u.)^3
     number of atoms/cell      =            1
     number of atomic types    =            1
     number of electrons       =         9.00
     number of Kohn-Sham states=           18
     kinetic-energy cutoff     =      70.0000  Ry
     charge density cutoff     =     700.0000  Ry
     scf convergence threshold =      1.0E-06
     mixing beta               =       0.7000
     number of iterations used =            8  plain     mixing
     Exchange-correlation= SLA  PW   PBX  PBC
                           (   1   4   3   4   0   0   0)
     Non magnetic calculation with spin-orbit


     celldm(1)=   5.981197  celldm(2)=   0.000000  celldm(3)=   0.000000
     celldm(4)=   0.000000  celldm(5)=   0.000000  celldm(6)=   0.000000

     crystal axes: (cart. coord. in units of alat)
               a(1) = (   1.000000   0.000000   0.000000 )  
               a(2) = (  -0.500000   0.866025   0.000000 )  
               a(3) = (   0.000000   0.000000   7.898612 )  

     reciprocal axes: (cart. coord. in units 2 pi/alat)
               b(1) = (  1.000000  0.577351  0.000000 )  
               b(2) = (  0.000000  1.154701  0.000000 )  
               b(3) = (  0.000000  0.000000  0.126605 )  


     PseudoPot. # 1 for Co read from file:
     /apps/softwares/qe/PP/1.0.0_2019/rel-pbe/PSEUDOPOTENTIALS/Co.rel-pbe-n-kjpaw_psl.1.0.0.UPF
     MD5 check sum: 24189b0fbe424dfc94bf49ee084f82bd
     Pseudo is Projector augmented-wave + core cor, Zval =  9.0
     Generated using "atomic" code by A. Dal Corso  (Quantum ESPRESSO distribution)
     Shape of augmentation charge: PSQ
     Using radial grid of 1193 points, 10 beta functions with: 
                l(1) =   0
                l(2) =   0
                l(3) =   1
                l(4) =   1
                l(5) =   1
                l(6) =   1
                l(7) =   2
                l(8) =   2
                l(9) =   2
               l(10) =   2
     Q(r) pseudized with 0 coefficients 


     atomic species   valence    mass     pseudopotential
        Co             9.00    58.93320     Co( 1.00)

     No symmetry found



   Cartesian axes

     site n.     atom                  positions (alat units)
         1           Co  tau(   1) = (   0.0000000   0.0000000   3.9034939  )

     --------------------------------------------
     DFT-D3 Dispersion Correction (3-body terms):
     --------------------------------------------
       Reference C6 values for interpolation: 

         atom   Coordination number   C6
         Co         0.000          1065.56
         Co         1.715           373.09
         Co         2.926           296.13
         Co         7.779           236.57

       Values used:

         atom   Coordination number  R0_AB[au]  C6      C8
         Co         0.450            3.243   1062.21  93395.68

         Molecular C6 ( Ry / a.u.^6 ) =      1062.21


     number of k points=   144  Gaussian smearing, width (Ry)=  0.0073

     Number of k-points >= 100: set verbosity='high' to print them.

     Dense  grid:   457675 G-vectors     FFT dimensions: (  54,  54, 400)

     Smooth grid:   115763 G-vectors     FFT dimensions: (  32,  32, 256)

     Estimated max dynamical RAM per process >     403.40 MB

     Estimated total dynamical RAM >       6.30 GB

     Initial potential from superposition of free atoms

     starting charge       8.9997, renormalised to       9.0000

     negative rho (up, down):  2.786E-05 0.000E+00
     Starting wfcs are   18 randomized atomic wfcs
     Checking if some PAW data can be deallocated... 

     total cpu time spent up to now is        3.6 secs

     Self-consistent Calculation

     iteration #  1     ecut=    70.00 Ry     beta= 0.70
     Davidson diagonalization with overlap
     ethr =  1.00E-02,  avg # of iterations =  5.8

     negative rho (up, down):  4.498E-01 0.000E+00

     total cpu time spent up to now is       20.0 secs

     total energy              =    -161.30829803 Ry
     estimated scf accuracy    <       7.20258780 Ry

     iteration #  2     ecut=    70.00 Ry     beta= 0.70
     Davidson diagonalization with overlap
     ethr =  1.00E-02,  avg # of iterations =  3.8

     negative rho (up, down):  4.290E-01 0.000E+00

     total cpu time spent up to now is       34.4 secs

     total energy              =    -156.25720125 Ry
     estimated scf accuracy    <      19.16821502 Ry

     iteration #  3     ecut=    70.00 Ry     beta= 0.70
     Davidson diagonalization with overlap
     ethr =  1.00E-02,  avg # of iterations =  2.9

     negative rho (up, down):  1.795E-01 0.000E+00

     total cpu time spent up to now is       49.3 secs

     total energy              =    -161.70434543 Ry
     estimated scf accuracy    <       6.35472730 Ry

     iteration #  4     ecut=    70.00 Ry     beta= 0.70
     Davidson diagonalization with overlap
     ethr =  1.00E-02,  avg # of iterations =  2.0

     negative rho (up, down):  1.180E-01 0.000E+00

     total cpu time spent up to now is       62.4 secs

     total energy              =    -161.88601116 Ry
     estimated scf accuracy    <       1.29685214 Ry

     iteration #  5     ecut=    70.00 Ry     beta= 0.70
     Davidson diagonalization with overlap
     ethr =  1.00E-02,  avg # of iterations =  1.0

     negative rho (up, down):  9.908E-02 0.000E+00

     total cpu time spent up to now is       74.0 secs

     total energy              =    -161.88821484 Ry
     estimated scf accuracy    <       0.80319150 Ry

     iteration #  6     ecut=    70.00 Ry     beta= 0.70
     Davidson diagonalization with overlap
     ethr =  8.92E-03,  avg # of iterations =  1.0

     negative rho (up, down):  6.494E-02 0.000E+00

     total cpu time spent up to now is       85.5 secs

     total energy              =    -161.86944045 Ry
     estimated scf accuracy    <       0.54653967 Ry

     iteration #  7     ecut=    70.00 Ry     beta= 0.70
     Davidson diagonalization with overlap
     ethr =  6.07E-03,  avg # of iterations =  1.0

     negative rho (up, down):  4.094E-02 0.000E+00

     total cpu time spent up to now is       97.1 secs

     total energy              =    -161.85930823 Ry
     estimated scf accuracy    <       0.41742543 Ry

     iteration #  8     ecut=    70.00 Ry     beta= 0.70
     Davidson diagonalization with overlap
     ethr =  4.64E-03,  avg # of iterations =  1.0

     negative rho (up, down):  4.760E-03 0.000E+00

     total cpu time spent up to now is      108.7 secs

     total energy              =    -161.84903691 Ry
     estimated scf accuracy    <       0.30729389 Ry

     iteration #  9     ecut=    70.00 Ry     beta= 0.70
     Davidson diagonalization with overlap
     ethr =  3.41E-03,  avg # of iterations =  1.2

     negative rho (up, down):  1.891E-03 0.000E+00

     total cpu time spent up to now is      120.3 secs

     total energy              =    -161.85418120 Ry
     estimated scf accuracy    <       0.15368217 Ry

     iteration # 10     ecut=    70.00 Ry     beta= 0.70
     Davidson diagonalization with overlap
     ethr =  1.71E-03,  avg # of iterations =  1.2

     negative rho (up, down):  7.648E-02 0.000E+00

     total cpu time spent up to now is      132.0 secs

     total energy              =    -161.86989916 Ry
     estimated scf accuracy    <       0.12001941 Ry

     iteration # 11     ecut=    70.00 Ry     beta= 0.70
     Davidson diagonalization with overlap
     ethr =  1.33E-03,  avg # of iterations =  9.6

     negative rho (up, down):  9.059E-03 0.000E+00

     total cpu time spent up to now is      150.3 secs

     total energy              =    -161.77691670 Ry
     estimated scf accuracy    <       0.18512085 Ry

     iteration # 12     ecut=    70.00 Ry     beta= 0.70
     Davidson diagonalization with overlap
     ethr =  1.33E-03,  avg # of iterations =  4.2

     negative rho (up, down):  2.073E-02 0.000E+00

     total cpu time spent up to now is      164.3 secs

     total energy              =    -161.83477617 Ry
     estimated scf accuracy    <       0.22668243 Ry

     iteration # 13     ecut=    70.00 Ry     beta= 0.70
     Davidson diagonalization with overlap
     ethr =  1.33E-03,  avg # of iterations =  1.2

     negative rho (up, down):  2.952E-02 0.000E+00

     total cpu time spent up to now is      175.9 secs

     total energy              =    -161.85993464 Ry
     estimated scf accuracy    <       0.01951658 Ry

     iteration # 14     ecut=    70.00 Ry     beta= 0.70
     Davidson diagonalization with overlap
     ethr =  2.17E-04,  avg # of iterations =  6.0

     negative rho (up, down):  4.062E-02 0.000E+00

     total cpu time spent up to now is      190.1 secs

     total energy              =    -161.86355515 Ry
     estimated scf accuracy    <       0.00853725 Ry

     iteration # 15     ecut=    70.00 Ry     beta= 0.70
     Davidson diagonalization with overlap
     c_bands:  1 eigenvalues not converged
     ethr =  9.49E-05,  avg # of iterations =  5.0

     negative rho (up, down):  3.893E-02 0.000E+00

     total cpu time spent up to now is      204.4 secs

     total energy              =    -161.86349084 Ry
     estimated scf accuracy    <       0.00700651 Ry

     iteration # 16     ecut=    70.00 Ry     beta= 0.70
     Davidson diagonalization with overlap
     ethr =  7.79E-05,  avg # of iterations =  1.2

     negative rho (up, down):  3.579E-02 0.000E+00

     total cpu time spent up to now is      216.0 secs

     total energy              =    -161.86273985 Ry
     estimated scf accuracy    <       0.00585628 Ry

     iteration # 17     ecut=    70.00 Ry     beta= 0.70
     Davidson diagonalization with overlap
     ethr =  6.51E-05,  avg # of iterations =  1.1

     negative rho (up, down):  3.481E-02 0.000E+00

     total cpu time spent up to now is      227.7 secs

     total energy              =    -161.86261498 Ry
     estimated scf accuracy    <       0.00487005 Ry

     iteration # 18     ecut=    70.00 Ry     beta= 0.70
     Davidson diagonalization with overlap
     ethr =  5.41E-05,  avg # of iterations =  1.1

     negative rho (up, down):  3.571E-02 0.000E+00

     total cpu time spent up to now is      239.2 secs

     total energy              =    -161.86282451 Ry
     estimated scf accuracy    <       0.00473640 Ry

     iteration # 19     ecut=    70.00 Ry     beta= 0.70
     Davidson diagonalization with overlap
     ethr =  5.26E-05,  avg # of iterations =  1.0

     negative rho (up, down):  3.303E-02 0.000E+00

     total cpu time spent up to now is      250.8 secs

     total energy              =    -161.86230843 Ry
     estimated scf accuracy    <       0.00496247 Ry

     iteration # 20     ecut=    70.00 Ry     beta= 0.70
     Davidson diagonalization with overlap
     ethr =  5.26E-05,  avg # of iterations =  1.1

     negative rho (up, down):  2.008E-03 0.000E+00

     total cpu time spent up to now is      262.5 secs

     total energy              =    -161.85845927 Ry
     estimated scf accuracy    <       0.00469536 Ry

     iteration # 21     ecut=    70.00 Ry     beta= 0.70
     Davidson diagonalization with overlap
     c_bands:  1 eigenvalues not converged
     c_bands:  1 eigenvalues not converged
     ethr =  5.22E-05,  avg # of iterations = 11.6

     negative rho (up, down):  2.318E-04 0.000E+00

     total cpu time spent up to now is      280.5 secs

     total energy              =    -161.85811331 Ry
     estimated scf accuracy    <       0.00309716 Ry

     iteration # 22     ecut=    70.00 Ry     beta= 0.70
     Davidson diagonalization with overlap
     c_bands:  1 eigenvalues not converged
     c_bands:  2 eigenvalues not converged
     c_bands:  1 eigenvalues not converged
     c_bands:  2 eigenvalues not converged
     c_bands:  2 eigenvalues not converged
     c_bands:  1 eigenvalues not converged
     c_bands:  2 eigenvalues not converged
     ethr =  3.44E-05,  avg # of iterations =  4.5

     negative rho (up, down):  6.018E-04 0.000E+00

     total cpu time spent up to now is      294.1 secs

     total energy              =    -161.85834596 Ry
     estimated scf accuracy    <       0.00038766 Ry

     iteration # 23     ecut=    70.00 Ry     beta= 0.70
     Davidson diagonalization with overlap
     c_bands:  1 eigenvalues not converged
     c_bands:  2 eigenvalues not converged
     c_bands:  1 eigenvalues not converged
     c_bands:  1 eigenvalues not converged
     c_bands:  2 eigenvalues not converged
     c_bands:  2 eigenvalues not converged
     c_bands:  1 eigenvalues not converged
     c_bands:  1 eigenvalues not converged
     c_bands:  3 eigenvalues not converged
     c_bands:  2 eigenvalues not converged
     c_bands:  2 eigenvalues not converged
     c_bands:  3 eigenvalues not converged
     c_bands:  2 eigenvalues not converged
     c_bands:  1 eigenvalues not converged
     c_bands:  1 eigenvalues not converged
     c_bands:  1 eigenvalues not converged
     c_bands:  1 eigenvalues not converged
     c_bands:  1 eigenvalues not converged
     c_bands:  2 eigenvalues not converged
     c_bands:  2 eigenvalues not converged
     c_bands:  2 eigenvalues not converged
     c_bands:  1 eigenvalues not converged
     c_bands:  1 eigenvalues not converged
     c_bands:  2 eigenvalues not converged
     c_bands:  1 eigenvalues not converged
     c_bands:  1 eigenvalues not converged
     c_bands:  2 eigenvalues not converged
     c_bands:  2 eigenvalues not converged
     c_bands:  1 eigenvalues not converged
     c_bands:  2 eigenvalues not converged
     c_bands:  1 eigenvalues not converged
     c_bands:  4 eigenvalues not converged
     c_bands:  1 eigenvalues not converged
     c_bands:  1 eigenvalues not converged
     c_bands:  2 eigenvalues not converged
     c_bands:  2 eigenvalues not converged
     c_bands:  2 eigenvalues not converged
     c_bands:  2 eigenvalues not converged
     c_bands:  1 eigenvalues not converged
     c_bands:  1 eigenvalues not converged
     c_bands:  3 eigenvalues not converged
     c_bands:  1 eigenvalues not converged
     c_bands:  2 eigenvalues not converged
     c_bands:  2 eigenvalues not converged
     c_bands:  2 eigenvalues not converged
     c_bands:  2 eigenvalues not converged
     c_bands:  1 eigenvalues not converged
     ethr =  4.31E-06,  avg # of iterations = 12.9

     negative rho (up, down):  2.417E-04 0.000E+00

     total cpu time spent up to now is      312.5 secs

     total energy              =    -161.85839747 Ry
     estimated scf accuracy    <       0.00016306 Ry

     iteration # 24     ecut=    70.00 Ry     beta= 0.70
     Davidson diagonalization with overlap
     c_bands:  1 eigenvalues not converged
     c_bands:  1 eigenvalues not converged
     c_bands:  2 eigenvalues not converged
     c_bands:  3 eigenvalues not converged
     c_bands:  2 eigenvalues not converged
     c_bands:  1 eigenvalues not converged
     c_bands:  1 eigenvalues not converged
     c_bands:  1 eigenvalues not converged
     c_bands:  2 eigenvalues not converged
     c_bands:  2 eigenvalues not converged
     c_bands:  2 eigenvalues not converged
     c_bands:  1 eigenvalues not converged
     c_bands:  1 eigenvalues not converged
     c_bands:  2 eigenvalues not converged
     c_bands:  2 eigenvalues not converged
     c_bands:  1 eigenvalues not converged
     c_bands:  1 eigenvalues not converged
     c_bands:  1 eigenvalues not converged
     c_bands:  2 eigenvalues not converged
     c_bands:  2 eigenvalues not converged
     c_bands:  1 eigenvalues not converged
     c_bands:  1 eigenvalues not converged
     c_bands:  2 eigenvalues not converged
     c_bands:  1 eigenvalues not converged
     c_bands:  1 eigenvalues not converged
     c_bands:  1 eigenvalues not converged
     c_bands:  1 eigenvalues not converged
     c_bands:  2 eigenvalues not converged
     c_bands:  2 eigenvalues not converged
     c_bands:  1 eigenvalues not converged
     ethr =  1.81E-06,  avg # of iterations = 10.8

     negative rho (up, down):  7.742E-05 0.000E+00

     total cpu time spent up to now is      329.3 secs

     total energy              =    -161.85840431 Ry
     estimated scf accuracy    <       0.00005001 Ry

     iteration # 25     ecut=    70.00 Ry     beta= 0.70
     Davidson diagonalization with overlap
     c_bands:  2 eigenvalues not converged
     c_bands:  1 eigenvalues not converged
     c_bands:  1 eigenvalues not converged
     c_bands:  1 eigenvalues not converged
     c_bands:  1 eigenvalues not converged
     ethr =  5.56E-07,  avg # of iterations =  7.4

     negative rho (up, down):  4.991E-05 0.000E+00

     total cpu time spent up to now is      343.9 secs

     total energy              =    -161.85840482 Ry
     estimated scf accuracy    <       0.00000583 Ry

     iteration # 26     ecut=    70.00 Ry     beta= 0.70
     Davidson diagonalization with overlap
     ethr =  6.47E-08,  avg # of iterations =  1.6

     negative rho (up, down):  4.626E-05 0.000E+00

     total cpu time spent up to now is      355.9 secs

     total energy              =    -161.85840461 Ry
     estimated scf accuracy    <       0.00001647 Ry

     iteration # 27     ecut=    70.00 Ry     beta= 0.70
     Davidson diagonalization with overlap
     ethr =  6.47E-08,  avg # of iterations =  1.3

     negative rho (up, down):  1.962E-05 0.000E+00

     total cpu time spent up to now is      367.6 secs

     total energy              =    -161.85840645 Ry
     estimated scf accuracy    <       0.00000185 Ry

     iteration # 28     ecut=    70.00 Ry     beta= 0.70
     Davidson diagonalization with overlap
     ethr =  2.06E-08,  avg # of iterations =  1.3

     negative rho (up, down):  1.104E-05 0.000E+00

     total cpu time spent up to now is      379.3 secs

     End of self-consistent calculation

     Number of k-points >= 100: set verbosity='high' to print the bands.

     the Fermi energy is    -4.0390 ev

!    total energy              =    -161.85840635 Ry
     total all-electron energy =     -2786.682916 Ry
     estimated scf accuracy    <       0.00000067 Ry
     smearing contrib. (-TS)   =      -0.00518585 Ry
     internal energy E=F+TS    =    -161.85322050 Ry

     The total energy is F=E-TS. E is the sum of the following terms:
     one-electron contribution =    -245.41333679 Ry
     hartree contribution      =     130.21748691 Ry
     xc contribution           =     -32.32964772 Ry
     ewald contribution        =      72.28384395 Ry
     DFT-D3 Dispersion         =      -0.01202842 Ry
     one-center paw contrib.   =     -86.59953844 Ry

     convergence has been achieved in  28 iterations

     negative rho (up, down):  1.104E-05 0.000E+00

     Forces acting on atoms (cartesian axes, Ry/au):

     atom    1 type  1   force =     0.00000000    0.00000000    0.00000000
     The non-local contrib.  to forces
     atom    1 type  1   force =     0.00004621   -0.00012037   -0.00077715
     The ionic contribution  to forces
     atom    1 type  1   force =     0.00000000    0.00000000    0.00000000
     The local contribution  to forces
     atom    1 type  1   force =    -0.00004609    0.00012905    0.00205446
     The core correction contribution to forces
     atom    1 type  1   force =    -0.00000175    0.00000729   -0.00001498
     The Hubbard contrib.    to forces
     atom    1 type  1   force =     0.00000000    0.00000000    0.00000000
     The SCF correction term to forces
     atom    1 type  1   force =    -0.00035279    0.00076461   -0.00243797

     DFT-D3 dispersion contribution to forces:
     atom    1 type  1   force =     0.00000000    0.00000000    0.00000000

     Total force =     0.000000     Total SCF correction =     0.002579


     Computing stress (Cartesian axis) and pressure


     negative rho (up, down):  1.104E-05 0.000E+00
          total   stress  (Ry/bohr**3)                   (kbar)     P=      -21.19
  -0.00021522  -0.00000001   0.00000000          -31.66       -0.00        0.00
  -0.00000001  -0.00021522   0.00000000           -0.00      -31.66        0.00
   0.00000000   0.00000000  -0.00000160            0.00        0.00       -0.24


     Writing all to output data dir ./tmp/scf.save/
 
     init_run     :      2.99s CPU      3.34s WALL (       1 calls)
     electrons    :    347.82s CPU    375.69s WALL (       1 calls)
     forces       :      0.92s CPU      1.08s WALL (       1 calls)
     force_dftd3  :      0.00s CPU      0.00s WALL (       1 calls)
     stress       :      4.27s CPU      4.65s WALL (       1 calls)
     stres_dftd3  :      0.00s CPU      0.00s WALL (       1 calls)

     Called by init_run:
     wfcinit      :      2.30s CPU      2.47s WALL (       1 calls)
     potinit      :      0.17s CPU      0.20s WALL (       1 calls)
     hinit0       :      0.22s CPU      0.25s WALL (       1 calls)

     Called by electrons:
     c_bands      :    243.62s CPU    262.17s WALL (      28 calls)
     sum_band     :     94.60s CPU    100.25s WALL (      28 calls)
     v_of_rho     :      0.84s CPU      0.93s WALL (      29 calls)
     newd         :      5.82s CPU      9.47s WALL (      29 calls)
     PAW_pot      :      2.30s CPU      2.32s WALL (      29 calls)
     mix_rho      :      0.62s CPU      0.64s WALL (      28 calls)
     energy_dftd3 :      0.00s CPU      0.00s WALL (       1 calls)

     Called by c_bands:
     init_us_2    :      2.09s CPU      2.12s WALL (    8496 calls)
     init_us_2:cp :      2.06s CPU      2.10s WALL (    8496 calls)
     cegterg      :    192.10s CPU    210.46s WALL (    4032 calls)

     Called by *egterg:
     cdiaghg      :      5.05s CPU      5.16s WALL (   19007 calls)
     h_psi        :    162.88s CPU    180.73s WALL (   19151 calls)
     s_psi        :      3.29s CPU      3.38s WALL (   19151 calls)
     g_psi        :      0.50s CPU      0.51s WALL (   14975 calls)

     Called by h_psi:
     h_psi:calbec :      6.40s CPU      6.63s WALL (   19151 calls)
     vloc_psi     :    150.04s CPU    167.48s WALL (   19151 calls)
     add_vuspsi   :      5.30s CPU      5.48s WALL (   19151 calls)

     General routines
     calbec       :      9.34s CPU      9.61s WALL (   23903 calls)
     fft          :      0.81s CPU      0.96s WALL (     739 calls)
     ffts         :      0.03s CPU      0.04s WALL (     228 calls)
     fftw         :     94.39s CPU    109.45s WALL (  876524 calls)
     interpolate  :      0.14s CPU      0.16s WALL (     116 calls)
 
     Parallel routines
 
     PWSCF        :   5m56.74s CPU   6m26.18s WALL

 
   This run was terminated on:   0:15:52  25Jul2025            

=------------------------------------------------------------------------------=
   JOB DONE.
=------------------------------------------------------------------------------=
