
     Program PWSCF v.7.2 starts on 30May2025 at 13:53: 6 

     This program is part of the open-source Quantum ESPRESSO suite
     for quantum simulation of materials; please cite
         "P. Giannozzi et al., J. Phys.:Condens. Matter 21 395502 (2009);
         "P. Giannozzi et al., J. Phys.:Condens. Matter 29 465901 (2017);
         "P. Giannozzi et al., J. Chem. Phys. 152 154105 (2020);
          URL http://www.quantum-espresso.org", 
     in publications or presentations arising from this work. More details at
     http://www.quantum-espresso.org/quote

     Parallel version (MPI), running on    16 processors

     MPI processes distributed on     1 nodes
     23831 MiB available memory on the printing compute node when the environment starts
 
     Waiting for input...
     Reading input from standard input

     Current dimensions of program PWSCF are:
     Max number of different atomic species (ntypx) = 10
     Max number of k-points (npk) =  40000
     Max angular momentum in pseudopotentials (lmaxx) =  4
     file Co.pbe-n-kjpaw_psl.1.0.0.UPF: wavefunction(s)  4S 3D renormalized
     Message from routine setup:
     using ibrav=0 with symmetry is DISCOURAGED, use correct ibrav instead
 
     R & G space division:  proc/nbgrp/npool/nimage =      16
     Subspace diagonalization in iterative solution of the eigenvalue problem:
     a serial algorithm will be used

 
     Parallelization info
     --------------------
     sticks:   dense  smooth     PW     G-vecs:    dense   smooth      PW
     Min          23      23      7                  627      627     107
     Max          24      24      8                  636      636     112
     Sum         379     379    121                10137    10137    1761
 
     Using Slab Decomposition
 


     bravais-lattice index     =            0
     lattice parameter (alat)  =       4.6676  a.u.
     unit-cell volume          =     143.3333 (a.u.)^3
     number of atoms/cell      =            2
     number of atomic types    =            1
     number of electrons       =        18.00
     number of Kohn-Sham states=           13
     kinetic-energy cutoff     =      65.0000  Ry
     charge density cutoff     =     260.0000  Ry
     scf convergence threshold =      1.0E-06
     mixing beta               =       0.7000
     number of iterations used =            8  plain     mixing
     Exchange-correlation= SLA  PW   PBX  PBC
                           (   1   4   3   4   0   0   0)

     celldm(1)=   4.667624  celldm(2)=   0.000000  celldm(3)=   0.000000
     celldm(4)=   0.000000  celldm(5)=   0.000000  celldm(6)=   0.000000

     crystal axes: (cart. coord. in units of alat)
               a(1) = (   1.000000   0.000000   0.000000 )  
               a(2) = (  -0.500000   0.866025   0.000000 )  
               a(3) = (   0.000000   0.000000   1.627530 )  

     reciprocal axes: (cart. coord. in units 2 pi/alat)
               b(1) = (  1.000000  0.577350  0.000000 )  
               b(2) = (  0.000000  1.154701  0.000000 )  
               b(3) = (  0.000000  0.000000  0.614428 )  


     PseudoPot. # 1 for Co read from file:
     /shared/ESPRESSO/PSLIBRARY/1.0.0/pbe/PSEUDOPOTENTIALS/Co.pbe-n-kjpaw_psl.1.0.0.UPF
     MD5 check sum: 17e7ab8db721b244d1352252ea6cb8e7
     Pseudo is Projector augmented-wave + core cor, Zval =  9.0
     Generated using "atomic" code by A. Dal Corso  (Quantum ESPRESSO distribution)
     Shape of augmentation charge: PSQ
     Using radial grid of 1193 points,  6 beta functions with: 
                l(1) =   0
                l(2) =   0
                l(3) =   1
                l(4) =   1
                l(5) =   2
                l(6) =   2
     Q(r) pseudized with 0 coefficients 


     atomic species   valence    mass     pseudopotential
        Co             9.00    58.93320     Co( 1.00)

     24 Sym. Ops., with inversion, found (12 have fractional translation)



   Cartesian axes

     site n.     atom                  positions (alat units)
         1           Co  tau(   1) = (   0.0000000   0.0000000   0.0000000  )
         2           Co  tau(   2) = (  -0.0000000   0.5773503   0.8137652  )

     number of k points=    96  Fermi-Dirac smearing, width (Ry)=  0.0070
                       cart. coord. in units 2pi/alat
        k(    1) = (   0.0000000   0.0000000   0.0000000), wk =   0.0015026
        k(    2) = (   0.0000000   0.0000000   0.0558571), wk =   0.0030053
        k(    3) = (   0.0000000   0.0000000   0.1117142), wk =   0.0030053
        k(    4) = (   0.0000000   0.0000000   0.1675712), wk =   0.0030053
        k(    5) = (   0.0000000   0.0000000   0.2234283), wk =   0.0030053
        k(    6) = (   0.0000000   0.0000000   0.2792854), wk =   0.0030053
        k(    7) = (   0.0000000   0.1049728   0.0000000), wk =   0.0090158
        k(    8) = (   0.0000000   0.1049728   0.0558571), wk =   0.0180316
        k(    9) = (   0.0000000   0.1049728   0.1117142), wk =   0.0180316
        k(   10) = (   0.0000000   0.1049728   0.1675712), wk =   0.0180316
        k(   11) = (   0.0000000   0.1049728   0.2234283), wk =   0.0180316
        k(   12) = (   0.0000000   0.1049728   0.2792854), wk =   0.0180316
        k(   13) = (   0.0000000   0.2099456   0.0000000), wk =   0.0090158
        k(   14) = (   0.0000000   0.2099456   0.0558571), wk =   0.0180316
        k(   15) = (   0.0000000   0.2099456   0.1117142), wk =   0.0180316
        k(   16) = (   0.0000000   0.2099456   0.1675712), wk =   0.0180316
        k(   17) = (   0.0000000   0.2099456   0.2234283), wk =   0.0180316
        k(   18) = (   0.0000000   0.2099456   0.2792854), wk =   0.0180316
        k(   19) = (   0.0000000   0.3149183   0.0000000), wk =   0.0090158
        k(   20) = (   0.0000000   0.3149183   0.0558571), wk =   0.0180316
        k(   21) = (   0.0000000   0.3149183   0.1117142), wk =   0.0180316
        k(   22) = (   0.0000000   0.3149183   0.1675712), wk =   0.0180316
        k(   23) = (   0.0000000   0.3149183   0.2234283), wk =   0.0180316
        k(   24) = (   0.0000000   0.3149183   0.2792854), wk =   0.0180316
        k(   25) = (   0.0000000   0.4198911   0.0000000), wk =   0.0090158
        k(   26) = (   0.0000000   0.4198911   0.0558571), wk =   0.0180316
        k(   27) = (   0.0000000   0.4198911   0.1117142), wk =   0.0180316
        k(   28) = (   0.0000000   0.4198911   0.1675712), wk =   0.0180316
        k(   29) = (   0.0000000   0.4198911   0.2234283), wk =   0.0180316
        k(   30) = (   0.0000000   0.4198911   0.2792854), wk =   0.0180316
        k(   31) = (   0.0000000   0.5248639   0.0000000), wk =   0.0090158
        k(   32) = (   0.0000000   0.5248639   0.0558571), wk =   0.0180316
        k(   33) = (   0.0000000   0.5248639   0.1117142), wk =   0.0180316
        k(   34) = (   0.0000000   0.5248639   0.1675712), wk =   0.0180316
        k(   35) = (   0.0000000   0.5248639   0.2234283), wk =   0.0180316
        k(   36) = (   0.0000000   0.5248639   0.2792854), wk =   0.0180316
        k(   37) = (   0.0909091   0.1574592   0.0000000), wk =   0.0090158
        k(   38) = (   0.0909091   0.1574592   0.0558571), wk =   0.0180316
        k(   39) = (   0.0909091   0.1574592   0.1117142), wk =   0.0180316
        k(   40) = (   0.0909091   0.1574592   0.1675712), wk =   0.0180316
        k(   41) = (   0.0909091   0.1574592   0.2234283), wk =   0.0180316
        k(   42) = (   0.0909091   0.1574592   0.2792854), wk =   0.0180316
        k(   43) = (   0.0909091   0.2624319   0.0000000), wk =   0.0180316
        k(   44) = (   0.0909091   0.2624319   0.0558571), wk =   0.0360631
        k(   45) = (   0.0909091   0.2624319   0.1117142), wk =   0.0360631
        k(   46) = (   0.0909091   0.2624319   0.1675712), wk =   0.0360631
        k(   47) = (   0.0909091   0.2624319   0.2234283), wk =   0.0360631
        k(   48) = (   0.0909091   0.2624319   0.2792854), wk =   0.0360631
        k(   49) = (   0.0909091   0.3674047   0.0000000), wk =   0.0180316
        k(   50) = (   0.0909091   0.3674047   0.0558571), wk =   0.0360631
        k(   51) = (   0.0909091   0.3674047   0.1117142), wk =   0.0360631
        k(   52) = (   0.0909091   0.3674047   0.1675712), wk =   0.0360631
        k(   53) = (   0.0909091   0.3674047   0.2234283), wk =   0.0360631
        k(   54) = (   0.0909091   0.3674047   0.2792854), wk =   0.0360631
        k(   55) = (   0.0909091   0.4723775   0.0000000), wk =   0.0180316
        k(   56) = (   0.0909091   0.4723775   0.0558571), wk =   0.0360631
        k(   57) = (   0.0909091   0.4723775   0.1117142), wk =   0.0360631
        k(   58) = (   0.0909091   0.4723775   0.1675712), wk =   0.0360631
        k(   59) = (   0.0909091   0.4723775   0.2234283), wk =   0.0360631
        k(   60) = (   0.0909091   0.4723775   0.2792854), wk =   0.0360631
        k(   61) = (   0.0909091   0.5773503   0.0000000), wk =   0.0090158
        k(   62) = (   0.0909091   0.5773503   0.0558571), wk =   0.0180316
        k(   63) = (   0.0909091   0.5773503   0.1117142), wk =   0.0180316
        k(   64) = (   0.0909091   0.5773503   0.1675712), wk =   0.0180316
        k(   65) = (   0.0909091   0.5773503   0.2234283), wk =   0.0180316
        k(   66) = (   0.0909091   0.5773503   0.2792854), wk =   0.0180316
        k(   67) = (   0.1818182   0.3149183   0.0000000), wk =   0.0090158
        k(   68) = (   0.1818182   0.3149183   0.0558571), wk =   0.0180316
        k(   69) = (   0.1818182   0.3149183   0.1117142), wk =   0.0180316
        k(   70) = (   0.1818182   0.3149183   0.1675712), wk =   0.0180316
        k(   71) = (   0.1818182   0.3149183   0.2234283), wk =   0.0180316
        k(   72) = (   0.1818182   0.3149183   0.2792854), wk =   0.0180316
        k(   73) = (   0.1818182   0.4198911   0.0000000), wk =   0.0180316
        k(   74) = (   0.1818182   0.4198911   0.0558571), wk =   0.0360631
        k(   75) = (   0.1818182   0.4198911   0.1117142), wk =   0.0360631
        k(   76) = (   0.1818182   0.4198911   0.1675712), wk =   0.0360631
        k(   77) = (   0.1818182   0.4198911   0.2234283), wk =   0.0360631
        k(   78) = (   0.1818182   0.4198911   0.2792854), wk =   0.0360631
        k(   79) = (   0.1818182   0.5248639   0.0000000), wk =   0.0180316
        k(   80) = (   0.1818182   0.5248639   0.0558571), wk =   0.0360631
        k(   81) = (   0.1818182   0.5248639   0.1117142), wk =   0.0360631
        k(   82) = (   0.1818182   0.5248639   0.1675712), wk =   0.0360631
        k(   83) = (   0.1818182   0.5248639   0.2234283), wk =   0.0360631
        k(   84) = (   0.1818182   0.5248639   0.2792854), wk =   0.0360631
        k(   85) = (   0.2727273   0.4723775   0.0000000), wk =   0.0090158
        k(   86) = (   0.2727273   0.4723775   0.0558571), wk =   0.0180316
        k(   87) = (   0.2727273   0.4723775   0.1117142), wk =   0.0180316
        k(   88) = (   0.2727273   0.4723775   0.1675712), wk =   0.0180316
        k(   89) = (   0.2727273   0.4723775   0.2234283), wk =   0.0180316
        k(   90) = (   0.2727273   0.4723775   0.2792854), wk =   0.0180316
        k(   91) = (   0.2727273   0.5773503   0.0000000), wk =   0.0090158
        k(   92) = (   0.2727273   0.5773503   0.0558571), wk =   0.0180316
        k(   93) = (   0.2727273   0.5773503   0.1117142), wk =   0.0180316
        k(   94) = (   0.2727273   0.5773503   0.1675712), wk =   0.0180316
        k(   95) = (   0.2727273   0.5773503   0.2234283), wk =   0.0180316
        k(   96) = (   0.2727273   0.5773503   0.2792854), wk =   0.0180316

     Dense  grid:    10137 G-vectors     FFT dimensions: (  24,  24,  40)

     Estimated max dynamical RAM per process >       5.17 MB

     Estimated total dynamical RAM >      82.68 MB

     Initial potential from superposition of free atoms

     starting charge      17.9994, renormalised to      18.0000
     Starting wfcs are   18 randomized atomic wfcs
     Checking if some PAW data can be deallocated... 

     total cpu time spent up to now is        0.4 secs

     Self-consistent Calculation

     iteration #  1     ecut=    65.00 Ry     beta= 0.70
     Davidson diagonalization with overlap
     ethr =  1.00E-02,  avg # of iterations =  2.4

     Threshold (ethr) on eigenvalues was too large:
     Diagonalizing with lowered threshold

     Davidson diagonalization with overlap
     c_bands:  1 eigenvalues not converged
     c_bands:  1 eigenvalues not converged
     ethr =  3.16E-05,  avg # of iterations =  7.8

     total cpu time spent up to now is        1.2 secs

     total energy              =    -324.07999554 Ry
     estimated scf accuracy    <       0.02374616 Ry

     iteration #  2     ecut=    65.00 Ry     beta= 0.70
     Davidson diagonalization with overlap
     ethr =  1.32E-04,  avg # of iterations =  2.2

     total cpu time spent up to now is        1.6 secs

     total energy              =    -324.08074089 Ry
     estimated scf accuracy    <       0.06224652 Ry

     iteration #  3     ecut=    65.00 Ry     beta= 0.70
     Davidson diagonalization with overlap
     ethr =  1.32E-04,  avg # of iterations =  2.0

     total cpu time spent up to now is        1.9 secs

     total energy              =    -324.09173830 Ry
     estimated scf accuracy    <       0.00007400 Ry

     iteration #  4     ecut=    65.00 Ry     beta= 0.70
     Davidson diagonalization with overlap
     ethr =  4.11E-07,  avg # of iterations =  5.3

     total cpu time spent up to now is        2.4 secs

     total energy              =    -324.09178834 Ry
     estimated scf accuracy    <       0.00011581 Ry

     iteration #  5     ecut=    65.00 Ry     beta= 0.70
     Davidson diagonalization with overlap
     ethr =  4.11E-07,  avg # of iterations =  2.0

     total cpu time spent up to now is        2.7 secs

     End of self-consistent calculation

          k = 0.0000 0.0000 0.0000 (  1261 PWs)   bands (ev):

     5.1591   9.4687  12.3850  12.4572  12.4572  12.8006  12.8006  13.2218
    13.2218  14.0140  14.3983  14.3983  21.1772

          k = 0.0000 0.0000 0.0559 (  1261 PWs)   bands (ev):

     5.2430   9.4330  12.3600  12.4334  12.4334  12.7759  12.7759  13.2776
    13.2776  13.7313  14.3940  14.3940  21.6434

          k = 0.0000 0.0000 0.1117 (  1261 PWs)   bands (ev):

     5.4922   9.2996  12.2889  12.3851  12.3851  12.7086  12.7086  13.0999
    13.4192  13.4192  14.3760  14.3760  22.8490

          k = 0.0000 0.0000 0.1676 (  1244 PWs)   bands (ev):

     5.8979   8.9988  12.1841  12.3475  12.3475  12.4817  12.6155  12.6155
    13.6033  13.6033  14.3331  14.3331  24.4936

          k = 0.0000 0.0000 0.2234 (  1232 PWs)   bands (ev):

     6.4433   8.4821  12.0671  12.0941  12.3396  12.3396  12.5165  12.5165
    13.7980  13.7980  14.2549  14.2549  26.3934

          k = 0.0000 0.0000 0.2793 (  1244 PWs)   bands (ev):

     7.0984   7.8088  11.9538  11.9723  12.3677  12.3677  12.4294  12.4294
    13.9811  13.9811  14.1366  14.1366  28.4511

          k = 0.0000 0.1050 0.0000 (  1265 PWs)   bands (ev):

     5.4534   9.6596  12.1499  12.6046  12.6332  12.7369  12.8217  12.9314
    13.1284  13.2346  14.4370  15.7646  21.2129

          k = 0.0000 0.1050 0.0559 (  1259 PWs)   bands (ev):

     5.5359   9.6297  12.1503  12.5625  12.5717  12.5782  12.8973  12.9018
    13.2001  13.2644  14.4297  15.5419  21.7149

          k = 0.0000 0.1050 0.1117 (  1260 PWs)   bands (ev):

     5.7808   9.5111  12.1552  12.2909  12.4149  12.5107  12.8309  12.8576
    13.3627  13.3966  14.4034  15.1154  22.9762

          k = 0.0000 0.1050 0.1676 (  1251 PWs)   bands (ev):

     6.1795   9.2261  11.9795  12.1620  12.2479  12.4667  12.7251  12.7369
    13.5611  13.5988  14.3489  14.7555  24.6573

          k = 0.0000 0.1050 0.2234 (  1241 PWs)   bands (ev):

     6.7154   8.7204  11.7907  12.0334  12.2414  12.4573  12.5731  12.6372
    13.7667  13.8216  14.2578  14.4897  26.5778

          k = 0.0000 0.1050 0.2793 (  1243 PWs)   bands (ev):

     7.3590   8.0576  11.7736  11.8746  12.3198  12.4332  12.4860  12.5491
    13.9601  14.0455  14.1270  14.2647  28.6477

          k = 0.0000 0.2099 0.0000 (  1263 PWs)   bands (ev):

     6.3014  10.1202  11.8079  11.8276  12.4951  12.9059  13.0141  13.0170
    13.0216  13.2938  14.5140  17.5483  21.3480

          k = 0.0000 0.2099 0.0559 (  1261 PWs)   bands (ev):

     6.3786  10.1085  11.7334  11.8224  12.4699  12.8345  12.8540  13.1078
    13.2126  13.2863  14.5002  17.1324  21.9759

          k = 0.0000 0.2099 0.1117 (  1263 PWs)   bands (ev):

     6.6073  10.0374  11.5261  11.8605  12.3522  12.7486  12.7624  13.1459
    13.3582  13.4239  14.4567  16.3462  23.3956

          k = 0.0000 0.2099 0.1676 (  1262 PWs)   bands (ev):

     6.9786   9.8002  11.3603  11.9226  12.1624  12.6508  12.7297  13.0681
    13.5389  13.6597  14.3790  15.6150  25.1628

          k = 0.0000 0.2099 0.2234 (  1255 PWs)   bands (ev):

     7.4757   9.3307  11.3551  11.8903  12.0732  12.5147  12.7391  12.9656
    13.7397  13.9275  14.2644  15.0377  27.1203

          k = 0.0000 0.2099 0.2793 (  1259 PWs)   bands (ev):

     8.0703   8.7149  11.4836  11.6802  12.1945  12.3527  12.7872  12.8665
    13.9363  14.1147  14.2334  14.5926  29.1925

          k = 0.0000 0.3149 0.0000 (  1268 PWs)   bands (ev):

     7.5713  10.4324  11.0698  11.6084  12.3970  12.6522  12.7849  13.5604
    13.5987  13.7988  14.5797  19.5465  21.6037

          k = 0.0000 0.3149 0.0559 (  1263 PWs)   bands (ev):

     7.6339  10.4414  11.0266  11.6254  12.3361  12.6708  12.8098  13.5864
    13.6135  13.7767  14.5604  18.7904  22.5124

          k = 0.0000 0.3149 0.1117 (  1269 PWs)   bands (ev):

     7.8182  10.4226  10.9410  11.6702  12.2169  12.7261  12.8206  13.6270
    13.6770  13.7428  14.5044  17.6343  24.1198

          k = 0.0000 0.3149 0.1676 (  1269 PWs)   bands (ev):

     8.1131  10.2373  10.9546  11.7094  12.1218  12.7606  12.8160  13.5407
    13.7999  13.8518  14.4163  16.5829  25.8711

          k = 0.0000 0.3149 0.2234 (  1257 PWs)   bands (ev):

     8.4994   9.8732  11.0952  11.6542  12.1413  12.6314  12.9365  13.3986
    13.9096  14.1225  14.3032  15.7098  27.2657

          k = 0.0000 0.3149 0.2793 (  1261 PWs)   bands (ev):

     8.9485   9.4223  11.2904  11.4922  12.2784  12.4585  13.0809  13.2394
    14.0389  14.1739  14.5044  15.0234  27.9958

          k = 0.0000 0.4199 0.0000 (  1266 PWs)   bands (ev):

     8.9141  10.2974  10.5720  11.6919  12.4424  12.5738  12.5962  14.1721
    14.3128  14.4293  14.6190  21.1392  21.7039

          k = 0.0000 0.4199 0.0559 (  1271 PWs)   bands (ev):

     8.9366  10.2949  10.6073  11.6123  12.4752  12.5480  12.7423  14.1800
    14.2737  14.3996  14.6028  20.0601  22.5467

          k = 0.0000 0.4199 0.1117 (  1259 PWs)   bands (ev):

     9.0049  10.2646  10.6958  11.4948  12.5279  12.5720  13.0315  14.1542
    14.2036  14.3214  14.5633  18.7583  23.1606

          k = 0.0000 0.4199 0.1676 (  1263 PWs)   bands (ev):

     9.1200  10.1522  10.8174  11.4494  12.5527  12.7280  13.3280  13.9615
    14.2403  14.2542  14.5135  17.5494  23.6039

          k = 0.0000 0.4199 0.2234 (  1262 PWs)   bands (ev):

     9.2813   9.9521  10.9723  11.4140  12.6934  12.9349  13.4257  13.7169
    14.2878  14.3994  14.4586  16.4822  24.0800

          k = 0.0000 0.4199 0.2793 (  1260 PWs)   bands (ev):

     9.4837   9.7151  11.1471  11.3085  12.9543  13.1804  13.2431  13.4481
    14.3425  14.4006  14.8770  15.5847  24.6376

          k = 0.0000 0.5249 0.0000 (  1260 PWs)   bands (ev):

     9.7302  10.0699  10.3269  11.9889  12.3252  12.4502  12.7921  14.5149
    14.6358  14.6665  15.7383  18.7987  23.7715

          k = 0.0000 0.5249 0.0559 (  1267 PWs)   bands (ev):

     9.6633  10.0583  10.4806  11.6758  12.3629  12.7836  12.8365  14.4976
    14.5820  14.6806  15.6690  18.6833  23.2638

          k = 0.0000 0.5249 0.1117 (  1270 PWs)   bands (ev):

     9.5567  10.0653  10.7594  11.3146  12.4742  12.7809  13.4378  14.3602
    14.5570  14.6803  15.4616  18.3298  22.6400

          k = 0.0000 0.5249 0.1676 (  1265 PWs)   bands (ev):

     9.4995  10.0370  10.9327  11.1742  12.6541  12.8590  14.0951  14.1157
    14.5671  14.6688  15.1222  17.7587  22.2882

          k = 0.0000 0.5249 0.2234 (  1272 PWs)   bands (ev):

     9.5148   9.9167  10.9606  11.2284  12.8937  13.1178  13.8165  14.5853
    14.5995  14.6510  14.8576  17.0520  22.2192

          k = 0.0000 0.5249 0.2793 (  1267 PWs)   bands (ev):

     9.6024   9.7484  11.0612  11.1798  13.1801  13.4953  13.5647  14.1037
    14.6070  14.6297  15.5477  16.2980  22.3804

          k = 0.0909 0.1575 0.0000 (  1260 PWs)   bands (ev):

     6.0257   9.9946  11.8784  12.0935  12.5871  12.8219  12.8576  12.9046
    13.1856  13.2189  14.4792  17.0520  21.3018

          k = 0.0909 0.1575 0.0559 (  1266 PWs)   bands (ev):

     6.1049   9.9770  11.8886  11.9750  12.6283  12.6346  12.8471  13.0096
    13.2357  13.2543  14.4686  16.6976  21.8844

          k = 0.0909 0.1575 0.1117 (  1260 PWs)   bands (ev):

     6.3398   9.8900  11.7267  11.9213  12.4198  12.6696  12.7486  13.0333
    13.3765  13.3962  14.4334  16.0101  23.2531

          k = 0.0909 0.1575 0.1676 (  1255 PWs)   bands (ev):

     6.7218   9.6368  11.5148  11.9790  12.1973  12.6329  12.6796  12.9593
    13.5710  13.6088  14.3672  15.3735  24.9962

          k = 0.0909 0.1575 0.2234 (  1253 PWs)   bands (ev):

     7.2342   9.1527  11.4617  11.9500  12.0884  12.5023  12.6797  12.8649
    13.7615  13.8719  14.2659  14.8779  26.9472

          k = 0.0909 0.1575 0.2793 (  1253 PWs)   bands (ev):

     7.8487   8.5161  11.5574  11.7375  12.2048  12.3505  12.7125  12.7774
    13.9484  14.0966  14.1912  14.4932  29.0303

          k = 0.0909 0.2624 0.0000 (  1264 PWs)   bands (ev):

     7.0965  10.4462  11.3418  11.5376  12.4330  12.5733  13.0176  13.1423
    13.4403  13.7446  14.5264  18.8328  21.5394

          k = 0.0909 0.2624 0.0559 (  1264 PWs)   bands (ev):

     7.1665  10.4535  11.2712  11.5563  12.3941  12.5839  12.9526  13.1947
    13.4987  13.7282  14.5143  18.2286  22.3206

          k = 0.0909 0.2624 0.1117 (  1262 PWs)   bands (ev):

     7.3735  10.4305  11.1181  11.6072  12.2838  12.5969  12.8569  13.2865
    13.6260  13.7047  14.4767  17.2067  23.8718

          k = 0.0909 0.2624 0.1676 (  1262 PWs)   bands (ev):

     7.7075  10.2218  11.0617  11.6823  12.1262  12.5402  12.8355  13.3197
    13.7537  13.7949  14.4113  16.2632  25.6855

          k = 0.0909 0.2624 0.2234 (  1262 PWs)   bands (ev):

     8.1509   9.7844  11.1740  11.7231  11.9994  12.3988  12.9018  13.2449
    13.8991  14.0284  14.3230  15.4872  27.6299

          k = 0.0909 0.2624 0.2793 (  1270 PWs)   bands (ev):

     8.6754   9.2395  11.3674  11.5809  12.0669  12.2275  13.0064  13.1272
    14.0458  14.1719  14.4167  14.8780  29.5202

          k = 0.0909 0.3674 0.0000 (  1271 PWs)   bands (ev):

     8.4518  10.5192  10.7818  11.4585  12.3597  12.4912  12.7664  13.6532
    14.0358  14.4373  14.5620  20.8776  21.8028

          k = 0.0909 0.3674 0.0559 (  1269 PWs)   bands (ev):

     8.4978  10.5351  10.7598  11.4714  12.3078  12.5574  12.7618  13.6547
    14.0620  14.3476  14.6026  19.7920  22.9704

          k = 0.0909 0.3674 0.1117 (  1268 PWs)   bands (ev):

     8.6321  10.5129  10.7538  11.5153  12.2269  12.6775  12.7468  13.6691
    14.1346  14.1850  14.6333  18.4764  24.3791

          k = 0.0909 0.3674 0.1676 (  1268 PWs)   bands (ev):

     8.8438  10.3376  10.8689  11.5742  12.1638  12.6911  12.8273  13.6851
    14.0553  14.2432  14.6293  17.2938  25.1977

          k = 0.0909 0.3674 0.2234 (  1269 PWs)   bands (ev):

     9.1161  10.0679  11.0517  11.5705  12.1783  12.6019  12.9732  13.5616
    14.1509  14.3813  14.6199  16.2791  25.7724

          k = 0.0909 0.3674 0.2793 (  1268 PWs)   bands (ev):

     9.4274   9.7537  11.2580  11.4492  12.2998  12.4618  13.1449  13.3493
    14.3309  14.4315  14.8530  15.4534  26.3881

          k = 0.0909 0.4724 0.0000 (  1273 PWs)   bands (ev):

     9.5789  10.2910  10.4465  11.6640  12.2584  12.5253  12.7340  14.2506
    14.4684  14.5804  15.3977  20.2289  23.0549

          k = 0.0909 0.4724 0.0559 (  1275 PWs)   bands (ev):

     9.5601  10.2817  10.5390  11.5388  12.3043  12.6434  12.7541  14.2351
    14.4848  14.5196  15.3865  19.9359  22.7196

          k = 0.0909 0.4724 0.1117 (  1271 PWs)   bands (ev):

     9.5327  10.2750  10.7133  11.3733  12.3251  12.7865  12.9668  14.1728
    14.3725  14.5366  15.3548  19.1612  22.5240

          k = 0.0909 0.4724 0.1676 (  1272 PWs)   bands (ev):

     9.5387  10.2148  10.8518  11.3610  12.3382  12.9158  13.2555  13.9908
    14.2834  14.6144  15.3285  18.1897  22.6325

          k = 0.0909 0.4724 0.2234 (  1267 PWs)   bands (ev):

     9.5988  10.0640  10.9846  11.3941  12.4575  13.0741  13.3700  13.7512
    14.3310  14.6672  15.4150  17.2352  22.9374

          k = 0.0909 0.4724 0.2793 (  1272 PWs)   bands (ev):

     9.7156   9.8794  11.1511  11.3110  12.7273  13.0284  13.4050  13.5708
    14.4748  14.6123  15.7726  16.4048  23.3878

          k = 0.0909 0.5774 0.0000 (  1274 PWs)   bands (ev):

    10.0017  10.1200  10.3356  11.8811  12.2535  12.4049  12.8432  14.5617
    14.5792  14.5856  16.5006  18.3568  24.5502

          k = 0.0909 0.5774 0.0559 (  1270 PWs)   bands (ev):

     9.8782  10.1370  10.5256  11.6132  12.2605  12.7076  12.8576  14.5009
    14.5754  14.5919  16.4583  18.3084  24.2118

          k = 0.0909 0.5774 0.1117 (  1271 PWs)   bands (ev):

     9.7346  10.1718  10.8517  11.2588  12.2711  12.9261  13.1591  14.3181
    14.5646  14.6249  16.3464  18.1566  23.5424

          k = 0.0909 0.5774 0.1676 (  1275 PWs)   bands (ev):

     9.6612  10.1660  11.0303  11.1567  12.3020  13.0902  13.5162  14.0700
    14.5484  14.6666  16.2324  17.8875  22.9135

          k = 0.0909 0.5774 0.2234 (  1272 PWs)   bands (ev):

     9.6670  10.0552  11.0028  11.3027  12.4594  13.3506  13.5069  13.9554
    14.5310  14.6527  16.2729  17.4999  22.4934

          k = 0.0909 0.5774 0.2793 (  1269 PWs)   bands (ev):

     9.7479   9.8895  11.1139  11.2509  12.7820  13.1675  13.6579  13.8971
    14.5253  14.5667  16.5741  17.0316  22.2293

          k = 0.1818 0.3149 0.0000 (  1268 PWs)   bands (ev):

     8.2883  10.7845  10.9021  11.1716  12.2656  12.4768  12.8797  13.3462
    14.0250  14.4674  14.5091  20.6038  21.9832

          k = 0.1818 0.3149 0.0559 (  1269 PWs)   bands (ev):

     8.3422  10.8094  10.8642  11.1904  12.2609  12.4790  12.8382  13.3683
    14.0633  14.3297  14.6056  19.6558  23.0662

          k = 0.1818 0.3149 0.1117 (  1267 PWs)   bands (ev):

     8.5001  10.7187  10.9104  11.2470  12.2306  12.4707  12.7571  13.4458
    14.1489  14.1569  14.6773  18.3859  24.7328

          k = 0.1818 0.3149 0.1676 (  1269 PWs)   bands (ev):

     8.7504  10.4939  11.0486  11.3389  12.1492  12.3824  12.7567  13.5506
    14.0181  14.2691  14.7132  17.2365  26.4935

          k = 0.1818 0.3149 0.2234 (  1267 PWs)   bands (ev):

     9.0737  10.1874  11.2229  11.4491  12.0274  12.2141  12.8720  13.4791
    14.1594  14.3733  14.7393  16.2517  27.7450

          k = 0.1818 0.3149 0.2793 (  1272 PWs)   bands (ev):

     9.4430   9.8259  11.4015  11.5044  11.9521  12.0402  13.0545  13.2711
    14.4160  14.4460  14.9039  15.4522  28.3059

          k = 0.1818 0.4199 0.0000 (  1264 PWs)   bands (ev):

     9.5483  10.5980  10.6875  11.1683  12.1067  12.6229  12.6924  13.7284
    14.4640  14.4907  15.4328  21.9802  22.6813

          k = 0.1818 0.4199 0.0559 (  1271 PWs)   bands (ev):

     9.5668  10.5826  10.7186  11.1948  12.1294  12.5817  12.7065  13.7354
    14.4149  14.4927  15.4606  20.9940  23.2386

          k = 0.1818 0.4199 0.1117 (  1273 PWs)   bands (ev):

     9.6217  10.5318  10.8036  11.2853  12.1584  12.4885  12.7488  13.7651
    14.2299  14.5645  15.5258  19.7165  23.6287

          k = 0.1818 0.4199 0.1676 (  1269 PWs)   bands (ev):

     9.7114  10.4337  10.9420  11.4344  12.1146  12.3953  12.8255  13.7635
    14.0936  14.6453  15.6155  18.5275  24.0307

          k = 0.1818 0.4199 0.2234 (  1274 PWs)   bands (ev):

     9.8324  10.2961  11.1274  11.5719  12.0195  12.3117  12.9291  13.5503
    14.2529  14.6934  15.7669  17.4894  24.5299

          k = 0.1818 0.4199 0.2793 (  1271 PWs)   bands (ev):

     9.9783  10.1380  11.3387  11.5296  12.0560  12.1950  13.0781  13.2916
    14.5016  14.6598  16.0790  16.6538  25.1279

          k = 0.1818 0.5249 0.0000 (  1278 PWs)   bands (ev):

    10.2546  10.4475  10.4808  11.4308  12.1095  12.3712  12.9013  14.1939
    14.4796  14.5554  16.8041  19.5754  24.5082

          k = 0.1818 0.5249 0.0559 (  1274 PWs)   bands (ev):

    10.1540  10.4947  10.6102  11.3504  12.1179  12.4200  12.9213  14.1925
    14.4048  14.5753  16.8310  19.5339  23.8564

          k = 0.1818 0.5249 0.1117 (  1278 PWs)   bands (ev):

    10.0518  10.5490  10.8332  11.2354  12.0720  12.5421  12.9889  14.1531
    14.2491  14.6208  16.9099  19.3801  23.0556

          k = 0.1818 0.5249 0.1676 (  1278 PWs)   bands (ev):

    10.0105  10.5475  10.9403  11.3610  11.9577  12.6356  13.1047  13.9110
    14.2546  14.6613  17.0477  19.0567  22.5587

          k = 0.1818 0.5249 0.2234 (  1281 PWs)   bands (ev):

    10.0341  10.4174  11.0715  11.5853  11.8780  12.6125  13.2349  13.6568
    14.3332  14.6570  17.2705  18.5792  22.4423

          k = 0.1818 0.5249 0.2793 (  1281 PWs)   bands (ev):

    10.1186  10.2538  11.2687  11.4784  12.1255  12.4262  13.3527  13.4770
    14.4584  14.5838  17.6076  18.0604  22.6423

          k = 0.2727 0.4724 0.0000 (  1270 PWs)   bands (ev):

    10.4271  10.5229  10.9048  10.9211  12.0130  12.3715  12.9451  13.9332
    14.4258  14.5534  16.8601  21.6295  21.9837

          k = 0.2727 0.4724 0.0559 (  1274 PWs)   bands (ev):

    10.4353  10.5111  10.9233  10.9619  12.0462  12.3226  12.9427  13.9454
    14.3486  14.5738  16.9067  21.4552  22.0696

          k = 0.2727 0.4724 0.1117 (  1271 PWs)   bands (ev):

    10.4517  10.4921  10.9488  11.1106  12.1169  12.1899  12.9396  13.9731
    14.1621  14.6209  17.0359  20.8961  22.3203

          k = 0.2727 0.4724 0.1676 (  1283 PWs)   bands (ev):

    10.4626  10.4807  11.0280  11.3179  12.0031  12.1631  12.9494  13.8135
    14.1456  14.6621  17.2375  20.0812  22.7160

          k = 0.2727 0.4724 0.2234 (  1279 PWs)   bands (ev):

    10.4664  10.4758  11.1672  11.5545  11.7922  12.1317  12.9945  13.5297
    14.2952  14.6630  17.5266  19.2433  23.2259

          k = 0.2727 0.4724 0.2793 (  1283 PWs)   bands (ev):

    10.4690  10.4725  11.3514  11.5595  11.8071  12.0063  13.0989  13.2788
    14.4661  14.5987  17.9405  18.5127  23.7905

          k = 0.2727 0.5774 0.0000 (  1272 PWs)   bands (ev):

    10.5077  10.6721  10.7834  11.1336  12.0598  12.1863  13.0711  14.1842
    14.3858  14.4009  18.5163  19.5167  21.6029

          k = 0.2727 0.5774 0.0559 (  1275 PWs)   bands (ev):

    10.4881  10.7378  10.8096  11.1147  12.0485  12.1761  13.0692  14.1962
    14.3180  14.4041  18.6000  19.5304  21.6467

          k = 0.2727 0.5774 0.1117 (  1282 PWs)   bands (ev):

    10.4761  10.8829  10.8851  11.0586  12.0121  12.1484  13.0677  14.1038
    14.2316  14.4437  18.8240  19.5712  21.7659

          k = 0.2727 0.5774 0.1676 (  1278 PWs)   bands (ev):

    10.4982  10.9705  11.0011  11.0646  11.9493  12.1050  13.0764  13.8223
    14.2883  14.4835  19.1263  19.6352  21.9196

          k = 0.2727 0.5774 0.2234 (  1284 PWs)   bands (ev):

    10.5547  10.8615  11.1407  11.2424  11.8776  12.0380  13.1085  13.5438
    14.3589  14.5003  19.4323  19.7058  22.0568

          k = 0.2727 0.5774 0.2793 (  1293 PWs)   bands (ev):

    10.6404  10.7466  11.2734  11.3322  11.8613  11.9419  13.1825  13.3232
    14.4294  14.4814  19.6559  19.7371  22.2217

     the Fermi energy is    14.2838 ev

!    total energy              =    -324.09181076 Ry
     total all-electron energy =     -5573.779163 Ry
     estimated scf accuracy    <       0.00000083 Ry
     smearing contrib. (-TS)   =      -0.01260635 Ry
     internal energy E=F+TS    =    -324.07920441 Ry

     The total energy is F=E-TS. E is the sum of the following terms:
     one-electron contribution =       0.92545630 Ry
     hartree contribution      =      25.95174046 Ry
     xc contribution           =     -65.21031139 Ry
     ewald contribution        =    -112.64113270 Ry
     one-center paw contrib.   =    -173.10495708 Ry

     convergence has been achieved in   5 iterations

     Forces acting on atoms (cartesian axes, Ry/au):

     atom    1 type  1   force =     0.00000000    0.00000000    0.00000000
     atom    2 type  1   force =     0.00000000    0.00000000    0.00000000
     The non-local contrib.  to forces
     atom    1 type  1   force =    -0.00000000   -0.00000000    0.00000000
     atom    2 type  1   force =     0.00000000    0.00000000    0.00000000
     The ionic contribution  to forces
     atom    1 type  1   force =    -0.00000000    0.00000000   -0.00000000
     atom    2 type  1   force =    -0.00000000    0.00000000    0.00000000
     The local contribution  to forces
     atom    1 type  1   force =    -0.00000000   -0.00000000   -0.00000000
     atom    2 type  1   force =     0.00000000   -0.00000000    0.00000000
     The core correction contribution to forces
     atom    1 type  1   force =    -0.00000000    0.00000000   -0.00000000
     atom    2 type  1   force =     0.00000000   -0.00000000   -0.00000000
     The Hubbard contrib.    to forces
     atom    1 type  1   force =     0.00000000    0.00000000    0.00000000
     atom    2 type  1   force =     0.00000000    0.00000000    0.00000000
     The SCF correction term to forces
     atom    1 type  1   force =     0.00000000    0.00000000   -0.00000000
     atom    2 type  1   force =    -0.00000000    0.00000000    0.00000000

     Total force =     0.000000     Total SCF correction =     0.000000


     Computing stress (Cartesian axis) and pressure

          total   stress  (Ry/bohr**3)                   (kbar)     P=      -42.02
  -0.00021885  -0.00000000   0.00000000          -32.19       -0.00        0.00
  -0.00000000  -0.00021885   0.00000000           -0.00      -32.19        0.00
   0.00000000   0.00000000  -0.00041917            0.00        0.00      -61.66


     Writing all to output data dir ./tmp/scf.save/
 
     init_run     :      0.15s CPU      0.21s WALL (       1 calls)
     electrons    :      2.08s CPU      2.32s WALL (       1 calls)
     forces       :      0.02s CPU      0.02s WALL (       1 calls)
     stress       :      0.10s CPU      0.10s WALL (       1 calls)

     Called by init_run:
     wfcinit      :      0.08s CPU      0.10s WALL (       1 calls)
     potinit      :      0.04s CPU      0.05s WALL (       1 calls)
     hinit0       :      0.03s CPU      0.06s WALL (       1 calls)

     Called by electrons:
     c_bands      :      1.73s CPU      1.91s WALL (       6 calls)
     sum_band     :      0.17s CPU      0.20s WALL (       6 calls)
     v_of_rho     :      0.00s CPU      0.00s WALL (       6 calls)
     newd         :      0.01s CPU      0.01s WALL (       6 calls)
     PAW_pot      :      0.21s CPU      0.24s WALL (       6 calls)
     mix_rho      :      0.00s CPU      0.00s WALL (       6 calls)

     Called by c_bands:
     init_us_2    :      0.02s CPU      0.02s WALL (    1440 calls)
     init_us_2:cp :      0.02s CPU      0.02s WALL (    1440 calls)
     cegterg      :      1.42s CPU      1.57s WALL (     576 calls)

     Called by *egterg:
     cdiaghg      :      0.34s CPU      0.38s WALL (    2559 calls)
     h_psi        :      1.02s CPU      1.14s WALL (    2751 calls)
     s_psi        :      0.02s CPU      0.02s WALL (    2751 calls)
     g_psi        :      0.00s CPU      0.00s WALL (    2079 calls)

     Called by h_psi:
     h_psi:calbec :      0.03s CPU      0.04s WALL (    2751 calls)
     vloc_psi     :      0.96s CPU      1.07s WALL (    2751 calls)
     add_vuspsi   :      0.02s CPU      0.02s WALL (    2751 calls)

     General routines
     calbec       :      0.05s CPU      0.06s WALL (    3807 calls)
     fft          :      0.01s CPU      0.04s WALL (      92 calls)
     ffts         :      0.00s CPU      0.00s WALL (       6 calls)
     fftw         :      1.00s CPU      1.12s WALL (   60396 calls)
 
     Parallel routines
 
     PWSCF        :      2.49s CPU      2.88s WALL

 
   This run was terminated on:  13:53: 9  30May2025            

=------------------------------------------------------------------------------=
   JOB DONE.
=------------------------------------------------------------------------------=
