
     Program PWSCF v.7.2 starts on  5Jun2025 at 12:38:58 

     This program is part of the open-source Quantum ESPRESSO suite
     for quantum simulation of materials; please cite
         "P. Giannozzi et al., J. Phys.:Condens. Matter 21 395502 (2009);
         "P. Giannozzi et al., J. Phys.:Condens. Matter 29 465901 (2017);
         "P. Giannozzi et al., J. Chem. Phys. 152 154105 (2020);
          URL http://www.quantum-espresso.org", 
     in publications or presentations arising from this work. More details at
     http://www.quantum-espresso.org/quote

     Parallel version (MPI), running on    16 processors

     MPI processes distributed on     1 nodes
     40467 MiB available memory on the printing compute node when the environment starts
 
     Waiting for input...
     Reading input from standard input

     Current dimensions of program PWSCF are:
     Max number of different atomic species (ntypx) = 10
     Max number of k-points (npk) =  40000
     Max angular momentum in pseudopotentials (lmaxx) =  4
     file Co.pbe-n-kjpaw_psl.1.0.0.UPF: wavefunction(s)  4S 3D renormalized
     Message from routine setup:
     using ibrav=0 with symmetry is DISCOURAGED, use correct ibrav instead
 
     R & G space division:  proc/nbgrp/npool/nimage =      16
     Subspace diagonalization in iterative solution of the eigenvalue problem:
     a serial algorithm will be used

 
     Parallelization info
     --------------------
     sticks:   dense  smooth     PW     G-vecs:    dense   smooth      PW
     Min          27      27      8                 2875     2875     501
     Max          28      28      9                 2906     2906     517
     Sum         439     439    139                46159    46159    8097
 
     Using Slab Decomposition
 


     bravais-lattice index     =            0
     lattice parameter (alat)  =       4.6298  a.u.
     unit-cell volume          =     526.1998 (a.u.)^3
     number of atoms/cell      =            1
     number of atomic types    =            1
     number of electrons       =         9.00
     number of Kohn-Sham states=            9
     kinetic-energy cutoff     =      75.0000  Ry
     charge density cutoff     =     300.0000  Ry
     scf convergence threshold =      1.0E-06
     mixing beta               =       0.7000
     number of iterations used =            8  plain     mixing
     Exchange-correlation= SLA  PW   PBX  PBC
                           (   1   4   3   4   0   0   0)

     celldm(1)=   4.629829  celldm(2)=   0.000000  celldm(3)=   0.000000
     celldm(4)=   0.000000  celldm(5)=   0.000000  celldm(6)=   0.000000

     crystal axes: (cart. coord. in units of alat)
               a(1) = (   1.000000   0.000000   0.000000 )  
               a(2) = (   0.500000   0.866025   0.000000 )  
               a(3) = (   0.000000   0.000000   6.122449 )  

     reciprocal axes: (cart. coord. in units 2 pi/alat)
               b(1) = (  1.000000 -0.577350  0.000000 )  
               b(2) = (  0.000000  1.154701  0.000000 )  
               b(3) = (  0.000000  0.000000  0.163333 )  


     PseudoPot. # 1 for Co read from file:
     /shared/ESPRESSO/PSLIBRARY/1.0.0/pbe/PSEUDOPOTENTIALS/Co.pbe-n-kjpaw_psl.1.0.0.UPF
     MD5 check sum: 17e7ab8db721b244d1352252ea6cb8e7
     Pseudo is Projector augmented-wave + core cor, Zval =  9.0
     Generated using "atomic" code by A. Dal Corso  (Quantum ESPRESSO distribution)
     Shape of augmentation charge: PSQ
     Using radial grid of 1193 points,  6 beta functions with: 
                l(1) =   0
                l(2) =   0
                l(3) =   1
                l(4) =   1
                l(5) =   2
                l(6) =   2
     Q(r) pseudized with 0 coefficients 


     atomic species   valence    mass     pseudopotential
        Co             9.00    58.93320     Co( 1.00)

     24 Sym. Ops., with inversion, found



   Cartesian axes

     site n.     atom                  positions (alat units)
         1           Co  tau(   1) = (   0.0000000   0.0000000   3.0612245  )

     number of k points=    30  Fermi-Dirac smearing, width (Ry)=  0.0070
                       cart. coord. in units 2pi/alat
        k(    1) = (   0.0000000   0.0000000   0.0000000), wk =   0.0078125
        k(    2) = (   0.0000000   0.0721688   0.0000000), wk =   0.0468750
        k(    3) = (   0.0000000   0.1443376   0.0000000), wk =   0.0468750
        k(    4) = (   0.0000000   0.2165064   0.0000000), wk =   0.0468750
        k(    5) = (   0.0000000   0.2886751   0.0000000), wk =   0.0468750
        k(    6) = (   0.0000000   0.3608439   0.0000000), wk =   0.0468750
        k(    7) = (   0.0000000   0.4330127   0.0000000), wk =   0.0468750
        k(    8) = (   0.0000000   0.5051815   0.0000000), wk =   0.0468750
        k(    9) = (   0.0000000  -0.5773503   0.0000000), wk =   0.0234375
        k(   10) = (   0.0625000   0.1082532   0.0000000), wk =   0.0468750
        k(   11) = (   0.0625000   0.1804220   0.0000000), wk =   0.0937500
        k(   12) = (   0.0625000   0.2525907   0.0000000), wk =   0.0937500
        k(   13) = (   0.0625000   0.3247595   0.0000000), wk =   0.0937500
        k(   14) = (   0.0625000   0.3969283   0.0000000), wk =   0.0937500
        k(   15) = (   0.0625000   0.4690971   0.0000000), wk =   0.0937500
        k(   16) = (   0.0625000  -0.6134347   0.0000000), wk =   0.0937500
        k(   17) = (   0.1250000   0.2165064   0.0000000), wk =   0.0468750
        k(   18) = (   0.1250000   0.2886751   0.0000000), wk =   0.0937500
        k(   19) = (   0.1250000   0.3608439   0.0000000), wk =   0.0937500
        k(   20) = (   0.1250000   0.4330127   0.0000000), wk =   0.0937500
        k(   21) = (   0.1250000  -0.6495191   0.0000000), wk =   0.0937500
        k(   22) = (   0.1250000  -0.5773503   0.0000000), wk =   0.0468750
        k(   23) = (   0.1875000   0.3247595   0.0000000), wk =   0.0468750
        k(   24) = (   0.1875000   0.3969283   0.0000000), wk =   0.0937500
        k(   25) = (   0.1875000  -0.6856034   0.0000000), wk =   0.0937500
        k(   26) = (   0.1875000  -0.6134347   0.0000000), wk =   0.0937500
        k(   27) = (   0.2500000  -0.7216878   0.0000000), wk =   0.0468750
        k(   28) = (   0.2500000  -0.6495191   0.0000000), wk =   0.0937500
        k(   29) = (   0.2500000  -0.5773503   0.0000000), wk =   0.0468750
        k(   30) = (   0.3125000  -0.6134347   0.0000000), wk =   0.0468750

     Dense  grid:    46159 G-vectors     FFT dimensions: (  25,  25, 160)

     Estimated max dynamical RAM per process >      13.50 MB

     Estimated total dynamical RAM >     215.99 MB

     Initial potential from superposition of free atoms

     starting charge       8.9997, renormalised to       9.0000

     negative rho (up, down):  1.412E-04 0.000E+00
     Starting wfcs are    9 randomized atomic wfcs
     Checking if some PAW data can be deallocated... 

     total cpu time spent up to now is        0.3 secs

     Self-consistent Calculation

     iteration #  1     ecut=    75.00 Ry     beta= 0.70
     Davidson diagonalization with overlap
     ethr =  1.00E-02,  avg # of iterations =  5.1

     negative rho (up, down):  1.628E-04 0.000E+00

     total cpu time spent up to now is        0.6 secs

     total energy              =    -161.83222728 Ry
     estimated scf accuracy    <       0.14432612 Ry

     iteration #  2     ecut=    75.00 Ry     beta= 0.70
     Davidson diagonalization with overlap
     ethr =  1.60E-03,  avg # of iterations =  3.5

     negative rho (up, down):  1.137E-04 0.000E+00

     total cpu time spent up to now is        0.8 secs

     total energy              =    -161.72652328 Ry
     estimated scf accuracy    <       1.49770873 Ry

     iteration #  3     ecut=    75.00 Ry     beta= 0.70
     Davidson diagonalization with overlap
     ethr =  1.60E-03,  avg # of iterations =  2.0

     negative rho (up, down):  1.448E-04 0.000E+00

     total cpu time spent up to now is        1.0 secs

     total energy              =    -161.91770454 Ry
     estimated scf accuracy    <       0.00290863 Ry

     iteration #  4     ecut=    75.00 Ry     beta= 0.70
     Davidson diagonalization with overlap
     ethr =  3.23E-05,  avg # of iterations =  6.6

     negative rho (up, down):  1.600E-04 0.000E+00

     total cpu time spent up to now is        1.3 secs

     total energy              =    -161.91827941 Ry
     estimated scf accuracy    <       0.00022881 Ry

     iteration #  5     ecut=    75.00 Ry     beta= 0.70
     Davidson diagonalization with overlap
     ethr =  2.54E-06,  avg # of iterations =  4.8

     negative rho (up, down):  1.701E-04 0.000E+00

     total cpu time spent up to now is        1.5 secs

     total energy              =    -161.91832480 Ry
     estimated scf accuracy    <       0.00004137 Ry

     iteration #  6     ecut=    75.00 Ry     beta= 0.70
     Davidson diagonalization with overlap
     ethr =  4.60E-07,  avg # of iterations =  1.4

     negative rho (up, down):  1.736E-04 0.000E+00

     total cpu time spent up to now is        1.7 secs

     total energy              =    -161.91833169 Ry
     estimated scf accuracy    <       0.00000323 Ry

     iteration #  7     ecut=    75.00 Ry     beta= 0.70
     Davidson diagonalization with overlap
     ethr =  3.59E-08,  avg # of iterations =  1.9

     negative rho (up, down):  1.740E-04 0.000E+00

     total cpu time spent up to now is        1.9 secs

     End of self-consistent calculation

          k = 0.0000 0.0000 0.0000 (  5779 PWs)   bands (ev):

    -8.2266  -4.0505  -3.9557  -3.9557  -2.4364  -2.4364  -1.8184   2.1942
     3.0667

          k = 0.0000 0.0722 0.0000 (  5793 PWs)   bands (ev):

    -8.0790  -4.0135  -3.9994  -3.8879  -2.7671  -2.4506  -1.4051   2.3199
     3.2061

          k = 0.0000 0.1443 0.0000 (  5809 PWs)   bands (ev):

    -7.6486  -4.1450  -3.8731  -3.6916  -3.2279  -2.4912  -0.6873   2.6976
     3.6210

          k = 0.0000 0.2165 0.0000 (  5825 PWs)   bands (ev):

    -6.9884  -4.2898  -3.6749  -3.6466  -3.3879  -2.5515   0.1865   3.3273
     4.3031

          k = 0.0000 0.2887 0.0000 (  5793 PWs)   bands (ev):

    -6.2764  -4.2432  -4.0042  -3.4351  -3.0127  -2.6221   1.2254   4.2089
     5.2435

          k = 0.0000 0.3608 0.0000 (  5791 PWs)   bands (ev):

    -5.9059  -4.2915  -3.6290  -3.1591  -2.6922  -2.6165   2.4434   5.3378
     6.4368

          k = 0.0000 0.4330 0.0000 (  5781 PWs)   bands (ev):

    -5.8987  -4.5016  -3.0663  -2.7511  -2.2706  -2.2617   3.8404   6.6117
     7.6017

          k = 0.0000 0.5052 0.0000 (  5767 PWs)   bands (ev):

    -5.9708  -4.6297  -2.9092  -2.7903  -2.0135  -0.8940   5.3610   5.6792
     8.5130

          k = 0.0000-0.5774 0.0000 (  5758 PWs)   bands (ev):

    -6.0036  -4.6727  -2.8588  -2.8040  -1.9240  -0.1394   4.7357   6.4090
     8.6166

          k = 0.0625 0.1083 0.0000 (  5803 PWs)   bands (ev):

    -7.7893  -4.1073  -3.9196  -3.7485  -3.1051  -2.4808  -0.8945   2.5716
     3.4833

          k = 0.0625 0.1804 0.0000 (  5814 PWs)   bands (ev):

    -7.2367  -4.2717  -3.7559  -3.4978  -3.4802  -2.5387  -0.1381   3.0753
     4.0317

          k = 0.0625 0.2526 0.0000 (  5798 PWs)   bands (ev):

    -6.5122  -4.3924  -3.8574  -3.5345  -3.1071  -2.6147   0.8008   3.8315
     4.8430

          k = 0.0625 0.3248 0.0000 (  5794 PWs)   bands (ev):

    -5.9159  -4.1791  -4.1594  -3.2845  -2.6970  -2.6446   1.9223   4.8401
     6.0162

          k = 0.0625 0.3969 0.0000 (  5778 PWs)   bands (ev):

    -5.7791  -4.3929  -3.4462  -3.0079  -2.7729  -2.0387   3.2303   6.0808
     7.2418

          k = 0.0625 0.4691 0.0000 (  5751 PWs)   bands (ev):

    -5.8491  -4.5514  -2.9921  -2.8309  -2.5602  -1.0561   4.7071   6.5914
     7.8396

          k = 0.0625-0.6134 0.0000 (  5755 PWs)   bands (ev):

    -5.9136  -4.6315  -2.8686  -2.8622  -2.2751   0.0546   5.0508   6.1842
     9.0695

          k = 0.1250 0.2165 0.0000 (  5791 PWs)   bands (ev):

    -6.5940  -4.4616  -3.7935  -3.5708  -3.1150  -2.6250   0.6587   3.7059
     4.7089

          k = 0.1250 0.2887 0.0000 (  5786 PWs)   bands (ev):

    -5.8568  -4.5861  -4.0596  -3.3422  -2.7343  -2.6024   1.6654   4.5900
     5.6460

          k = 0.1250 0.3608 0.0000 (  5773 PWs)   bands (ev):

    -5.4832  -4.2738  -4.2575  -3.1107  -2.8481  -1.8997   2.8730   5.7236
     6.8360

          k = 0.1250 0.4330 0.0000 (  5766 PWs)   bands (ev):

    -5.5450  -4.4278  -3.5716  -2.9472  -2.9187  -0.9089   4.2732   7.0131
     7.9773

          k = 0.1250-0.6495 0.0000 (  5754 PWs)   bands (ev):

    -5.6496  -4.5197  -3.0664  -3.0148  -2.8087   0.3358   5.8150   5.9472
     8.8867

          k = 0.1250-0.5774 0.0000 (  5746 PWs)   bands (ev):

    -5.6909  -4.5501  -3.0388  -2.8431  -2.8236   1.1189   4.8986   6.9181
     8.9328

          k = 0.1875 0.3248 0.0000 (  5773 PWs)   bands (ev):

    -5.1322  -4.7937  -4.2191  -3.1346  -2.8905  -1.8529   2.7561   5.6028
     6.7072

          k = 0.1875 0.3969 0.0000 (  5774 PWs)   bands (ev):

    -5.0750  -4.3492  -4.3248  -3.0546  -2.9590  -0.8174   4.0597   6.8565
     8.0202

          k = 0.1875-0.6856 0.0000 (  5751 PWs)   bands (ev):

    -5.2384  -4.3811  -3.7807  -3.1938  -2.8544   0.5017   5.5555   7.2707
     8.5391

          k = 0.1875-0.6134 0.0000 (  5733 PWs)   bands (ev):

    -5.3291  -4.4024  -3.4462  -3.2750  -2.8291   1.8536   5.4699   7.1068
     9.7711

          k = 0.2500-0.7217 0.0000 (  5746 PWs)   bands (ev):

    -4.8878  -4.3102  -4.2496  -3.2813  -2.8608   0.5525   5.4659   8.1654
     8.9026

          k = 0.2500-0.6495 0.0000 (  5731 PWs)   bands (ev):

    -4.9061  -4.2525  -4.0108  -3.4778  -2.8236   2.1321   6.7738   7.0506
     8.7470

          k = 0.2500-0.5774 0.0000 (  5740 PWs)   bands (ev):

    -4.9283  -4.2148  -3.9011  -3.5638  -2.8200   3.2955   5.3861   8.2857
     8.6603

          k = 0.3125-0.6134 0.0000 (  5732 PWs)   bands (ev):

    -4.6063  -4.2411  -4.0609  -3.7542  -2.8167   3.9107   5.8937   7.2439
     8.6313

     the Fermi energy is    -2.7828 ev

!    total energy              =    -161.91833148 Ry
     total all-electron energy =     -2786.762008 Ry
     estimated scf accuracy    <       0.00000064 Ry
     smearing contrib. (-TS)   =      -0.01158618 Ry
     internal energy E=F+TS    =    -161.90674530 Ry

     The total energy is F=E-TS. E is the sum of the following terms:
     one-electron contribution =    -213.00242258 Ry
     hartree contribution      =     114.26349540 Ry
     xc contribution           =     -32.43507194 Ry
     ewald contribution        =      55.80703861 Ry
     one-center paw contrib.   =     -86.53978479 Ry

     convergence has been achieved in   7 iterations

     negative rho (up, down):  1.740E-04 0.000E+00

     Forces acting on atoms (cartesian axes, Ry/au):

     atom    1 type  1   force =     0.00000000    0.00000000    0.00000000
     The non-local contrib.  to forces
     atom    1 type  1   force =     0.00000000   -0.00000000    0.00000000
     The ionic contribution  to forces
     atom    1 type  1   force =     0.00000000   -0.00000000   -0.00000000
     The local contribution  to forces
     atom    1 type  1   force =     0.00000000    0.00000000    0.00000000
     The core correction contribution to forces
     atom    1 type  1   force =     0.00000000    0.00000000    0.00000000
     The Hubbard contrib.    to forces
     atom    1 type  1   force =     0.00000000    0.00000000    0.00000000
     The SCF correction term to forces
     atom    1 type  1   force =    -0.00000000    0.00000000   -0.00000000

     Total force =     0.000000     Total SCF correction =     0.000000


     Computing stress (Cartesian axis) and pressure


     negative rho (up, down):  1.740E-04 0.000E+00
          total   stress  (Ry/bohr**3)                   (kbar)     P=      -35.10
  -0.00034774  -0.00000000   0.00000000          -51.15       -0.00        0.00
  -0.00000000  -0.00034774   0.00000000           -0.00      -51.15        0.00
   0.00000000   0.00000000  -0.00002043            0.00        0.00       -3.01


     Writing all to output data dir ./tmp/scf.save/
 
     init_run     :      0.18s CPU      0.25s WALL (       1 calls)
     electrons    :      1.50s CPU      1.54s WALL (       1 calls)
     forces       :      0.04s CPU      0.04s WALL (       1 calls)
     stress       :      0.13s CPU      0.13s WALL (       1 calls)

     Called by init_run:
     wfcinit      :      0.03s CPU      0.04s WALL (       1 calls)
     potinit      :      0.07s CPU      0.08s WALL (       1 calls)
     hinit0       :      0.06s CPU      0.10s WALL (       1 calls)

     Called by electrons:
     c_bands      :      0.98s CPU      1.01s WALL (       7 calls)
     sum_band     :      0.19s CPU      0.20s WALL (       7 calls)
     v_of_rho     :      0.03s CPU      0.03s WALL (       8 calls)
     newd         :      0.06s CPU      0.07s WALL (       8 calls)
     PAW_pot      :      0.30s CPU      0.31s WALL (       8 calls)
     mix_rho      :      0.00s CPU      0.00s WALL (       7 calls)

     Called by c_bands:
     init_us_2    :      0.03s CPU      0.03s WALL (     510 calls)
     init_us_2:cp :      0.02s CPU      0.03s WALL (     510 calls)
     cegterg      :      0.72s CPU      0.74s WALL (     210 calls)

     Called by *egterg:
     cdiaghg      :      0.07s CPU      0.07s WALL (     967 calls)
     h_psi        :      0.59s CPU      0.61s WALL (     997 calls)
     s_psi        :      0.01s CPU      0.01s WALL (     997 calls)
     g_psi        :      0.00s CPU      0.00s WALL (     757 calls)

     Called by h_psi:
     h_psi:calbec :      0.03s CPU      0.03s WALL (     997 calls)
     vloc_psi     :      0.55s CPU      0.57s WALL (     997 calls)
     add_vuspsi   :      0.01s CPU      0.01s WALL (     997 calls)

     General routines
     calbec       :      0.04s CPU      0.04s WALL (    1357 calls)
     fft          :      0.04s CPU      0.08s WALL (     113 calls)
     ffts         :      0.00s CPU      0.00s WALL (       7 calls)
     fftw         :      0.59s CPU      0.61s WALL (   12476 calls)
 
     Parallel routines
 
     PWSCF        :      1.93s CPU      2.11s WALL

 
   This run was terminated on:  12:39: 1   5Jun2025            

=------------------------------------------------------------------------------=
   JOB DONE.
=------------------------------------------------------------------------------=
