
     Program PWSCF v.7.2 starts on  5Jun2025 at 12:38:28 

     This program is part of the open-source Quantum ESPRESSO suite
     for quantum simulation of materials; please cite
         "P. Giannozzi et al., J. Phys.:Condens. Matter 21 395502 (2009);
         "P. Giannozzi et al., J. Phys.:Condens. Matter 29 465901 (2017);
         "P. Giannozzi et al., J. Chem. Phys. 152 154105 (2020);
          URL http://www.quantum-espresso.org", 
     in publications or presentations arising from this work. More details at
     http://www.quantum-espresso.org/quote

     Parallel version (MPI), running on    16 processors

     MPI processes distributed on     1 nodes
     40494 MiB available memory on the printing compute node when the environment starts
 
     Waiting for input...
     Reading input from standard input

     Current dimensions of program PWSCF are:
     Max number of different atomic species (ntypx) = 10
     Max number of k-points (npk) =  40000
     Max angular momentum in pseudopotentials (lmaxx) =  4
     file Co.pbe-n-kjpaw_psl.1.0.0.UPF: wavefunction(s)  4S 3D renormalized
     Message from routine setup:
     using ibrav=0 with symmetry is DISCOURAGED, use correct ibrav instead
 
     R & G space division:  proc/nbgrp/npool/nimage =      16
     Subspace diagonalization in iterative solution of the eigenvalue problem:
     a serial algorithm will be used

 
     Parallelization info
     --------------------
     sticks:   dense  smooth     PW     G-vecs:    dense   smooth      PW
     Min          15      15      5                 1125     1125     221
     Max          16      16      6                 1140     1140     236
     Sum         241     241     85                18079    18079    3631
 
     Using Slab Decomposition
 


     bravais-lattice index     =            0
     lattice parameter (alat)  =       4.6298  a.u.
     unit-cell volume          =     526.1998 (a.u.)^3
     number of atoms/cell      =            1
     number of atomic types    =            1
     number of electrons       =         9.00
     number of Kohn-Sham states=            9
     kinetic-energy cutoff     =      40.0000  Ry
     charge density cutoff     =     160.0000  Ry
     scf convergence threshold =      1.0E-06
     mixing beta               =       0.7000
     number of iterations used =            8  plain     mixing
     Exchange-correlation= SLA  PW   PBX  PBC
                           (   1   4   3   4   0   0   0)

     celldm(1)=   4.629829  celldm(2)=   0.000000  celldm(3)=   0.000000
     celldm(4)=   0.000000  celldm(5)=   0.000000  celldm(6)=   0.000000

     crystal axes: (cart. coord. in units of alat)
               a(1) = (   1.000000   0.000000   0.000000 )  
               a(2) = (   0.500000   0.866025   0.000000 )  
               a(3) = (   0.000000   0.000000   6.122449 )  

     reciprocal axes: (cart. coord. in units 2 pi/alat)
               b(1) = (  1.000000 -0.577350  0.000000 )  
               b(2) = (  0.000000  1.154701  0.000000 )  
               b(3) = (  0.000000  0.000000  0.163333 )  


     PseudoPot. # 1 for Co read from file:
     /shared/ESPRESSO/PSLIBRARY/1.0.0/pbe/PSEUDOPOTENTIALS/Co.pbe-n-kjpaw_psl.1.0.0.UPF
     MD5 check sum: 17e7ab8db721b244d1352252ea6cb8e7
     Pseudo is Projector augmented-wave + core cor, Zval =  9.0
     Generated using "atomic" code by A. Dal Corso  (Quantum ESPRESSO distribution)
     Shape of augmentation charge: PSQ
     Using radial grid of 1193 points,  6 beta functions with: 
                l(1) =   0
                l(2) =   0
                l(3) =   1
                l(4) =   1
                l(5) =   2
                l(6) =   2
     Q(r) pseudized with 0 coefficients 


     atomic species   valence    mass     pseudopotential
        Co             9.00    58.93320     Co( 1.00)

     24 Sym. Ops., with inversion, found



   Cartesian axes

     site n.     atom                  positions (alat units)
         1           Co  tau(   1) = (   0.0000000   0.0000000   3.0612245  )

     number of k points=    30  Fermi-Dirac smearing, width (Ry)=  0.0070
                       cart. coord. in units 2pi/alat
        k(    1) = (   0.0000000   0.0000000   0.0000000), wk =   0.0078125
        k(    2) = (   0.0000000   0.0721688   0.0000000), wk =   0.0468750
        k(    3) = (   0.0000000   0.1443376   0.0000000), wk =   0.0468750
        k(    4) = (   0.0000000   0.2165064   0.0000000), wk =   0.0468750
        k(    5) = (   0.0000000   0.2886751   0.0000000), wk =   0.0468750
        k(    6) = (   0.0000000   0.3608439   0.0000000), wk =   0.0468750
        k(    7) = (   0.0000000   0.4330127   0.0000000), wk =   0.0468750
        k(    8) = (   0.0000000   0.5051815   0.0000000), wk =   0.0468750
        k(    9) = (   0.0000000  -0.5773503   0.0000000), wk =   0.0234375
        k(   10) = (   0.0625000   0.1082532   0.0000000), wk =   0.0468750
        k(   11) = (   0.0625000   0.1804220   0.0000000), wk =   0.0937500
        k(   12) = (   0.0625000   0.2525907   0.0000000), wk =   0.0937500
        k(   13) = (   0.0625000   0.3247595   0.0000000), wk =   0.0937500
        k(   14) = (   0.0625000   0.3969283   0.0000000), wk =   0.0937500
        k(   15) = (   0.0625000   0.4690971   0.0000000), wk =   0.0937500
        k(   16) = (   0.0625000  -0.6134347   0.0000000), wk =   0.0937500
        k(   17) = (   0.1250000   0.2165064   0.0000000), wk =   0.0468750
        k(   18) = (   0.1250000   0.2886751   0.0000000), wk =   0.0937500
        k(   19) = (   0.1250000   0.3608439   0.0000000), wk =   0.0937500
        k(   20) = (   0.1250000   0.4330127   0.0000000), wk =   0.0937500
        k(   21) = (   0.1250000  -0.6495191   0.0000000), wk =   0.0937500
        k(   22) = (   0.1250000  -0.5773503   0.0000000), wk =   0.0468750
        k(   23) = (   0.1875000   0.3247595   0.0000000), wk =   0.0468750
        k(   24) = (   0.1875000   0.3969283   0.0000000), wk =   0.0937500
        k(   25) = (   0.1875000  -0.6856034   0.0000000), wk =   0.0937500
        k(   26) = (   0.1875000  -0.6134347   0.0000000), wk =   0.0937500
        k(   27) = (   0.2500000  -0.7216878   0.0000000), wk =   0.0468750
        k(   28) = (   0.2500000  -0.6495191   0.0000000), wk =   0.0937500
        k(   29) = (   0.2500000  -0.5773503   0.0000000), wk =   0.0468750
        k(   30) = (   0.3125000  -0.6134347   0.0000000), wk =   0.0468750

     Dense  grid:    18079 G-vectors     FFT dimensions: (  20,  20, 120)

     Estimated max dynamical RAM per process >       5.80 MB

     Estimated total dynamical RAM >      92.72 MB

     Check: negative core charge=   -0.000002

     Initial potential from superposition of free atoms

     starting charge       8.9997, renormalised to       9.0000

     negative rho (up, down):  8.124E-04 0.000E+00
     Starting wfcs are    9 randomized atomic wfcs
     Checking if some PAW data can be deallocated... 

     total cpu time spent up to now is        0.3 secs

     Self-consistent Calculation

     iteration #  1     ecut=    40.00 Ry     beta= 0.70
     Davidson diagonalization with overlap
     ethr =  1.00E-02,  avg # of iterations =  5.1

     negative rho (up, down):  9.598E-04 0.000E+00

     total cpu time spent up to now is        0.4 secs

     total energy              =    -161.82676337 Ry
     estimated scf accuracy    <       0.14598580 Ry

     iteration #  2     ecut=    40.00 Ry     beta= 0.70
     Davidson diagonalization with overlap
     ethr =  1.62E-03,  avg # of iterations =  4.0

     negative rho (up, down):  7.316E-04 0.000E+00

     total cpu time spent up to now is        0.6 secs

     total energy              =    -161.71795458 Ry
     estimated scf accuracy    <       1.53990156 Ry

     iteration #  3     ecut=    40.00 Ry     beta= 0.70
     Davidson diagonalization with overlap
     ethr =  1.62E-03,  avg # of iterations =  2.1

     negative rho (up, down):  8.888E-04 0.000E+00

     total cpu time spent up to now is        0.7 secs

     total energy              =    -161.91368802 Ry
     estimated scf accuracy    <       0.00281334 Ry

     iteration #  4     ecut=    40.00 Ry     beta= 0.70
     Davidson diagonalization with overlap
     c_bands:  1 eigenvalues not converged
     ethr =  3.13E-05,  avg # of iterations =  7.7

     negative rho (up, down):  9.217E-04 0.000E+00

     total cpu time spent up to now is        0.9 secs

     total energy              =    -161.91432058 Ry
     estimated scf accuracy    <       0.00026055 Ry

     iteration #  5     ecut=    40.00 Ry     beta= 0.70
     Davidson diagonalization with overlap
     ethr =  2.90E-06,  avg # of iterations =  3.7

     negative rho (up, down):  9.438E-04 0.000E+00

     total cpu time spent up to now is        1.0 secs

     total energy              =    -161.91436401 Ry
     estimated scf accuracy    <       0.00004678 Ry

     iteration #  6     ecut=    40.00 Ry     beta= 0.70
     Davidson diagonalization with overlap
     ethr =  5.20E-07,  avg # of iterations =  2.0

     negative rho (up, down):  9.533E-04 0.000E+00

     total cpu time spent up to now is        1.2 secs

     total energy              =    -161.91437182 Ry
     estimated scf accuracy    <       0.00000328 Ry

     iteration #  7     ecut=    40.00 Ry     beta= 0.70
     Davidson diagonalization with overlap
     ethr =  3.64E-08,  avg # of iterations =  2.0

     negative rho (up, down):  9.542E-04 0.000E+00

     total cpu time spent up to now is        1.3 secs

     End of self-consistent calculation

          k = 0.0000 0.0000 0.0000 (  2253 PWs)   bands (ev):

    -8.2400  -4.0557  -3.9595  -3.9595  -2.4387  -2.4387  -1.8347   1.8433
     2.7423

          k = 0.0000 0.0722 0.0000 (  2256 PWs)   bands (ev):

    -8.0924  -4.0180  -4.0039  -3.8918  -2.7718  -2.4530  -1.4197   1.9704
     2.8811

          k = 0.0000 0.1443 0.0000 (  2262 PWs)   bands (ev):

    -7.6619  -4.1491  -3.8781  -3.6953  -3.2328  -2.4936  -0.7032   2.3531
     3.2944

          k = 0.0000 0.2165 0.0000 (  2262 PWs)   bands (ev):

    -7.0014  -4.2944  -3.6798  -3.6512  -3.3915  -2.5540   0.1687   2.9910
     3.9742

          k = 0.0000 0.2887 0.0000 (  2240 PWs)   bands (ev):

    -6.2878  -4.2492  -4.0084  -3.4398  -3.0161  -2.6246   1.2059   3.8842
     4.9124

          k = 0.0000 0.3608 0.0000 (  2254 PWs)   bands (ev):

    -5.9142  -4.2956  -3.6371  -3.1649  -2.6947  -2.6199   2.4228   5.0301
     6.1021

          k = 0.0000 0.4330 0.0000 (  2242 PWs)   bands (ev):

    -5.9054  -4.5056  -3.0703  -2.7537  -2.2823  -2.2650   3.8197   6.3732
     7.3108

          k = 0.0000 0.5052 0.0000 (  2252 PWs)   bands (ev):

    -5.9768  -4.6335  -2.9132  -2.7929  -2.0168  -0.9064   5.3415   5.6670
     8.1974

          k = 0.0000-0.5774 0.0000 (  2260 PWs)   bands (ev):

    -6.0095  -4.6766  -2.8627  -2.8066  -1.9273  -0.1521   4.7251   6.3929
     8.5792

          k = 0.0625 0.1083 0.0000 (  2265 PWs)   bands (ev):

    -7.8026  -4.1113  -3.9247  -3.7523  -3.1100  -2.4833  -0.9099   2.2257
     3.1572

          k = 0.0625 0.1804 0.0000 (  2265 PWs)   bands (ev):

    -7.2498  -4.2758  -3.7609  -3.5025  -3.4839  -2.5412  -0.1552   2.7359
     3.7037

          k = 0.0625 0.2526 0.0000 (  2258 PWs)   bands (ev):

    -6.5246  -4.3972  -3.8618  -3.5394  -3.1108  -2.6173   0.7819   3.5018
     4.5125

          k = 0.0625 0.3248 0.0000 (  2252 PWs)   bands (ev):

    -5.9257  -4.1859  -4.1636  -3.2894  -2.6995  -2.6487   1.9020   4.5232
     5.5767

          k = 0.0625 0.3969 0.0000 (  2249 PWs)   bands (ev):

    -5.7862  -4.3969  -3.4530  -3.0137  -2.7755  -2.0446   3.2094   5.7891
     6.9072

          k = 0.0625 0.4691 0.0000 (  2251 PWs)   bands (ev):

    -5.8553  -4.5553  -2.9961  -2.8335  -2.5662  -1.0656   4.6867   6.5612
     7.5135

          k = 0.0625-0.6134 0.0000 (  2244 PWs)   bands (ev):

    -5.9194  -4.6353  -2.8725  -2.8649  -2.2797   0.0434   5.0400   6.1662
     9.0231

          k = 0.1250 0.2165 0.0000 (  2261 PWs)   bands (ev):

    -6.6067  -4.4659  -3.7980  -3.5757  -3.1188  -2.6275   0.6400   3.3744
     4.3791

          k = 0.1250 0.2887 0.0000 (  2252 PWs)   bands (ev):

    -5.8683  -4.5910  -4.0639  -3.3471  -2.7369  -2.6068   1.6454   4.2691
     5.3136

          k = 0.1250 0.3608 0.0000 (  2247 PWs)   bands (ev):

    -5.4911  -4.2779  -4.2645  -3.1154  -2.8507  -1.9056   2.8521   5.4182
     6.5020

          k = 0.1250 0.4330 0.0000 (  2258 PWs)   bands (ev):

    -5.5513  -4.4317  -3.5781  -2.9500  -2.9234  -0.9169   4.2521   6.7714
     7.7024

          k = 0.1250-0.6495 0.0000 (  2246 PWs)   bands (ev):

    -5.6554  -4.5235  -3.0716  -3.0176  -2.8134   0.3261   5.7951   5.9355
     8.5766

          k = 0.1250-0.5774 0.0000 (  2234 PWs)   bands (ev):

    -5.6965  -4.5539  -3.0416  -2.8470  -2.8291   1.1086   4.8880   6.9018
     8.8974

          k = 0.1875 0.3248 0.0000 (  2255 PWs)   bands (ev):

    -5.1426  -4.7985  -4.2232  -3.1393  -2.8932  -1.8588   2.7351   5.2936
     6.3729

          k = 0.1875 0.3969 0.0000 (  2248 PWs)   bands (ev):

    -5.0809  -4.3566  -4.3286  -3.0574  -2.9635  -0.8250   4.0384   6.5675
     7.6861

          k = 0.1875-0.6856 0.0000 (  2239 PWs)   bands (ev):

    -5.2440  -4.3848  -3.7870  -3.1967  -2.8585   0.4927   5.5346   7.2492
     8.2316

          k = 0.1875-0.6134 0.0000 (  2229 PWs)   bands (ev):

    -5.3346  -4.4061  -3.4519  -3.2779  -2.8330   1.8439   5.4592   7.0882
     9.7318

          k = 0.2500-0.7217 0.0000 (  2245 PWs)   bands (ev):

    -4.8928  -4.3139  -4.2566  -3.2843  -2.8649   0.5437   5.4446   7.9314
     8.8944

          k = 0.2500-0.6495 0.0000 (  2234 PWs)   bands (ev):

    -4.9114  -4.2562  -4.0167  -3.4810  -2.8274   2.1228   6.7637   7.0302
     8.7287

          k = 0.2500-0.5774 0.0000 (  2226 PWs)   bands (ev):

    -4.9336  -4.2184  -3.9068  -3.5670  -2.8237   3.2863   5.3757   8.2687
     8.6485

          k = 0.3125-0.6134 0.0000 (  2225 PWs)   bands (ev):

    -4.6116  -4.2466  -4.0644  -3.7575  -2.8204   3.9016   5.8853   7.2302
     8.6130

     the Fermi energy is    -2.7863 ev

!    total energy              =    -161.91437161 Ry
     total all-electron energy =     -2786.758048 Ry
     estimated scf accuracy    <       0.00000070 Ry
     smearing contrib. (-TS)   =      -0.01157414 Ry
     internal energy E=F+TS    =    -161.90279747 Ry

     The total energy is F=E-TS. E is the sum of the following terms:
     one-electron contribution =    -212.98772536 Ry
     hartree contribution      =     114.25807095 Ry
     xc contribution           =     -32.43780876 Ry
     ewald contribution        =      55.80703853 Ry
     one-center paw contrib.   =     -86.54237283 Ry

     convergence has been achieved in   7 iterations

     negative rho (up, down):  9.542E-04 0.000E+00

     Forces acting on atoms (cartesian axes, Ry/au):

     atom    1 type  1   force =     0.00000000    0.00000000    0.00000000
     The non-local contrib.  to forces
     atom    1 type  1   force =     0.00000000   -0.00000000    0.00000000
     The ionic contribution  to forces
     atom    1 type  1   force =     0.00000000   -0.00000000   -0.00000000
     The local contribution  to forces
     atom    1 type  1   force =     0.00000000   -0.00000000    0.00000000
     The core correction contribution to forces
     atom    1 type  1   force =     0.00000000   -0.00000000    0.00000000
     The Hubbard contrib.    to forces
     atom    1 type  1   force =     0.00000000    0.00000000    0.00000000
     The SCF correction term to forces
     atom    1 type  1   force =    -0.00000000   -0.00000000    0.00000000

     Total force =     0.000000     Total SCF correction =     0.000000


     Computing stress (Cartesian axis) and pressure


     negative rho (up, down):  9.542E-04 0.000E+00
          total   stress  (Ry/bohr**3)                   (kbar)     P=      -36.42
  -0.00035700  -0.00000000  -0.00000000          -52.52       -0.00       -0.00
  -0.00000000  -0.00035700   0.00000000           -0.00      -52.52        0.00
   0.00000000   0.00000000  -0.00002882            0.00        0.00       -4.24


     Writing all to output data dir ./tmp/scf.save/
 
     init_run     :      0.12s CPU      0.19s WALL (       1 calls)
     electrons    :      0.94s CPU      1.01s WALL (       1 calls)
     forces       :      0.02s CPU      0.02s WALL (       1 calls)
     stress       :      0.05s CPU      0.05s WALL (       1 calls)

     Called by init_run:
     wfcinit      :      0.02s CPU      0.03s WALL (       1 calls)
     potinit      :      0.04s CPU      0.06s WALL (       1 calls)
     hinit0       :      0.05s CPU      0.09s WALL (       1 calls)

     Called by electrons:
     c_bands      :      0.55s CPU      0.58s WALL (       7 calls)
     sum_band     :      0.10s CPU      0.10s WALL (       7 calls)
     v_of_rho     :      0.01s CPU      0.01s WALL (       8 calls)
     newd         :      0.02s CPU      0.03s WALL (       8 calls)
     PAW_pot      :      0.30s CPU      0.33s WALL (       8 calls)
     mix_rho      :      0.00s CPU      0.00s WALL (       7 calls)

     Called by c_bands:
     init_us_2    :      0.01s CPU      0.01s WALL (     510 calls)
     init_us_2:cp :      0.01s CPU      0.01s WALL (     510 calls)
     cegterg      :      0.45s CPU      0.47s WALL (     210 calls)

     Called by *egterg:
     cdiaghg      :      0.07s CPU      0.07s WALL (    1008 calls)
     h_psi        :      0.36s CPU      0.38s WALL (    1038 calls)
     s_psi        :      0.00s CPU      0.00s WALL (    1038 calls)
     g_psi        :      0.00s CPU      0.00s WALL (     798 calls)

     Called by h_psi:
     h_psi:calbec :      0.01s CPU      0.01s WALL (    1038 calls)
     vloc_psi     :      0.33s CPU      0.35s WALL (    1038 calls)
     add_vuspsi   :      0.00s CPU      0.01s WALL (    1038 calls)

     General routines
     calbec       :      0.02s CPU      0.02s WALL (    1398 calls)
     fft          :      0.03s CPU      0.07s WALL (     113 calls)
     ffts         :      0.00s CPU      0.00s WALL (       7 calls)
     fftw         :      0.36s CPU      0.38s WALL (   12598 calls)
 
     Parallel routines
 
     PWSCF        :      1.23s CPU      1.39s WALL

 
   This run was terminated on:  12:38:29   5Jun2025            

=------------------------------------------------------------------------------=
   JOB DONE.
=------------------------------------------------------------------------------=
