
     Program PWSCF v.7.2 starts on  5Jun2025 at 12:38:23 

     This program is part of the open-source Quantum ESPRESSO suite
     for quantum simulation of materials; please cite
         "P. Giannozzi et al., J. Phys.:Condens. Matter 21 395502 (2009);
         "P. Giannozzi et al., J. Phys.:Condens. Matter 29 465901 (2017);
         "P. Giannozzi et al., J. Chem. Phys. 152 154105 (2020);
          URL http://www.quantum-espresso.org", 
     in publications or presentations arising from this work. More details at
     http://www.quantum-espresso.org/quote

     Parallel version (MPI), running on    16 processors

     MPI processes distributed on     1 nodes
     40491 MiB available memory on the printing compute node when the environment starts
 
     Waiting for input...
     Reading input from standard input

     Current dimensions of program PWSCF are:
     Max number of different atomic species (ntypx) = 10
     Max number of k-points (npk) =  40000
     Max angular momentum in pseudopotentials (lmaxx) =  4
     file Co.pbe-n-kjpaw_psl.1.0.0.UPF: wavefunction(s)  4S 3D renormalized
     Message from routine setup:
     using ibrav=0 with symmetry is DISCOURAGED, use correct ibrav instead
 
     R & G space division:  proc/nbgrp/npool/nimage =      16
     Subspace diagonalization in iterative solution of the eigenvalue problem:
     a serial algorithm will be used

 
     Parallelization info
     --------------------
     sticks:   dense  smooth     PW     G-vecs:    dense   smooth      PW
     Min          13      13      4                  905      905     178
     Max          14      14      6                  933      933     188
     Sum         211     211     73                14669    14669    2967
 
     Using Slab Decomposition
 


     bravais-lattice index     =            0
     lattice parameter (alat)  =       4.6298  a.u.
     unit-cell volume          =     526.1998 (a.u.)^3
     number of atoms/cell      =            1
     number of atomic types    =            1
     number of electrons       =         9.00
     number of Kohn-Sham states=            9
     kinetic-energy cutoff     =      35.0000  Ry
     charge density cutoff     =     140.0000  Ry
     scf convergence threshold =      1.0E-06
     mixing beta               =       0.7000
     number of iterations used =            8  plain     mixing
     Exchange-correlation= SLA  PW   PBX  PBC
                           (   1   4   3   4   0   0   0)

     celldm(1)=   4.629829  celldm(2)=   0.000000  celldm(3)=   0.000000
     celldm(4)=   0.000000  celldm(5)=   0.000000  celldm(6)=   0.000000

     crystal axes: (cart. coord. in units of alat)
               a(1) = (   1.000000   0.000000   0.000000 )  
               a(2) = (   0.500000   0.866025   0.000000 )  
               a(3) = (   0.000000   0.000000   6.122449 )  

     reciprocal axes: (cart. coord. in units 2 pi/alat)
               b(1) = (  1.000000 -0.577350  0.000000 )  
               b(2) = (  0.000000  1.154701  0.000000 )  
               b(3) = (  0.000000  0.000000  0.163333 )  


     PseudoPot. # 1 for Co read from file:
     /shared/ESPRESSO/PSLIBRARY/1.0.0/pbe/PSEUDOPOTENTIALS/Co.pbe-n-kjpaw_psl.1.0.0.UPF
     MD5 check sum: 17e7ab8db721b244d1352252ea6cb8e7
     Pseudo is Projector augmented-wave + core cor, Zval =  9.0
     Generated using "atomic" code by A. Dal Corso  (Quantum ESPRESSO distribution)
     Shape of augmentation charge: PSQ
     Using radial grid of 1193 points,  6 beta functions with: 
                l(1) =   0
                l(2) =   0
                l(3) =   1
                l(4) =   1
                l(5) =   2
                l(6) =   2
     Q(r) pseudized with 0 coefficients 


     atomic species   valence    mass     pseudopotential
        Co             9.00    58.93320     Co( 1.00)

     24 Sym. Ops., with inversion, found



   Cartesian axes

     site n.     atom                  positions (alat units)
         1           Co  tau(   1) = (   0.0000000   0.0000000   3.0612245  )

     number of k points=    30  Fermi-Dirac smearing, width (Ry)=  0.0070
                       cart. coord. in units 2pi/alat
        k(    1) = (   0.0000000   0.0000000   0.0000000), wk =   0.0078125
        k(    2) = (   0.0000000   0.0721688   0.0000000), wk =   0.0468750
        k(    3) = (   0.0000000   0.1443376   0.0000000), wk =   0.0468750
        k(    4) = (   0.0000000   0.2165064   0.0000000), wk =   0.0468750
        k(    5) = (   0.0000000   0.2886751   0.0000000), wk =   0.0468750
        k(    6) = (   0.0000000   0.3608439   0.0000000), wk =   0.0468750
        k(    7) = (   0.0000000   0.4330127   0.0000000), wk =   0.0468750
        k(    8) = (   0.0000000   0.5051815   0.0000000), wk =   0.0468750
        k(    9) = (   0.0000000  -0.5773503   0.0000000), wk =   0.0234375
        k(   10) = (   0.0625000   0.1082532   0.0000000), wk =   0.0468750
        k(   11) = (   0.0625000   0.1804220   0.0000000), wk =   0.0937500
        k(   12) = (   0.0625000   0.2525907   0.0000000), wk =   0.0937500
        k(   13) = (   0.0625000   0.3247595   0.0000000), wk =   0.0937500
        k(   14) = (   0.0625000   0.3969283   0.0000000), wk =   0.0937500
        k(   15) = (   0.0625000   0.4690971   0.0000000), wk =   0.0937500
        k(   16) = (   0.0625000  -0.6134347   0.0000000), wk =   0.0937500
        k(   17) = (   0.1250000   0.2165064   0.0000000), wk =   0.0468750
        k(   18) = (   0.1250000   0.2886751   0.0000000), wk =   0.0937500
        k(   19) = (   0.1250000   0.3608439   0.0000000), wk =   0.0937500
        k(   20) = (   0.1250000   0.4330127   0.0000000), wk =   0.0937500
        k(   21) = (   0.1250000  -0.6495191   0.0000000), wk =   0.0937500
        k(   22) = (   0.1250000  -0.5773503   0.0000000), wk =   0.0468750
        k(   23) = (   0.1875000   0.3247595   0.0000000), wk =   0.0468750
        k(   24) = (   0.1875000   0.3969283   0.0000000), wk =   0.0937500
        k(   25) = (   0.1875000  -0.6856034   0.0000000), wk =   0.0937500
        k(   26) = (   0.1875000  -0.6134347   0.0000000), wk =   0.0937500
        k(   27) = (   0.2500000  -0.7216878   0.0000000), wk =   0.0468750
        k(   28) = (   0.2500000  -0.6495191   0.0000000), wk =   0.0937500
        k(   29) = (   0.2500000  -0.5773503   0.0000000), wk =   0.0468750
        k(   30) = (   0.3125000  -0.6134347   0.0000000), wk =   0.0468750

     Dense  grid:    14669 G-vectors     FFT dimensions: (  18,  18, 108)

     Estimated max dynamical RAM per process >       4.78 MB

     Estimated total dynamical RAM >      76.53 MB

     Check: negative core charge=   -0.000005

     Initial potential from superposition of free atoms

     starting charge       8.9997, renormalised to       9.0000

     negative rho (up, down):  2.641E-04 0.000E+00
     Starting wfcs are    9 randomized atomic wfcs
     Checking if some PAW data can be deallocated... 

     total cpu time spent up to now is        0.3 secs

     Self-consistent Calculation

     iteration #  1     ecut=    35.00 Ry     beta= 0.70
     Davidson diagonalization with overlap
     ethr =  1.00E-02,  avg # of iterations =  5.0

     negative rho (up, down):  3.607E-04 0.000E+00

     total cpu time spent up to now is        0.4 secs

     total energy              =    -161.82620531 Ry
     estimated scf accuracy    <       0.14613830 Ry

     iteration #  2     ecut=    35.00 Ry     beta= 0.70
     Davidson diagonalization with overlap
     ethr =  1.62E-03,  avg # of iterations =  3.8

     negative rho (up, down):  2.865E-04 0.000E+00

     total cpu time spent up to now is        0.5 secs

     total energy              =    -161.71868300 Ry
     estimated scf accuracy    <       1.52762890 Ry

     iteration #  3     ecut=    35.00 Ry     beta= 0.70
     Davidson diagonalization with overlap
     ethr =  1.62E-03,  avg # of iterations =  2.0

     negative rho (up, down):  7.684E-04 0.000E+00

     total cpu time spent up to now is        0.7 secs

     total energy              =    -161.91324167 Ry
     estimated scf accuracy    <       0.00276022 Ry

     iteration #  4     ecut=    35.00 Ry     beta= 0.70
     Davidson diagonalization with overlap
     c_bands:  1 eigenvalues not converged
     ethr =  3.07E-05,  avg # of iterations =  7.4

     negative rho (up, down):  8.440E-04 0.000E+00

     total cpu time spent up to now is        0.8 secs

     total energy              =    -161.91386852 Ry
     estimated scf accuracy    <       0.00025086 Ry

     iteration #  5     ecut=    35.00 Ry     beta= 0.70
     Davidson diagonalization with overlap
     ethr =  2.79E-06,  avg # of iterations =  3.9

     negative rho (up, down):  9.223E-04 0.000E+00

     total cpu time spent up to now is        1.0 secs

     total energy              =    -161.91391452 Ry
     estimated scf accuracy    <       0.00004744 Ry

     iteration #  6     ecut=    35.00 Ry     beta= 0.70
     Davidson diagonalization with overlap
     ethr =  5.27E-07,  avg # of iterations =  1.3

     negative rho (up, down):  9.415E-04 0.000E+00

     total cpu time spent up to now is        1.1 secs

     total energy              =    -161.91392221 Ry
     estimated scf accuracy    <       0.00000418 Ry

     iteration #  7     ecut=    35.00 Ry     beta= 0.70
     Davidson diagonalization with overlap
     ethr =  4.64E-08,  avg # of iterations =  2.5

     negative rho (up, down):  9.385E-04 0.000E+00

     total cpu time spent up to now is        1.2 secs

     End of self-consistent calculation

          k = 0.0000 0.0000 0.0000 (  1883 PWs)   bands (ev):

    -8.2399  -4.0540  -3.9580  -3.9580  -2.4354  -2.4354  -1.8307   1.8808
     2.7895

          k = 0.0000 0.0722 0.0000 (  1873 PWs)   bands (ev):

    -8.0923  -4.0164  -4.0024  -3.8902  -2.7687  -2.4495  -1.4150   2.0087
     2.9284

          k = 0.0000 0.1443 0.0000 (  1875 PWs)   bands (ev):

    -7.6618  -4.1477  -3.8766  -3.6938  -3.2300  -2.4901  -0.6976   2.3908
     3.3416

          k = 0.0000 0.2165 0.0000 (  1849 PWs)   bands (ev):

    -7.0012  -4.2930  -3.6783  -3.6486  -3.3898  -2.5505   0.1752   3.0287
     4.0215

          k = 0.0000 0.2887 0.0000 (  1846 PWs)   bands (ev):

    -6.2874  -4.2481  -4.0060  -3.4384  -3.0143  -2.6213   1.2131   3.9222
     4.9599

          k = 0.0000 0.3608 0.0000 (  1836 PWs)   bands (ev):

    -5.9131  -4.2930  -3.6365  -3.1635  -2.6915  -2.6179   2.4307   5.0679
     6.1497

          k = 0.0000 0.4330 0.0000 (  1828 PWs)   bands (ev):

    -5.9039  -4.5030  -3.0688  -2.7505  -2.2820  -2.2627   3.8275   6.4079
     7.3297

          k = 0.0000 0.5052 0.0000 (  1826 PWs)   bands (ev):

    -5.9752  -4.6309  -2.9116  -2.7896  -2.0144  -0.9063   5.3484   5.6731
     8.2344

          k = 0.0000-0.5774 0.0000 (  1824 PWs)   bands (ev):

    -6.0079  -4.6738  -2.8611  -2.8035  -1.9247  -0.1523   4.7302   6.3971
     8.5964

          k = 0.0625 0.1083 0.0000 (  1877 PWs)   bands (ev):

    -7.8025  -4.1098  -3.9231  -3.7507  -3.1073  -2.4798  -0.9046   2.2636
     3.2044

          k = 0.0625 0.1804 0.0000 (  1863 PWs)   bands (ev):

    -7.2497  -4.2744  -3.7594  -3.4999  -3.4823  -2.5378  -0.1490   2.7736
     3.7509

          k = 0.0625 0.2526 0.0000 (  1842 PWs)   bands (ev):

    -6.5245  -4.3959  -3.8593  -3.5379  -3.1091  -2.6139   0.7889   3.5395
     4.5598

          k = 0.0625 0.3248 0.0000 (  1841 PWs)   bands (ev):

    -5.9250  -4.1850  -4.1611  -3.2880  -2.6962  -2.6468   1.9097   4.5607
     5.6243

          k = 0.0625 0.3969 0.0000 (  1825 PWs)   bands (ev):

    -5.7849  -4.3943  -3.4521  -3.0122  -2.7722  -2.0427   3.2175   5.8256
     6.9335

          k = 0.0625 0.4691 0.0000 (  1830 PWs)   bands (ev):

    -5.8538  -4.5527  -2.9947  -2.8303  -2.5646  -1.0645   4.6943   6.5721
     7.5477

          k = 0.0625-0.6134 0.0000 (  1824 PWs)   bands (ev):

    -5.9179  -4.6326  -2.8710  -2.8616  -2.2779   0.0440   5.0456   6.1720
     9.0401

          k = 0.1250 0.2165 0.0000 (  1845 PWs)   bands (ev):

    -6.6066  -4.4644  -3.7955  -3.5742  -3.1171  -2.6241   0.6470   3.4123
     4.4264

          k = 0.1250 0.2887 0.0000 (  1840 PWs)   bands (ev):

    -5.8680  -4.5896  -4.0614  -3.3456  -2.7337  -2.6050   1.6530   4.3072
     5.3650

          k = 0.1250 0.3608 0.0000 (  1838 PWs)   bands (ev):

    -5.4901  -4.2753  -4.2636  -3.1140  -2.8476  -1.9036   2.8602   5.4554
     6.5493

          k = 0.1250 0.4330 0.0000 (  1841 PWs)   bands (ev):

    -5.5499  -4.4291  -3.5771  -2.9469  -2.9219  -0.9151   4.2603   6.8063
     7.7210

          k = 0.1250-0.6495 0.0000 (  1828 PWs)   bands (ev):

    -5.6539  -4.5208  -3.0702  -3.0144  -2.8119   0.3276   5.8027   5.9416
     8.6137

          k = 0.1250-0.5774 0.0000 (  1832 PWs)   bands (ev):

    -5.6951  -4.5512  -3.0385  -2.8455  -2.8278   1.1098   4.8932   6.9065
     8.9148

          k = 0.1875 0.3248 0.0000 (  1856 PWs)   bands (ev):

    -5.1421  -4.7970  -4.2206  -3.1379  -2.8901  -1.8569   2.7431   5.3309
     6.4203

          k = 0.1875 0.3969 0.0000 (  1838 PWs)   bands (ev):

    -5.0796  -4.3557  -4.3260  -3.0543  -2.9619  -0.8231   4.0470   6.6044
     7.7080

          k = 0.1875-0.6856 0.0000 (  1843 PWs)   bands (ev):

    -5.2426  -4.3822  -3.7859  -3.1937  -2.8571   0.4947   5.5431   7.2580
     8.2662

          k = 0.1875-0.6134 0.0000 (  1834 PWs)   bands (ev):

    -5.3332  -4.4034  -3.4507  -3.2750  -2.8315   1.8462   5.4643   7.0951
     9.7475

          k = 0.2500-0.7217 0.0000 (  1838 PWs)   bands (ev):

    -4.8914  -4.3113  -4.2556  -3.2813  -2.8635   0.5460   5.4535   7.9657
     8.9041

          k = 0.2500-0.6495 0.0000 (  1839 PWs)   bands (ev):

    -4.9101  -4.2534  -4.0155  -3.4781  -2.8260   2.1256   6.7701   7.0387
     8.7358

          k = 0.2500-0.5774 0.0000 (  1834 PWs)   bands (ev):

    -4.9323  -4.2157  -3.9056  -3.5641  -2.8223   3.2898   5.3808   8.2744
     8.6533

          k = 0.3125-0.6134 0.0000 (  1832 PWs)   bands (ev):

    -4.6102  -4.2454  -4.0617  -3.7547  -2.8190   3.9060   5.8916   7.2328
     8.6198

     the Fermi energy is    -2.7839 ev

!    total energy              =    -161.91392190 Ry
     total all-electron energy =     -2786.757598 Ry
     estimated scf accuracy    <       0.00000081 Ry
     smearing contrib. (-TS)   =      -0.01155924 Ry
     internal energy E=F+TS    =    -161.90236266 Ry

     The total energy is F=E-TS. E is the sum of the following terms:
     one-electron contribution =    -212.98689290 Ry
     hartree contribution      =     114.25825739 Ry
     xc contribution           =     -32.43801603 Ry
     ewald contribution        =      55.80703856 Ry
     one-center paw contrib.   =     -86.54274967 Ry

     convergence has been achieved in   7 iterations

     negative rho (up, down):  9.385E-04 0.000E+00

     Forces acting on atoms (cartesian axes, Ry/au):

     atom    1 type  1   force =     0.00000000    0.00000000    0.00000000
     The non-local contrib.  to forces
     atom    1 type  1   force =     0.00000000    0.00000000    0.00000000
     The ionic contribution  to forces
     atom    1 type  1   force =     0.00000000    0.00000000   -0.00000000
     The local contribution  to forces
     atom    1 type  1   force =     0.00000000    0.00000000    0.00000000
     The core correction contribution to forces
     atom    1 type  1   force =     0.00000000   -0.00000000    0.00000000
     The Hubbard contrib.    to forces
     atom    1 type  1   force =     0.00000000    0.00000000    0.00000000
     The SCF correction term to forces
     atom    1 type  1   force =    -0.00000000    0.00000000   -0.00000000

     Total force =     0.000000     Total SCF correction =     0.000000


     Computing stress (Cartesian axis) and pressure


     negative rho (up, down):  9.385E-04 0.000E+00
          total   stress  (Ry/bohr**3)                   (kbar)     P=      -35.77
  -0.00035191  -0.00000000  -0.00000000          -51.77       -0.00       -0.00
  -0.00000000  -0.00035191   0.00000000           -0.00      -51.77        0.00
  -0.00000000   0.00000000  -0.00002562           -0.00        0.00       -3.77


     Writing all to output data dir ./tmp/scf.save/
 
     init_run     :      0.11s CPU      0.17s WALL (       1 calls)
     electrons    :      0.83s CPU      0.92s WALL (       1 calls)
     forces       :      0.01s CPU      0.01s WALL (       1 calls)
     stress       :      0.04s CPU      0.04s WALL (       1 calls)

     Called by init_run:
     wfcinit      :      0.02s CPU      0.02s WALL (       1 calls)
     potinit      :      0.04s CPU      0.05s WALL (       1 calls)
     hinit0       :      0.04s CPU      0.08s WALL (       1 calls)

     Called by electrons:
     c_bands      :      0.49s CPU      0.52s WALL (       7 calls)
     sum_band     :      0.08s CPU      0.09s WALL (       7 calls)
     v_of_rho     :      0.01s CPU      0.01s WALL (       8 calls)
     newd         :      0.02s CPU      0.02s WALL (       8 calls)
     PAW_pot      :      0.26s CPU      0.33s WALL (       8 calls)
     mix_rho      :      0.00s CPU      0.00s WALL (       7 calls)

     Called by c_bands:
     init_us_2    :      0.01s CPU      0.01s WALL (     510 calls)
     init_us_2:cp :      0.01s CPU      0.01s WALL (     510 calls)
     cegterg      :      0.41s CPU      0.43s WALL (     210 calls)

     Called by *egterg:
     cdiaghg      :      0.06s CPU      0.07s WALL (     990 calls)
     h_psi        :      0.32s CPU      0.34s WALL (    1020 calls)
     s_psi        :      0.00s CPU      0.00s WALL (    1020 calls)
     g_psi        :      0.00s CPU      0.00s WALL (     780 calls)

     Called by h_psi:
     h_psi:calbec :      0.01s CPU      0.01s WALL (    1020 calls)
     vloc_psi     :      0.29s CPU      0.31s WALL (    1020 calls)
     add_vuspsi   :      0.00s CPU      0.00s WALL (    1020 calls)

     General routines
     calbec       :      0.02s CPU      0.02s WALL (    1380 calls)
     fft          :      0.03s CPU      0.07s WALL (     113 calls)
     ffts         :      0.00s CPU      0.00s WALL (       7 calls)
     fftw         :      0.32s CPU      0.34s WALL (   12556 calls)
 
     Parallel routines
 
     PWSCF        :      1.08s CPU      1.27s WALL

 
   This run was terminated on:  12:38:25   5Jun2025            

=------------------------------------------------------------------------------=
   JOB DONE.
=------------------------------------------------------------------------------=
