
     Program PWSCF v.7.2 starts on  5Jun2025 at 12:38:15 

     This program is part of the open-source Quantum ESPRESSO suite
     for quantum simulation of materials; please cite
         "P. Giannozzi et al., J. Phys.:Condens. Matter 21 395502 (2009);
         "P. Giannozzi et al., J. Phys.:Condens. Matter 29 465901 (2017);
         "P. Giannozzi et al., J. Chem. Phys. 152 154105 (2020);
          URL http://www.quantum-espresso.org", 
     in publications or presentations arising from this work. More details at
     http://www.quantum-espresso.org/quote

     Parallel version (MPI), running on    16 processors

     MPI processes distributed on     1 nodes
     40497 MiB available memory on the printing compute node when the environment starts
 
     Waiting for input...
     Reading input from standard input

     Current dimensions of program PWSCF are:
     Max number of different atomic species (ntypx) = 10
     Max number of k-points (npk) =  40000
     Max angular momentum in pseudopotentials (lmaxx) =  4
     file Co.pbe-n-kjpaw_psl.1.0.0.UPF: wavefunction(s)  4S 3D renormalized
     Message from routine setup:
     using ibrav=0 with symmetry is DISCOURAGED, use correct ibrav instead
 
     R & G space division:  proc/nbgrp/npool/nimage =      16
     Subspace diagonalization in iterative solution of the eigenvalue problem:
     a serial algorithm will be used

 
     Parallelization info
     --------------------
     sticks:   dense  smooth     PW     G-vecs:    dense   smooth      PW
     Min           9       9      3                  553      553     115
     Max          10      10      4                  570      570     132
     Sum         151     151     55                 8989     8989    1993
 
     Using Slab Decomposition
 


     bravais-lattice index     =            0
     lattice parameter (alat)  =       4.6298  a.u.
     unit-cell volume          =     526.1998 (a.u.)^3
     number of atoms/cell      =            1
     number of atomic types    =            1
     number of electrons       =         9.00
     number of Kohn-Sham states=            9
     kinetic-energy cutoff     =      25.0000  Ry
     charge density cutoff     =     100.0000  Ry
     scf convergence threshold =      1.0E-06
     mixing beta               =       0.7000
     number of iterations used =            8  plain     mixing
     Exchange-correlation= SLA  PW   PBX  PBC
                           (   1   4   3   4   0   0   0)

     celldm(1)=   4.629829  celldm(2)=   0.000000  celldm(3)=   0.000000
     celldm(4)=   0.000000  celldm(5)=   0.000000  celldm(6)=   0.000000

     crystal axes: (cart. coord. in units of alat)
               a(1) = (   1.000000   0.000000   0.000000 )  
               a(2) = (   0.500000   0.866025   0.000000 )  
               a(3) = (   0.000000   0.000000   6.122449 )  

     reciprocal axes: (cart. coord. in units 2 pi/alat)
               b(1) = (  1.000000 -0.577350  0.000000 )  
               b(2) = (  0.000000  1.154701  0.000000 )  
               b(3) = (  0.000000  0.000000  0.163333 )  


     PseudoPot. # 1 for Co read from file:
     /shared/ESPRESSO/PSLIBRARY/1.0.0/pbe/PSEUDOPOTENTIALS/Co.pbe-n-kjpaw_psl.1.0.0.UPF
     MD5 check sum: 17e7ab8db721b244d1352252ea6cb8e7
     Pseudo is Projector augmented-wave + core cor, Zval =  9.0
     Generated using "atomic" code by A. Dal Corso  (Quantum ESPRESSO distribution)
     Shape of augmentation charge: PSQ
     Using radial grid of 1193 points,  6 beta functions with: 
                l(1) =   0
                l(2) =   0
                l(3) =   1
                l(4) =   1
                l(5) =   2
                l(6) =   2
     Q(r) pseudized with 0 coefficients 


     atomic species   valence    mass     pseudopotential
        Co             9.00    58.93320     Co( 1.00)

     24 Sym. Ops., with inversion, found



   Cartesian axes

     site n.     atom                  positions (alat units)
         1           Co  tau(   1) = (   0.0000000   0.0000000   3.0612245  )

     number of k points=    30  Fermi-Dirac smearing, width (Ry)=  0.0070
                       cart. coord. in units 2pi/alat
        k(    1) = (   0.0000000   0.0000000   0.0000000), wk =   0.0078125
        k(    2) = (   0.0000000   0.0721688   0.0000000), wk =   0.0468750
        k(    3) = (   0.0000000   0.1443376   0.0000000), wk =   0.0468750
        k(    4) = (   0.0000000   0.2165064   0.0000000), wk =   0.0468750
        k(    5) = (   0.0000000   0.2886751   0.0000000), wk =   0.0468750
        k(    6) = (   0.0000000   0.3608439   0.0000000), wk =   0.0468750
        k(    7) = (   0.0000000   0.4330127   0.0000000), wk =   0.0468750
        k(    8) = (   0.0000000   0.5051815   0.0000000), wk =   0.0468750
        k(    9) = (   0.0000000  -0.5773503   0.0000000), wk =   0.0234375
        k(   10) = (   0.0625000   0.1082532   0.0000000), wk =   0.0468750
        k(   11) = (   0.0625000   0.1804220   0.0000000), wk =   0.0937500
        k(   12) = (   0.0625000   0.2525907   0.0000000), wk =   0.0937500
        k(   13) = (   0.0625000   0.3247595   0.0000000), wk =   0.0937500
        k(   14) = (   0.0625000   0.3969283   0.0000000), wk =   0.0937500
        k(   15) = (   0.0625000   0.4690971   0.0000000), wk =   0.0937500
        k(   16) = (   0.0625000  -0.6134347   0.0000000), wk =   0.0937500
        k(   17) = (   0.1250000   0.2165064   0.0000000), wk =   0.0468750
        k(   18) = (   0.1250000   0.2886751   0.0000000), wk =   0.0937500
        k(   19) = (   0.1250000   0.3608439   0.0000000), wk =   0.0937500
        k(   20) = (   0.1250000   0.4330127   0.0000000), wk =   0.0937500
        k(   21) = (   0.1250000  -0.6495191   0.0000000), wk =   0.0937500
        k(   22) = (   0.1250000  -0.5773503   0.0000000), wk =   0.0468750
        k(   23) = (   0.1875000   0.3247595   0.0000000), wk =   0.0468750
        k(   24) = (   0.1875000   0.3969283   0.0000000), wk =   0.0937500
        k(   25) = (   0.1875000  -0.6856034   0.0000000), wk =   0.0937500
        k(   26) = (   0.1875000  -0.6134347   0.0000000), wk =   0.0937500
        k(   27) = (   0.2500000  -0.7216878   0.0000000), wk =   0.0468750
        k(   28) = (   0.2500000  -0.6495191   0.0000000), wk =   0.0937500
        k(   29) = (   0.2500000  -0.5773503   0.0000000), wk =   0.0468750
        k(   30) = (   0.3125000  -0.6134347   0.0000000), wk =   0.0468750

     Dense  grid:     8989 G-vectors     FFT dimensions: (  15,  15,  96)

     Estimated max dynamical RAM per process >       3.16 MB

     Estimated total dynamical RAM >      50.62 MB

     Check: negative core charge=   -0.000007

     Initial potential from superposition of free atoms

     starting charge       8.9997, renormalised to       9.0000

     negative rho (up, down):  3.077E-03 0.000E+00
     Starting wfcs are    9 randomized atomic wfcs
     Checking if some PAW data can be deallocated... 

     total cpu time spent up to now is        0.3 secs

     Self-consistent Calculation

     iteration #  1     ecut=    25.00 Ry     beta= 0.70
     Davidson diagonalization with overlap
     ethr =  1.00E-02,  avg # of iterations =  5.4

     Threshold (ethr) on eigenvalues was too large:
     Diagonalizing with lowered threshold

     Davidson diagonalization with overlap
     ethr =  8.91E-04,  avg # of iterations =  1.2

     negative rho (up, down):  4.374E-03 0.000E+00

     total cpu time spent up to now is        0.5 secs

     total energy              =    -161.80032977 Ry
     estimated scf accuracy    <       0.07763327 Ry

     iteration #  2     ecut=    25.00 Ry     beta= 0.70
     Davidson diagonalization with overlap
     ethr =  8.63E-04,  avg # of iterations =  5.3

     negative rho (up, down):  3.149E-03 0.000E+00

     total cpu time spent up to now is        0.7 secs

     total energy              =    -161.76003716 Ry
     estimated scf accuracy    <       0.38518324 Ry

     iteration #  3     ecut=    25.00 Ry     beta= 0.70
     Davidson diagonalization with overlap
     ethr =  8.63E-04,  avg # of iterations =  2.0

     negative rho (up, down):  3.517E-03 0.000E+00

     total cpu time spent up to now is        0.8 secs

     total energy              =    -161.82720897 Ry
     estimated scf accuracy    <       0.01555311 Ry

     iteration #  4     ecut=    25.00 Ry     beta= 0.70
     Davidson diagonalization with overlap
     ethr =  1.73E-04,  avg # of iterations =  1.9

     negative rho (up, down):  4.732E-03 0.000E+00

     total cpu time spent up to now is        0.9 secs

     total energy              =    -161.82925214 Ry
     estimated scf accuracy    <       0.00038983 Ry

     iteration #  5     ecut=    25.00 Ry     beta= 0.70
     Davidson diagonalization with overlap
     c_bands:  1 eigenvalues not converged
     c_bands:  1 eigenvalues not converged
     ethr =  4.33E-06,  avg # of iterations =  9.6

     negative rho (up, down):  7.906E-03 0.000E+00

     total cpu time spent up to now is        1.1 secs

     total energy              =    -161.82952992 Ry
     estimated scf accuracy    <       0.00026735 Ry

     iteration #  6     ecut=    25.00 Ry     beta= 0.70
     Davidson diagonalization with overlap
     ethr =  2.97E-06,  avg # of iterations =  4.5

     negative rho (up, down):  9.413E-03 0.000E+00

     total cpu time spent up to now is        1.2 secs

     total energy              =    -161.82956941 Ry
     estimated scf accuracy    <       0.00014479 Ry

     iteration #  7     ecut=    25.00 Ry     beta= 0.70
     Davidson diagonalization with overlap
     ethr =  1.61E-06,  avg # of iterations =  2.2

     negative rho (up, down):  1.040E-02 0.000E+00

     total cpu time spent up to now is        1.3 secs

     total energy              =    -161.82959389 Ry
     estimated scf accuracy    <       0.00000580 Ry

     iteration #  8     ecut=    25.00 Ry     beta= 0.70
     Davidson diagonalization with overlap
     ethr =  6.45E-08,  avg # of iterations =  3.5

     negative rho (up, down):  1.031E-02 0.000E+00

     total cpu time spent up to now is        1.4 secs

     End of self-consistent calculation

          k = 0.0000 0.0000 0.0000 (  1125 PWs)   bands (ev):

    -8.2524  -4.2766  -4.2483  -4.2483  -2.5570  -2.5570  -1.8896   1.1174
     2.0337

          k = 0.0000 0.0722 0.0000 (  1137 PWs)   bands (ev):

    -8.1060  -4.3024  -4.2354  -4.1945  -2.8957  -2.5884  -1.4953   1.2459
     2.1734

          k = 0.0000 0.1443 0.0000 (  1127 PWs)   bands (ev):

    -7.6786  -4.4231  -4.1008  -3.9779  -3.3501  -2.6192  -0.7855   1.6318
     2.5889

          k = 0.0000 0.2165 0.0000 (  1117 PWs)   bands (ev):

    -7.0302  -4.5396  -3.8890  -3.7700  -3.6510  -2.6812   0.0841   2.2755
     3.2714

          k = 0.0000 0.2887 0.0000 (  1102 PWs)   bands (ev):

    -6.3626  -4.4317  -4.1225  -3.6331  -3.2473  -2.7434   1.1246   3.1773
     4.2121

          k = 0.0000 0.3608 0.0000 (  1104 PWs)   bands (ev):

    -6.0766  -4.4304  -3.7666  -3.3158  -2.8362  -2.7917   2.3374   4.3356
     5.4026

          k = 0.0000 0.4330 0.0000 (  1104 PWs)   bands (ev):

    -6.1013  -4.6426  -3.2809  -2.9027  -2.4144  -2.3025   3.7402   5.7331
     6.8734

          k = 0.0000 0.5052 0.0000 (  1106 PWs)   bands (ev):

    -6.1852  -4.7645  -3.1266  -2.9311  -2.1675  -0.9070   5.2708   5.6860
     7.5064

          k = 0.0000-0.5774 0.0000 (  1114 PWs)   bands (ev):

    -6.2276  -4.8081  -3.0799  -2.9553  -2.0856  -0.1439   4.7336   6.3270
     8.4807

          k = 0.0625 0.1083 0.0000 (  1135 PWs)   bands (ev):

    -7.8183  -4.3965  -4.1542  -4.0345  -3.2366  -2.6218  -0.9945   1.5030
     2.4510

          k = 0.0625 0.1804 0.0000 (  1127 PWs)   bands (ev):

    -7.2715  -4.5437  -3.9825  -3.7486  -3.6272  -2.6805  -0.2421   2.0179
     2.9997

          k = 0.0625 0.2526 0.0000 (  1114 PWs)   bands (ev):

    -6.5690  -4.6297  -3.9856  -3.7364  -3.3503  -2.7601   0.6955   2.7910
     3.8110

          k = 0.0625 0.3248 0.0000 (  1101 PWs)   bands (ev):

    -6.0458  -4.3468  -4.2886  -3.4668  -2.8372  -2.8247   1.8179   3.8218
     4.8769

          k = 0.0625 0.3969 0.0000 (  1104 PWs)   bands (ev):

    -5.9722  -4.5318  -3.6072  -3.1589  -2.9196  -2.1626   3.1267   5.1063
     6.1904

          k = 0.0625 0.4691 0.0000 (  1101 PWs)   bands (ev):

    -6.0559  -4.6871  -3.2033  -2.9663  -2.6897  -1.1014   4.6122   6.4165
     6.9517

          k = 0.0625-0.6134 0.0000 (  1110 PWs)   bands (ev):

    -6.1314  -4.7678  -3.0928  -3.0015  -2.4209   0.0373   5.0569   6.0987
     8.5190

          k = 0.1250 0.2165 0.0000 (  1105 PWs)   bands (ev):

    -6.6388  -4.6976  -3.9148  -3.7703  -3.3473  -2.7624   0.5560   2.6624
     3.6775

          k = 0.1250 0.2887 0.0000 (  1105 PWs)   bands (ev):

    -5.9386  -4.8107  -4.1903  -3.5335  -2.8779  -2.7902   1.5593   3.5649
     4.6138

          k = 0.1250 0.3608 0.0000 (  1112 PWs)   bands (ev):

    -5.6584  -4.4239  -4.4139  -3.3113  -2.9905  -2.0508   2.7666   4.7251
     5.8029

          k = 0.1250 0.4330 0.0000 (  1100 PWs)   bands (ev):

    -5.7485  -4.5601  -3.7291  -3.1050  -3.0818  -0.9753   4.1756   6.1276
     7.2752

          k = 0.1250-0.6495 0.0000 (  1108 PWs)   bands (ev):

    -5.8601  -4.6546  -3.2517  -3.1531  -2.9913   0.3040   5.7246   5.9671
     7.8875

          k = 0.1250-0.5774 0.0000 (  1116 PWs)   bands (ev):

    -5.9048  -4.6838  -3.2007  -3.0728  -2.9715   1.1090   4.9007   6.8347
     8.8107

          k = 0.1875 0.3248 0.0000 (  1110 PWs)   bands (ev):

    -5.2448  -5.0221  -4.3517  -3.3311  -3.0380  -2.0142   2.6513   4.5978
     5.6742

          k = 0.1875 0.3969 0.0000 (  1106 PWs)   bands (ev):

    -5.2800  -4.5104  -4.4581  -3.1954  -3.1621  -0.9044   3.9592   5.8872
     6.9867

          k = 0.1875-0.6856 0.0000 (  1111 PWs)   bands (ev):

    -5.4485  -4.5245  -3.9442  -3.3402  -3.0653   0.4607   5.4587   7.1752
     7.6387

          k = 0.1875-0.6134 0.0000 (  1113 PWs)   bands (ev):

    -5.5364  -4.5373  -3.6139  -3.4147  -3.0586   1.8428   5.4965   7.0204
     9.2877

          k = 0.2500-0.7217 0.0000 (  1106 PWs)   bands (ev):

    -5.0857  -4.4458  -4.4246  -3.4188  -3.0767   0.5128   5.3702   7.2953
     8.4181

          k = 0.2500-0.6495 0.0000 (  1118 PWs)   bands (ev):

    -5.1081  -4.3952  -4.1865  -3.6279  -3.0691   2.1151   6.8207   6.9600
     8.6933

          k = 0.2500-0.5774 0.0000 (  1108 PWs)   bands (ev):

    -5.1194  -4.3380  -4.0735  -3.7101  -3.0525   3.3086   5.4195   8.1975
     8.6854

          k = 0.3125-0.6134 0.0000 (  1102 PWs)   bands (ev):

    -4.7885  -4.4058  -4.1932  -3.8940  -3.0453   3.9443   5.9595   7.2355
     8.5420

     the Fermi energy is    -2.9551 ev

!    total energy              =    -161.82959758 Ry
     total all-electron energy =     -2786.673274 Ry
     estimated scf accuracy    <       0.00000093 Ry
     smearing contrib. (-TS)   =      -0.01082963 Ry
     internal energy E=F+TS    =    -161.81876795 Ry

     The total energy is F=E-TS. E is the sum of the following terms:
     one-electron contribution =    -212.82495950 Ry
     hartree contribution      =     114.05663497 Ry
     xc contribution           =     -32.35350221 Ry
     ewald contribution        =      55.80703856 Ry
     one-center paw contrib.   =     -86.50397977 Ry

     convergence has been achieved in   8 iterations

     negative rho (up, down):  1.031E-02 0.000E+00

     Forces acting on atoms (cartesian axes, Ry/au):

     atom    1 type  1   force =     0.00000000    0.00000000    0.00000000
     The non-local contrib.  to forces
     atom    1 type  1   force =     0.00000000   -0.00000000    0.00000000
     The ionic contribution  to forces
     atom    1 type  1   force =     0.00000000   -0.00000000   -0.00000000
     The local contribution  to forces
     atom    1 type  1   force =     0.00000000    0.00000000    0.00000000
     The core correction contribution to forces
     atom    1 type  1   force =    -0.00000000   -0.00000000    0.00000000
     The Hubbard contrib.    to forces
     atom    1 type  1   force =     0.00000000    0.00000000    0.00000000
     The SCF correction term to forces
     atom    1 type  1   force =    -0.00000000   -0.00000000    0.00000000

     Total force =     0.000000     Total SCF correction =     0.000000


     Computing stress (Cartesian axis) and pressure


     negative rho (up, down):  1.031E-02 0.000E+00
          total   stress  (Ry/bohr**3)                   (kbar)     P=     -189.32
  -0.00137421   0.00000000   0.00000000         -202.15        0.00        0.00
   0.00000000  -0.00137421   0.00000000            0.00     -202.15        0.00
  -0.00000000   0.00000000  -0.00111242           -0.00        0.00     -163.64


     Writing all to output data dir ./tmp/scf.save/
 
     init_run     :      0.11s CPU      0.12s WALL (       1 calls)
     electrons    :      1.00s CPU      1.16s WALL (       1 calls)
     forces       :      0.01s CPU      0.01s WALL (       1 calls)
     stress       :      0.03s CPU      0.03s WALL (       1 calls)

     Called by init_run:
     wfcinit      :      0.03s CPU      0.03s WALL (       1 calls)
     potinit      :      0.05s CPU      0.06s WALL (       1 calls)
     hinit0       :      0.02s CPU      0.02s WALL (       1 calls)

     Called by electrons:
     c_bands      :      0.60s CPU      0.68s WALL (       9 calls)
     sum_band     :      0.10s CPU      0.11s WALL (       9 calls)
     v_of_rho     :      0.01s CPU      0.01s WALL (       9 calls)
     newd         :      0.01s CPU      0.02s WALL (       9 calls)
     PAW_pot      :      0.33s CPU      0.40s WALL (       9 calls)
     mix_rho      :      0.00s CPU      0.00s WALL (       9 calls)

     Called by c_bands:
     init_us_2    :      0.01s CPU      0.01s WALL (     630 calls)
     init_us_2:cp :      0.01s CPU      0.01s WALL (     630 calls)
     cegterg      :      0.54s CPU      0.62s WALL (     270 calls)

     Called by *egterg:
     cdiaghg      :      0.09s CPU      0.10s WALL (    1305 calls)
     h_psi        :      0.42s CPU      0.48s WALL (    1365 calls)
     s_psi        :      0.00s CPU      0.01s WALL (    1365 calls)
     g_psi        :      0.00s CPU      0.00s WALL (    1065 calls)

     Called by h_psi:
     h_psi:calbec :      0.01s CPU      0.02s WALL (    1365 calls)
     vloc_psi     :      0.40s CPU      0.45s WALL (    1365 calls)
     add_vuspsi   :      0.01s CPU      0.01s WALL (    1365 calls)

     General routines
     calbec       :      0.02s CPU      0.02s WALL (    1785 calls)
     fft          :      0.01s CPU      0.01s WALL (     125 calls)
     ffts         :      0.00s CPU      0.00s WALL (       9 calls)
     fftw         :      0.43s CPU      0.49s WALL (   15972 calls)
 
     Parallel routines
 
     PWSCF        :      1.28s CPU      1.49s WALL

 
   This run was terminated on:  12:38:17   5Jun2025            

=------------------------------------------------------------------------------=
   JOB DONE.
=------------------------------------------------------------------------------=
