
     Program PWSCF v.7.2 starts on  5Jun2025 at 12:38:53 

     This program is part of the open-source Quantum ESPRESSO suite
     for quantum simulation of materials; please cite
         "P. Giannozzi et al., J. Phys.:Condens. Matter 21 395502 (2009);
         "P. Giannozzi et al., J. Phys.:Condens. Matter 29 465901 (2017);
         "P. Giannozzi et al., J. Chem. Phys. 152 154105 (2020);
          URL http://www.quantum-espresso.org", 
     in publications or presentations arising from this work. More details at
     http://www.quantum-espresso.org/quote

     Parallel version (MPI), running on    16 processors

     MPI processes distributed on     1 nodes
     40464 MiB available memory on the printing compute node when the environment starts
 
     Waiting for input...
     Reading input from standard input

     Current dimensions of program PWSCF are:
     Max number of different atomic species (ntypx) = 10
     Max number of k-points (npk) =  40000
     Max angular momentum in pseudopotentials (lmaxx) =  4
     file Co.pbe-n-kjpaw_psl.1.0.0.UPF: wavefunction(s)  4S 3D renormalized
     Message from routine setup:
     using ibrav=0 with symmetry is DISCOURAGED, use correct ibrav instead
 
     R & G space division:  proc/nbgrp/npool/nimage =      16
     Subspace diagonalization in iterative solution of the eigenvalue problem:
     a serial algorithm will be used

 
     Parallelization info
     --------------------
     sticks:   dense  smooth     PW     G-vecs:    dense   smooth      PW
     Min          26      26      7                 2606     2606     438
     Max          27      27      9                 2627     2627     468
     Sum         421     421    127                41815    41815    7279
 
     Using Slab Decomposition
 


     bravais-lattice index     =            0
     lattice parameter (alat)  =       4.6298  a.u.
     unit-cell volume          =     526.1998 (a.u.)^3
     number of atoms/cell      =            1
     number of atomic types    =            1
     number of electrons       =         9.00
     number of Kohn-Sham states=            9
     kinetic-energy cutoff     =      70.0000  Ry
     charge density cutoff     =     280.0000  Ry
     scf convergence threshold =      1.0E-06
     mixing beta               =       0.7000
     number of iterations used =            8  plain     mixing
     Exchange-correlation= SLA  PW   PBX  PBC
                           (   1   4   3   4   0   0   0)

     celldm(1)=   4.629829  celldm(2)=   0.000000  celldm(3)=   0.000000
     celldm(4)=   0.000000  celldm(5)=   0.000000  celldm(6)=   0.000000

     crystal axes: (cart. coord. in units of alat)
               a(1) = (   1.000000   0.000000   0.000000 )  
               a(2) = (   0.500000   0.866025   0.000000 )  
               a(3) = (   0.000000   0.000000   6.122449 )  

     reciprocal axes: (cart. coord. in units 2 pi/alat)
               b(1) = (  1.000000 -0.577350  0.000000 )  
               b(2) = (  0.000000  1.154701  0.000000 )  
               b(3) = (  0.000000  0.000000  0.163333 )  


     PseudoPot. # 1 for Co read from file:
     /shared/ESPRESSO/PSLIBRARY/1.0.0/pbe/PSEUDOPOTENTIALS/Co.pbe-n-kjpaw_psl.1.0.0.UPF
     MD5 check sum: 17e7ab8db721b244d1352252ea6cb8e7
     Pseudo is Projector augmented-wave + core cor, Zval =  9.0
     Generated using "atomic" code by A. Dal Corso  (Quantum ESPRESSO distribution)
     Shape of augmentation charge: PSQ
     Using radial grid of 1193 points,  6 beta functions with: 
                l(1) =   0
                l(2) =   0
                l(3) =   1
                l(4) =   1
                l(5) =   2
                l(6) =   2
     Q(r) pseudized with 0 coefficients 


     atomic species   valence    mass     pseudopotential
        Co             9.00    58.93320     Co( 1.00)

     24 Sym. Ops., with inversion, found



   Cartesian axes

     site n.     atom                  positions (alat units)
         1           Co  tau(   1) = (   0.0000000   0.0000000   3.0612245  )

     number of k points=    30  Fermi-Dirac smearing, width (Ry)=  0.0070
                       cart. coord. in units 2pi/alat
        k(    1) = (   0.0000000   0.0000000   0.0000000), wk =   0.0078125
        k(    2) = (   0.0000000   0.0721688   0.0000000), wk =   0.0468750
        k(    3) = (   0.0000000   0.1443376   0.0000000), wk =   0.0468750
        k(    4) = (   0.0000000   0.2165064   0.0000000), wk =   0.0468750
        k(    5) = (   0.0000000   0.2886751   0.0000000), wk =   0.0468750
        k(    6) = (   0.0000000   0.3608439   0.0000000), wk =   0.0468750
        k(    7) = (   0.0000000   0.4330127   0.0000000), wk =   0.0468750
        k(    8) = (   0.0000000   0.5051815   0.0000000), wk =   0.0468750
        k(    9) = (   0.0000000  -0.5773503   0.0000000), wk =   0.0234375
        k(   10) = (   0.0625000   0.1082532   0.0000000), wk =   0.0468750
        k(   11) = (   0.0625000   0.1804220   0.0000000), wk =   0.0937500
        k(   12) = (   0.0625000   0.2525907   0.0000000), wk =   0.0937500
        k(   13) = (   0.0625000   0.3247595   0.0000000), wk =   0.0937500
        k(   14) = (   0.0625000   0.3969283   0.0000000), wk =   0.0937500
        k(   15) = (   0.0625000   0.4690971   0.0000000), wk =   0.0937500
        k(   16) = (   0.0625000  -0.6134347   0.0000000), wk =   0.0937500
        k(   17) = (   0.1250000   0.2165064   0.0000000), wk =   0.0468750
        k(   18) = (   0.1250000   0.2886751   0.0000000), wk =   0.0937500
        k(   19) = (   0.1250000   0.3608439   0.0000000), wk =   0.0937500
        k(   20) = (   0.1250000   0.4330127   0.0000000), wk =   0.0937500
        k(   21) = (   0.1250000  -0.6495191   0.0000000), wk =   0.0937500
        k(   22) = (   0.1250000  -0.5773503   0.0000000), wk =   0.0468750
        k(   23) = (   0.1875000   0.3247595   0.0000000), wk =   0.0468750
        k(   24) = (   0.1875000   0.3969283   0.0000000), wk =   0.0937500
        k(   25) = (   0.1875000  -0.6856034   0.0000000), wk =   0.0937500
        k(   26) = (   0.1875000  -0.6134347   0.0000000), wk =   0.0937500
        k(   27) = (   0.2500000  -0.7216878   0.0000000), wk =   0.0468750
        k(   28) = (   0.2500000  -0.6495191   0.0000000), wk =   0.0937500
        k(   29) = (   0.2500000  -0.5773503   0.0000000), wk =   0.0468750
        k(   30) = (   0.3125000  -0.6134347   0.0000000), wk =   0.0468750

     Dense  grid:    41815 G-vectors     FFT dimensions: (  25,  25, 160)

     Estimated max dynamical RAM per process >      12.39 MB

     Estimated total dynamical RAM >     198.21 MB

     Check: negative core charge=   -0.000001

     Initial potential from superposition of free atoms

     starting charge       8.9997, renormalised to       9.0000

     negative rho (up, down):  4.196E-05 0.000E+00
     Starting wfcs are    9 randomized atomic wfcs
     Checking if some PAW data can be deallocated... 

     total cpu time spent up to now is        0.4 secs

     Self-consistent Calculation

     iteration #  1     ecut=    70.00 Ry     beta= 0.70
     Davidson diagonalization with overlap
     ethr =  1.00E-02,  avg # of iterations =  5.0

     negative rho (up, down):  2.706E-05 0.000E+00

     total cpu time spent up to now is        0.7 secs

     total energy              =    -161.83211187 Ry
     estimated scf accuracy    <       0.14428525 Ry

     iteration #  2     ecut=    70.00 Ry     beta= 0.70
     Davidson diagonalization with overlap
     ethr =  1.60E-03,  avg # of iterations =  3.8

     negative rho (up, down):  1.382E-05 0.000E+00

     total cpu time spent up to now is        1.0 secs

     total energy              =    -161.72631654 Ry
     estimated scf accuracy    <       1.50029734 Ry

     iteration #  3     ecut=    70.00 Ry     beta= 0.70
     Davidson diagonalization with overlap
     ethr =  1.60E-03,  avg # of iterations =  2.1

     negative rho (up, down):  1.794E-05 0.000E+00

     total cpu time spent up to now is        1.2 secs

     total energy              =    -161.91755993 Ry
     estimated scf accuracy    <       0.00283417 Ry

     iteration #  4     ecut=    70.00 Ry     beta= 0.70
     Davidson diagonalization with overlap
     ethr =  3.15E-05,  avg # of iterations =  6.3

     negative rho (up, down):  2.604E-05 0.000E+00

     total cpu time spent up to now is        1.5 secs

     total energy              =    -161.91816094 Ry
     estimated scf accuracy    <       0.00023641 Ry

     iteration #  5     ecut=    70.00 Ry     beta= 0.70
     Davidson diagonalization with overlap
     ethr =  2.63E-06,  avg # of iterations =  5.2

     negative rho (up, down):  3.211E-05 0.000E+00

     total cpu time spent up to now is        1.8 secs

     total energy              =    -161.91820858 Ry
     estimated scf accuracy    <       0.00004264 Ry

     iteration #  6     ecut=    70.00 Ry     beta= 0.70
     Davidson diagonalization with overlap
     ethr =  4.74E-07,  avg # of iterations =  1.2

     negative rho (up, down):  3.363E-05 0.000E+00

     total cpu time spent up to now is        2.0 secs

     total energy              =    -161.91821580 Ry
     estimated scf accuracy    <       0.00000321 Ry

     iteration #  7     ecut=    70.00 Ry     beta= 0.70
     Davidson diagonalization with overlap
     ethr =  3.56E-08,  avg # of iterations =  1.7

     negative rho (up, down):  3.388E-05 0.000E+00

     total cpu time spent up to now is        2.2 secs

     End of self-consistent calculation

          k = 0.0000 0.0000 0.0000 (  5211 PWs)   bands (ev):

    -8.2275  -4.0510  -3.9562  -3.9562  -2.4369  -2.4369  -1.8191   2.1698
     3.0449

          k = 0.0000 0.0722 0.0000 (  5191 PWs)   bands (ev):

    -8.0798  -4.0140  -3.9999  -3.8884  -2.7677  -2.4511  -1.4057   2.2958
     3.1844

          k = 0.0000 0.1443 0.0000 (  5183 PWs)   bands (ev):

    -7.6494  -4.1455  -3.8736  -3.6921  -3.2284  -2.4917  -0.6880   2.6741
     3.5989

          k = 0.0000 0.2165 0.0000 (  5175 PWs)   bands (ev):

    -6.9893  -4.2903  -3.6754  -3.6472  -3.3883  -2.5520   0.1857   3.3045
     4.2807

          k = 0.0000 0.2887 0.0000 (  5189 PWs)   bands (ev):

    -6.2772  -4.2437  -4.0048  -3.4356  -3.0132  -2.6226   1.2246   4.1876
     5.2210

          k = 0.0000 0.3608 0.0000 (  5199 PWs)   bands (ev):

    -5.9065  -4.2920  -3.6297  -3.1596  -2.6927  -2.6170   2.4426   5.3182
     6.4181

          k = 0.0000 0.4330 0.0000 (  5200 PWs)   bands (ev):

    -5.8993  -4.5022  -3.0668  -2.7516  -2.2714  -2.2621   3.8396   6.5985
     7.5745

          k = 0.0000 0.5052 0.0000 (  5218 PWs)   bands (ev):

    -5.9713  -4.6302  -2.9098  -2.7908  -2.0140  -0.8948   5.3602   5.6784
     8.4926

          k = 0.0000-0.5774 0.0000 (  5220 PWs)   bands (ev):

    -6.0041  -4.6732  -2.8593  -2.8045  -1.9245  -0.1403   4.7350   6.4083
     8.6152

          k = 0.0625 0.1083 0.0000 (  5191 PWs)   bands (ev):

    -7.7902  -4.1078  -3.9201  -3.7489  -3.1057  -2.4813  -0.8952   2.5478
     3.4614

          k = 0.0625 0.1804 0.0000 (  5189 PWs)   bands (ev):

    -7.2375  -4.2721  -3.7564  -3.4983  -3.4807  -2.5393  -0.1388   3.0521
     4.0093

          k = 0.0625 0.2526 0.0000 (  5182 PWs)   bands (ev):

    -6.5131  -4.3929  -3.8579  -3.5350  -3.1076  -2.6153   0.8001   3.8097
     4.8226

          k = 0.0625 0.3248 0.0000 (  5190 PWs)   bands (ev):

    -5.9166  -4.1797  -4.1600  -3.2850  -2.6975  -2.6451   1.9215   4.8188
     5.8873

          k = 0.0625 0.3969 0.0000 (  5198 PWs)   bands (ev):

    -5.7796  -4.3934  -3.4469  -3.0084  -2.7734  -2.0393   3.2295   6.0623
     7.2129

          k = 0.0625 0.4691 0.0000 (  5224 PWs)   bands (ev):

    -5.8496  -4.5520  -2.9927  -2.8314  -2.5608  -1.0568   4.7064   6.5900
     7.8169

          k = 0.0625-0.6134 0.0000 (  5222 PWs)   bands (ev):

    -5.9141  -4.6320  -2.8691  -2.8627  -2.2756   0.0538   5.0500   6.1834
     9.0677

          k = 0.1250 0.2165 0.0000 (  5180 PWs)   bands (ev):

    -6.5948  -4.4620  -3.7941  -3.5713  -3.1154  -2.6255   0.6580   3.6839
     4.6867

          k = 0.1250 0.2887 0.0000 (  5187 PWs)   bands (ev):

    -5.8576  -4.5865  -4.0602  -3.3427  -2.7348  -2.6029   1.6646   4.5691
     5.6230

          k = 0.1250 0.3608 0.0000 (  5202 PWs)   bands (ev):

    -5.4838  -4.2744  -4.2581  -3.1112  -2.8486  -1.9003   2.8722   5.7042
     6.8126

          k = 0.1250 0.4330 0.0000 (  5209 PWs)   bands (ev):

    -5.5456  -4.4283  -3.5722  -2.9477  -2.9192  -0.9095   4.2724   6.9996
     7.9529

          k = 0.1250-0.6495 0.0000 (  5217 PWs)   bands (ev):

    -5.6502  -4.5202  -3.0670  -3.0153  -2.8092   0.3350   5.8142   5.9464
     8.8669

          k = 0.1250-0.5774 0.0000 (  5216 PWs)   bands (ev):

    -5.6914  -4.5507  -3.0393  -2.8437  -2.8242   1.1181   4.8978   6.9175
     8.9315

          k = 0.1875 0.3248 0.0000 (  5208 PWs)   bands (ev):

    -5.1330  -4.7942  -4.2196  -3.1351  -2.8910  -1.8535   2.7553   5.5829
     6.6832

          k = 0.1875 0.3969 0.0000 (  5211 PWs)   bands (ev):

    -5.0755  -4.3498  -4.3253  -3.0551  -2.9595  -0.8181   4.0589   6.8388
     7.9901

          k = 0.1875-0.6856 0.0000 (  5208 PWs)   bands (ev):

    -5.2389  -4.3816  -3.7813  -3.1943  -2.8549   0.5010   5.5547   7.2696
     8.5188

          k = 0.1875-0.6134 0.0000 (  5218 PWs)   bands (ev):

    -5.3296  -4.4029  -3.4468  -3.2755  -2.8297   1.8528   5.4691   7.1061
     9.7693

          k = 0.2500-0.7217 0.0000 (  5210 PWs)   bands (ev):

    -4.8883  -4.3107  -4.2502  -3.2818  -2.8613   0.5518   5.4651   8.1528
     8.9040

          k = 0.2500-0.6495 0.0000 (  5228 PWs)   bands (ev):

    -4.9067  -4.2530  -4.0114  -3.4784  -2.8241   2.1314   6.7730   7.0498
     8.7461

          k = 0.2500-0.5774 0.0000 (  5228 PWs)   bands (ev):

    -4.9288  -4.2153  -3.9017  -3.5643  -2.8206   3.2948   5.3853   8.2851
     8.6596

          k = 0.3125-0.6134 0.0000 (  5230 PWs)   bands (ev):

    -4.6068  -4.2417  -4.0614  -3.7547  -2.8173   3.9100   5.8929   7.2431
     8.6307

     the Fermi energy is    -2.7833 ev

!    total energy              =    -161.91821556 Ry
     total all-electron energy =     -2786.761892 Ry
     estimated scf accuracy    <       0.00000063 Ry
     smearing contrib. (-TS)   =      -0.01158602 Ry
     internal energy E=F+TS    =    -161.90662955 Ry

     The total energy is F=E-TS. E is the sum of the following terms:
     one-electron contribution =    -213.00227061 Ry
     hartree contribution      =     114.26369900 Ry
     xc contribution           =     -32.43521284 Ry
     ewald contribution        =      55.80703861 Ry
     one-center paw contrib.   =     -86.53988372 Ry

     convergence has been achieved in   7 iterations

     negative rho (up, down):  3.388E-05 0.000E+00

     Forces acting on atoms (cartesian axes, Ry/au):

     atom    1 type  1   force =     0.00000000    0.00000000    0.00000000
     The non-local contrib.  to forces
     atom    1 type  1   force =     0.00000000    0.00000000    0.00000000
     The ionic contribution  to forces
     atom    1 type  1   force =    -0.00000000    0.00000000   -0.00000000
     The local contribution  to forces
     atom    1 type  1   force =     0.00000000    0.00000000    0.00000000
     The core correction contribution to forces
     atom    1 type  1   force =     0.00000000    0.00000000    0.00000000
     The Hubbard contrib.    to forces
     atom    1 type  1   force =     0.00000000    0.00000000    0.00000000
     The SCF correction term to forces
     atom    1 type  1   force =    -0.00000000   -0.00000000    0.00000000

     Total force =     0.000000     Total SCF correction =     0.000000


     Computing stress (Cartesian axis) and pressure


     negative rho (up, down):  3.388E-05 0.000E+00
          total   stress  (Ry/bohr**3)                   (kbar)     P=      -34.88
  -0.00034597   0.00000000   0.00000000          -50.89        0.00        0.00
   0.00000000  -0.00034597   0.00000000            0.00      -50.89        0.00
   0.00000000   0.00000000  -0.00001934            0.00        0.00       -2.84


     Writing all to output data dir ./tmp/scf.save/
 
     init_run     :      0.19s CPU      0.24s WALL (       1 calls)
     electrons    :      1.67s CPU      1.85s WALL (       1 calls)
     forces       :      0.04s CPU      0.05s WALL (       1 calls)
     stress       :      0.16s CPU      0.17s WALL (       1 calls)

     Called by init_run:
     wfcinit      :      0.04s CPU      0.05s WALL (       1 calls)
     potinit      :      0.06s CPU      0.07s WALL (       1 calls)
     hinit0       :      0.07s CPU      0.09s WALL (       1 calls)

     Called by electrons:
     c_bands      :      1.05s CPU      1.18s WALL (       7 calls)
     sum_band     :      0.22s CPU      0.25s WALL (       7 calls)
     v_of_rho     :      0.02s CPU      0.02s WALL (       8 calls)
     newd         :      0.06s CPU      0.07s WALL (       8 calls)
     PAW_pot      :      0.38s CPU      0.39s WALL (       8 calls)
     mix_rho      :      0.00s CPU      0.00s WALL (       7 calls)

     Called by c_bands:
     init_us_2    :      0.02s CPU      0.02s WALL (     510 calls)
     init_us_2:cp :      0.02s CPU      0.02s WALL (     510 calls)
     cegterg      :      0.84s CPU      0.94s WALL (     210 calls)

     Called by *egterg:
     cdiaghg      :      0.06s CPU      0.07s WALL (     969 calls)
     h_psi        :      0.71s CPU      0.81s WALL (     999 calls)
     s_psi        :      0.01s CPU      0.01s WALL (     999 calls)
     g_psi        :      0.00s CPU      0.00s WALL (     759 calls)

     Called by h_psi:
     h_psi:calbec :      0.03s CPU      0.03s WALL (     999 calls)
     vloc_psi     :      0.67s CPU      0.76s WALL (     999 calls)
     add_vuspsi   :      0.01s CPU      0.01s WALL (     999 calls)

     General routines
     calbec       :      0.07s CPU      0.08s WALL (    1359 calls)
     fft          :      0.06s CPU      0.08s WALL (     113 calls)
     ffts         :      0.00s CPU      0.00s WALL (       7 calls)
     fftw         :      0.73s CPU      0.84s WALL (   12524 calls)
 
     Parallel routines
 
     PWSCF        :      2.19s CPU      2.49s WALL

 
   This run was terminated on:  12:38:55   5Jun2025            

=------------------------------------------------------------------------------=
   JOB DONE.
=------------------------------------------------------------------------------=
