
     Program PWSCF v.7.2 starts on  5Jun2025 at 12:38:36 

     This program is part of the open-source Quantum ESPRESSO suite
     for quantum simulation of materials; please cite
         "P. Giannozzi et al., J. Phys.:Condens. Matter 21 395502 (2009);
         "P. Giannozzi et al., J. Phys.:Condens. Matter 29 465901 (2017);
         "P. Giannozzi et al., J. Chem. Phys. 152 154105 (2020);
          URL http://www.quantum-espresso.org", 
     in publications or presentations arising from this work. More details at
     http://www.quantum-espresso.org/quote

     Parallel version (MPI), running on    16 processors

     MPI processes distributed on     1 nodes
     40484 MiB available memory on the printing compute node when the environment starts
 
     Waiting for input...
     Reading input from standard input

     Current dimensions of program PWSCF are:
     Max number of different atomic species (ntypx) = 10
     Max number of k-points (npk) =  40000
     Max angular momentum in pseudopotentials (lmaxx) =  4
     file Co.pbe-n-kjpaw_psl.1.0.0.UPF: wavefunction(s)  4S 3D renormalized
     Message from routine setup:
     using ibrav=0 with symmetry is DISCOURAGED, use correct ibrav instead
 
     R & G space division:  proc/nbgrp/npool/nimage =      16
     Subspace diagonalization in iterative solution of the eigenvalue problem:
     a serial algorithm will be used

 
     Parallelization info
     --------------------
     sticks:   dense  smooth     PW     G-vecs:    dense   smooth      PW
     Min          18      18      5                 1564     1564     275
     Max          19      19      6                 1583     1583     306
     Sum         301     301     91                25195    25195    4651
 
     Using Slab Decomposition
 


     bravais-lattice index     =            0
     lattice parameter (alat)  =       4.6298  a.u.
     unit-cell volume          =     526.1998 (a.u.)^3
     number of atoms/cell      =            1
     number of atomic types    =            1
     number of electrons       =         9.00
     number of Kohn-Sham states=            9
     kinetic-energy cutoff     =      50.0000  Ry
     charge density cutoff     =     200.0000  Ry
     scf convergence threshold =      1.0E-06
     mixing beta               =       0.7000
     number of iterations used =            8  plain     mixing
     Exchange-correlation= SLA  PW   PBX  PBC
                           (   1   4   3   4   0   0   0)

     celldm(1)=   4.629829  celldm(2)=   0.000000  celldm(3)=   0.000000
     celldm(4)=   0.000000  celldm(5)=   0.000000  celldm(6)=   0.000000

     crystal axes: (cart. coord. in units of alat)
               a(1) = (   1.000000   0.000000   0.000000 )  
               a(2) = (   0.500000   0.866025   0.000000 )  
               a(3) = (   0.000000   0.000000   6.122449 )  

     reciprocal axes: (cart. coord. in units 2 pi/alat)
               b(1) = (  1.000000 -0.577350  0.000000 )  
               b(2) = (  0.000000  1.154701  0.000000 )  
               b(3) = (  0.000000  0.000000  0.163333 )  


     PseudoPot. # 1 for Co read from file:
     /shared/ESPRESSO/PSLIBRARY/1.0.0/pbe/PSEUDOPOTENTIALS/Co.pbe-n-kjpaw_psl.1.0.0.UPF
     MD5 check sum: 17e7ab8db721b244d1352252ea6cb8e7
     Pseudo is Projector augmented-wave + core cor, Zval =  9.0
     Generated using "atomic" code by A. Dal Corso  (Quantum ESPRESSO distribution)
     Shape of augmentation charge: PSQ
     Using radial grid of 1193 points,  6 beta functions with: 
                l(1) =   0
                l(2) =   0
                l(3) =   1
                l(4) =   1
                l(5) =   2
                l(6) =   2
     Q(r) pseudized with 0 coefficients 


     atomic species   valence    mass     pseudopotential
        Co             9.00    58.93320     Co( 1.00)

     24 Sym. Ops., with inversion, found



   Cartesian axes

     site n.     atom                  positions (alat units)
         1           Co  tau(   1) = (   0.0000000   0.0000000   3.0612245  )

     number of k points=    30  Fermi-Dirac smearing, width (Ry)=  0.0070
                       cart. coord. in units 2pi/alat
        k(    1) = (   0.0000000   0.0000000   0.0000000), wk =   0.0078125
        k(    2) = (   0.0000000   0.0721688   0.0000000), wk =   0.0468750
        k(    3) = (   0.0000000   0.1443376   0.0000000), wk =   0.0468750
        k(    4) = (   0.0000000   0.2165064   0.0000000), wk =   0.0468750
        k(    5) = (   0.0000000   0.2886751   0.0000000), wk =   0.0468750
        k(    6) = (   0.0000000   0.3608439   0.0000000), wk =   0.0468750
        k(    7) = (   0.0000000   0.4330127   0.0000000), wk =   0.0468750
        k(    8) = (   0.0000000   0.5051815   0.0000000), wk =   0.0468750
        k(    9) = (   0.0000000  -0.5773503   0.0000000), wk =   0.0234375
        k(   10) = (   0.0625000   0.1082532   0.0000000), wk =   0.0468750
        k(   11) = (   0.0625000   0.1804220   0.0000000), wk =   0.0937500
        k(   12) = (   0.0625000   0.2525907   0.0000000), wk =   0.0937500
        k(   13) = (   0.0625000   0.3247595   0.0000000), wk =   0.0937500
        k(   14) = (   0.0625000   0.3969283   0.0000000), wk =   0.0937500
        k(   15) = (   0.0625000   0.4690971   0.0000000), wk =   0.0937500
        k(   16) = (   0.0625000  -0.6134347   0.0000000), wk =   0.0937500
        k(   17) = (   0.1250000   0.2165064   0.0000000), wk =   0.0468750
        k(   18) = (   0.1250000   0.2886751   0.0000000), wk =   0.0937500
        k(   19) = (   0.1250000   0.3608439   0.0000000), wk =   0.0937500
        k(   20) = (   0.1250000   0.4330127   0.0000000), wk =   0.0937500
        k(   21) = (   0.1250000  -0.6495191   0.0000000), wk =   0.0937500
        k(   22) = (   0.1250000  -0.5773503   0.0000000), wk =   0.0468750
        k(   23) = (   0.1875000   0.3247595   0.0000000), wk =   0.0468750
        k(   24) = (   0.1875000   0.3969283   0.0000000), wk =   0.0937500
        k(   25) = (   0.1875000  -0.6856034   0.0000000), wk =   0.0937500
        k(   26) = (   0.1875000  -0.6134347   0.0000000), wk =   0.0937500
        k(   27) = (   0.2500000  -0.7216878   0.0000000), wk =   0.0468750
        k(   28) = (   0.2500000  -0.6495191   0.0000000), wk =   0.0937500
        k(   29) = (   0.2500000  -0.5773503   0.0000000), wk =   0.0468750
        k(   30) = (   0.3125000  -0.6134347   0.0000000), wk =   0.0468750

     Dense  grid:    25195 G-vectors     FFT dimensions: (  24,  24, 128)

     Estimated max dynamical RAM per process >       7.85 MB

     Estimated total dynamical RAM >     125.55 MB

     Check: negative core charge=   -0.000003

     Initial potential from superposition of free atoms

     starting charge       8.9997, renormalised to       9.0000

     negative rho (up, down):  2.871E-05 0.000E+00
     Starting wfcs are    9 randomized atomic wfcs
     Checking if some PAW data can be deallocated... 

     total cpu time spent up to now is        0.3 secs

     Self-consistent Calculation

     iteration #  1     ecut=    50.00 Ry     beta= 0.70
     Davidson diagonalization with overlap
     ethr =  1.00E-02,  avg # of iterations =  5.0

     negative rho (up, down):  2.066E-05 0.000E+00

     total cpu time spent up to now is        0.5 secs

     total energy              =    -161.83125940 Ry
     estimated scf accuracy    <       0.14422573 Ry

     iteration #  2     ecut=    50.00 Ry     beta= 0.70
     Davidson diagonalization with overlap
     ethr =  1.60E-03,  avg # of iterations =  3.7

     negative rho (up, down):  8.521E-06 0.000E+00

     total cpu time spent up to now is        0.6 secs

     total energy              =    -161.72549704 Ry
     estimated scf accuracy    <       1.49786039 Ry

     iteration #  3     ecut=    50.00 Ry     beta= 0.70
     Davidson diagonalization with overlap
     ethr =  1.60E-03,  avg # of iterations =  2.3

     negative rho (up, down):  2.925E-05 0.000E+00

     total cpu time spent up to now is        0.8 secs

     total energy              =    -161.91666358 Ry
     estimated scf accuracy    <       0.00288972 Ry

     iteration #  4     ecut=    50.00 Ry     beta= 0.70
     Davidson diagonalization with overlap
     c_bands:  1 eigenvalues not converged
     ethr =  3.21E-05,  avg # of iterations =  6.5

     negative rho (up, down):  3.945E-05 0.000E+00

     total cpu time spent up to now is        0.9 secs

     total energy              =    -161.91721352 Ry
     estimated scf accuracy    <       0.00023708 Ry

     iteration #  5     ecut=    50.00 Ry     beta= 0.70
     Davidson diagonalization with overlap
     ethr =  2.63E-06,  avg # of iterations =  5.2

     negative rho (up, down):  4.816E-05 0.000E+00

     total cpu time spent up to now is        1.1 secs

     total energy              =    -161.91725916 Ry
     estimated scf accuracy    <       0.00004272 Ry

     iteration #  6     ecut=    50.00 Ry     beta= 0.70
     Davidson diagonalization with overlap
     ethr =  4.75E-07,  avg # of iterations =  1.2

     negative rho (up, down):  5.045E-05 0.000E+00

     total cpu time spent up to now is        1.2 secs

     total energy              =    -161.91726645 Ry
     estimated scf accuracy    <       0.00000311 Ry

     iteration #  7     ecut=    50.00 Ry     beta= 0.70
     Davidson diagonalization with overlap
     ethr =  3.45E-08,  avg # of iterations =  1.8

     negative rho (up, down):  5.083E-05 0.000E+00

     total cpu time spent up to now is        1.4 secs

     End of self-consistent calculation

          k = 0.0000 0.0000 0.0000 (  3123 PWs)   bands (ev):

    -8.2298  -4.0527  -3.9575  -3.9575  -2.4384  -2.4384  -1.8228   2.0275
     2.9150

          k = 0.0000 0.0722 0.0000 (  3121 PWs)   bands (ev):

    -8.0821  -4.0155  -4.0014  -3.8896  -2.7696  -2.4528  -1.4093   2.1542
     3.0539

          k = 0.0000 0.1443 0.0000 (  3129 PWs)   bands (ev):

    -7.6517  -4.1469  -3.8753  -3.6934  -3.2304  -2.4932  -0.6920   2.5350
     3.4675

          k = 0.0000 0.2165 0.0000 (  3107 PWs)   bands (ev):

    -6.9915  -4.2918  -3.6770  -3.6490  -3.3896  -2.5535   0.1813   3.1695
     4.1482

          k = 0.0000 0.2887 0.0000 (  3135 PWs)   bands (ev):

    -6.2793  -4.2455  -4.0066  -3.4373  -3.0147  -2.6242   1.2198   4.0584
     5.0864

          k = 0.0000 0.3608 0.0000 (  3153 PWs)   bands (ev):

    -5.9085  -4.2939  -3.6317  -3.1615  -2.6943  -2.6188   2.4374   5.1974
     6.2769

          k = 0.0000 0.4330 0.0000 (  3161 PWs)   bands (ev):

    -5.9012  -4.5041  -3.0687  -2.7533  -2.2735  -2.2640   3.8345   6.5108
     7.4439

          k = 0.0000 0.5052 0.0000 (  3165 PWs)   bands (ev):

    -5.9732  -4.6321  -2.9116  -2.7925  -2.0159  -0.8970   5.3555   5.6758
     8.3678

          k = 0.0000-0.5774 0.0000 (  3172 PWs)   bands (ev):

    -6.0060  -4.6752  -2.8611  -2.8063  -1.9265  -0.1424   4.7328   6.4045
     8.6056

          k = 0.0625 0.1083 0.0000 (  3131 PWs)   bands (ev):

    -7.7924  -4.1092  -3.9218  -3.7503  -3.1076  -2.4828  -0.8991   2.4080
     3.3301

          k = 0.0625 0.1804 0.0000 (  3127 PWs)   bands (ev):

    -7.2398  -4.2737  -3.7581  -3.5002  -3.4819  -2.5409  -0.1431   2.9158
     3.8775

          k = 0.0625 0.2526 0.0000 (  3133 PWs)   bands (ev):

    -6.5153  -4.3946  -3.8598  -3.5367  -3.1091  -2.6169   0.7953   3.6781
     4.6865

          k = 0.0625 0.3248 0.0000 (  3150 PWs)   bands (ev):

    -5.9187  -4.1816  -4.1619  -3.2868  -2.6991  -2.6468   1.9164   4.6937
     5.7509

          k = 0.0625 0.3969 0.0000 (  3158 PWs)   bands (ev):

    -5.7816  -4.3954  -3.4488  -3.0104  -2.7750  -2.0412   3.2243   5.9493
     7.0659

          k = 0.0625 0.4691 0.0000 (  3154 PWs)   bands (ev):

    -5.8515  -4.5539  -2.9945  -2.8331  -2.5628  -1.0588   4.7013   6.5820
     7.6843

          k = 0.0625-0.6134 0.0000 (  3157 PWs)   bands (ev):

    -5.9160  -4.6339  -2.8709  -2.8644  -2.2776   0.0517   5.0478   6.1791
     9.0550

          k = 0.1250 0.2165 0.0000 (  3141 PWs)   bands (ev):

    -6.5971  -4.4638  -3.7959  -3.5730  -3.1169  -2.6271   0.6533   3.5512
     4.5535

          k = 0.1250 0.2887 0.0000 (  3141 PWs)   bands (ev):

    -5.8597  -4.5883  -4.0621  -3.3445  -2.7365  -2.6045   1.6596   4.4418
     5.4884

          k = 0.1250 0.3608 0.0000 (  3142 PWs)   bands (ev):

    -5.4857  -4.2763  -4.2600  -3.1130  -2.8503  -1.9021   2.8669   5.5845
     6.6769

          k = 0.1250 0.4330 0.0000 (  3135 PWs)   bands (ev):

    -5.5474  -4.4302  -3.5741  -2.9494  -2.9210  -0.9115   4.2671   6.9104
     7.8296

          k = 0.1250-0.6495 0.0000 (  3143 PWs)   bands (ev):

    -5.6520  -4.5221  -3.0689  -3.0170  -2.8110   0.3331   5.8094   5.9440
     8.7445

          k = 0.1250-0.5774 0.0000 (  3156 PWs)   bands (ev):

    -5.6932  -4.5527  -3.0411  -2.8454  -2.8263   1.1161   4.8957   6.9136
     8.9224

          k = 0.1875 0.3248 0.0000 (  3133 PWs)   bands (ev):

    -5.1349  -4.7960  -4.2216  -3.1369  -2.8926  -1.8552   2.7501   5.4617
     6.5632

          k = 0.1875 0.3969 0.0000 (  3139 PWs)   bands (ev):

    -5.0774  -4.3517  -4.3273  -3.0568  -2.9613  -0.8199   4.0536   6.7270
     7.8420

          k = 0.1875-0.6856 0.0000 (  3143 PWs)   bands (ev):

    -5.2408  -4.3835  -3.7833  -3.1961  -2.8567   0.4991   5.5495   7.2643
     8.3967

          k = 0.1875-0.6134 0.0000 (  3141 PWs)   bands (ev):

    -5.3314  -4.4049  -3.4488  -3.2772  -2.8314   1.8509   5.4670   7.1015
     9.7591

          k = 0.2500-0.7217 0.0000 (  3121 PWs)   bands (ev):

    -4.8902  -4.3126  -4.2520  -3.2835  -2.8630   0.5499   5.4597   8.0664
     8.9000

          k = 0.2500-0.6495 0.0000 (  3126 PWs)   bands (ev):

    -4.9085  -4.2549  -4.0133  -3.4801  -2.8258   2.1295   6.7710   7.0448
     8.7419

          k = 0.2500-0.5774 0.0000 (  3143 PWs)   bands (ev):

    -4.9307  -4.2173  -3.9038  -3.5661  -2.8222   3.2930   5.3833   8.2809
     8.6572

          k = 0.3125-0.6134 0.0000 (  3117 PWs)   bands (ev):

    -4.6086  -4.2435  -4.0633  -3.7566  -2.8188   3.9082   5.8913   7.2406
     8.6261

     the Fermi energy is    -2.7850 ev

!    total energy              =    -161.91726618 Ry
     total all-electron energy =     -2786.760942 Ry
     estimated scf accuracy    <       0.00000068 Ry
     smearing contrib. (-TS)   =      -0.01158483 Ry
     internal energy E=F+TS    =    -161.90568135 Ry

     The total energy is F=E-TS. E is the sum of the following terms:
     one-electron contribution =    -212.99936269 Ry
     hartree contribution      =     114.26189181 Ry
     xc contribution           =     -32.43519967 Ry
     ewald contribution        =      55.80703853 Ry
     one-center paw contrib.   =     -86.54004932 Ry

     convergence has been achieved in   7 iterations

     negative rho (up, down):  5.083E-05 0.000E+00

     Forces acting on atoms (cartesian axes, Ry/au):

     atom    1 type  1   force =     0.00000000    0.00000000    0.00000000
     The non-local contrib.  to forces
     atom    1 type  1   force =     0.00000000    0.00000000    0.00000000
     The ionic contribution  to forces
     atom    1 type  1   force =    -0.00000000   -0.00000000   -0.00000000
     The local contribution  to forces
     atom    1 type  1   force =     0.00000000    0.00000000    0.00000000
     The core correction contribution to forces
     atom    1 type  1   force =     0.00000000   -0.00000000    0.00000000
     The Hubbard contrib.    to forces
     atom    1 type  1   force =     0.00000000    0.00000000    0.00000000
     The SCF correction term to forces
     atom    1 type  1   force =     0.00000000   -0.00000000   -0.00000000

     Total force =     0.000000     Total SCF correction =     0.000000


     Computing stress (Cartesian axis) and pressure


     negative rho (up, down):  5.083E-05 0.000E+00
          total   stress  (Ry/bohr**3)                   (kbar)     P=      -36.68
  -0.00035822  -0.00000000   0.00000000          -52.70       -0.00        0.00
  -0.00000000  -0.00035822   0.00000000           -0.00      -52.70        0.00
   0.00000000   0.00000000  -0.00003166            0.00        0.00       -4.66


     Writing all to output data dir ./tmp/scf.save/
 
     init_run     :      0.13s CPU      0.20s WALL (       1 calls)
     electrons    :      1.02s CPU      1.06s WALL (       1 calls)
     forces       :      0.02s CPU      0.02s WALL (       1 calls)
     stress       :      0.06s CPU      0.07s WALL (       1 calls)

     Called by init_run:
     wfcinit      :      0.02s CPU      0.03s WALL (       1 calls)
     potinit      :      0.05s CPU      0.06s WALL (       1 calls)
     hinit0       :      0.06s CPU      0.10s WALL (       1 calls)

     Called by electrons:
     c_bands      :      0.60s CPU      0.63s WALL (       7 calls)
     sum_band     :      0.11s CPU      0.12s WALL (       7 calls)
     v_of_rho     :      0.01s CPU      0.01s WALL (       8 calls)
     newd         :      0.04s CPU      0.04s WALL (       8 calls)
     PAW_pot      :      0.31s CPU      0.32s WALL (       8 calls)
     mix_rho      :      0.00s CPU      0.00s WALL (       7 calls)

     Called by c_bands:
     init_us_2    :      0.01s CPU      0.02s WALL (     510 calls)
     init_us_2:cp :      0.01s CPU      0.01s WALL (     510 calls)
     cegterg      :      0.47s CPU      0.49s WALL (     210 calls)

     Called by *egterg:
     cdiaghg      :      0.07s CPU      0.07s WALL (     981 calls)
     h_psi        :      0.36s CPU      0.38s WALL (    1011 calls)
     s_psi        :      0.01s CPU      0.01s WALL (    1011 calls)
     g_psi        :      0.00s CPU      0.00s WALL (     771 calls)

     Called by h_psi:
     h_psi:calbec :      0.02s CPU      0.02s WALL (    1011 calls)
     vloc_psi     :      0.33s CPU      0.35s WALL (    1011 calls)
     add_vuspsi   :      0.01s CPU      0.01s WALL (    1011 calls)

     General routines
     calbec       :      0.02s CPU      0.03s WALL (    1371 calls)
     fft          :      0.03s CPU      0.07s WALL (     113 calls)
     ffts         :      0.00s CPU      0.00s WALL (       7 calls)
     fftw         :      0.34s CPU      0.36s WALL (   12526 calls)
 
     Parallel routines
 
     PWSCF        :      1.36s CPU      1.50s WALL

 
   This run was terminated on:  12:38:37   5Jun2025            

=------------------------------------------------------------------------------=
   JOB DONE.
=------------------------------------------------------------------------------=
