
     Program PWSCF v.7.2 starts on  5Jun2025 at 12:38:31 

     This program is part of the open-source Quantum ESPRESSO suite
     for quantum simulation of materials; please cite
         "P. Giannozzi et al., J. Phys.:Condens. Matter 21 395502 (2009);
         "P. Giannozzi et al., J. Phys.:Condens. Matter 29 465901 (2017);
         "P. Giannozzi et al., J. Chem. Phys. 152 154105 (2020);
          URL http://www.quantum-espresso.org", 
     in publications or presentations arising from this work. More details at
     http://www.quantum-espresso.org/quote

     Parallel version (MPI), running on    16 processors

     MPI processes distributed on     1 nodes
     40492 MiB available memory on the printing compute node when the environment starts
 
     Waiting for input...
     Reading input from standard input

     Current dimensions of program PWSCF are:
     Max number of different atomic species (ntypx) = 10
     Max number of k-points (npk) =  40000
     Max angular momentum in pseudopotentials (lmaxx) =  4
     file Co.pbe-n-kjpaw_psl.1.0.0.UPF: wavefunction(s)  4S 3D renormalized
     Message from routine setup:
     using ibrav=0 with symmetry is DISCOURAGED, use correct ibrav instead
 
     R & G space division:  proc/nbgrp/npool/nimage =      16
     Subspace diagonalization in iterative solution of the eigenvalue problem:
     a serial algorithm will be used

 
     Parallelization info
     --------------------
     sticks:   dense  smooth     PW     G-vecs:    dense   smooth      PW
     Min          16      16      5                 1329     1329     249
     Max          19      19      6                 1338     1338     274
     Sum         265     265     85                21325    21325    4113
 
     Using Slab Decomposition
 


     bravais-lattice index     =            0
     lattice parameter (alat)  =       4.6298  a.u.
     unit-cell volume          =     526.1998 (a.u.)^3
     number of atoms/cell      =            1
     number of atomic types    =            1
     number of electrons       =         9.00
     number of Kohn-Sham states=            9
     kinetic-energy cutoff     =      45.0000  Ry
     charge density cutoff     =     180.0000  Ry
     scf convergence threshold =      1.0E-06
     mixing beta               =       0.7000
     number of iterations used =            8  plain     mixing
     Exchange-correlation= SLA  PW   PBX  PBC
                           (   1   4   3   4   0   0   0)

     celldm(1)=   4.629829  celldm(2)=   0.000000  celldm(3)=   0.000000
     celldm(4)=   0.000000  celldm(5)=   0.000000  celldm(6)=   0.000000

     crystal axes: (cart. coord. in units of alat)
               a(1) = (   1.000000   0.000000   0.000000 )  
               a(2) = (   0.500000   0.866025   0.000000 )  
               a(3) = (   0.000000   0.000000   6.122449 )  

     reciprocal axes: (cart. coord. in units 2 pi/alat)
               b(1) = (  1.000000 -0.577350  0.000000 )  
               b(2) = (  0.000000  1.154701  0.000000 )  
               b(3) = (  0.000000  0.000000  0.163333 )  


     PseudoPot. # 1 for Co read from file:
     /shared/ESPRESSO/PSLIBRARY/1.0.0/pbe/PSEUDOPOTENTIALS/Co.pbe-n-kjpaw_psl.1.0.0.UPF
     MD5 check sum: 17e7ab8db721b244d1352252ea6cb8e7
     Pseudo is Projector augmented-wave + core cor, Zval =  9.0
     Generated using "atomic" code by A. Dal Corso  (Quantum ESPRESSO distribution)
     Shape of augmentation charge: PSQ
     Using radial grid of 1193 points,  6 beta functions with: 
                l(1) =   0
                l(2) =   0
                l(3) =   1
                l(4) =   1
                l(5) =   2
                l(6) =   2
     Q(r) pseudized with 0 coefficients 


     atomic species   valence    mass     pseudopotential
        Co             9.00    58.93320     Co( 1.00)

     24 Sym. Ops., with inversion, found



   Cartesian axes

     site n.     atom                  positions (alat units)
         1           Co  tau(   1) = (   0.0000000   0.0000000   3.0612245  )

     number of k points=    30  Fermi-Dirac smearing, width (Ry)=  0.0070
                       cart. coord. in units 2pi/alat
        k(    1) = (   0.0000000   0.0000000   0.0000000), wk =   0.0078125
        k(    2) = (   0.0000000   0.0721688   0.0000000), wk =   0.0468750
        k(    3) = (   0.0000000   0.1443376   0.0000000), wk =   0.0468750
        k(    4) = (   0.0000000   0.2165064   0.0000000), wk =   0.0468750
        k(    5) = (   0.0000000   0.2886751   0.0000000), wk =   0.0468750
        k(    6) = (   0.0000000   0.3608439   0.0000000), wk =   0.0468750
        k(    7) = (   0.0000000   0.4330127   0.0000000), wk =   0.0468750
        k(    8) = (   0.0000000   0.5051815   0.0000000), wk =   0.0468750
        k(    9) = (   0.0000000  -0.5773503   0.0000000), wk =   0.0234375
        k(   10) = (   0.0625000   0.1082532   0.0000000), wk =   0.0468750
        k(   11) = (   0.0625000   0.1804220   0.0000000), wk =   0.0937500
        k(   12) = (   0.0625000   0.2525907   0.0000000), wk =   0.0937500
        k(   13) = (   0.0625000   0.3247595   0.0000000), wk =   0.0937500
        k(   14) = (   0.0625000   0.3969283   0.0000000), wk =   0.0937500
        k(   15) = (   0.0625000   0.4690971   0.0000000), wk =   0.0937500
        k(   16) = (   0.0625000  -0.6134347   0.0000000), wk =   0.0937500
        k(   17) = (   0.1250000   0.2165064   0.0000000), wk =   0.0468750
        k(   18) = (   0.1250000   0.2886751   0.0000000), wk =   0.0937500
        k(   19) = (   0.1250000   0.3608439   0.0000000), wk =   0.0937500
        k(   20) = (   0.1250000   0.4330127   0.0000000), wk =   0.0937500
        k(   21) = (   0.1250000  -0.6495191   0.0000000), wk =   0.0937500
        k(   22) = (   0.1250000  -0.5773503   0.0000000), wk =   0.0468750
        k(   23) = (   0.1875000   0.3247595   0.0000000), wk =   0.0468750
        k(   24) = (   0.1875000   0.3969283   0.0000000), wk =   0.0937500
        k(   25) = (   0.1875000  -0.6856034   0.0000000), wk =   0.0937500
        k(   26) = (   0.1875000  -0.6134347   0.0000000), wk =   0.0937500
        k(   27) = (   0.2500000  -0.7216878   0.0000000), wk =   0.0468750
        k(   28) = (   0.2500000  -0.6495191   0.0000000), wk =   0.0937500
        k(   29) = (   0.2500000  -0.5773503   0.0000000), wk =   0.0468750
        k(   30) = (   0.3125000  -0.6134347   0.0000000), wk =   0.0468750

     Dense  grid:    21325 G-vectors     FFT dimensions: (  20,  20, 125)

     Estimated max dynamical RAM per process >       6.71 MB

     Estimated total dynamical RAM >     107.31 MB

     Check: negative core charge=   -0.000004

     Initial potential from superposition of free atoms

     starting charge       8.9997, renormalised to       9.0000

     negative rho (up, down):  4.770E-04 0.000E+00
     Starting wfcs are    9 randomized atomic wfcs
     Checking if some PAW data can be deallocated... 

     total cpu time spent up to now is        0.3 secs

     Self-consistent Calculation

     iteration #  1     ecut=    45.00 Ry     beta= 0.70
     Davidson diagonalization with overlap
     ethr =  1.00E-02,  avg # of iterations =  5.3

     negative rho (up, down):  5.645E-04 0.000E+00

     total cpu time spent up to now is        0.4 secs

     total energy              =    -161.82937340 Ry
     estimated scf accuracy    <       0.14466890 Ry

     iteration #  2     ecut=    45.00 Ry     beta= 0.70
     Davidson diagonalization with overlap
     ethr =  1.61E-03,  avg # of iterations =  3.6

     negative rho (up, down):  4.206E-04 0.000E+00

     total cpu time spent up to now is        0.6 secs

     total energy              =    -161.72218229 Ry
     estimated scf accuracy    <       1.51412575 Ry

     iteration #  3     ecut=    45.00 Ry     beta= 0.70
     Davidson diagonalization with overlap
     ethr =  1.61E-03,  avg # of iterations =  2.2

     negative rho (up, down):  5.003E-04 0.000E+00

     total cpu time spent up to now is        0.7 secs

     total energy              =    -161.91520408 Ry
     estimated scf accuracy    <       0.00293209 Ry

     iteration #  4     ecut=    45.00 Ry     beta= 0.70
     Davidson diagonalization with overlap
     ethr =  3.26E-05,  avg # of iterations =  7.4

     negative rho (up, down):  5.255E-04 0.000E+00

     total cpu time spent up to now is        0.9 secs

     total energy              =    -161.91578802 Ry
     estimated scf accuracy    <       0.00023955 Ry

     iteration #  5     ecut=    45.00 Ry     beta= 0.70
     Davidson diagonalization with overlap
     ethr =  2.66E-06,  avg # of iterations =  6.3

     negative rho (up, down):  5.430E-04 0.000E+00

     total cpu time spent up to now is        1.1 secs

     total energy              =    -161.91582923 Ry
     estimated scf accuracy    <       0.00004307 Ry

     iteration #  6     ecut=    45.00 Ry     beta= 0.70
     Davidson diagonalization with overlap
     ethr =  4.79E-07,  avg # of iterations =  1.4

     negative rho (up, down):  5.501E-04 0.000E+00

     total cpu time spent up to now is        1.2 secs

     total energy              =    -161.91583646 Ry
     estimated scf accuracy    <       0.00000309 Ry

     iteration #  7     ecut=    45.00 Ry     beta= 0.70
     Davidson diagonalization with overlap
     ethr =  3.44E-08,  avg # of iterations =  1.7

     negative rho (up, down):  5.513E-04 0.000E+00

     total cpu time spent up to now is        1.3 secs

     End of self-consistent calculation

          k = 0.0000 0.0000 0.0000 (  2617 PWs)   bands (ev):

    -8.2368  -4.0573  -3.9615  -3.9615  -2.4426  -2.4426  -1.8350   1.8264
     2.7224

          k = 0.0000 0.0722 0.0000 (  2627 PWs)   bands (ev):

    -8.0891  -4.0198  -4.0058  -3.8938  -2.7748  -2.4570  -1.4210   1.9538
     2.8614

          k = 0.0000 0.1443 0.0000 (  2651 PWs)   bands (ev):

    -7.6587  -4.1510  -3.8801  -3.6979  -3.2354  -2.4975  -0.7050   2.3364
     3.2747

          k = 0.0000 0.2165 0.0000 (  2669 PWs)   bands (ev):

    -6.9984  -4.2962  -3.6819  -3.6540  -3.3945  -2.5578   0.1665   2.9741
     3.9546

          k = 0.0000 0.2887 0.0000 (  2665 PWs)   bands (ev):

    -6.2856  -4.2501  -4.0113  -3.4418  -3.0194  -2.6285   1.2036   3.8676
     4.8928

          k = 0.0000 0.3608 0.0000 (  2678 PWs)   bands (ev):

    -5.9136  -4.2986  -3.6371  -3.1661  -2.6987  -2.6232   2.4205   5.0136
     6.0826

          k = 0.0000 0.4330 0.0000 (  2682 PWs)   bands (ev):

    -5.9059  -4.5086  -3.0730  -2.7576  -2.2799  -2.2683   3.8175   6.3582
     7.3038

          k = 0.0000 0.5052 0.0000 (  2690 PWs)   bands (ev):

    -5.9778  -4.6367  -2.9159  -2.7968  -2.0201  -0.9036   5.3399   5.6673
     8.1809

          k = 0.0000-0.5774 0.0000 (  2684 PWs)   bands (ev):

    -6.0105  -4.6797  -2.8654  -2.8105  -1.9305  -0.1490   4.7257   6.3929
     8.5721

          k = 0.0625 0.1083 0.0000 (  2649 PWs)   bands (ev):

    -7.7995  -4.1132  -3.9265  -3.7546  -3.1128  -2.4872  -0.9117   2.2086
     3.1374

          k = 0.0625 0.1804 0.0000 (  2669 PWs)   bands (ev):

    -7.2468  -4.2779  -3.7629  -3.5052  -3.4867  -2.5452  -0.1573   2.7191
     3.6839

          k = 0.0625 0.2526 0.0000 (  2671 PWs)   bands (ev):

    -6.5220  -4.3989  -3.8645  -3.5414  -3.1138  -2.6212   0.7796   3.4852
     4.4929

          k = 0.0625 0.3248 0.0000 (  2664 PWs)   bands (ev):

    -5.9243  -4.1864  -4.1665  -3.2912  -2.7034  -2.6514   1.8997   4.5063
     5.5570

          k = 0.0625 0.3969 0.0000 (  2673 PWs)   bands (ev):

    -5.7864  -4.3998  -3.4541  -3.0149  -2.7793  -2.0462   3.2071   5.7723
     6.8717

          k = 0.0625 0.4691 0.0000 (  2687 PWs)   bands (ev):

    -5.8562  -4.5585  -2.9989  -2.8374  -2.5676  -1.0647   4.6847   6.5591
     7.4990

          k = 0.0625-0.6134 0.0000 (  2687 PWs)   bands (ev):

    -5.9206  -4.6385  -2.8752  -2.8686  -2.2822   0.0455   5.0406   6.1654
     9.0159

          k = 0.1250 0.2165 0.0000 (  2663 PWs)   bands (ev):

    -6.6039  -4.4679  -3.8007  -3.5776  -3.1216  -2.6313   0.6378   3.3576
     4.3601

          k = 0.1250 0.2887 0.0000 (  2672 PWs)   bands (ev):

    -5.8662  -4.5927  -4.0667  -3.3489  -2.7408  -2.6093   1.6430   4.2526
     5.2941

          k = 0.1250 0.3608 0.0000 (  2668 PWs)   bands (ev):

    -5.4910  -4.2808  -4.2653  -3.1173  -2.8545  -1.9071   2.8496   5.4016
     6.4846

          k = 0.1250 0.4330 0.0000 (  2683 PWs)   bands (ev):

    -5.5523  -4.4347  -3.5795  -2.9538  -2.9254  -0.9170   4.2498   6.7564
     7.6947

          k = 0.1250-0.6495 0.0000 (  2697 PWs)   bands (ev):

    -5.6569  -4.5266  -3.0739  -3.0214  -2.8156   0.3271   5.7933   5.9360
     8.5599

          k = 0.1250-0.5774 0.0000 (  2699 PWs)   bands (ev):

    -5.6982  -4.5570  -3.0453  -2.8498  -2.8312   1.1101   4.8887   6.9015
     8.8906

          k = 0.1875 0.3248 0.0000 (  2675 PWs)   bands (ev):

    -5.1414  -4.8002  -4.2261  -3.1412  -2.8970  -1.8603   2.7326   5.2770
     6.3531

          k = 0.1875 0.3969 0.0000 (  2691 PWs)   bands (ev):

    -5.0822  -4.3574  -4.3317  -3.0612  -2.9657  -0.8255   4.0359   6.5514
     7.6754

          k = 0.1875-0.6856 0.0000 (  2706 PWs)   bands (ev):

    -5.2458  -4.3881  -3.7887  -3.2004  -2.8611   0.4932   5.5323   7.2483
     8.2165

          k = 0.1875-0.6134 0.0000 (  2700 PWs)   bands (ev):

    -5.3364  -4.4093  -3.4540  -3.2814  -2.8358   1.8450   5.4600   7.0868
     9.7258

          k = 0.2500-0.7217 0.0000 (  2715 PWs)   bands (ev):

    -4.8952  -4.3172  -4.2579  -3.2880  -2.8675   0.5440   5.4421   7.9165
     8.8940

          k = 0.2500-0.6495 0.0000 (  2715 PWs)   bands (ev):

    -4.9138  -4.2593  -4.0188  -3.4845  -2.8304   2.1235   6.7642   7.0281
     8.7291

          k = 0.2500-0.5774 0.0000 (  2731 PWs)   bands (ev):

    -4.9361  -4.2218  -3.9091  -3.5705  -2.8269   3.2871   5.3766   8.2682
     8.6500

          k = 0.3125-0.6134 0.0000 (  2733 PWs)   bands (ev):

    -4.6142  -4.2492  -4.0677  -3.7610  -2.8236   3.9022   5.8854   7.2328
     8.6118

     the Fermi energy is    -2.7894 ev

!    total energy              =    -161.91583615 Ry
     total all-electron energy =     -2786.759512 Ry
     estimated scf accuracy    <       0.00000070 Ry
     smearing contrib. (-TS)   =      -0.01158497 Ry
     internal energy E=F+TS    =    -161.90425118 Ry

     The total energy is F=E-TS. E is the sum of the following terms:
     one-electron contribution =    -212.99184594 Ry
     hartree contribution      =     114.25737052 Ry
     xc contribution           =     -32.43598192 Ry
     ewald contribution        =      55.80703856 Ry
     one-center paw contrib.   =     -86.54083239 Ry

     convergence has been achieved in   7 iterations

     negative rho (up, down):  5.513E-04 0.000E+00

     Forces acting on atoms (cartesian axes, Ry/au):

     atom    1 type  1   force =     0.00000000    0.00000000    0.00000000
     The non-local contrib.  to forces
     atom    1 type  1   force =    -0.00000000    0.00000000    0.00000000
     The ionic contribution  to forces
     atom    1 type  1   force =     0.00000000    0.00000000   -0.00000000
     The local contribution  to forces
     atom    1 type  1   force =     0.00000000   -0.00000000    0.00000000
     The core correction contribution to forces
     atom    1 type  1   force =     0.00000000   -0.00000000    0.00000000
     The Hubbard contrib.    to forces
     atom    1 type  1   force =     0.00000000    0.00000000    0.00000000
     The SCF correction term to forces
     atom    1 type  1   force =    -0.00000000    0.00000000    0.00000000

     Total force =     0.000000     Total SCF correction =     0.000000


     Computing stress (Cartesian axis) and pressure


     negative rho (up, down):  5.513E-04 0.000E+00
          total   stress  (Ry/bohr**3)                   (kbar)     P=      -37.58
  -0.00036487  -0.00000000   0.00000000          -53.67       -0.00        0.00
  -0.00000000  -0.00036487   0.00000000           -0.00      -53.67        0.00
   0.00000000   0.00000000  -0.00003669            0.00        0.00       -5.40


     Writing all to output data dir ./tmp/scf.save/
 
     init_run     :      0.12s CPU      0.16s WALL (       1 calls)
     electrons    :      0.93s CPU      1.07s WALL (       1 calls)
     forces       :      0.02s CPU      0.02s WALL (       1 calls)
     stress       :      0.06s CPU      0.06s WALL (       1 calls)

     Called by init_run:
     wfcinit      :      0.02s CPU      0.02s WALL (       1 calls)
     potinit      :      0.04s CPU      0.05s WALL (       1 calls)
     hinit0       :      0.04s CPU      0.08s WALL (       1 calls)

     Called by electrons:
     c_bands      :      0.57s CPU      0.64s WALL (       7 calls)
     sum_band     :      0.11s CPU      0.11s WALL (       7 calls)
     v_of_rho     :      0.01s CPU      0.01s WALL (       8 calls)
     newd         :      0.02s CPU      0.04s WALL (       8 calls)
     PAW_pot      :      0.26s CPU      0.32s WALL (       8 calls)
     mix_rho      :      0.00s CPU      0.00s WALL (       7 calls)

     Called by c_bands:
     init_us_2    :      0.01s CPU      0.01s WALL (     510 calls)
     init_us_2:cp :      0.01s CPU      0.01s WALL (     510 calls)
     cegterg      :      0.51s CPU      0.57s WALL (     210 calls)

     Called by *egterg:
     cdiaghg      :      0.07s CPU      0.07s WALL (    1047 calls)
     h_psi        :      0.41s CPU      0.46s WALL (    1077 calls)
     s_psi        :      0.00s CPU      0.01s WALL (    1077 calls)
     g_psi        :      0.00s CPU      0.00s WALL (     837 calls)

     Called by h_psi:
     h_psi:calbec :      0.01s CPU      0.02s WALL (    1077 calls)
     vloc_psi     :      0.39s CPU      0.43s WALL (    1077 calls)
     add_vuspsi   :      0.01s CPU      0.01s WALL (    1077 calls)

     General routines
     calbec       :      0.02s CPU      0.02s WALL (    1437 calls)
     fft          :      0.02s CPU      0.05s WALL (     113 calls)
     ffts         :      0.00s CPU      0.00s WALL (       7 calls)
     fftw         :      0.42s CPU      0.46s WALL (   12636 calls)
 
     Parallel routines
 
     PWSCF        :      1.24s CPU      1.45s WALL

 
   This run was terminated on:  12:38:33   5Jun2025            

=------------------------------------------------------------------------------=
   JOB DONE.
=------------------------------------------------------------------------------=
