
     Program PWSCF v.7.2 starts on  5Jun2025 at 12:38:11 

     This program is part of the open-source Quantum ESPRESSO suite
     for quantum simulation of materials; please cite
         "P. Giannozzi et al., J. Phys.:Condens. Matter 21 395502 (2009);
         "P. Giannozzi et al., J. Phys.:Condens. Matter 29 465901 (2017);
         "P. Giannozzi et al., J. Chem. Phys. 152 154105 (2020);
          URL http://www.quantum-espresso.org", 
     in publications or presentations arising from this work. More details at
     http://www.quantum-espresso.org/quote

     Parallel version (MPI), running on    16 processors

     MPI processes distributed on     1 nodes
     40504 MiB available memory on the printing compute node when the environment starts
 
     Waiting for input...
     Reading input from standard input

     Current dimensions of program PWSCF are:
     Max number of different atomic species (ntypx) = 10
     Max number of k-points (npk) =  40000
     Max angular momentum in pseudopotentials (lmaxx) =  4
     file Co.pbe-n-kjpaw_psl.1.0.0.UPF: wavefunction(s)  4S 3D renormalized
     Message from routine setup:
     using ibrav=0 with symmetry is DISCOURAGED, use correct ibrav instead
 
     R & G space division:  proc/nbgrp/npool/nimage =      16
     Subspace diagonalization in iterative solution of the eigenvalue problem:
     a serial algorithm will be used

 
     Parallelization info
     --------------------
     sticks:   dense  smooth     PW     G-vecs:    dense   smooth      PW
     Min           7       7      2                  395      395      80
     Max           8       8      3                  412      412     101
     Sum         121     121     43                 6453     6453    1435
 
     Using Slab Decomposition
 


     bravais-lattice index     =            0
     lattice parameter (alat)  =       4.6298  a.u.
     unit-cell volume          =     526.1998 (a.u.)^3
     number of atoms/cell      =            1
     number of atomic types    =            1
     number of electrons       =         9.00
     number of Kohn-Sham states=            9
     kinetic-energy cutoff     =      20.0000  Ry
     charge density cutoff     =      80.0000  Ry
     scf convergence threshold =      1.0E-06
     mixing beta               =       0.7000
     number of iterations used =            8  plain     mixing
     Exchange-correlation= SLA  PW   PBX  PBC
                           (   1   4   3   4   0   0   0)

     celldm(1)=   4.629829  celldm(2)=   0.000000  celldm(3)=   0.000000
     celldm(4)=   0.000000  celldm(5)=   0.000000  celldm(6)=   0.000000

     crystal axes: (cart. coord. in units of alat)
               a(1) = (   1.000000   0.000000   0.000000 )  
               a(2) = (   0.500000   0.866025   0.000000 )  
               a(3) = (   0.000000   0.000000   6.122449 )  

     reciprocal axes: (cart. coord. in units 2 pi/alat)
               b(1) = (  1.000000 -0.577350  0.000000 )  
               b(2) = (  0.000000  1.154701  0.000000 )  
               b(3) = (  0.000000  0.000000  0.163333 )  


     PseudoPot. # 1 for Co read from file:
     /shared/ESPRESSO/PSLIBRARY/1.0.0/pbe/PSEUDOPOTENTIALS/Co.pbe-n-kjpaw_psl.1.0.0.UPF
     MD5 check sum: 17e7ab8db721b244d1352252ea6cb8e7
     Pseudo is Projector augmented-wave + core cor, Zval =  9.0
     Generated using "atomic" code by A. Dal Corso  (Quantum ESPRESSO distribution)
     Shape of augmentation charge: PSQ
     Using radial grid of 1193 points,  6 beta functions with: 
                l(1) =   0
                l(2) =   0
                l(3) =   1
                l(4) =   1
                l(5) =   2
                l(6) =   2
     Q(r) pseudized with 0 coefficients 


     atomic species   valence    mass     pseudopotential
        Co             9.00    58.93320     Co( 1.00)

     24 Sym. Ops., with inversion, found



   Cartesian axes

     site n.     atom                  positions (alat units)
         1           Co  tau(   1) = (   0.0000000   0.0000000   3.0612245  )

     number of k points=    30  Fermi-Dirac smearing, width (Ry)=  0.0070
                       cart. coord. in units 2pi/alat
        k(    1) = (   0.0000000   0.0000000   0.0000000), wk =   0.0078125
        k(    2) = (   0.0000000   0.0721688   0.0000000), wk =   0.0468750
        k(    3) = (   0.0000000   0.1443376   0.0000000), wk =   0.0468750
        k(    4) = (   0.0000000   0.2165064   0.0000000), wk =   0.0468750
        k(    5) = (   0.0000000   0.2886751   0.0000000), wk =   0.0468750
        k(    6) = (   0.0000000   0.3608439   0.0000000), wk =   0.0468750
        k(    7) = (   0.0000000   0.4330127   0.0000000), wk =   0.0468750
        k(    8) = (   0.0000000   0.5051815   0.0000000), wk =   0.0468750
        k(    9) = (   0.0000000  -0.5773503   0.0000000), wk =   0.0234375
        k(   10) = (   0.0625000   0.1082532   0.0000000), wk =   0.0468750
        k(   11) = (   0.0625000   0.1804220   0.0000000), wk =   0.0937500
        k(   12) = (   0.0625000   0.2525907   0.0000000), wk =   0.0937500
        k(   13) = (   0.0625000   0.3247595   0.0000000), wk =   0.0937500
        k(   14) = (   0.0625000   0.3969283   0.0000000), wk =   0.0937500
        k(   15) = (   0.0625000   0.4690971   0.0000000), wk =   0.0937500
        k(   16) = (   0.0625000  -0.6134347   0.0000000), wk =   0.0937500
        k(   17) = (   0.1250000   0.2165064   0.0000000), wk =   0.0468750
        k(   18) = (   0.1250000   0.2886751   0.0000000), wk =   0.0937500
        k(   19) = (   0.1250000   0.3608439   0.0000000), wk =   0.0937500
        k(   20) = (   0.1250000   0.4330127   0.0000000), wk =   0.0937500
        k(   21) = (   0.1250000  -0.6495191   0.0000000), wk =   0.0937500
        k(   22) = (   0.1250000  -0.5773503   0.0000000), wk =   0.0468750
        k(   23) = (   0.1875000   0.3247595   0.0000000), wk =   0.0468750
        k(   24) = (   0.1875000   0.3969283   0.0000000), wk =   0.0937500
        k(   25) = (   0.1875000  -0.6856034   0.0000000), wk =   0.0937500
        k(   26) = (   0.1875000  -0.6134347   0.0000000), wk =   0.0937500
        k(   27) = (   0.2500000  -0.7216878   0.0000000), wk =   0.0468750
        k(   28) = (   0.2500000  -0.6495191   0.0000000), wk =   0.0937500
        k(   29) = (   0.2500000  -0.5773503   0.0000000), wk =   0.0468750
        k(   30) = (   0.3125000  -0.6134347   0.0000000), wk =   0.0468750

     Dense  grid:     6453 G-vectors     FFT dimensions: (  15,  15,  81)

     Estimated max dynamical RAM per process >       2.46 MB

     Estimated total dynamical RAM >      39.28 MB

     Check: negative core charge=   -0.000040

     Initial potential from superposition of free atoms

     starting charge       8.9997, renormalised to       9.0000

     negative rho (up, down):  5.977E-04 0.000E+00
     Starting wfcs are    9 randomized atomic wfcs
     Checking if some PAW data can be deallocated... 

     total cpu time spent up to now is        0.3 secs

     Self-consistent Calculation

     iteration #  1     ecut=    20.00 Ry     beta= 0.70
     Davidson diagonalization with overlap
     ethr =  1.00E-02,  avg # of iterations =  5.2

     negative rho (up, down):  3.920E-03 0.000E+00

     total cpu time spent up to now is        0.5 secs

     total energy              =    -161.35592487 Ry
     estimated scf accuracy    <       0.16412751 Ry

     iteration #  2     ecut=    20.00 Ry     beta= 0.70
     Davidson diagonalization with overlap
     ethr =  1.82E-03,  avg # of iterations =  2.5

     negative rho (up, down):  4.087E-03 0.000E+00

     total cpu time spent up to now is        0.6 secs

     total energy              =    -161.33151039 Ry
     estimated scf accuracy    <       0.30869434 Ry

     iteration #  3     ecut=    20.00 Ry     beta= 0.70
     Davidson diagonalization with overlap
     ethr =  1.82E-03,  avg # of iterations =  2.8

     negative rho (up, down):  1.160E-02 0.000E+00

     total cpu time spent up to now is        0.7 secs

     total energy              =    -161.39866985 Ry
     estimated scf accuracy    <       0.04015312 Ry

     iteration #  4     ecut=    20.00 Ry     beta= 0.70
     Davidson diagonalization with overlap
     ethr =  4.46E-04,  avg # of iterations =  2.3

     negative rho (up, down):  1.933E-02 0.000E+00

     total cpu time spent up to now is        0.9 secs

     total energy              =    -161.40500247 Ry
     estimated scf accuracy    <       0.00097585 Ry

     iteration #  5     ecut=    20.00 Ry     beta= 0.70
     Davidson diagonalization with overlap
     c_bands:  1 eigenvalues not converged
     ethr =  1.08E-05,  avg # of iterations = 10.2

     negative rho (up, down):  2.867E-02 0.000E+00

     total cpu time spent up to now is        1.1 secs

     total energy              =    -161.40544550 Ry
     estimated scf accuracy    <       0.00029701 Ry

     iteration #  6     ecut=    20.00 Ry     beta= 0.70
     Davidson diagonalization with overlap
     ethr =  3.30E-06,  avg # of iterations =  4.2

     negative rho (up, down):  2.895E-02 0.000E+00

     total cpu time spent up to now is        1.2 secs

     total energy              =    -161.40550631 Ry
     estimated scf accuracy    <       0.00001880 Ry

     iteration #  7     ecut=    20.00 Ry     beta= 0.70
     Davidson diagonalization with overlap
     ethr =  2.09E-07,  avg # of iterations =  2.0

     negative rho (up, down):  2.920E-02 0.000E+00

     total cpu time spent up to now is        1.3 secs

     End of self-consistent calculation

          k = 0.0000 0.0000 0.0000 (   815 PWs)   bands (ev):

    -8.2832  -4.7271  -4.7271  -4.6966  -2.8401  -2.8401  -1.9743   0.4950
     1.4463

          k = 0.0000 0.0722 0.0000 (   811 PWs)   bands (ev):

    -8.1390  -4.7511  -4.6570  -4.6503  -3.0653  -2.8404  -1.6001   0.6238
     1.5890

          k = 0.0000 0.1443 0.0000 (   813 PWs)   bands (ev):

    -7.7286  -4.8450  -4.5627  -4.4328  -3.5797  -2.8646  -0.9194   1.0097
     2.0112

          k = 0.0000 0.2165 0.0000 (   802 PWs)   bands (ev):

    -7.1069  -4.9292  -4.3177  -4.0144  -3.9919  -2.8537  -0.0512   1.6557
     2.7045

          k = 0.0000 0.2887 0.0000 (   796 PWs)   bands (ev):

    -6.5422  -4.7228  -4.3926  -4.0248  -3.5169  -3.0365   0.9753   2.5591
     3.6514

          k = 0.0000 0.3608 0.0000 (   790 PWs)   bands (ev):

    -6.3835  -4.7321  -4.1400  -3.4946  -3.1202  -3.0059   2.1882   3.7211
     4.8429

          k = 0.0000 0.4330 0.0000 (   794 PWs)   bands (ev):

    -6.5145  -4.9162  -3.8405  -3.1316  -2.7970  -2.3053   3.6065   5.1306
     6.2776

          k = 0.0000 0.5052 0.0000 (   800 PWs)   bands (ev):

    -6.6600  -5.0928  -3.6665  -3.1917  -2.6509  -0.8741   5.1436   5.6577
     6.9091

          k = 0.0000-0.5774 0.0000 (   806 PWs)   bands (ev):

    -6.7125  -5.2063  -3.5885  -3.2272  -2.6331  -0.0819   4.7108   6.2247
     8.2284

          k = 0.0625 0.1083 0.0000 (   813 PWs)   bands (ev):

    -7.8599  -4.8250  -4.5910  -4.5003  -3.4592  -2.8603  -1.1234   0.8812
     1.8711

          k = 0.0625 0.1804 0.0000 (   802 PWs)   bands (ev):

    -7.3269  -4.9090  -4.3913  -4.0894  -3.8360  -2.9004  -0.3722   1.3975
     2.4281

          k = 0.0625 0.2526 0.0000 (   798 PWs)   bands (ev):

    -6.6844  -5.0118  -4.2325  -4.1365  -3.6103  -2.9725   0.5525   2.1722
     3.2493

          k = 0.0625 0.3248 0.0000 (   798 PWs)   bands (ev):

    -6.3400  -4.6471  -4.5947  -3.8749  -3.0814  -3.0799   1.6630   3.2048
     4.3163

          k = 0.0625 0.3969 0.0000 (   797 PWs)   bands (ev):

    -6.3665  -4.8286  -4.0325  -3.4844  -3.2260  -2.3312   2.9838   4.4949
     5.6346

          k = 0.0625 0.4691 0.0000 (   791 PWs)   bands (ev):

    -6.4709  -4.9880  -3.6958  -3.2390  -3.0066  -1.1506   4.4794   5.9735
     6.7034

          k = 0.0625-0.6134 0.0000 (   798 PWs)   bands (ev):

    -6.5876  -5.1300  -3.6062  -3.2571  -2.8332   0.0526   5.0376   5.9829
     7.9106

          k = 0.1250 0.2165 0.0000 (   801 PWs)   bands (ev):

    -6.7362  -5.1909  -4.1953  -4.1416  -3.5822  -3.0128   0.4177   2.0426
     3.1128

          k = 0.1250 0.2887 0.0000 (   801 PWs)   bands (ev):

    -6.1305  -5.1862  -4.4900  -3.9312  -3.1500  -3.1110   1.4036   2.9475
     4.0534

          k = 0.1250 0.3608 0.0000 (   792 PWs)   bands (ev):

    -6.0016  -4.7015  -4.6637  -3.7138  -3.2343  -2.2585   2.6289   4.1113
     5.2479

          k = 0.1250 0.4330 0.0000 (   785 PWs)   bands (ev):

    -6.1339  -4.8646  -4.0128  -3.4866  -3.3210  -1.0928   4.0372   5.5266
     6.6815

          k = 0.1250-0.6495 0.0000 (   788 PWs)   bands (ev):

    -6.2527  -4.9795  -3.6585  -3.4415  -3.3725   0.2738   5.5964   5.9773
     7.2881

          k = 0.1250-0.5774 0.0000 (   792 PWs)   bands (ev):

    -6.3001  -5.0507  -3.5721  -3.4911  -3.3281   1.1285   4.9044   6.7303
     8.5833

          k = 0.1875 0.3248 0.0000 (   789 PWs)   bands (ev):

    -5.4452  -5.3836  -4.6269  -3.7093  -3.2638  -2.2241   2.5051   3.9837
     5.1188

          k = 0.1875 0.3969 0.0000 (   789 PWs)   bands (ev):

    -5.6532  -4.8367  -4.7724  -3.5437  -3.4336  -1.0625   3.8120   5.2777
     6.4318

          k = 0.1875-0.6856 0.0000 (   790 PWs)   bands (ev):

    -5.8770  -4.8434  -4.2729  -3.6433  -3.5102   0.3909   5.3241   6.7768
     7.4375

          k = 0.1875-0.6134 0.0000 (   790 PWs)   bands (ev):

    -5.9836  -4.8917  -3.9622  -3.6903  -3.5389   1.8606   5.5055   6.9015
     8.6835

          k = 0.2500-0.7217 0.0000 (   795 PWs)   bands (ev):

    -5.5378  -4.7998  -4.7803  -3.7560  -3.5088   0.4113   5.2276   6.6980
     7.8657

          k = 0.2500-0.6495 0.0000 (   790 PWs)   bands (ev):

    -5.5407  -4.7526  -4.5310  -3.9301  -3.5280   2.1234   6.8254   6.9032
     8.3773

          k = 0.2500-0.5774 0.0000 (   794 PWs)   bands (ev):

    -5.5727  -4.7343  -4.4697  -4.0533  -3.5508   3.3556   5.4403   8.0810
     8.7213

          k = 0.3125-0.6134 0.0000 (   781 PWs)   bands (ev):

    -5.1496  -4.7889  -4.5195  -4.1869  -3.5112   4.0014   6.1076   7.2075
     8.4164

     the Fermi energy is    -3.2662 ev

!    total energy              =    -161.40550710 Ry
     total all-electron energy =     -2786.249183 Ry
     estimated scf accuracy    <       0.00000049 Ry
     smearing contrib. (-TS)   =      -0.00846759 Ry
     internal energy E=F+TS    =    -161.39703951 Ry

     The total energy is F=E-TS. E is the sum of the following terms:
     one-electron contribution =    -212.04407469 Ry
     hartree contribution      =     113.34990904 Ry
     xc contribution           =     -32.08390005 Ry
     ewald contribution        =      55.80703859 Ry
     one-center paw contrib.   =     -86.42601240 Ry

     convergence has been achieved in   7 iterations

     negative rho (up, down):  2.920E-02 0.000E+00

     Forces acting on atoms (cartesian axes, Ry/au):

     atom    1 type  1   force =     0.00000000    0.00000000    0.00000000
     The non-local contrib.  to forces
     atom    1 type  1   force =     0.00000000   -0.00000000    0.00000000
     The ionic contribution  to forces
     atom    1 type  1   force =     0.00000000    0.00000000   -0.00000000
     The local contribution  to forces
     atom    1 type  1   force =     0.00000000   -0.00000000    0.00000000
     The core correction contribution to forces
     atom    1 type  1   force =    -0.00000000    0.00000000    0.00000000
     The Hubbard contrib.    to forces
     atom    1 type  1   force =     0.00000000    0.00000000    0.00000000
     The SCF correction term to forces
     atom    1 type  1   force =    -0.00000000    0.00000000   -0.00000000

     Total force =     0.000000     Total SCF correction =     0.000000


     Computing stress (Cartesian axis) and pressure


     negative rho (up, down):  2.920E-02 0.000E+00
          total   stress  (Ry/bohr**3)                   (kbar)     P=     -649.50
  -0.00444094  -0.00000000   0.00000000         -653.28       -0.00        0.00
  -0.00000000  -0.00444094   0.00000000           -0.00     -653.28        0.00
   0.00000000   0.00000000  -0.00436372            0.00        0.00     -641.93


     Writing all to output data dir ./tmp/scf.save/
 
     init_run     :      0.12s CPU      0.18s WALL (       1 calls)
     electrons    :      0.88s CPU      1.06s WALL (       1 calls)
     forces       :      0.01s CPU      0.01s WALL (       1 calls)
     stress       :      0.02s CPU      0.02s WALL (       1 calls)

     Called by init_run:
     wfcinit      :      0.02s CPU      0.03s WALL (       1 calls)
     potinit      :      0.05s CPU      0.06s WALL (       1 calls)
     hinit0       :      0.04s CPU      0.08s WALL (       1 calls)

     Called by electrons:
     c_bands      :      0.47s CPU      0.56s WALL (       7 calls)
     sum_band     :      0.09s CPU      0.09s WALL (       7 calls)
     v_of_rho     :      0.00s CPU      0.01s WALL (       8 calls)
     newd         :      0.01s CPU      0.01s WALL (       8 calls)
     PAW_pot      :      0.36s CPU      0.44s WALL (       8 calls)
     mix_rho      :      0.00s CPU      0.00s WALL (       7 calls)

     Called by c_bands:
     init_us_2    :      0.00s CPU      0.00s WALL (     510 calls)
     init_us_2:cp :      0.00s CPU      0.00s WALL (     510 calls)
     cegterg      :      0.44s CPU      0.53s WALL (     210 calls)

     Called by *egterg:
     cdiaghg      :      0.06s CPU      0.07s WALL (    1088 calls)
     h_psi        :      0.35s CPU      0.42s WALL (    1118 calls)
     s_psi        :      0.00s CPU      0.00s WALL (    1118 calls)
     g_psi        :      0.00s CPU      0.00s WALL (     878 calls)

     Called by h_psi:
     h_psi:calbec :      0.01s CPU      0.02s WALL (    1118 calls)
     vloc_psi     :      0.33s CPU      0.40s WALL (    1118 calls)
     add_vuspsi   :      0.00s CPU      0.00s WALL (    1118 calls)

     General routines
     calbec       :      0.03s CPU      0.03s WALL (    1478 calls)
     fft          :      0.03s CPU      0.07s WALL (     113 calls)
     ffts         :      0.00s CPU      0.00s WALL (       7 calls)
     fftw         :      0.38s CPU      0.45s WALL (   12964 calls)
 
     Parallel routines
 
     PWSCF        :      1.14s CPU      1.40s WALL

 
   This run was terminated on:  12:38:13   5Jun2025            

=------------------------------------------------------------------------------=
   JOB DONE.
=------------------------------------------------------------------------------=
