
     Program PWSCF v.7.2 starts on  5Jun2025 at 12:38:20 

     This program is part of the open-source Quantum ESPRESSO suite
     for quantum simulation of materials; please cite
         "P. Giannozzi et al., J. Phys.:Condens. Matter 21 395502 (2009);
         "P. Giannozzi et al., J. Phys.:Condens. Matter 29 465901 (2017);
         "P. Giannozzi et al., J. Chem. Phys. 152 154105 (2020);
          URL http://www.quantum-espresso.org", 
     in publications or presentations arising from this work. More details at
     http://www.quantum-espresso.org/quote

     Parallel version (MPI), running on    16 processors

     MPI processes distributed on     1 nodes
     40496 MiB available memory on the printing compute node when the environment starts
 
     Waiting for input...
     Reading input from standard input

     Current dimensions of program PWSCF are:
     Max number of different atomic species (ntypx) = 10
     Max number of k-points (npk) =  40000
     Max angular momentum in pseudopotentials (lmaxx) =  4
     file Co.pbe-n-kjpaw_psl.1.0.0.UPF: wavefunction(s)  4S 3D renormalized
     Message from routine setup:
     using ibrav=0 with symmetry is DISCOURAGED, use correct ibrav instead
 
     R & G space division:  proc/nbgrp/npool/nimage =      16
     Subspace diagonalization in iterative solution of the eigenvalue problem:
     a serial algorithm will be used

 
     Parallelization info
     --------------------
     sticks:   dense  smooth     PW     G-vecs:    dense   smooth      PW
     Min          10      10      3                  712      712     139
     Max          11      11      4                  739      739     162
     Sum         169     169     61                11523    11523    2447
 
     Using Slab Decomposition
 


     bravais-lattice index     =            0
     lattice parameter (alat)  =       4.6298  a.u.
     unit-cell volume          =     526.1998 (a.u.)^3
     number of atoms/cell      =            1
     number of atomic types    =            1
     number of electrons       =         9.00
     number of Kohn-Sham states=            9
     kinetic-energy cutoff     =      30.0000  Ry
     charge density cutoff     =     120.0000  Ry
     scf convergence threshold =      1.0E-06
     mixing beta               =       0.7000
     number of iterations used =            8  plain     mixing
     Exchange-correlation= SLA  PW   PBX  PBC
                           (   1   4   3   4   0   0   0)

     celldm(1)=   4.629829  celldm(2)=   0.000000  celldm(3)=   0.000000
     celldm(4)=   0.000000  celldm(5)=   0.000000  celldm(6)=   0.000000

     crystal axes: (cart. coord. in units of alat)
               a(1) = (   1.000000   0.000000   0.000000 )  
               a(2) = (   0.500000   0.866025   0.000000 )  
               a(3) = (   0.000000   0.000000   6.122449 )  

     reciprocal axes: (cart. coord. in units 2 pi/alat)
               b(1) = (  1.000000 -0.577350  0.000000 )  
               b(2) = (  0.000000  1.154701  0.000000 )  
               b(3) = (  0.000000  0.000000  0.163333 )  


     PseudoPot. # 1 for Co read from file:
     /shared/ESPRESSO/PSLIBRARY/1.0.0/pbe/PSEUDOPOTENTIALS/Co.pbe-n-kjpaw_psl.1.0.0.UPF
     MD5 check sum: 17e7ab8db721b244d1352252ea6cb8e7
     Pseudo is Projector augmented-wave + core cor, Zval =  9.0
     Generated using "atomic" code by A. Dal Corso  (Quantum ESPRESSO distribution)
     Shape of augmentation charge: PSQ
     Using radial grid of 1193 points,  6 beta functions with: 
                l(1) =   0
                l(2) =   0
                l(3) =   1
                l(4) =   1
                l(5) =   2
                l(6) =   2
     Q(r) pseudized with 0 coefficients 


     atomic species   valence    mass     pseudopotential
        Co             9.00    58.93320     Co( 1.00)

     24 Sym. Ops., with inversion, found



   Cartesian axes

     site n.     atom                  positions (alat units)
         1           Co  tau(   1) = (   0.0000000   0.0000000   3.0612245  )

     number of k points=    30  Fermi-Dirac smearing, width (Ry)=  0.0070
                       cart. coord. in units 2pi/alat
        k(    1) = (   0.0000000   0.0000000   0.0000000), wk =   0.0078125
        k(    2) = (   0.0000000   0.0721688   0.0000000), wk =   0.0468750
        k(    3) = (   0.0000000   0.1443376   0.0000000), wk =   0.0468750
        k(    4) = (   0.0000000   0.2165064   0.0000000), wk =   0.0468750
        k(    5) = (   0.0000000   0.2886751   0.0000000), wk =   0.0468750
        k(    6) = (   0.0000000   0.3608439   0.0000000), wk =   0.0468750
        k(    7) = (   0.0000000   0.4330127   0.0000000), wk =   0.0468750
        k(    8) = (   0.0000000   0.5051815   0.0000000), wk =   0.0468750
        k(    9) = (   0.0000000  -0.5773503   0.0000000), wk =   0.0234375
        k(   10) = (   0.0625000   0.1082532   0.0000000), wk =   0.0468750
        k(   11) = (   0.0625000   0.1804220   0.0000000), wk =   0.0937500
        k(   12) = (   0.0625000   0.2525907   0.0000000), wk =   0.0937500
        k(   13) = (   0.0625000   0.3247595   0.0000000), wk =   0.0937500
        k(   14) = (   0.0625000   0.3969283   0.0000000), wk =   0.0937500
        k(   15) = (   0.0625000   0.4690971   0.0000000), wk =   0.0937500
        k(   16) = (   0.0625000  -0.6134347   0.0000000), wk =   0.0937500
        k(   17) = (   0.1250000   0.2165064   0.0000000), wk =   0.0468750
        k(   18) = (   0.1250000   0.2886751   0.0000000), wk =   0.0937500
        k(   19) = (   0.1250000   0.3608439   0.0000000), wk =   0.0937500
        k(   20) = (   0.1250000   0.4330127   0.0000000), wk =   0.0937500
        k(   21) = (   0.1250000  -0.6495191   0.0000000), wk =   0.0937500
        k(   22) = (   0.1250000  -0.5773503   0.0000000), wk =   0.0468750
        k(   23) = (   0.1875000   0.3247595   0.0000000), wk =   0.0468750
        k(   24) = (   0.1875000   0.3969283   0.0000000), wk =   0.0937500
        k(   25) = (   0.1875000  -0.6856034   0.0000000), wk =   0.0937500
        k(   26) = (   0.1875000  -0.6134347   0.0000000), wk =   0.0937500
        k(   27) = (   0.2500000  -0.7216878   0.0000000), wk =   0.0468750
        k(   28) = (   0.2500000  -0.6495191   0.0000000), wk =   0.0937500
        k(   29) = (   0.2500000  -0.5773503   0.0000000), wk =   0.0468750
        k(   30) = (   0.3125000  -0.6134347   0.0000000), wk =   0.0468750

     Dense  grid:    11523 G-vectors     FFT dimensions: (  18,  18, 100)

     Estimated max dynamical RAM per process >       3.95 MB

     Estimated total dynamical RAM >      63.24 MB

     Check: negative core charge=   -0.000013

     Initial potential from superposition of free atoms

     starting charge       8.9997, renormalised to       9.0000

     negative rho (up, down):  1.331E-03 0.000E+00
     Starting wfcs are    9 randomized atomic wfcs
     Checking if some PAW data can be deallocated... 

     total cpu time spent up to now is        0.3 secs

     Self-consistent Calculation

     iteration #  1     ecut=    30.00 Ry     beta= 0.70
     Davidson diagonalization with overlap
     ethr =  1.00E-02,  avg # of iterations =  5.5

     negative rho (up, down):  1.913E-03 0.000E+00

     total cpu time spent up to now is        0.5 secs

     total energy              =    -161.82880419 Ry
     estimated scf accuracy    <       0.13361821 Ry

     iteration #  2     ecut=    30.00 Ry     beta= 0.70
     Davidson diagonalization with overlap
     ethr =  1.48E-03,  avg # of iterations =  3.6

     negative rho (up, down):  1.243E-03 0.000E+00

     total cpu time spent up to now is        0.6 secs

     total energy              =    -161.73404035 Ry
     estimated scf accuracy    <       1.31169449 Ry

     iteration #  3     ecut=    30.00 Ry     beta= 0.70
     Davidson diagonalization with overlap
     ethr =  1.48E-03,  avg # of iterations =  2.1

     negative rho (up, down):  2.092E-03 0.000E+00

     total cpu time spent up to now is        0.7 secs

     total energy              =    -161.90570948 Ry
     estimated scf accuracy    <       0.00333725 Ry

     iteration #  4     ecut=    30.00 Ry     beta= 0.70
     Davidson diagonalization with overlap
     c_bands:  1 eigenvalues not converged
     ethr =  3.71E-05,  avg # of iterations =  6.5

     negative rho (up, down):  2.467E-03 0.000E+00

     total cpu time spent up to now is        0.9 secs

     total energy              =    -161.90641852 Ry
     estimated scf accuracy    <       0.00024307 Ry

     iteration #  5     ecut=    30.00 Ry     beta= 0.70
     Davidson diagonalization with overlap
     c_bands:  1 eigenvalues not converged
     ethr =  2.70E-06,  avg # of iterations =  7.9

     negative rho (up, down):  2.847E-03 0.000E+00

     total cpu time spent up to now is        1.0 secs

     total energy              =    -161.90646904 Ry
     estimated scf accuracy    <       0.00006030 Ry

     iteration #  6     ecut=    30.00 Ry     beta= 0.70
     Davidson diagonalization with overlap
     ethr =  6.70E-07,  avg # of iterations =  1.5

     negative rho (up, down):  2.921E-03 0.000E+00

     total cpu time spent up to now is        1.1 secs

     total energy              =    -161.90647577 Ry
     estimated scf accuracy    <       0.00001131 Ry

     iteration #  7     ecut=    30.00 Ry     beta= 0.70
     Davidson diagonalization with overlap
     ethr =  1.26E-07,  avg # of iterations =  1.6

     negative rho (up, down):  2.911E-03 0.000E+00

     total cpu time spent up to now is        1.2 secs

     End of self-consistent calculation

          k = 0.0000 0.0000 0.0000 (  1423 PWs)   bands (ev):

    -8.2284  -4.0779  -3.9817  -3.9817  -2.4630  -2.4630  -1.8531   1.4363
     2.3640

          k = 0.0000 0.0722 0.0000 (  1411 PWs)   bands (ev):

    -8.0808  -4.0392  -4.0244  -3.9119  -2.7901  -2.4776  -1.4409   1.5645
     2.5032

          k = 0.0000 0.1443 0.0000 (  1415 PWs)   bands (ev):

    -7.6508  -4.1698  -3.8984  -3.7144  -3.2512  -2.5128  -0.7286   1.9495
     2.9171

          k = 0.0000 0.2165 0.0000 (  1443 PWs)   bands (ev):

    -6.9920  -4.3158  -3.7032  -3.6693  -3.4158  -2.5739   0.1405   2.5916
     3.5976

          k = 0.0000 0.2887 0.0000 (  1449 PWs)   bands (ev):

    -6.2841  -4.2650  -4.0258  -3.4630  -3.0432  -2.6436   1.1765   3.4912
     4.5363

          k = 0.0000 0.3608 0.0000 (  1459 PWs)   bands (ev):

    -5.9218  -4.3140  -3.6486  -3.1805  -2.7152  -2.6483   2.3927   4.6466
     5.7264

          k = 0.0000 0.4330 0.0000 (  1463 PWs)   bands (ev):

    -5.9178  -4.5244  -3.0996  -2.7763  -2.2947  -2.2726   3.7913   6.0304
     7.0591

          k = 0.0000 0.5052 0.0000 (  1459 PWs)   bands (ev):

    -5.9904  -4.6515  -2.9405  -2.8141  -2.0479  -0.8946   5.3181   5.6882
     7.8126

          k = 0.0000-0.5774 0.0000 (  1450 PWs)   bands (ev):

    -6.0211  -4.6970  -2.8857  -2.8261  -1.9600  -0.1397   4.7590   6.3772
     8.5205

          k = 0.0625 0.1083 0.0000 (  1400 PWs)   bands (ev):

    -7.7913  -4.1288  -3.9445  -3.7711  -3.1266  -2.5035  -0.9333   1.8215
     2.7798

          k = 0.0625 0.1804 0.0000 (  1429 PWs)   bands (ev):

    -7.2395  -4.2966  -3.7816  -3.5197  -3.5081  -2.5615  -0.1820   2.3348
     3.3269

          k = 0.0625 0.2526 0.0000 (  1447 PWs)   bands (ev):

    -6.5172  -4.4174  -3.8801  -3.5618  -3.1359  -2.6377   0.7522   3.1060
     4.1363

          k = 0.0625 0.3248 0.0000 (  1465 PWs)   bands (ev):

    -5.9283  -4.2010  -4.1819  -3.3118  -2.7219  -2.6753   1.8716   4.1343
     5.2021

          k = 0.0625 0.3969 0.0000 (  1465 PWs)   bands (ev):

    -5.7985  -4.4154  -3.4713  -3.0318  -2.7946  -2.0618   3.1800   5.4143
     6.5199

          k = 0.0625 0.4691 0.0000 (  1469 PWs)   bands (ev):

    -5.8709  -4.5732  -3.0249  -2.8549  -2.5864  -1.0667   4.6607   6.5202
     7.1607

          k = 0.0625-0.6134 0.0000 (  1473 PWs)   bands (ev):

    -5.9357  -4.6554  -2.9000  -2.8856  -2.3072   0.0503   5.0646   6.1464
     8.9432

          k = 0.1250 0.2165 0.0000 (  1450 PWs)   bands (ev):

    -6.5982  -4.4889  -3.8165  -3.5986  -3.1440  -2.6479   0.6104   2.9775
     4.0028

          k = 0.1250 0.2887 0.0000 (  1464 PWs)   bands (ev):

    -5.8649  -4.6137  -4.0831  -3.3715  -2.7580  -2.6290   1.6142   3.8785
     4.9378

          k = 0.1250 0.3608 0.0000 (  1463 PWs)   bands (ev):

    -5.5018  -4.2953  -4.2793  -3.1395  -2.8715  -1.9211   2.8224   5.0362
     6.1261

          k = 0.1250 0.4330 0.0000 (  1475 PWs)   bands (ev):

    -5.5688  -4.4505  -3.5966  -2.9716  -2.9484  -0.9238   4.2237   6.4263
     7.4596

          k = 0.1250-0.6495 0.0000 (  1475 PWs)   bands (ev):

    -5.6738  -4.5427  -3.0959  -3.0385  -2.8389   0.3286   5.7709   5.9554
     8.1932

          k = 0.1250-0.5774 0.0000 (  1470 PWs)   bands (ev):

    -5.7132  -4.5745  -3.0618  -2.8746  -2.8526   1.1148   4.9173   6.8861
     8.8437

          k = 0.1875 0.3248 0.0000 (  1466 PWs)   bands (ev):

    -5.1437  -4.8236  -4.2417  -3.1631  -2.9142  -1.8742   2.7044   4.9092
     5.9973

          k = 0.1875 0.3969 0.0000 (  1468 PWs)   bands (ev):

    -5.1003  -4.3690  -4.3475  -3.0784  -2.9896  -0.8303   4.0089   6.1948
     7.3086

          k = 0.1875-0.6856 0.0000 (  1471 PWs)   bands (ev):

    -5.2637  -4.4035  -3.8049  -3.2175  -2.8857   0.4950   5.5083   7.2371
     7.8724

          k = 0.1875-0.6134 0.0000 (  1477 PWs)   bands (ev):

    -5.3541  -4.4264  -3.4727  -3.2992  -2.8620   1.8522   5.4830   7.0676
     9.5897

          k = 0.2500-0.7217 0.0000 (  1478 PWs)   bands (ev):

    -4.9160  -4.3348  -4.2699  -3.3066  -2.8938   0.5471   5.4160   7.5931
     8.6118

          k = 0.2500-0.6495 0.0000 (  1477 PWs)   bands (ev):

    -4.9325  -4.2763  -4.0341  -3.5030  -2.8579   2.1346   6.7896   7.0063
     8.7322

          k = 0.2500-0.5774 0.0000 (  1466 PWs)   bands (ev):

    -4.9518  -4.2387  -3.9262  -3.5876  -2.8515   3.3017   5.4039   8.2528
     8.6743

          k = 0.3125-0.6134 0.0000 (  1468 PWs)   bands (ev):

    -4.6311  -4.2641  -4.0847  -3.7794  -2.8491   3.9230   5.9168   7.2456
     8.5946

     the Fermi energy is    -2.8100 ev

!    total energy              =    -161.90647619 Ry
     total all-electron energy =     -2786.750152 Ry
     estimated scf accuracy    <       0.00000094 Ry
     smearing contrib. (-TS)   =      -0.01153303 Ry
     internal energy E=F+TS    =    -161.89494316 Ry

     The total energy is F=E-TS. E is the sum of the following terms:
     one-electron contribution =    -212.96748606 Ry
     hartree contribution      =     114.22474373 Ry
     xc contribution           =     -32.42445873 Ry
     ewald contribution        =      55.80703858 Ry
     one-center paw contrib.   =     -86.53478067 Ry

     convergence has been achieved in   7 iterations

     negative rho (up, down):  2.911E-03 0.000E+00

     Forces acting on atoms (cartesian axes, Ry/au):

     atom    1 type  1   force =     0.00000000    0.00000000    0.00000000
     The non-local contrib.  to forces
     atom    1 type  1   force =     0.00000000   -0.00000000    0.00000000
     The ionic contribution  to forces
     atom    1 type  1   force =    -0.00000000   -0.00000000   -0.00000000
     The local contribution  to forces
     atom    1 type  1   force =     0.00000000   -0.00000000    0.00000000
     The core correction contribution to forces
     atom    1 type  1   force =     0.00000000   -0.00000000    0.00000000
     The Hubbard contrib.    to forces
     atom    1 type  1   force =     0.00000000    0.00000000    0.00000000
     The SCF correction term to forces
     atom    1 type  1   force =     0.00000000   -0.00000000   -0.00000000

     Total force =     0.000000     Total SCF correction =     0.000000


     Computing stress (Cartesian axis) and pressure


     negative rho (up, down):  2.911E-03 0.000E+00
          total   stress  (Ry/bohr**3)                   (kbar)     P=      -61.91
  -0.00052663  -0.00000000   0.00000000          -77.47       -0.00        0.00
  -0.00000000  -0.00052663   0.00000000           -0.00      -77.47        0.00
   0.00000000  -0.00000000  -0.00020928            0.00       -0.00      -30.79


     Writing all to output data dir ./tmp/scf.save/
 
     init_run     :      0.13s CPU      0.18s WALL (       1 calls)
     electrons    :      0.78s CPU      0.88s WALL (       1 calls)
     forces       :      0.01s CPU      0.01s WALL (       1 calls)
     stress       :      0.03s CPU      0.03s WALL (       1 calls)

     Called by init_run:
     wfcinit      :      0.02s CPU      0.02s WALL (       1 calls)
     potinit      :      0.06s CPU      0.06s WALL (       1 calls)
     hinit0       :      0.05s CPU      0.09s WALL (       1 calls)

     Called by electrons:
     c_bands      :      0.45s CPU      0.49s WALL (       7 calls)
     sum_band     :      0.08s CPU      0.08s WALL (       7 calls)
     v_of_rho     :      0.00s CPU      0.01s WALL (       8 calls)
     newd         :      0.01s CPU      0.02s WALL (       8 calls)
     PAW_pot      :      0.29s CPU      0.33s WALL (       8 calls)
     mix_rho      :      0.00s CPU      0.00s WALL (       7 calls)

     Called by c_bands:
     init_us_2    :      0.01s CPU      0.01s WALL (     510 calls)
     init_us_2:cp :      0.01s CPU      0.01s WALL (     510 calls)
     cegterg      :      0.39s CPU      0.43s WALL (     210 calls)

     Called by *egterg:
     cdiaghg      :      0.07s CPU      0.07s WALL (    1072 calls)
     h_psi        :      0.30s CPU      0.33s WALL (    1102 calls)
     s_psi        :      0.00s CPU      0.00s WALL (    1102 calls)
     g_psi        :      0.00s CPU      0.00s WALL (     862 calls)

     Called by h_psi:
     h_psi:calbec :      0.01s CPU      0.01s WALL (    1102 calls)
     vloc_psi     :      0.28s CPU      0.30s WALL (    1102 calls)
     add_vuspsi   :      0.00s CPU      0.00s WALL (    1102 calls)

     General routines
     calbec       :      0.02s CPU      0.02s WALL (    1462 calls)
     fft          :      0.03s CPU      0.06s WALL (     113 calls)
     ffts         :      0.00s CPU      0.00s WALL (       7 calls)
     fftw         :      0.31s CPU      0.33s WALL (   12752 calls)
 
     Parallel routines
 
     PWSCF        :      1.11s CPU      1.29s WALL

 
   This run was terminated on:  12:38:21   5Jun2025            

=------------------------------------------------------------------------------=
   JOB DONE.
=------------------------------------------------------------------------------=
