
     Program PWSCF v.7.2 starts on  5Jun2025 at 12:38:45 

     This program is part of the open-source Quantum ESPRESSO suite
     for quantum simulation of materials; please cite
         "P. Giannozzi et al., J. Phys.:Condens. Matter 21 395502 (2009);
         "P. Giannozzi et al., J. Phys.:Condens. Matter 29 465901 (2017);
         "P. Giannozzi et al., J. Chem. Phys. 152 154105 (2020);
          URL http://www.quantum-espresso.org", 
     in publications or presentations arising from this work. More details at
     http://www.quantum-espresso.org/quote

     Parallel version (MPI), running on    16 processors

     MPI processes distributed on     1 nodes
     40488 MiB available memory on the printing compute node when the environment starts
 
     Waiting for input...
     Reading input from standard input

     Current dimensions of program PWSCF are:
     Max number of different atomic species (ntypx) = 10
     Max number of k-points (npk) =  40000
     Max angular momentum in pseudopotentials (lmaxx) =  4
     file Co.pbe-n-kjpaw_psl.1.0.0.UPF: wavefunction(s)  4S 3D renormalized
     Message from routine setup:
     using ibrav=0 with symmetry is DISCOURAGED, use correct ibrav instead
 
     R & G space division:  proc/nbgrp/npool/nimage =      16
     Subspace diagonalization in iterative solution of the eigenvalue problem:
     a serial algorithm will be used

 
     Parallelization info
     --------------------
     sticks:   dense  smooth     PW     G-vecs:    dense   smooth      PW
     Min          22      22      7                 2068     2068     375
     Max          23      23      9                 2076     2076     382
     Sum         361     361    121                33175    33175    6055
 
     Using Slab Decomposition
 


     bravais-lattice index     =            0
     lattice parameter (alat)  =       4.6298  a.u.
     unit-cell volume          =     526.1998 (a.u.)^3
     number of atoms/cell      =            1
     number of atomic types    =            1
     number of electrons       =         9.00
     number of Kohn-Sham states=            9
     kinetic-energy cutoff     =      60.0000  Ry
     charge density cutoff     =     240.0000  Ry
     scf convergence threshold =      1.0E-06
     mixing beta               =       0.7000
     number of iterations used =            8  plain     mixing
     Exchange-correlation= SLA  PW   PBX  PBC
                           (   1   4   3   4   0   0   0)

     celldm(1)=   4.629829  celldm(2)=   0.000000  celldm(3)=   0.000000
     celldm(4)=   0.000000  celldm(5)=   0.000000  celldm(6)=   0.000000

     crystal axes: (cart. coord. in units of alat)
               a(1) = (   1.000000   0.000000   0.000000 )  
               a(2) = (   0.500000   0.866025   0.000000 )  
               a(3) = (   0.000000   0.000000   6.122449 )  

     reciprocal axes: (cart. coord. in units 2 pi/alat)
               b(1) = (  1.000000 -0.577350  0.000000 )  
               b(2) = (  0.000000  1.154701  0.000000 )  
               b(3) = (  0.000000  0.000000  0.163333 )  


     PseudoPot. # 1 for Co read from file:
     /shared/ESPRESSO/PSLIBRARY/1.0.0/pbe/PSEUDOPOTENTIALS/Co.pbe-n-kjpaw_psl.1.0.0.UPF
     MD5 check sum: 17e7ab8db721b244d1352252ea6cb8e7
     Pseudo is Projector augmented-wave + core cor, Zval =  9.0
     Generated using "atomic" code by A. Dal Corso  (Quantum ESPRESSO distribution)
     Shape of augmentation charge: PSQ
     Using radial grid of 1193 points,  6 beta functions with: 
                l(1) =   0
                l(2) =   0
                l(3) =   1
                l(4) =   1
                l(5) =   2
                l(6) =   2
     Q(r) pseudized with 0 coefficients 


     atomic species   valence    mass     pseudopotential
        Co             9.00    58.93320     Co( 1.00)

     24 Sym. Ops., with inversion, found



   Cartesian axes

     site n.     atom                  positions (alat units)
         1           Co  tau(   1) = (   0.0000000   0.0000000   3.0612245  )

     number of k points=    30  Fermi-Dirac smearing, width (Ry)=  0.0070
                       cart. coord. in units 2pi/alat
        k(    1) = (   0.0000000   0.0000000   0.0000000), wk =   0.0078125
        k(    2) = (   0.0000000   0.0721688   0.0000000), wk =   0.0468750
        k(    3) = (   0.0000000   0.1443376   0.0000000), wk =   0.0468750
        k(    4) = (   0.0000000   0.2165064   0.0000000), wk =   0.0468750
        k(    5) = (   0.0000000   0.2886751   0.0000000), wk =   0.0468750
        k(    6) = (   0.0000000   0.3608439   0.0000000), wk =   0.0468750
        k(    7) = (   0.0000000   0.4330127   0.0000000), wk =   0.0468750
        k(    8) = (   0.0000000   0.5051815   0.0000000), wk =   0.0468750
        k(    9) = (   0.0000000  -0.5773503   0.0000000), wk =   0.0234375
        k(   10) = (   0.0625000   0.1082532   0.0000000), wk =   0.0468750
        k(   11) = (   0.0625000   0.1804220   0.0000000), wk =   0.0937500
        k(   12) = (   0.0625000   0.2525907   0.0000000), wk =   0.0937500
        k(   13) = (   0.0625000   0.3247595   0.0000000), wk =   0.0937500
        k(   14) = (   0.0625000   0.3969283   0.0000000), wk =   0.0937500
        k(   15) = (   0.0625000   0.4690971   0.0000000), wk =   0.0937500
        k(   16) = (   0.0625000  -0.6134347   0.0000000), wk =   0.0937500
        k(   17) = (   0.1250000   0.2165064   0.0000000), wk =   0.0468750
        k(   18) = (   0.1250000   0.2886751   0.0000000), wk =   0.0937500
        k(   19) = (   0.1250000   0.3608439   0.0000000), wk =   0.0937500
        k(   20) = (   0.1250000   0.4330127   0.0000000), wk =   0.0937500
        k(   21) = (   0.1250000  -0.6495191   0.0000000), wk =   0.0937500
        k(   22) = (   0.1250000  -0.5773503   0.0000000), wk =   0.0468750
        k(   23) = (   0.1875000   0.3247595   0.0000000), wk =   0.0468750
        k(   24) = (   0.1875000   0.3969283   0.0000000), wk =   0.0937500
        k(   25) = (   0.1875000  -0.6856034   0.0000000), wk =   0.0937500
        k(   26) = (   0.1875000  -0.6134347   0.0000000), wk =   0.0937500
        k(   27) = (   0.2500000  -0.7216878   0.0000000), wk =   0.0468750
        k(   28) = (   0.2500000  -0.6495191   0.0000000), wk =   0.0937500
        k(   29) = (   0.2500000  -0.5773503   0.0000000), wk =   0.0468750
        k(   30) = (   0.3125000  -0.6134347   0.0000000), wk =   0.0468750

     Dense  grid:    33175 G-vectors     FFT dimensions: (  24,  24, 144)

     Estimated max dynamical RAM per process >      10.00 MB

     Estimated total dynamical RAM >     159.99 MB

     Check: negative core charge=   -0.000001

     Initial potential from superposition of free atoms

     starting charge       8.9997, renormalised to       9.0000

     negative rho (up, down):  2.969E-04 0.000E+00
     Starting wfcs are    9 randomized atomic wfcs
     Checking if some PAW data can be deallocated... 

     total cpu time spent up to now is        0.3 secs

     Self-consistent Calculation

     iteration #  1     ecut=    60.00 Ry     beta= 0.70
     Davidson diagonalization with overlap
     ethr =  1.00E-02,  avg # of iterations =  5.0

     negative rho (up, down):  3.603E-04 0.000E+00

     total cpu time spent up to now is        0.5 secs

     total energy              =    -161.83185974 Ry
     estimated scf accuracy    <       0.14458884 Ry

     iteration #  2     ecut=    60.00 Ry     beta= 0.70
     Davidson diagonalization with overlap
     ethr =  1.61E-03,  avg # of iterations =  3.6

     negative rho (up, down):  2.623E-04 0.000E+00

     total cpu time spent up to now is        0.7 secs

     total energy              =    -161.72553685 Ry
     estimated scf accuracy    <       1.50565076 Ry

     iteration #  3     ecut=    60.00 Ry     beta= 0.70
     Davidson diagonalization with overlap
     ethr =  1.61E-03,  avg # of iterations =  2.1

     negative rho (up, down):  3.305E-04 0.000E+00

     total cpu time spent up to now is        0.9 secs

     total energy              =    -161.91752040 Ry
     estimated scf accuracy    <       0.00285800 Ry

     iteration #  4     ecut=    60.00 Ry     beta= 0.70
     Davidson diagonalization with overlap
     ethr =  3.18E-05,  avg # of iterations =  6.6

     negative rho (up, down):  3.482E-04 0.000E+00

     total cpu time spent up to now is        1.1 secs

     total energy              =    -161.91811574 Ry
     estimated scf accuracy    <       0.00024231 Ry

     iteration #  5     ecut=    60.00 Ry     beta= 0.70
     Davidson diagonalization with overlap
     ethr =  2.69E-06,  avg # of iterations =  4.4

     negative rho (up, down):  3.608E-04 0.000E+00

     total cpu time spent up to now is        1.2 secs

     total energy              =    -161.91816637 Ry
     estimated scf accuracy    <       0.00004386 Ry

     iteration #  6     ecut=    60.00 Ry     beta= 0.70
     Davidson diagonalization with overlap
     ethr =  4.87E-07,  avg # of iterations =  1.6

     negative rho (up, down):  3.657E-04 0.000E+00

     total cpu time spent up to now is        1.4 secs

     total energy              =    -161.91817381 Ry
     estimated scf accuracy    <       0.00000314 Ry

     iteration #  7     ecut=    60.00 Ry     beta= 0.70
     Davidson diagonalization with overlap
     ethr =  3.49E-08,  avg # of iterations =  1.9

     negative rho (up, down):  3.671E-04 0.000E+00

     total cpu time spent up to now is        1.5 secs

     End of self-consistent calculation

          k = 0.0000 0.0000 0.0000 (  4113 PWs)   bands (ev):

    -8.2308  -4.0541  -3.9591  -3.9591  -2.4399  -2.4399  -1.8245   2.0012
     2.8860

          k = 0.0000 0.0722 0.0000 (  4128 PWs)   bands (ev):

    -8.0832  -4.0170  -4.0030  -3.8914  -2.7709  -2.4542  -1.4112   2.1283
     3.0250

          k = 0.0000 0.1443 0.0000 (  4142 PWs)   bands (ev):

    -7.6528  -4.1485  -3.8767  -3.6951  -3.2316  -2.4947  -0.6941   2.5089
     3.4385

          k = 0.0000 0.2165 0.0000 (  4146 PWs)   bands (ev):

    -6.9926  -4.2933  -3.6785  -3.6503  -3.3914  -2.5550   0.1789   3.1439
     4.1188

          k = 0.0000 0.2887 0.0000 (  4138 PWs)   bands (ev):

    -6.2805  -4.2468  -4.0078  -3.4386  -3.0162  -2.6256   1.2172   4.0332
     5.0582

          k = 0.0000 0.3608 0.0000 (  4126 PWs)   bands (ev):

    -5.9097  -4.2951  -3.6329  -3.1626  -2.6957  -2.6200   2.4348   5.1735
     6.3288

          k = 0.0000 0.4330 0.0000 (  4116 PWs)   bands (ev):

    -5.9024  -4.5052  -3.0699  -2.7547  -2.2746  -2.2651   3.8319   6.4904
     7.4285

          k = 0.0000 0.5052 0.0000 (  4134 PWs)   bands (ev):

    -5.9744  -4.6332  -2.9128  -2.7938  -2.0169  -0.8981   5.3532   5.6744
     8.3431

          k = 0.0000-0.5774 0.0000 (  4148 PWs)   bands (ev):

    -6.0072  -4.6762  -2.8623  -2.8076  -1.9274  -0.1435   4.7316   6.4031
     8.5996

          k = 0.0625 0.1083 0.0000 (  4143 PWs)   bands (ev):

    -7.7935  -4.1108  -3.9232  -3.7519  -3.1089  -2.4844  -0.9011   2.3820
     3.3013

          k = 0.0625 0.1804 0.0000 (  4139 PWs)   bands (ev):

    -7.2409  -4.2751  -3.7595  -3.5014  -3.4837  -2.5423  -0.1454   2.8899
     3.8480

          k = 0.0625 0.2526 0.0000 (  4138 PWs)   bands (ev):

    -6.5164  -4.3959  -3.8610  -3.5381  -3.1106  -2.6183   0.7928   3.6526
     4.6574

          k = 0.0625 0.3248 0.0000 (  4141 PWs)   bands (ev):

    -5.9198  -4.1828  -4.1630  -3.2881  -2.7005  -2.6481   1.9138   4.6689
     5.7229

          k = 0.0625 0.3969 0.0000 (  4120 PWs)   bands (ev):

    -5.7828  -4.3965  -3.4500  -3.0114  -2.7764  -2.0423   3.2216   5.9257
     7.0475

          k = 0.0625 0.4691 0.0000 (  4126 PWs)   bands (ev):

    -5.8527  -4.5550  -2.9957  -2.8344  -2.5638  -1.0600   4.6989   6.5786
     7.6604

          k = 0.0625-0.6134 0.0000 (  4147 PWs)   bands (ev):

    -5.9172  -4.6350  -2.8721  -2.8658  -2.2786   0.0506   5.0466   6.1773
     9.0484

          k = 0.1250 0.2165 0.0000 (  4143 PWs)   bands (ev):

    -6.5982  -4.4650  -3.7971  -3.5743  -3.1185  -2.6285   0.6508   3.5257
     4.5238

          k = 0.1250 0.2887 0.0000 (  4134 PWs)   bands (ev):

    -5.8609  -4.5896  -4.0632  -3.3457  -2.7379  -2.6059   1.6570   4.4169
     5.4615

          k = 0.1250 0.3608 0.0000 (  4128 PWs)   bands (ev):

    -5.4870  -4.2774  -4.2613  -3.1142  -2.8516  -1.9033   2.8643   5.5602
     6.7113

          k = 0.1250 0.4330 0.0000 (  4129 PWs)   bands (ev):

    -5.5487  -4.4314  -3.5754  -2.9508  -2.9222  -0.9126   4.2645   6.8900
     7.8165

          k = 0.1250-0.6495 0.0000 (  4130 PWs)   bands (ev):

    -5.6533  -4.5233  -3.0701  -3.0184  -2.8122   0.3319   5.8070   5.9426
     8.7205

          k = 0.1250-0.5774 0.0000 (  4138 PWs)   bands (ev):

    -5.6945  -4.5537  -3.0423  -2.8467  -2.8273   1.1150   4.8945   6.9121
     8.9168

          k = 0.1875 0.3248 0.0000 (  4118 PWs)   bands (ev):

    -5.1363  -4.7973  -4.2227  -3.1381  -2.8940  -1.8565   2.7474   5.4370
     6.5184

          k = 0.1875 0.3969 0.0000 (  4109 PWs)   bands (ev):

    -5.0786  -4.3530  -4.3283  -3.0581  -2.9625  -0.8212   4.0509   6.7035
     7.8236

          k = 0.1875-0.6856 0.0000 (  4110 PWs)   bands (ev):

    -5.2420  -4.3847  -3.7844  -3.1974  -2.8579   0.4979   5.5469   7.2618
     8.3732

          k = 0.1875-0.6134 0.0000 (  4124 PWs)   bands (ev):

    -5.3327  -4.4060  -3.4499  -3.2785  -2.8327   1.8497   5.4658   7.0995
     9.7532

          k = 0.2500-0.7217 0.0000 (  4122 PWs)   bands (ev):

    -4.8914  -4.3137  -4.2534  -3.2849  -2.8643   0.5487   5.4571   8.0479
     8.8993

          k = 0.2500-0.6495 0.0000 (  4100 PWs)   bands (ev):

    -4.9098  -4.2561  -4.0145  -3.4814  -2.8272   2.1283   6.7697   7.0423
     8.7401

          k = 0.2500-0.5774 0.0000 (  4132 PWs)   bands (ev):

    -4.9319  -4.2184  -3.9048  -3.5673  -2.8236   3.2917   5.3821   8.2794
     8.6563

          k = 0.3125-0.6134 0.0000 (  4092 PWs)   bands (ev):

    -4.6099  -4.2448  -4.0645  -3.7577  -2.8203   3.9069   5.8899   7.2396
     8.6242

     the Fermi energy is    -2.7863 ev

!    total energy              =    -161.91817348 Ry
     total all-electron energy =     -2786.761850 Ry
     estimated scf accuracy    <       0.00000076 Ry
     smearing contrib. (-TS)   =      -0.01158614 Ry
     internal energy E=F+TS    =    -161.90658735 Ry

     The total energy is F=E-TS. E is the sum of the following terms:
     one-electron contribution =    -213.00043200 Ry
     hartree contribution      =     114.26194750 Ry
     xc contribution           =     -32.43519162 Ry
     ewald contribution        =      55.80703861 Ry
     one-center paw contrib.   =     -86.53994984 Ry

     convergence has been achieved in   7 iterations

     negative rho (up, down):  3.671E-04 0.000E+00

     Forces acting on atoms (cartesian axes, Ry/au):

     atom    1 type  1   force =     0.00000000    0.00000000    0.00000000
     The non-local contrib.  to forces
     atom    1 type  1   force =     0.00000000    0.00000000    0.00000000
     The ionic contribution  to forces
     atom    1 type  1   force =     0.00000000    0.00000000   -0.00000000
     The local contribution  to forces
     atom    1 type  1   force =     0.00000000    0.00000000    0.00000000
     The core correction contribution to forces
     atom    1 type  1   force =     0.00000000    0.00000000    0.00000000
     The Hubbard contrib.    to forces
     atom    1 type  1   force =     0.00000000    0.00000000    0.00000000
     The SCF correction term to forces
     atom    1 type  1   force =    -0.00000000    0.00000000    0.00000000

     Total force =     0.000000     Total SCF correction =     0.000000


     Computing stress (Cartesian axis) and pressure


     negative rho (up, down):  3.671E-04 0.000E+00
          total   stress  (Ry/bohr**3)                   (kbar)     P=      -34.81
  -0.00034569  -0.00000000  -0.00000000          -50.85       -0.00       -0.00
  -0.00000000  -0.00034569  -0.00000000           -0.00      -50.85       -0.00
   0.00000000   0.00000000  -0.00001852            0.00        0.00       -2.72


     Writing all to output data dir ./tmp/scf.save/
 
     init_run     :      0.16s CPU      0.22s WALL (       1 calls)
     electrons    :      1.10s CPU      1.22s WALL (       1 calls)
     forces       :      0.03s CPU      0.03s WALL (       1 calls)
     stress       :      0.09s CPU      0.09s WALL (       1 calls)

     Called by init_run:
     wfcinit      :      0.02s CPU      0.03s WALL (       1 calls)
     potinit      :      0.07s CPU      0.07s WALL (       1 calls)
     hinit0       :      0.05s CPU      0.10s WALL (       1 calls)

     Called by electrons:
     c_bands      :      0.66s CPU      0.76s WALL (       7 calls)
     sum_band     :      0.13s CPU      0.14s WALL (       7 calls)
     v_of_rho     :      0.01s CPU      0.01s WALL (       8 calls)
     newd         :      0.05s CPU      0.05s WALL (       8 calls)
     PAW_pot      :      0.31s CPU      0.31s WALL (       8 calls)
     mix_rho      :      0.00s CPU      0.00s WALL (       7 calls)

     Called by c_bands:
     init_us_2    :      0.02s CPU      0.02s WALL (     510 calls)
     init_us_2:cp :      0.02s CPU      0.02s WALL (     510 calls)
     cegterg      :      0.50s CPU      0.57s WALL (     210 calls)

     Called by *egterg:
     cdiaghg      :      0.06s CPU      0.07s WALL (     967 calls)
     h_psi        :      0.40s CPU      0.46s WALL (     997 calls)
     s_psi        :      0.01s CPU      0.01s WALL (     997 calls)
     g_psi        :      0.00s CPU      0.00s WALL (     757 calls)

     Called by h_psi:
     h_psi:calbec :      0.02s CPU      0.02s WALL (     997 calls)
     vloc_psi     :      0.37s CPU      0.43s WALL (     997 calls)
     add_vuspsi   :      0.01s CPU      0.01s WALL (     997 calls)

     General routines
     calbec       :      0.03s CPU      0.03s WALL (    1357 calls)
     fft          :      0.04s CPU      0.08s WALL (     113 calls)
     ffts         :      0.00s CPU      0.00s WALL (       7 calls)
     fftw         :      0.39s CPU      0.45s WALL (   12512 calls)
 
     Parallel routines
 
     PWSCF        :      1.50s CPU      1.71s WALL

 
   This run was terminated on:  12:38:46   5Jun2025            

=------------------------------------------------------------------------------=
   JOB DONE.
=------------------------------------------------------------------------------=
