
     Program PWSCF v.7.2 starts on  5Jun2025 at 12:38:49 

     This program is part of the open-source Quantum ESPRESSO suite
     for quantum simulation of materials; please cite
         "P. Giannozzi et al., J. Phys.:Condens. Matter 21 395502 (2009);
         "P. Giannozzi et al., J. Phys.:Condens. Matter 29 465901 (2017);
         "P. Giannozzi et al., J. Chem. Phys. 152 154105 (2020);
          URL http://www.quantum-espresso.org", 
     in publications or presentations arising from this work. More details at
     http://www.quantum-espresso.org/quote

     Parallel version (MPI), running on    16 processors

     MPI processes distributed on     1 nodes
     40482 MiB available memory on the printing compute node when the environment starts
 
     Waiting for input...
     Reading input from standard input

     Current dimensions of program PWSCF are:
     Max number of different atomic species (ntypx) = 10
     Max number of k-points (npk) =  40000
     Max angular momentum in pseudopotentials (lmaxx) =  4
     file Co.pbe-n-kjpaw_psl.1.0.0.UPF: wavefunction(s)  4S 3D renormalized
     Message from routine setup:
     using ibrav=0 with symmetry is DISCOURAGED, use correct ibrav instead
 
     R & G space division:  proc/nbgrp/npool/nimage =      16
     Subspace diagonalization in iterative solution of the eigenvalue problem:
     a serial algorithm will be used

 
     Parallelization info
     --------------------
     sticks:   dense  smooth     PW     G-vecs:    dense   smooth      PW
     Min          23      23      7                 2317     2317     407
     Max          24      24      8                 2338     2338     430
     Sum         379     379    121                37291    37291    6743
 
     Using Slab Decomposition
 


     bravais-lattice index     =            0
     lattice parameter (alat)  =       4.6298  a.u.
     unit-cell volume          =     526.1998 (a.u.)^3
     number of atoms/cell      =            1
     number of atomic types    =            1
     number of electrons       =         9.00
     number of Kohn-Sham states=            9
     kinetic-energy cutoff     =      65.0000  Ry
     charge density cutoff     =     260.0000  Ry
     scf convergence threshold =      1.0E-06
     mixing beta               =       0.7000
     number of iterations used =            8  plain     mixing
     Exchange-correlation= SLA  PW   PBX  PBC
                           (   1   4   3   4   0   0   0)

     celldm(1)=   4.629829  celldm(2)=   0.000000  celldm(3)=   0.000000
     celldm(4)=   0.000000  celldm(5)=   0.000000  celldm(6)=   0.000000

     crystal axes: (cart. coord. in units of alat)
               a(1) = (   1.000000   0.000000   0.000000 )  
               a(2) = (   0.500000   0.866025   0.000000 )  
               a(3) = (   0.000000   0.000000   6.122449 )  

     reciprocal axes: (cart. coord. in units 2 pi/alat)
               b(1) = (  1.000000 -0.577350  0.000000 )  
               b(2) = (  0.000000  1.154701  0.000000 )  
               b(3) = (  0.000000  0.000000  0.163333 )  


     PseudoPot. # 1 for Co read from file:
     /shared/ESPRESSO/PSLIBRARY/1.0.0/pbe/PSEUDOPOTENTIALS/Co.pbe-n-kjpaw_psl.1.0.0.UPF
     MD5 check sum: 17e7ab8db721b244d1352252ea6cb8e7
     Pseudo is Projector augmented-wave + core cor, Zval =  9.0
     Generated using "atomic" code by A. Dal Corso  (Quantum ESPRESSO distribution)
     Shape of augmentation charge: PSQ
     Using radial grid of 1193 points,  6 beta functions with: 
                l(1) =   0
                l(2) =   0
                l(3) =   1
                l(4) =   1
                l(5) =   2
                l(6) =   2
     Q(r) pseudized with 0 coefficients 


     atomic species   valence    mass     pseudopotential
        Co             9.00    58.93320     Co( 1.00)

     24 Sym. Ops., with inversion, found



   Cartesian axes

     site n.     atom                  positions (alat units)
         1           Co  tau(   1) = (   0.0000000   0.0000000   3.0612245  )

     number of k points=    30  Fermi-Dirac smearing, width (Ry)=  0.0070
                       cart. coord. in units 2pi/alat
        k(    1) = (   0.0000000   0.0000000   0.0000000), wk =   0.0078125
        k(    2) = (   0.0000000   0.0721688   0.0000000), wk =   0.0468750
        k(    3) = (   0.0000000   0.1443376   0.0000000), wk =   0.0468750
        k(    4) = (   0.0000000   0.2165064   0.0000000), wk =   0.0468750
        k(    5) = (   0.0000000   0.2886751   0.0000000), wk =   0.0468750
        k(    6) = (   0.0000000   0.3608439   0.0000000), wk =   0.0468750
        k(    7) = (   0.0000000   0.4330127   0.0000000), wk =   0.0468750
        k(    8) = (   0.0000000   0.5051815   0.0000000), wk =   0.0468750
        k(    9) = (   0.0000000  -0.5773503   0.0000000), wk =   0.0234375
        k(   10) = (   0.0625000   0.1082532   0.0000000), wk =   0.0468750
        k(   11) = (   0.0625000   0.1804220   0.0000000), wk =   0.0937500
        k(   12) = (   0.0625000   0.2525907   0.0000000), wk =   0.0937500
        k(   13) = (   0.0625000   0.3247595   0.0000000), wk =   0.0937500
        k(   14) = (   0.0625000   0.3969283   0.0000000), wk =   0.0937500
        k(   15) = (   0.0625000   0.4690971   0.0000000), wk =   0.0937500
        k(   16) = (   0.0625000  -0.6134347   0.0000000), wk =   0.0937500
        k(   17) = (   0.1250000   0.2165064   0.0000000), wk =   0.0468750
        k(   18) = (   0.1250000   0.2886751   0.0000000), wk =   0.0937500
        k(   19) = (   0.1250000   0.3608439   0.0000000), wk =   0.0937500
        k(   20) = (   0.1250000   0.4330127   0.0000000), wk =   0.0937500
        k(   21) = (   0.1250000  -0.6495191   0.0000000), wk =   0.0937500
        k(   22) = (   0.1250000  -0.5773503   0.0000000), wk =   0.0468750
        k(   23) = (   0.1875000   0.3247595   0.0000000), wk =   0.0468750
        k(   24) = (   0.1875000   0.3969283   0.0000000), wk =   0.0937500
        k(   25) = (   0.1875000  -0.6856034   0.0000000), wk =   0.0937500
        k(   26) = (   0.1875000  -0.6134347   0.0000000), wk =   0.0937500
        k(   27) = (   0.2500000  -0.7216878   0.0000000), wk =   0.0468750
        k(   28) = (   0.2500000  -0.6495191   0.0000000), wk =   0.0937500
        k(   29) = (   0.2500000  -0.5773503   0.0000000), wk =   0.0468750
        k(   30) = (   0.3125000  -0.6134347   0.0000000), wk =   0.0468750

     Dense  grid:    37291 G-vectors     FFT dimensions: (  24,  24, 150)

     Estimated max dynamical RAM per process >      11.08 MB

     Estimated total dynamical RAM >     177.26 MB

     Check: negative core charge=   -0.000001

     Initial potential from superposition of free atoms

     starting charge       8.9997, renormalised to       9.0000

     negative rho (up, down):  1.238E-04 0.000E+00
     Starting wfcs are    9 randomized atomic wfcs
     Checking if some PAW data can be deallocated... 

     total cpu time spent up to now is        0.3 secs

     Self-consistent Calculation

     iteration #  1     ecut=    65.00 Ry     beta= 0.70
     Davidson diagonalization with overlap
     ethr =  1.00E-02,  avg # of iterations =  5.2

     negative rho (up, down):  1.556E-04 0.000E+00

     total cpu time spent up to now is        0.5 secs

     total energy              =    -161.83207229 Ry
     estimated scf accuracy    <       0.14434225 Ry

     iteration #  2     ecut=    65.00 Ry     beta= 0.70
     Davidson diagonalization with overlap
     ethr =  1.60E-03,  avg # of iterations =  3.7

     negative rho (up, down):  1.071E-04 0.000E+00

     total cpu time spent up to now is        0.7 secs

     total energy              =    -161.72608678 Ry
     estimated scf accuracy    <       1.50112983 Ry

     iteration #  3     ecut=    65.00 Ry     beta= 0.70
     Davidson diagonalization with overlap
     ethr =  1.60E-03,  avg # of iterations =  2.0

     negative rho (up, down):  1.406E-04 0.000E+00

     total cpu time spent up to now is        0.9 secs

     total energy              =    -161.91752016 Ry
     estimated scf accuracy    <       0.00285332 Ry

     iteration #  4     ecut=    65.00 Ry     beta= 0.70
     Davidson diagonalization with overlap
     ethr =  3.17E-05,  avg # of iterations =  6.9

     negative rho (up, down):  1.556E-04 0.000E+00

     total cpu time spent up to now is        1.1 secs

     total energy              =    -161.91811645 Ry
     estimated scf accuracy    <       0.00024649 Ry

     iteration #  5     ecut=    65.00 Ry     beta= 0.70
     Davidson diagonalization with overlap
     ethr =  2.74E-06,  avg # of iterations =  4.8

     negative rho (up, down):  1.658E-04 0.000E+00

     total cpu time spent up to now is        1.2 secs

     total energy              =    -161.91816210 Ry
     estimated scf accuracy    <       0.00004421 Ry

     iteration #  6     ecut=    65.00 Ry     beta= 0.70
     Davidson diagonalization with overlap
     ethr =  4.91E-07,  avg # of iterations =  1.8

     negative rho (up, down):  1.690E-04 0.000E+00

     total cpu time spent up to now is        1.4 secs

     total energy              =    -161.91816978 Ry
     estimated scf accuracy    <       0.00000342 Ry

     iteration #  7     ecut=    65.00 Ry     beta= 0.70
     Davidson diagonalization with overlap
     ethr =  3.80E-08,  avg # of iterations =  1.5

     negative rho (up, down):  1.697E-04 0.000E+00

     total cpu time spent up to now is        1.6 secs

     End of self-consistent calculation

          k = 0.0000 0.0000 0.0000 (  4591 PWs)   bands (ev):

    -8.2306  -4.0537  -3.9588  -3.9588  -2.4395  -2.4395  -1.8235   2.0355
     2.9200

          k = 0.0000 0.0722 0.0000 (  4603 PWs)   bands (ev):

    -8.0830  -4.0166  -4.0026  -3.8910  -2.7705  -2.4538  -1.4102   2.1625
     3.0590

          k = 0.0000 0.1443 0.0000 (  4613 PWs)   bands (ev):

    -7.6526  -4.1481  -3.8763  -3.6947  -3.2312  -2.4944  -0.6929   2.5428
     3.4727

          k = 0.0000 0.2165 0.0000 (  4612 PWs)   bands (ev):

    -6.9924  -4.2930  -3.6781  -3.6499  -3.3910  -2.5547   0.1803   3.1768
     4.1532

          k = 0.0000 0.2887 0.0000 (  4638 PWs)   bands (ev):

    -6.2802  -4.2465  -4.0075  -3.4382  -3.0158  -2.6253   1.2188   4.0652
     5.0927

          k = 0.0000 0.3608 0.0000 (  4648 PWs)   bands (ev):

    -5.9094  -4.2947  -3.6326  -3.1622  -2.6953  -2.6196   2.4364   5.2034
     6.2841

          k = 0.0000 0.4330 0.0000 (  4650 PWs)   bands (ev):

    -5.9021  -4.5049  -3.0695  -2.7543  -2.2744  -2.2648   3.8335   6.5140
     7.4538

          k = 0.0000 0.5052 0.0000 (  4672 PWs)   bands (ev):

    -5.9741  -4.6329  -2.9124  -2.7935  -2.0166  -0.8978   5.3546   5.6748
     8.3743

          k = 0.0000-0.5774 0.0000 (  4668 PWs)   bands (ev):

    -6.0069  -4.6759  -2.8619  -2.8072  -1.9271  -0.1433   4.7318   6.4038
     8.6038

          k = 0.0625 0.1083 0.0000 (  4616 PWs)   bands (ev):

    -7.7933  -4.1104  -3.9228  -3.7516  -3.1085  -2.4840  -0.9000   2.4157
     3.3353

          k = 0.0625 0.1804 0.0000 (  4609 PWs)   bands (ev):

    -7.2406  -4.2748  -3.7591  -3.5011  -3.4833  -2.5419  -0.1441   2.9231
     3.8824

          k = 0.0625 0.2526 0.0000 (  4634 PWs)   bands (ev):

    -6.5161  -4.3956  -3.8606  -3.5377  -3.1102  -2.6179   0.7943   3.6850
     4.6920

          k = 0.0625 0.3248 0.0000 (  4653 PWs)   bands (ev):

    -5.9195  -4.1825  -4.1627  -3.2877  -2.7002  -2.6477   1.9154   4.7001
     5.7570

          k = 0.0625 0.3969 0.0000 (  4659 PWs)   bands (ev):

    -5.7825  -4.3961  -3.4497  -3.0111  -2.7760  -2.0420   3.2233   5.9551
     7.0754

          k = 0.0625 0.4691 0.0000 (  4658 PWs)   bands (ev):

    -5.8524  -4.5546  -2.9953  -2.8341  -2.5635  -1.0597   4.7004   6.5809
     7.6923

          k = 0.0625-0.6134 0.0000 (  4662 PWs)   bands (ev):

    -5.9169  -4.6347  -2.8717  -2.8654  -2.2783   0.0508   5.0469   6.1783
     9.0533

          k = 0.1250 0.2165 0.0000 (  4632 PWs)   bands (ev):

    -6.5979  -4.4647  -3.7968  -3.5739  -3.1181  -2.6282   0.6523   3.5583
     4.5585

          k = 0.1250 0.2887 0.0000 (  4650 PWs)   bands (ev):

    -5.8606  -4.5893  -4.0629  -3.3453  -2.7375  -2.6056   1.6586   4.4485
     5.4954

          k = 0.1250 0.3608 0.0000 (  4655 PWs)   bands (ev):

    -5.4867  -4.2771  -4.2610  -3.1138  -2.8513  -1.9030   2.8659   5.5903
     6.6862

          k = 0.1250 0.4330 0.0000 (  4681 PWs)   bands (ev):

    -5.5484  -4.4310  -3.5750  -2.9504  -2.9218  -0.9123   4.2661   6.9138
     7.8400

          k = 0.1250-0.6495 0.0000 (  4670 PWs)   bands (ev):

    -5.6530  -4.5229  -3.0698  -3.0180  -2.8118   0.3322   5.8084   5.9430
     8.7510

          k = 0.1250-0.5774 0.0000 (  4684 PWs)   bands (ev):

    -5.6942  -4.5534  -3.0420  -2.8463  -2.8269   1.1152   4.8948   6.9128
     8.9207

          k = 0.1875 0.3248 0.0000 (  4668 PWs)   bands (ev):

    -5.1360  -4.7969  -4.2223  -3.1377  -2.8937  -1.8562   2.7490   5.4674
     6.5533

          k = 0.1875 0.3969 0.0000 (  4674 PWs)   bands (ev):

    -5.0783  -4.3527  -4.3280  -3.0578  -2.9621  -0.8209   4.0525   6.7325
     7.8520

          k = 0.1875-0.6856 0.0000 (  4690 PWs)   bands (ev):

    -5.2417  -4.3843  -3.7841  -3.1970  -2.8575   0.4982   5.5485   7.2631
     8.4034

          k = 0.1875-0.6134 0.0000 (  4687 PWs)   bands (ev):

    -5.3324  -4.4056  -3.4496  -3.2782  -2.8323   1.8500   5.4660   7.1006
     9.7574

          k = 0.2500-0.7217 0.0000 (  4676 PWs)   bands (ev):

    -4.8911  -4.3134  -4.2531  -3.2845  -2.8639   0.5490   5.4587   8.0710
     8.8994

          k = 0.2500-0.6495 0.0000 (  4685 PWs)   bands (ev):

    -4.9095  -4.2557  -4.0142  -3.4810  -2.8268   2.1285   6.7699   7.0438
     8.7408

          k = 0.2500-0.5774 0.0000 (  4694 PWs)   bands (ev):

    -4.9316  -4.2180  -3.9045  -3.5670  -2.8232   3.2919   5.3823   8.2801
     8.6564

          k = 0.3125-0.6134 0.0000 (  4686 PWs)   bands (ev):

    -4.6096  -4.2445  -4.0641  -3.7574  -2.8199   3.9072   5.8901   7.2398
     8.6253

     the Fermi energy is    -2.7860 ev

!    total energy              =    -161.91816942 Ry
     total all-electron energy =     -2786.761846 Ry
     estimated scf accuracy    <       0.00000080 Ry
     smearing contrib. (-TS)   =      -0.01158650 Ry
     internal energy E=F+TS    =    -161.90658292 Ry

     The total energy is F=E-TS. E is the sum of the following terms:
     one-electron contribution =    -213.00080591 Ry
     hartree contribution      =     114.26227125 Ry
     xc contribution           =     -32.43514178 Ry
     ewald contribution        =      55.80703861 Ry
     one-center paw contrib.   =     -86.53994510 Ry

     convergence has been achieved in   7 iterations

     negative rho (up, down):  1.697E-04 0.000E+00

     Forces acting on atoms (cartesian axes, Ry/au):

     atom    1 type  1   force =     0.00000000    0.00000000    0.00000000
     The non-local contrib.  to forces
     atom    1 type  1   force =     0.00000000    0.00000000    0.00000000
     The ionic contribution  to forces
     atom    1 type  1   force =     0.00000000    0.00000000   -0.00000000
     The local contribution  to forces
     atom    1 type  1   force =     0.00000000    0.00000000    0.00000000
     The core correction contribution to forces
     atom    1 type  1   force =     0.00000000    0.00000000    0.00000000
     The Hubbard contrib.    to forces
     atom    1 type  1   force =     0.00000000    0.00000000    0.00000000
     The SCF correction term to forces
     atom    1 type  1   force =     0.00000000   -0.00000000    0.00000000

     Total force =     0.000000     Total SCF correction =     0.000000


     Computing stress (Cartesian axis) and pressure


     negative rho (up, down):  1.697E-04 0.000E+00
          total   stress  (Ry/bohr**3)                   (kbar)     P=      -34.75
  -0.00034521   0.00000000   0.00000000          -50.78        0.00        0.00
   0.00000000  -0.00034521   0.00000000            0.00      -50.78        0.00
   0.00000000   0.00000000  -0.00001818            0.00        0.00       -2.67


     Writing all to output data dir ./tmp/scf.save/
 
     init_run     :      0.15s CPU      0.20s WALL (       1 calls)
     electrons    :      1.20s CPU      1.27s WALL (       1 calls)
     forces       :      0.03s CPU      0.03s WALL (       1 calls)
     stress       :      0.10s CPU      0.10s WALL (       1 calls)

     Called by init_run:
     wfcinit      :      0.03s CPU      0.03s WALL (       1 calls)
     potinit      :      0.04s CPU      0.06s WALL (       1 calls)
     hinit0       :      0.06s CPU      0.09s WALL (       1 calls)

     Called by electrons:
     c_bands      :      0.74s CPU      0.79s WALL (       7 calls)
     sum_band     :      0.14s CPU      0.15s WALL (       7 calls)
     v_of_rho     :      0.01s CPU      0.01s WALL (       8 calls)
     newd         :      0.05s CPU      0.05s WALL (       8 calls)
     PAW_pot      :      0.28s CPU      0.30s WALL (       8 calls)
     mix_rho      :      0.00s CPU      0.00s WALL (       7 calls)

     Called by c_bands:
     init_us_2    :      0.02s CPU      0.02s WALL (     510 calls)
     init_us_2:cp :      0.02s CPU      0.02s WALL (     510 calls)
     cegterg      :      0.54s CPU      0.59s WALL (     210 calls)

     Called by *egterg:
     cdiaghg      :      0.07s CPU      0.07s WALL (     986 calls)
     h_psi        :      0.43s CPU      0.47s WALL (    1016 calls)
     s_psi        :      0.01s CPU      0.01s WALL (    1016 calls)
     g_psi        :      0.00s CPU      0.00s WALL (     776 calls)

     Called by h_psi:
     h_psi:calbec :      0.02s CPU      0.02s WALL (    1016 calls)
     vloc_psi     :      0.40s CPU      0.43s WALL (    1016 calls)
     add_vuspsi   :      0.01s CPU      0.01s WALL (    1016 calls)

     General routines
     calbec       :      0.03s CPU      0.03s WALL (    1376 calls)
     fft          :      0.04s CPU      0.07s WALL (     113 calls)
     ffts         :      0.00s CPU      0.00s WALL (       7 calls)
     fftw         :      0.41s CPU      0.45s WALL (   12550 calls)
 
     Parallel routines
 
     PWSCF        :      1.59s CPU      1.75s WALL

 
   This run was terminated on:  12:38:51   5Jun2025            

=------------------------------------------------------------------------------=
   JOB DONE.
=------------------------------------------------------------------------------=
