
     Program PWSCF v.7.2 starts on  5Jun2025 at 12:39: 4 

     This program is part of the open-source Quantum ESPRESSO suite
     for quantum simulation of materials; please cite
         "P. Giannozzi et al., J. Phys.:Condens. Matter 21 395502 (2009);
         "P. Giannozzi et al., J. Phys.:Condens. Matter 29 465901 (2017);
         "P. Giannozzi et al., J. Chem. Phys. 152 154105 (2020);
          URL http://www.quantum-espresso.org", 
     in publications or presentations arising from this work. More details at
     http://www.quantum-espresso.org/quote

     Parallel version (MPI), running on    16 processors

     MPI processes distributed on     1 nodes
     40466 MiB available memory on the printing compute node when the environment starts
 
     Waiting for input...
     Reading input from standard input

     Current dimensions of program PWSCF are:
     Max number of different atomic species (ntypx) = 10
     Max number of k-points (npk) =  40000
     Max angular momentum in pseudopotentials (lmaxx) =  4
     file Co.pbe-n-kjpaw_psl.1.0.0.UPF: wavefunction(s)  4S 3D renormalized
     Message from routine setup:
     using ibrav=0 with symmetry is DISCOURAGED, use correct ibrav instead
 
     R & G space division:  proc/nbgrp/npool/nimage =      16
     Subspace diagonalization in iterative solution of the eigenvalue problem:
     a serial algorithm will be used

 
     Parallelization info
     --------------------
     sticks:   dense  smooth     PW     G-vecs:    dense   smooth      PW
     Min          29      29      9                 3167     3167     547
     Max          30      30     10                 3184     3184     564
     Sum         475     475    151                50843    50843    8905
 
     Using Slab Decomposition
 


     bravais-lattice index     =            0
     lattice parameter (alat)  =       4.6298  a.u.
     unit-cell volume          =     526.1998 (a.u.)^3
     number of atoms/cell      =            1
     number of atomic types    =            1
     number of electrons       =         9.00
     number of Kohn-Sham states=            9
     kinetic-energy cutoff     =      80.0000  Ry
     charge density cutoff     =     320.0000  Ry
     scf convergence threshold =      1.0E-06
     mixing beta               =       0.7000
     number of iterations used =            8  plain     mixing
     Exchange-correlation= SLA  PW   PBX  PBC
                           (   1   4   3   4   0   0   0)

     celldm(1)=   4.629829  celldm(2)=   0.000000  celldm(3)=   0.000000
     celldm(4)=   0.000000  celldm(5)=   0.000000  celldm(6)=   0.000000

     crystal axes: (cart. coord. in units of alat)
               a(1) = (   1.000000   0.000000   0.000000 )  
               a(2) = (   0.500000   0.866025   0.000000 )  
               a(3) = (   0.000000   0.000000   6.122449 )  

     reciprocal axes: (cart. coord. in units 2 pi/alat)
               b(1) = (  1.000000 -0.577350  0.000000 )  
               b(2) = (  0.000000  1.154701  0.000000 )  
               b(3) = (  0.000000  0.000000  0.163333 )  


     PseudoPot. # 1 for Co read from file:
     /shared/ESPRESSO/PSLIBRARY/1.0.0/pbe/PSEUDOPOTENTIALS/Co.pbe-n-kjpaw_psl.1.0.0.UPF
     MD5 check sum: 17e7ab8db721b244d1352252ea6cb8e7
     Pseudo is Projector augmented-wave + core cor, Zval =  9.0
     Generated using "atomic" code by A. Dal Corso  (Quantum ESPRESSO distribution)
     Shape of augmentation charge: PSQ
     Using radial grid of 1193 points,  6 beta functions with: 
                l(1) =   0
                l(2) =   0
                l(3) =   1
                l(4) =   1
                l(5) =   2
                l(6) =   2
     Q(r) pseudized with 0 coefficients 


     atomic species   valence    mass     pseudopotential
        Co             9.00    58.93320     Co( 1.00)

     24 Sym. Ops., with inversion, found



   Cartesian axes

     site n.     atom                  positions (alat units)
         1           Co  tau(   1) = (   0.0000000   0.0000000   3.0612245  )

     number of k points=    30  Fermi-Dirac smearing, width (Ry)=  0.0070
                       cart. coord. in units 2pi/alat
        k(    1) = (   0.0000000   0.0000000   0.0000000), wk =   0.0078125
        k(    2) = (   0.0000000   0.0721688   0.0000000), wk =   0.0468750
        k(    3) = (   0.0000000   0.1443376   0.0000000), wk =   0.0468750
        k(    4) = (   0.0000000   0.2165064   0.0000000), wk =   0.0468750
        k(    5) = (   0.0000000   0.2886751   0.0000000), wk =   0.0468750
        k(    6) = (   0.0000000   0.3608439   0.0000000), wk =   0.0468750
        k(    7) = (   0.0000000   0.4330127   0.0000000), wk =   0.0468750
        k(    8) = (   0.0000000   0.5051815   0.0000000), wk =   0.0468750
        k(    9) = (   0.0000000  -0.5773503   0.0000000), wk =   0.0234375
        k(   10) = (   0.0625000   0.1082532   0.0000000), wk =   0.0468750
        k(   11) = (   0.0625000   0.1804220   0.0000000), wk =   0.0937500
        k(   12) = (   0.0625000   0.2525907   0.0000000), wk =   0.0937500
        k(   13) = (   0.0625000   0.3247595   0.0000000), wk =   0.0937500
        k(   14) = (   0.0625000   0.3969283   0.0000000), wk =   0.0937500
        k(   15) = (   0.0625000   0.4690971   0.0000000), wk =   0.0937500
        k(   16) = (   0.0625000  -0.6134347   0.0000000), wk =   0.0937500
        k(   17) = (   0.1250000   0.2165064   0.0000000), wk =   0.0468750
        k(   18) = (   0.1250000   0.2886751   0.0000000), wk =   0.0937500
        k(   19) = (   0.1250000   0.3608439   0.0000000), wk =   0.0937500
        k(   20) = (   0.1250000   0.4330127   0.0000000), wk =   0.0937500
        k(   21) = (   0.1250000  -0.6495191   0.0000000), wk =   0.0937500
        k(   22) = (   0.1250000  -0.5773503   0.0000000), wk =   0.0468750
        k(   23) = (   0.1875000   0.3247595   0.0000000), wk =   0.0468750
        k(   24) = (   0.1875000   0.3969283   0.0000000), wk =   0.0937500
        k(   25) = (   0.1875000  -0.6856034   0.0000000), wk =   0.0937500
        k(   26) = (   0.1875000  -0.6134347   0.0000000), wk =   0.0937500
        k(   27) = (   0.2500000  -0.7216878   0.0000000), wk =   0.0468750
        k(   28) = (   0.2500000  -0.6495191   0.0000000), wk =   0.0937500
        k(   29) = (   0.2500000  -0.5773503   0.0000000), wk =   0.0468750
        k(   30) = (   0.3125000  -0.6134347   0.0000000), wk =   0.0468750

     Dense  grid:    50843 G-vectors     FFT dimensions: (  27,  27, 162)

     Estimated max dynamical RAM per process >      14.82 MB

     Estimated total dynamical RAM >     237.16 MB

     Initial potential from superposition of free atoms

     starting charge       8.9997, renormalised to       9.0000

     negative rho (up, down):  1.492E-04 0.000E+00
     Starting wfcs are    9 randomized atomic wfcs
     Checking if some PAW data can be deallocated... 

     total cpu time spent up to now is        0.3 secs

     Self-consistent Calculation

     iteration #  1     ecut=    80.00 Ry     beta= 0.70
     Davidson diagonalization with overlap
     ethr =  1.00E-02,  avg # of iterations =  5.1

     negative rho (up, down):  1.825E-04 0.000E+00

     total cpu time spent up to now is        0.6 secs

     total energy              =    -161.83256097 Ry
     estimated scf accuracy    <       0.14413172 Ry

     iteration #  2     ecut=    80.00 Ry     beta= 0.70
     Davidson diagonalization with overlap
     ethr =  1.60E-03,  avg # of iterations =  3.6

     negative rho (up, down):  1.284E-04 0.000E+00

     total cpu time spent up to now is        0.9 secs

     total energy              =    -161.72697167 Ry
     estimated scf accuracy    <       1.49486455 Ry

     iteration #  3     ecut=    80.00 Ry     beta= 0.70
     Davidson diagonalization with overlap
     ethr =  1.60E-03,  avg # of iterations =  2.0

     negative rho (up, down):  1.623E-04 0.000E+00

     total cpu time spent up to now is        1.1 secs

     total energy              =    -161.91778488 Ry
     estimated scf accuracy    <       0.00287415 Ry

     iteration #  4     ecut=    80.00 Ry     beta= 0.70
     Davidson diagonalization with overlap
     ethr =  3.19E-05,  avg # of iterations =  6.4

     negative rho (up, down):  1.795E-04 0.000E+00

     total cpu time spent up to now is        1.4 secs

     total energy              =    -161.91839025 Ry
     estimated scf accuracy    <       0.00024051 Ry

     iteration #  5     ecut=    80.00 Ry     beta= 0.70
     Davidson diagonalization with overlap
     ethr =  2.67E-06,  avg # of iterations =  5.1

     negative rho (up, down):  1.911E-04 0.000E+00

     total cpu time spent up to now is        1.6 secs

     total energy              =    -161.91843633 Ry
     estimated scf accuracy    <       0.00004341 Ry

     iteration #  6     ecut=    80.00 Ry     beta= 0.70
     Davidson diagonalization with overlap
     ethr =  4.82E-07,  avg # of iterations =  1.6

     negative rho (up, down):  1.951E-04 0.000E+00

     total cpu time spent up to now is        1.8 secs

     total energy              =    -161.91844342 Ry
     estimated scf accuracy    <       0.00000349 Ry

     iteration #  7     ecut=    80.00 Ry     beta= 0.70
     Davidson diagonalization with overlap
     ethr =  3.87E-08,  avg # of iterations =  1.7

     negative rho (up, down):  1.953E-04 0.000E+00

     total cpu time spent up to now is        2.0 secs

     End of self-consistent calculation

          k = 0.0000 0.0000 0.0000 (  6453 PWs)   bands (ev):

    -8.2268  -4.0508  -3.9561  -3.9561  -2.4368  -2.4368  -1.8192   2.1151
     2.9937

          k = 0.0000 0.0722 0.0000 (  6423 PWs)   bands (ev):

    -8.0791  -4.0139  -3.9998  -3.8884  -2.7675  -2.4511  -1.4060   2.2414
     3.1331

          k = 0.0000 0.1443 0.0000 (  6415 PWs)   bands (ev):

    -7.6487  -4.1454  -3.8735  -3.6920  -3.2283  -2.4916  -0.6884   2.6206
     3.5471

          k = 0.0000 0.2165 0.0000 (  6393 PWs)   bands (ev):

    -6.9886  -4.2902  -3.6753  -3.6470  -3.3883  -2.5519   0.1851   3.2528
     4.2283

          k = 0.0000 0.2887 0.0000 (  6363 PWs)   bands (ev):

    -6.2766  -4.2435  -4.0046  -3.4354  -3.0131  -2.6225   1.2239   4.1382
     5.1677

          k = 0.0000 0.3608 0.0000 (  6330 PWs)   bands (ev):

    -5.9062  -4.2919  -3.6293  -3.1593  -2.6926  -2.6169   2.4417   5.2722
     6.3593

          k = 0.0000 0.4330 0.0000 (  6340 PWs)   bands (ev):

    -5.8991  -4.5020  -3.0667  -2.7515  -2.2708  -2.2620   3.8388   6.5660
     7.5235

          k = 0.0000 0.5052 0.0000 (  6330 PWs)   bands (ev):

    -5.9711  -4.6300  -2.9096  -2.7907  -2.0138  -0.8941   5.3596   5.6787
     8.4450

          k = 0.0000-0.5774 0.0000 (  6346 PWs)   bands (ev):

    -6.0039  -4.6730  -2.8592  -2.8044  -1.9244  -0.1395   4.7355   6.4082
     8.6121

          k = 0.0625 0.1083 0.0000 (  6415 PWs)   bands (ev):

    -7.7894  -4.1077  -3.9200  -3.7489  -3.1055  -2.4812  -0.8956   2.4942
     3.4096

          k = 0.0625 0.1804 0.0000 (  6386 PWs)   bands (ev):

    -7.2368  -4.2720  -3.7563  -3.4981  -3.4806  -2.5392  -0.1394   2.9998
     3.9571

          k = 0.0625 0.2526 0.0000 (  6380 PWs)   bands (ev):

    -6.5124  -4.3928  -3.8577  -3.5349  -3.1075  -2.6152   0.7993   3.7592
     4.7674

          k = 0.0625 0.3248 0.0000 (  6350 PWs)   bands (ev):

    -5.9161  -4.1794  -4.1598  -3.2848  -2.6974  -2.6450   1.9207   4.7718
     5.8348

          k = 0.0625 0.3969 0.0000 (  6361 PWs)   bands (ev):

    -5.7794  -4.3933  -3.4466  -3.0082  -2.7733  -2.0390   3.2286   6.0195
     7.1516

          k = 0.0625 0.4691 0.0000 (  6346 PWs)   bands (ev):

    -5.8494  -4.5518  -2.9925  -2.8313  -2.5605  -1.0563   4.7056   6.5882
     7.7664

          k = 0.0625-0.6134 0.0000 (  6330 PWs)   bands (ev):

    -5.9140  -4.6318  -2.8690  -2.8626  -2.2754   0.0544   5.0505   6.1831
     9.0640

          k = 0.1250 0.2165 0.0000 (  6375 PWs)   bands (ev):

    -6.5942  -4.4619  -3.7939  -3.5711  -3.1154  -2.6254   0.6573   3.6330
     4.6339

          k = 0.1250 0.2887 0.0000 (  6373 PWs)   bands (ev):

    -5.8570  -4.5864  -4.0600  -3.3425  -2.7347  -2.6027   1.6638   4.5205
     5.5695

          k = 0.1250 0.3608 0.0000 (  6358 PWs)   bands (ev):

    -5.4835  -4.2742  -4.2578  -3.1110  -2.8485  -1.9000   2.8713   5.6587
     6.7589

          k = 0.1250 0.4330 0.0000 (  6344 PWs)   bands (ev):

    -5.5454  -4.4282  -3.5719  -2.9476  -2.9190  -0.9091   4.2715   6.9666
     7.9042

          k = 0.1250-0.6495 0.0000 (  6349 PWs)   bands (ev):

    -5.6500  -4.5201  -3.0668  -3.0152  -2.8090   0.3356   5.8136   5.9469
     8.8207

          k = 0.1250-0.5774 0.0000 (  6336 PWs)   bands (ev):

    -5.6912  -4.5505  -3.0392  -2.8435  -2.8240   1.1187   4.8984   6.9173
     8.9287

          k = 0.1875 0.3248 0.0000 (  6353 PWs)   bands (ev):

    -5.1325  -4.7941  -4.2195  -3.1349  -2.8909  -1.8532   2.7544   5.5367
     6.6317

          k = 0.1875 0.3969 0.0000 (  6354 PWs)   bands (ev):

    -5.0753  -4.3495  -4.3251  -3.0550  -2.9593  -0.8177   4.0580   6.7964
     7.9305

          k = 0.1875-0.6856 0.0000 (  6351 PWs)   bands (ev):

    -5.2387  -4.3815  -3.7811  -3.1942  -2.8547   0.5015   5.5539   7.2689
     8.4723

          k = 0.1875-0.6134 0.0000 (  6338 PWs)   bands (ev):

    -5.3295  -4.4028  -3.4466  -3.2754  -2.8295   1.8534   5.4697   7.1056
     9.7662

          k = 0.2500-0.7217 0.0000 (  6369 PWs)   bands (ev):

    -4.8882  -4.3106  -4.2499  -3.2817  -2.8611   0.5523   5.4642   8.1202
     8.9021

          k = 0.2500-0.6495 0.0000 (  6347 PWs)   bands (ev):

    -4.9065  -4.2529  -4.0111  -3.4782  -2.8240   2.1319   6.7735   7.0490
     8.7459

          k = 0.2500-0.5774 0.0000 (  6332 PWs)   bands (ev):

    -4.9286  -4.2152  -3.9015  -3.5642  -2.8204   3.2953   5.3859   8.2848
     8.6602

          k = 0.3125-0.6134 0.0000 (  6344 PWs)   bands (ev):

    -4.6066  -4.2415  -4.0613  -3.7546  -2.8171   3.9106   5.8935   7.2438
     8.6302

     the Fermi energy is    -2.7832 ev

!    total energy              =    -161.91844322 Ry
     total all-electron energy =     -2786.762119 Ry
     estimated scf accuracy    <       0.00000063 Ry
     smearing contrib. (-TS)   =      -0.01158663 Ry
     internal energy E=F+TS    =    -161.90685659 Ry

     The total energy is F=E-TS. E is the sum of the following terms:
     one-electron contribution =    -213.00238440 Ry
     hartree contribution      =     114.26320131 Ry
     xc contribution           =     -32.43499215 Ry
     ewald contribution        =      55.80703861 Ry
     one-center paw contrib.   =     -86.53971997 Ry

     convergence has been achieved in   7 iterations

     negative rho (up, down):  1.953E-04 0.000E+00

     Forces acting on atoms (cartesian axes, Ry/au):

     atom    1 type  1   force =     0.00000000    0.00000000    0.00000000
     The non-local contrib.  to forces
     atom    1 type  1   force =     0.00000000   -0.00000000    0.00000000
     The ionic contribution  to forces
     atom    1 type  1   force =     0.00000000   -0.00000000   -0.00000000
     The local contribution  to forces
     atom    1 type  1   force =     0.00000000    0.00000000    0.00000000
     The core correction contribution to forces
     atom    1 type  1   force =     0.00000000   -0.00000000    0.00000000
     The Hubbard contrib.    to forces
     atom    1 type  1   force =     0.00000000    0.00000000    0.00000000
     The SCF correction term to forces
     atom    1 type  1   force =     0.00000000   -0.00000000    0.00000000

     Total force =     0.000000     Total SCF correction =     0.000000


     Computing stress (Cartesian axis) and pressure


     negative rho (up, down):  1.953E-04 0.000E+00
          total   stress  (Ry/bohr**3)                   (kbar)     P=      -35.05
  -0.00034728   0.00000000   0.00000000          -51.09        0.00        0.00
   0.00000000  -0.00034728   0.00000000            0.00      -51.09        0.00
   0.00000000  -0.00000000  -0.00002018            0.00       -0.00       -2.97


     Writing all to output data dir ./tmp/scf.save/
 
     init_run     :      0.16s CPU      0.24s WALL (       1 calls)
     electrons    :      1.67s CPU      1.71s WALL (       1 calls)
     forces       :      0.04s CPU      0.04s WALL (       1 calls)
     stress       :      0.14s CPU      0.14s WALL (       1 calls)

     Called by init_run:
     wfcinit      :      0.04s CPU      0.05s WALL (       1 calls)
     potinit      :      0.04s CPU      0.05s WALL (       1 calls)
     hinit0       :      0.06s CPU      0.11s WALL (       1 calls)

     Called by electrons:
     c_bands      :      1.12s CPU      1.14s WALL (       7 calls)
     sum_band     :      0.21s CPU      0.23s WALL (       7 calls)
     v_of_rho     :      0.02s CPU      0.02s WALL (       8 calls)
     newd         :      0.07s CPU      0.07s WALL (       8 calls)
     PAW_pot      :      0.28s CPU      0.29s WALL (       8 calls)
     mix_rho      :      0.00s CPU      0.00s WALL (       7 calls)

     Called by c_bands:
     init_us_2    :      0.03s CPU      0.03s WALL (     510 calls)
     init_us_2:cp :      0.03s CPU      0.03s WALL (     510 calls)
     cegterg      :      0.83s CPU      0.85s WALL (     210 calls)

     Called by *egterg:
     cdiaghg      :      0.08s CPU      0.08s WALL (     979 calls)
     h_psi        :      0.70s CPU      0.72s WALL (    1009 calls)
     s_psi        :      0.01s CPU      0.01s WALL (    1009 calls)
     g_psi        :      0.00s CPU      0.00s WALL (     769 calls)

     Called by h_psi:
     h_psi:calbec :      0.03s CPU      0.03s WALL (    1009 calls)
     vloc_psi     :      0.65s CPU      0.67s WALL (    1009 calls)
     add_vuspsi   :      0.01s CPU      0.01s WALL (    1009 calls)

     General routines
     calbec       :      0.04s CPU      0.04s WALL (    1369 calls)
     fft          :      0.02s CPU      0.07s WALL (     113 calls)
     ffts         :      0.00s CPU      0.00s WALL (       7 calls)
     fftw         :      0.69s CPU      0.72s WALL (   12566 calls)
 
     Parallel routines
 
     PWSCF        :      2.11s CPU      2.28s WALL

 
   This run was terminated on:  12:39: 6   5Jun2025            

=------------------------------------------------------------------------------=
   JOB DONE.
=------------------------------------------------------------------------------=
