
     Program PWSCF v.7.2 starts on 23Jul2025 at 13:43:58 

     This program is part of the open-source Quantum ESPRESSO suite
     for quantum simulation of materials; please cite
         "P. Giannozzi et al., J. Phys.:Condens. Matter 21 395502 (2009);
         "P. Giannozzi et al., J. Phys.:Condens. Matter 29 465901 (2017);
         "P. Giannozzi et al., J. Chem. Phys. 152 154105 (2020);
          URL http://www.quantum-espresso.org", 
     in publications or presentations arising from this work. More details at
     http://www.quantum-espresso.org/quote

     Parallel version (MPI), running on    16 processors

     MPI processes distributed on     1 nodes
     11473 MiB available memory on the printing compute node when the environment starts
 
     Waiting for input...
     Reading input from standard input

     Current dimensions of program PWSCF are:
     Max number of different atomic species (ntypx) = 10
     Max number of k-points (npk) =  40000
     Max angular momentum in pseudopotentials (lmaxx) =  4
     file Mo.pbe-spn-kjpaw_psl.1.0.0.UPF: wavefunction(s)  4S 4D renormalized
     file S.pbe-n-kjpaw_psl.1.0.0.UPF: wavefunction(s)  3S 3P renormalized
     file Co.pbe-n-kjpaw_psl.1.0.0.UPF: wavefunction(s)  4S 3D renormalized
 
     R & G space division:  proc/nbgrp/npool/nimage =      16
     Subspace diagonalization in iterative solution of the eigenvalue problem:
     a serial algorithm will be used

 
     Parallelization info
     --------------------
     sticks:   dense  smooth     PW     G-vecs:    dense   smooth      PW
     Min         108      42     13                28601     7220    1267
     Max         110      43     14                28616     7259    1300
     Sum        1735     685    211               457675   115763   20511
 
     Using Slab Decomposition
 


     bravais-lattice index     =            0
     lattice parameter (alat)  =       5.9812  a.u.
     unit-cell volume          =    1463.6779 (a.u.)^3
     number of atoms/cell      =            4
     number of atomic types    =            3
     number of electrons       =        35.00
     number of Kohn-Sham states=           22
     kinetic-energy cutoff     =      70.0000  Ry
     charge density cutoff     =     700.0000  Ry
     scf convergence threshold =      1.0E-06
     mixing beta               =       0.7000
     number of iterations used =            8  plain     mixing
     Exchange-correlation= SLA  PW   PBX  PBC
                           (   1   4   3   4   0   0   0)

     celldm(1)=   5.981197  celldm(2)=   0.000000  celldm(3)=   0.000000
     celldm(4)=   0.000000  celldm(5)=   0.000000  celldm(6)=   0.000000

     crystal axes: (cart. coord. in units of alat)
               a(1) = (   1.000000   0.000000   0.000000 )  
               a(2) = (  -0.500000   0.866025   0.000000 )  
               a(3) = (   0.000000   0.000000   7.898612 )  

     reciprocal axes: (cart. coord. in units 2 pi/alat)
               b(1) = (  1.000000  0.577351  0.000000 )  
               b(2) = (  0.000000  1.154701  0.000000 )  
               b(3) = (  0.000000  0.000000  0.126605 )  


     PseudoPot. # 1 for Mo read from file:
     /shared/ESPRESSO/PSLIBRARY/1.0.0/pbe/PSEUDOPOTENTIALS/Mo.pbe-spn-kjpaw_psl.1.0.0.UPF
     MD5 check sum: 4396e0c640fcce5c25f020efccf1ab12
     Pseudo is Projector augmented-wave + core cor, Zval = 14.0
     Generated using &quot;atomic&quot; code by A. Dal Corso  v.6.3
     Shape of augmentation charge: PSQ
     Using radial grid of 1229 points,  6 beta functions with: 
                l(1) =   0
                l(2) =   0
                l(3) =   1
                l(4) =   1
                l(5) =   2
                l(6) =   2
     Q(r) pseudized with 0 coefficients 


     PseudoPot. # 2 for S  read from file:
     /shared/ESPRESSO/PSLIBRARY/1.0.0/pbe/PSEUDOPOTENTIALS/S.pbe-n-kjpaw_psl.1.0.0.UPF
     MD5 check sum: c08f931834bcc19553f8bde8f1a3adc5
     Pseudo is Projector augmented-wave + core cor, Zval =  6.0
     Generated using "atomic" code by A. Dal Corso  (Quantum ESPRESSO distribution)
     Shape of augmentation charge: PSQ
     Using radial grid of 1151 points,  6 beta functions with: 
                l(1) =   0
                l(2) =   0
                l(3) =   1
                l(4) =   1
                l(5) =   2
                l(6) =   2
     Q(r) pseudized with 0 coefficients 


     PseudoPot. # 3 for Co read from file:
     /shared/ESPRESSO/PSLIBRARY/1.0.0/pbe/PSEUDOPOTENTIALS/Co.pbe-n-kjpaw_psl.1.0.0.UPF
     MD5 check sum: 17e7ab8db721b244d1352252ea6cb8e7
     Pseudo is Projector augmented-wave + core cor, Zval =  9.0
     Generated using "atomic" code by A. Dal Corso  (Quantum ESPRESSO distribution)
     Shape of augmentation charge: PSQ
     Using radial grid of 1193 points,  6 beta functions with: 
                l(1) =   0
                l(2) =   0
                l(3) =   1
                l(4) =   1
                l(5) =   2
                l(6) =   2
     Q(r) pseudized with 0 coefficients 


     atomic species   valence    mass     pseudopotential
        Mo            14.00    95.94000     Mo( 1.00)
        S              6.00    32.06500     S ( 1.00)
        Co             9.00    58.93320     Co( 1.00)

     Starting magnetic structure 
     atomic species   magnetization
        Mo           0.000
        S            0.000
        Co           0.800

     No symmetry found



   Cartesian axes

     site n.     atom                  positions (alat units)
         1           Mo  tau(   1) = (   0.0000000   0.0000000   3.0578643  )
         2           S   tau(   2) = (   0.5000000   0.2886750   3.6010876  )
         3           S   tau(   3) = (   0.5000000   0.2886750   2.5702797  )
         4           Co  tau(   4) = (   0.0000000   0.0000000   3.9034939  )

     --------------------------------------------
     DFT-D3 Dispersion Correction (3-body terms):
     --------------------------------------------
       Reference C6 values for interpolation: 

         atom   Coordination number   C6
         S          0.000           268.01
         S          0.995           261.99
         S          1.990           251.62
         Co         0.000          1065.56
         Co         1.715           373.09
         Co         2.926           296.13
         Co         7.779           236.57
         Mo         0.000          1691.79
         Mo         1.942          1004.01
         Mo        11.056           674.22

       Values used:

         atom   Coordination number  R0_AB[au]  C6      C8
         Mo        10.952            3.547    674.22  77634.20
         S          6.609            3.128    251.62  12327.25
         S          3.685            3.128    251.62  12327.25
         Co         4.404            3.243    296.13  26037.62

         Molecular C6 ( Ry / a.u.^6 ) =      5593.57


     number of k points=    52  Gaussian smearing, width (Ry)=  0.0073
                       cart. coord. in units 2pi/alat
        k(    1) = (   0.0000000   0.0000000   0.0000000), wk =   0.0100000
        k(    2) = (   0.0000000   0.1154701   0.0000000), wk =   0.0200000
        k(    3) = (   0.0000000   0.2309402   0.0000000), wk =   0.0200000
        k(    4) = (   0.0000000   0.3464103   0.0000000), wk =   0.0200000
        k(    5) = (   0.0000000   0.4618804   0.0000000), wk =   0.0200000
        k(    6) = (   0.0000000  -0.5773505   0.0000000), wk =   0.0100000
        k(    7) = (   0.1000000   0.0577351   0.0000000), wk =   0.0200000
        k(    8) = (   0.1000000   0.1732052   0.0000000), wk =   0.0200000
        k(    9) = (   0.1000000   0.2886753   0.0000000), wk =   0.0200000
        k(   10) = (   0.1000000   0.4041454   0.0000000), wk =   0.0200000
        k(   11) = (   0.1000000   0.5196155   0.0000000), wk =   0.0200000
        k(   12) = (   0.1000000  -0.5196155   0.0000000), wk =   0.0200000
        k(   13) = (   0.1000000  -0.4041454   0.0000000), wk =   0.0200000
        k(   14) = (   0.1000000  -0.2886753   0.0000000), wk =   0.0200000
        k(   15) = (   0.1000000  -0.1732052   0.0000000), wk =   0.0200000
        k(   16) = (   0.1000000  -0.0577351   0.0000000), wk =   0.0200000
        k(   17) = (   0.2000000   0.1154701   0.0000000), wk =   0.0200000
        k(   18) = (   0.2000000   0.2309402   0.0000000), wk =   0.0200000
        k(   19) = (   0.2000000   0.3464103   0.0000000), wk =   0.0200000
        k(   20) = (   0.2000000   0.4618804   0.0000000), wk =   0.0200000
        k(   21) = (   0.2000000   0.5773505   0.0000000), wk =   0.0200000
        k(   22) = (   0.2000000  -0.4618804   0.0000000), wk =   0.0200000
        k(   23) = (   0.2000000  -0.3464103   0.0000000), wk =   0.0200000
        k(   24) = (   0.2000000  -0.2309402   0.0000000), wk =   0.0200000
        k(   25) = (   0.2000000  -0.1154701   0.0000000), wk =   0.0200000
        k(   26) = (   0.2000000   0.0000000   0.0000000), wk =   0.0200000
        k(   27) = (   0.3000000   0.1732052   0.0000000), wk =   0.0200000
        k(   28) = (   0.3000000   0.2886753   0.0000000), wk =   0.0200000
        k(   29) = (   0.3000000   0.4041454   0.0000000), wk =   0.0200000
        k(   30) = (   0.3000000   0.5196155   0.0000000), wk =   0.0200000
        k(   31) = (   0.3000000   0.6350856   0.0000000), wk =   0.0200000
        k(   32) = (   0.3000000  -0.4041454   0.0000000), wk =   0.0200000
        k(   33) = (   0.3000000  -0.2886753   0.0000000), wk =   0.0200000
        k(   34) = (   0.3000000  -0.1732052   0.0000000), wk =   0.0200000
        k(   35) = (   0.3000000  -0.0577351   0.0000000), wk =   0.0200000
        k(   36) = (   0.3000000   0.0577351   0.0000000), wk =   0.0200000
        k(   37) = (   0.4000000   0.2309402   0.0000000), wk =   0.0200000
        k(   38) = (   0.4000000   0.3464103   0.0000000), wk =   0.0200000
        k(   39) = (   0.4000000   0.4618804   0.0000000), wk =   0.0200000
        k(   40) = (   0.4000000   0.5773505   0.0000000), wk =   0.0200000
        k(   41) = (   0.4000000   0.6928206   0.0000000), wk =   0.0200000
        k(   42) = (   0.4000000  -0.3464103   0.0000000), wk =   0.0200000
        k(   43) = (   0.4000000  -0.2309402   0.0000000), wk =   0.0200000
        k(   44) = (   0.4000000  -0.1154701   0.0000000), wk =   0.0200000
        k(   45) = (   0.4000000   0.0000000   0.0000000), wk =   0.0200000
        k(   46) = (   0.4000000   0.1154701   0.0000000), wk =   0.0200000
        k(   47) = (  -0.5000000  -0.2886753   0.0000000), wk =   0.0100000
        k(   48) = (  -0.5000000  -0.1732052   0.0000000), wk =   0.0200000
        k(   49) = (  -0.5000000  -0.0577351   0.0000000), wk =   0.0200000
        k(   50) = (  -0.5000000   0.0577351   0.0000000), wk =   0.0200000
        k(   51) = (  -0.5000000   0.1732052   0.0000000), wk =   0.0200000
        k(   52) = (  -0.5000000  -0.8660258   0.0000000), wk =   0.0100000

     Dense  grid:   457675 G-vectors     FFT dimensions: (  54,  54, 400)

     Smooth grid:   115763 G-vectors     FFT dimensions: (  32,  32, 256)

     Estimated max dynamical RAM per process >     157.60 MB

     Estimated total dynamical RAM >       2.46 GB
     Generating pointlists ...
     new r_m :   0.3117 (alat units)  1.8645 (a.u.) for type    1
     new r_m :   0.2688 (alat units)  1.6080 (a.u.) for type    2
     new r_m :   0.2688 (alat units)  1.6080 (a.u.) for type    3

     Initial potential from superposition of free atoms

     starting charge      34.9988, renormalised to      35.0000

     negative rho (up, down):  4.485E-05 4.167E-05
     Starting wfcs are   27 randomized atomic wfcs
     Checking if some PAW data can be deallocated... 

     total cpu time spent up to now is        2.9 secs

     Self-consistent Calculation

     iteration #  1     ecut=    70.00 Ry     beta= 0.70
     Davidson diagonalization with overlap
     ethr =  1.00E-02,  avg # of iterations =  2.3

     negative rho (up, down):  1.305E-06 1.269E-06

     total cpu time spent up to now is        7.7 secs

     total energy              =    -658.36086650 Ry
     estimated scf accuracy    <       0.71011107 Ry

     total magnetization       =     2.02 Bohr mag/cell
     absolute magnetization    =     2.47 Bohr mag/cell

     iteration #  2     ecut=    70.00 Ry     beta= 0.70
     Davidson diagonalization with overlap
     ethr =  2.03E-03,  avg # of iterations =  9.1

     negative rho (up, down):  1.088E-06 1.087E-06

     total cpu time spent up to now is       14.4 secs

     total energy              =    -656.82131008 Ry
     estimated scf accuracy    <      29.93339657 Ry

     total magnetization       =     0.66 Bohr mag/cell
     absolute magnetization    =     0.94 Bohr mag/cell

     iteration #  3     ecut=    70.00 Ry     beta= 0.70
     Davidson diagonalization with overlap
     ethr =  2.03E-03,  avg # of iterations =  8.7

     negative rho (up, down):  2.030E-07 1.347E-06

     total cpu time spent up to now is       21.2 secs

     total energy              =    -657.71923114 Ry
     estimated scf accuracy    <      14.69430655 Ry

     total magnetization       =     2.47 Bohr mag/cell
     absolute magnetization    =     3.40 Bohr mag/cell

     iteration #  4     ecut=    70.00 Ry     beta= 0.70
     Davidson diagonalization with overlap
     ethr =  2.03E-03,  avg # of iterations =  3.8

     negative rho (up, down):  4.754E-07 1.150E-05

     total cpu time spent up to now is       26.3 secs

     total energy              =    -658.67383343 Ry
     estimated scf accuracy    <       1.84272854 Ry

     total magnetization       =     0.90 Bohr mag/cell
     absolute magnetization    =     1.16 Bohr mag/cell

     iteration #  5     ecut=    70.00 Ry     beta= 0.70
     Davidson diagonalization with overlap
     ethr =  2.03E-03,  avg # of iterations =  1.1

     negative rho (up, down):  1.554E-06 1.791E-05

     total cpu time spent up to now is       30.5 secs

     total energy              =    -658.68154902 Ry
     estimated scf accuracy    <       0.34421780 Ry

     total magnetization       =     1.00 Bohr mag/cell
     absolute magnetization    =     1.15 Bohr mag/cell

     iteration #  6     ecut=    70.00 Ry     beta= 0.70
     Davidson diagonalization with overlap
     ethr =  9.83E-04,  avg # of iterations =  1.2

     negative rho (up, down):  4.290E-06 2.278E-05

     total cpu time spent up to now is       34.7 secs

     total energy              =    -658.69046212 Ry
     estimated scf accuracy    <       0.13974716 Ry

     total magnetization       =     0.97 Bohr mag/cell
     absolute magnetization    =     1.08 Bohr mag/cell

     iteration #  7     ecut=    70.00 Ry     beta= 0.70
     Davidson diagonalization with overlap
     ethr =  3.99E-04,  avg # of iterations =  1.6

     negative rho (up, down):  8.456E-06 2.792E-05

     total cpu time spent up to now is       38.9 secs

     total energy              =    -658.69620761 Ry
     estimated scf accuracy    <       0.03158565 Ry

     total magnetization       =     0.91 Bohr mag/cell
     absolute magnetization    =     1.04 Bohr mag/cell

     iteration #  8     ecut=    70.00 Ry     beta= 0.70
     Davidson diagonalization with overlap
     ethr =  9.02E-05,  avg # of iterations =  3.5

     negative rho (up, down):  1.266E-03 1.268E-03

     total cpu time spent up to now is       43.6 secs

     total energy              =    -658.70049146 Ry
     estimated scf accuracy    <       0.00400702 Ry

     total magnetization       =     0.87 Bohr mag/cell
     absolute magnetization    =     0.98 Bohr mag/cell

     iteration #  9     ecut=    70.00 Ry     beta= 0.70
     Davidson diagonalization with overlap
     ethr =  1.14E-05,  avg # of iterations =  5.2

     negative rho (up, down):  1.955E-03 1.926E-03

     total cpu time spent up to now is       48.8 secs

     total energy              =    -658.70146343 Ry
     estimated scf accuracy    <       0.00254919 Ry

     total magnetization       =     0.73 Bohr mag/cell
     absolute magnetization    =     0.83 Bohr mag/cell

     iteration # 10     ecut=    70.00 Ry     beta= 0.70
     Davidson diagonalization with overlap
     ethr =  7.28E-06,  avg # of iterations =  2.3

     negative rho (up, down):  1.310E-03 1.254E-03

     total cpu time spent up to now is       53.3 secs

     total energy              =    -658.70152804 Ry
     estimated scf accuracy    <       0.00191664 Ry

     total magnetization       =     0.59 Bohr mag/cell
     absolute magnetization    =     0.67 Bohr mag/cell

     iteration # 11     ecut=    70.00 Ry     beta= 0.70
     Davidson diagonalization with overlap
     ethr =  5.48E-06,  avg # of iterations =  3.8

     negative rho (up, down):  1.104E-04 1.093E-04

     total cpu time spent up to now is       58.0 secs

     total energy              =    -658.70101840 Ry
     estimated scf accuracy    <       0.00067532 Ry

     total magnetization       =     0.45 Bohr mag/cell
     absolute magnetization    =     0.52 Bohr mag/cell

     iteration # 12     ecut=    70.00 Ry     beta= 0.70
     Davidson diagonalization with overlap
     ethr =  1.93E-06,  avg # of iterations =  7.7

     negative rho (up, down):  7.434E-05 7.560E-05

     total cpu time spent up to now is       64.1 secs

     total energy              =    -658.70213123 Ry
     estimated scf accuracy    <       0.00017548 Ry

     total magnetization       =     0.25 Bohr mag/cell
     absolute magnetization    =     0.28 Bohr mag/cell

     iteration # 13     ecut=    70.00 Ry     beta= 0.70
     Davidson diagonalization with overlap
     ethr =  5.01E-07,  avg # of iterations =  2.8

     negative rho (up, down):  5.731E-05 5.495E-05

     total cpu time spent up to now is       68.7 secs

     total energy              =    -658.70209766 Ry
     estimated scf accuracy    <       0.00002857 Ry

     total magnetization       =     0.29 Bohr mag/cell
     absolute magnetization    =     0.32 Bohr mag/cell

     iteration # 14     ecut=    70.00 Ry     beta= 0.70
     Davidson diagonalization with overlap
     ethr =  8.16E-08,  avg # of iterations =  5.0

     negative rho (up, down):  4.969E-05 4.789E-05

     total cpu time spent up to now is       74.3 secs

     total energy              =    -658.70227645 Ry
     estimated scf accuracy    <       0.00004609 Ry

     total magnetization       =     0.19 Bohr mag/cell
     absolute magnetization    =     0.22 Bohr mag/cell

     iteration # 15     ecut=    70.00 Ry     beta= 0.70
     Davidson diagonalization with overlap
     ethr =  8.16E-08,  avg # of iterations =  2.6

     negative rho (up, down):  4.911E-05 4.817E-05

     total cpu time spent up to now is       78.8 secs

     total energy              =    -658.70227666 Ry
     estimated scf accuracy    <       0.00001766 Ry

     total magnetization       =     0.16 Bohr mag/cell
     absolute magnetization    =     0.18 Bohr mag/cell

     iteration # 16     ecut=    70.00 Ry     beta= 0.70
     Davidson diagonalization with overlap
     ethr =  5.05E-08,  avg # of iterations =  4.4

     negative rho (up, down):  5.267E-05 5.188E-05

     total cpu time spent up to now is       84.0 secs

     total energy              =    -658.70229870 Ry
     estimated scf accuracy    <       0.00000147 Ry

     total magnetization       =     0.12 Bohr mag/cell
     absolute magnetization    =     0.13 Bohr mag/cell

     iteration # 17     ecut=    70.00 Ry     beta= 0.70
     Davidson diagonalization with overlap
     ethr =  4.21E-09,  avg # of iterations =  5.5

     negative rho (up, down):  5.214E-05 5.148E-05

     total cpu time spent up to now is       90.1 secs

     total energy              =    -658.70230948 Ry
     estimated scf accuracy    <       0.00000458 Ry

     total magnetization       =     0.08 Bohr mag/cell
     absolute magnetization    =     0.09 Bohr mag/cell

     iteration # 18     ecut=    70.00 Ry     beta= 0.70
     Davidson diagonalization with overlap
     ethr =  4.21E-09,  avg # of iterations =  4.7

     negative rho (up, down):  5.151E-05 5.118E-05

     total cpu time spent up to now is       95.8 secs

     total energy              =    -658.70232040 Ry
     estimated scf accuracy    <       0.00000315 Ry

     total magnetization       =     0.06 Bohr mag/cell
     absolute magnetization    =     0.06 Bohr mag/cell

     iteration # 19     ecut=    70.00 Ry     beta= 0.70
     Davidson diagonalization with overlap
     ethr =  4.21E-09,  avg # of iterations =  3.8

     negative rho (up, down):  5.095E-05 5.086E-05
 
     Magnetic moment per site  (integrated on atomic sphere of radius R)
     atom   1 (R=0.312)  charge= 10.7202  magn=  0.0079
     atom   2 (R=0.269)  charge=  3.1991  magn=  0.0002
     atom   3 (R=0.269)  charge=  3.0930  magn=  0.0006
     atom   4 (R=0.269)  charge=  6.8201  magn=  0.0296

     total cpu time spent up to now is      100.7 secs

     End of self-consistent calculation

     Number of k-points >= 100: set verbosity='high' to print the bands.

     the Fermi energy is    -0.0158 ev

!    total energy              =    -658.70232312 Ry
     total all-electron energy =    -12481.876214 Ry
     estimated scf accuracy    <       0.00000086 Ry
     smearing contrib. (-TS)   =      -0.00128040 Ry
     internal energy E=F+TS    =    -658.70104272 Ry

     The total energy is F=E-TS. E is the sum of the following terms:
     one-electron contribution =   -2428.17862067 Ry
     hartree contribution      =    1225.00193506 Ry
     xc contribution           =     -62.60924844 Ry
     ewald contribution        =    1013.30709610 Ry
     DFT-D3 Dispersion         =      -0.06974793 Ry
     one-center paw contrib.   =    -406.15245684 Ry

     total magnetization       =     0.04 Bohr mag/cell
     absolute magnetization    =     0.05 Bohr mag/cell

     convergence has been achieved in  19 iterations

     negative rho (up, down):  5.095E-05 5.086E-05

     Forces acting on atoms (cartesian axes, Ry/au):

     atom    1 type  1   force =     0.00000007    0.00000140   -0.00013290
     atom    2 type  2   force =    -0.00000066    0.00000201   -0.00064177
     atom    3 type  2   force =    -0.00000022    0.00000111   -0.00047662
     atom    4 type  3   force =     0.00000081   -0.00000452    0.00125129
     The non-local contrib.  to forces
     atom    1 type  1   force =    -0.00000021   -0.00000022   -0.06726215
     atom    2 type  2   force =     0.00000018   -0.00000038   -0.08813592
     atom    3 type  2   force =    -0.00000032   -0.00000022    0.26016001
     atom    4 type  3   force =    -0.00000035   -0.00000665    0.00536466
     The ionic contribution  to forces
     atom    1 type  1   force =     0.00000000    0.00000452  -41.17485529
     atom    2 type  2   force =    -0.00000000   -0.00000601   23.59948379
     atom    3 type  2   force =    -0.00000000   -0.00000261  -52.58388555
     atom    4 type  3   force =     0.00000000    0.00000410   70.15925705
     The local contribution  to forces
     atom    1 type  1   force =     0.00000206   -0.00000488   41.22971095
     atom    2 type  2   force =    -0.00000080    0.00000725  -23.51658194
     atom    3 type  2   force =     0.00000045    0.00000267   52.32182497
     atom    4 type  3   force =     0.00000034   -0.00000155  -70.11441779
     The core correction contribution to forces
     atom    1 type  1   force =     0.00000002    0.00000001    0.00441868
     atom    2 type  2   force =    -0.00000001    0.00000005    0.00371148
     atom    3 type  2   force =     0.00000001    0.00000001   -0.00190795
     atom    4 type  3   force =    -0.00000003    0.00000007   -0.04351762
     The Hubbard contrib.    to forces
     atom    1 type  1   force =     0.00000000    0.00000000    0.00000000
     atom    2 type  2   force =     0.00000000    0.00000000    0.00000000
     atom    3 type  2   force =     0.00000000    0.00000000    0.00000000
     atom    4 type  3   force =     0.00000000    0.00000000    0.00000000
     The SCF correction term to forces
     atom    1 type  1   force =    -0.00000165    0.00000075    0.00247108
     atom    2 type  2   force =     0.00000012   -0.00000014    0.00193130
     atom    3 type  2   force =    -0.00000022    0.00000003    0.00021894
     atom    4 type  3   force =     0.00000100   -0.00000172    0.00258274

     DFT-D3 dispersion contribution to forces:
     atom    1 type  1   force =     0.00000000   -0.00000000    0.00552670
     atom    2 type  2   force =    -0.00000000    0.00000000   -0.00090762
     atom    3 type  2   force =    -0.00000000    0.00000000    0.00325582
     atom    4 type  3   force =     0.00000000   -0.00000000   -0.00787490

     Total force =     0.001491     Total SCF correction =     0.004069
     SCF correction compared to forces is large: reduce conv_thr to get better values


     Computing stress (Cartesian axis) and pressure


     negative rho (up, down):  5.095E-05 5.086E-05
          total   stress  (Ry/bohr**3)                   (kbar)     P=        3.39
   0.00003670   0.00000000   0.00000000            5.40        0.00        0.00
   0.00000000   0.00003671  -0.00000000            0.00        5.40       -0.00
   0.00000000  -0.00000000  -0.00000431            0.00       -0.00       -0.63


     Writing all to output data dir ./tmp/pwscf.save/
 
     init_run     :      2.20s CPU      2.53s WALL (       1 calls)
     electrons    :     90.68s CPU     97.81s WALL (       1 calls)
     forces       :      1.19s CPU      1.32s WALL (       1 calls)
     force_dftd3  :      0.02s CPU      0.02s WALL (       1 calls)
     stress       :      5.69s CPU      6.16s WALL (       1 calls)
     stres_dftd3  :      0.02s CPU      0.02s WALL (       1 calls)

     Called by init_run:
     wfcinit      :      0.87s CPU      0.95s WALL (       1 calls)
     potinit      :      0.48s CPU      0.51s WALL (       1 calls)
     hinit0       :      0.57s CPU      0.65s WALL (       1 calls)

     Called by electrons:
     c_bands      :     68.00s CPU     70.17s WALL (      19 calls)
     sum_band     :     14.88s CPU     17.54s WALL (      19 calls)
     v_of_rho     :      1.36s CPU      1.53s WALL (      20 calls)
     newd         :      4.33s CPU      6.56s WALL (      20 calls)
     PAW_pot      :      2.18s CPU      2.22s WALL (      20 calls)
     mix_rho      :      0.21s CPU      0.21s WALL (      19 calls)
     energy_dftd3 :      0.01s CPU      0.01s WALL (       1 calls)

     Called by c_bands:
     init_us_2    :      1.38s CPU      1.42s WALL (    4264 calls)
     init_us_2:cp :      1.37s CPU      1.41s WALL (    4264 calls)
     cegterg      :     45.60s CPU     47.66s WALL (    1976 calls)

     Called by *egterg:
     cdiaghg      :      4.11s CPU      4.23s WALL (   10177 calls)
     h_psi        :     33.48s CPU     35.23s WALL (   10281 calls)
     s_psi        :      1.32s CPU      1.37s WALL (   10281 calls)
     g_psi        :      0.16s CPU      0.17s WALL (    8201 calls)

     Called by h_psi:
     h_psi:calbec :      3.55s CPU      3.70s WALL (   10281 calls)
     vloc_psi     :     27.68s CPU     29.18s WALL (   10281 calls)
     add_vuspsi   :      1.88s CPU      1.96s WALL (   10281 calls)

     General routines
     calbec       :      4.41s CPU      4.60s WALL (   12777 calls)
     fft          :      0.82s CPU      1.08s WALL (     538 calls)
     ffts         :      0.01s CPU      0.01s WALL (      78 calls)
     fftw         :     21.23s CPU     22.47s WALL (  287584 calls)
     interpolate  :      0.06s CPU      0.06s WALL (      40 calls)
 
     Parallel routines
 
     PWSCF        :   1m40.23s CPU   1m48.94s WALL

 
   This run was terminated on:  13:45:47  23Jul2025            

=------------------------------------------------------------------------------=
   JOB DONE.
=------------------------------------------------------------------------------=
