
     Program PWSCF v.7.2 starts on 24Jul2025 at 15: 4: 3 

     This program is part of the open-source Quantum ESPRESSO suite
     for quantum simulation of materials; please cite
         "P. Giannozzi et al., J. Phys.:Condens. Matter 21 395502 (2009);
         "P. Giannozzi et al., J. Phys.:Condens. Matter 29 465901 (2017);
         "P. Giannozzi et al., J. Chem. Phys. 152 154105 (2020);
          URL http://www.quantum-espresso.org", 
     in publications or presentations arising from this work. More details at
     http://www.quantum-espresso.org/quote

     Parallel version (MPI), running on    16 processors

     MPI processes distributed on     1 nodes
     16849 MiB available memory on the printing compute node when the environment starts
 
     Waiting for input...
     Reading input from standard input

     Current dimensions of program PWSCF are:
     Max number of different atomic species (ntypx) = 10
     Max number of k-points (npk) =  40000
     Max angular momentum in pseudopotentials (lmaxx) =  4
     file Mo.pbe-spn-kjpaw_psl.1.0.0.UPF: wavefunction(s)  4S 4D renormalized
     file S.pbe-n-kjpaw_psl.1.0.0.UPF: wavefunction(s)  3S 3P renormalized
 
     R & G space division:  proc/nbgrp/npool/nimage =      16
     Subspace diagonalization in iterative solution of the eigenvalue problem:
     a serial algorithm will be used

 
     Parallelization info
     --------------------
     sticks:   dense  smooth     PW     G-vecs:    dense   smooth      PW
     Min         108      42     13                21751     5486     933
     Max         110      43     14                21762     5513     952
     Sum        1735     685    211               348105    87947   15089
 
     Using Slab Decomposition
 


     bravais-lattice index     =            0
     lattice parameter (alat)  =       5.9812  a.u.
     unit-cell volume          =    1112.3952 (a.u.)^3
     number of atoms/cell      =            3
     number of atomic types    =            2
     number of electrons       =        26.00
     number of Kohn-Sham states=           17
     kinetic-energy cutoff     =      70.0000  Ry
     charge density cutoff     =     700.0000  Ry
     scf convergence threshold =      1.0E-06
     mixing beta               =       0.7000
     number of iterations used =            8  plain     mixing
     Exchange-correlation= SLA  PW   PBX  PBC
                           (   1   4   3   4   0   0   0)

     celldm(1)=   5.981197  celldm(2)=   0.000000  celldm(3)=   0.000000
     celldm(4)=   0.000000  celldm(5)=   0.000000  celldm(6)=   0.000000

     crystal axes: (cart. coord. in units of alat)
               a(1) = (   1.000000   0.000000   0.000000 )  
               a(2) = (  -0.500000   0.866025   0.000000 )  
               a(3) = (   0.000000   0.000000   6.002945 )  

     reciprocal axes: (cart. coord. in units 2 pi/alat)
               b(1) = (  1.000000  0.577351  0.000000 )  
               b(2) = (  0.000000  1.154701  0.000000 )  
               b(3) = (  0.000000  0.000000  0.166585 )  


     PseudoPot. # 1 for Mo read from file:
     /shared/ESPRESSO/PSLIBRARY/1.0.0/pbe/PSEUDOPOTENTIALS/Mo.pbe-spn-kjpaw_psl.1.0.0.UPF
     MD5 check sum: 4396e0c640fcce5c25f020efccf1ab12
     Pseudo is Projector augmented-wave + core cor, Zval = 14.0
     Generated using &quot;atomic&quot; code by A. Dal Corso  v.6.3
     Shape of augmentation charge: PSQ
     Using radial grid of 1229 points,  6 beta functions with: 
                l(1) =   0
                l(2) =   0
                l(3) =   1
                l(4) =   1
                l(5) =   2
                l(6) =   2
     Q(r) pseudized with 0 coefficients 


     PseudoPot. # 2 for S  read from file:
     /shared/ESPRESSO/PSLIBRARY/1.0.0/pbe/PSEUDOPOTENTIALS/S.pbe-n-kjpaw_psl.1.0.0.UPF
     MD5 check sum: c08f931834bcc19553f8bde8f1a3adc5
     Pseudo is Projector augmented-wave + core cor, Zval =  6.0
     Generated using "atomic" code by A. Dal Corso  (Quantum ESPRESSO distribution)
     Shape of augmentation charge: PSQ
     Using radial grid of 1151 points,  6 beta functions with: 
                l(1) =   0
                l(2) =   0
                l(3) =   1
                l(4) =   1
                l(5) =   2
                l(6) =   2
     Q(r) pseudized with 0 coefficients 


     atomic species   valence    mass     pseudopotential
        Mo            14.00    95.94000     Mo( 1.00)
        S              6.00    32.06500     S ( 1.00)

     No symmetry found



   Cartesian axes

     site n.     atom                  positions (alat units)
         1           Mo  tau(   1) = (   0.0000000   0.0000000   3.0014725  )
         2           S   tau(   2) = (   0.5000000   0.2886750   3.4964188  )
         3           S   tau(   3) = (   0.5000000   0.2886750   2.5065262  )

     --------------------------------------------
     DFT-D3 Dispersion Correction (3-body terms):
     --------------------------------------------
       Reference C6 values for interpolation: 

         atom   Coordination number   C6
         S          0.000           268.01
         S          0.995           261.99
         S          1.990           251.62
         Mo         0.000          1691.79
         Mo         1.942          1004.01
         Mo        11.056           674.22

       Values used:

         atom   Coordination number  R0_AB[au]  C6      C8
         Mo        10.084            3.547    674.22  77634.20
         S          3.716            3.128    251.62  12327.25
         S          3.716            3.128    251.62  12327.25

         Molecular C6 ( Ry / a.u.^6 ) =      3323.66


     number of k points=    41  Gaussian smearing, width (Ry)=  0.0073
                       cart. coord. in units 2pi/alat
        k(    1) = (   0.0000000   0.0000000   0.0000000), wk =   0.0246914
        k(    2) = (   0.0000000   0.1283001   0.0000000), wk =   0.0493827
        k(    3) = (   0.0000000   0.2566002   0.0000000), wk =   0.0493827
        k(    4) = (   0.0000000   0.3849004   0.0000000), wk =   0.0493827
        k(    5) = (   0.0000000   0.5132005   0.0000000), wk =   0.0493827
        k(    6) = (   0.1111111   0.0641501   0.0000000), wk =   0.0493827
        k(    7) = (   0.1111111   0.1924502   0.0000000), wk =   0.0493827
        k(    8) = (   0.1111111   0.3207503   0.0000000), wk =   0.0493827
        k(    9) = (   0.1111111   0.4490504   0.0000000), wk =   0.0493827
        k(   10) = (   0.1111111   0.5773505   0.0000000), wk =   0.0493827
        k(   11) = (   0.1111111  -0.4490504   0.0000000), wk =   0.0493827
        k(   12) = (   0.1111111  -0.3207503   0.0000000), wk =   0.0493827
        k(   13) = (   0.1111111  -0.1924502   0.0000000), wk =   0.0493827
        k(   14) = (   0.1111111  -0.0641501   0.0000000), wk =   0.0493827
        k(   15) = (   0.2222222   0.1283001   0.0000000), wk =   0.0493827
        k(   16) = (   0.2222222   0.2566002   0.0000000), wk =   0.0493827
        k(   17) = (   0.2222222   0.3849004   0.0000000), wk =   0.0493827
        k(   18) = (   0.2222222   0.5132005   0.0000000), wk =   0.0493827
        k(   19) = (   0.2222222   0.6415006   0.0000000), wk =   0.0493827
        k(   20) = (   0.2222222  -0.3849004   0.0000000), wk =   0.0493827
        k(   21) = (   0.2222222  -0.2566002   0.0000000), wk =   0.0493827
        k(   22) = (   0.2222222  -0.1283001   0.0000000), wk =   0.0493827
        k(   23) = (   0.2222222  -0.0000000   0.0000000), wk =   0.0493827
        k(   24) = (   0.3333333   0.1924502   0.0000000), wk =   0.0493827
        k(   25) = (   0.3333333   0.3207503   0.0000000), wk =   0.0493827
        k(   26) = (   0.3333333   0.4490504   0.0000000), wk =   0.0493827
        k(   27) = (   0.3333333   0.5773505   0.0000000), wk =   0.0493827
        k(   28) = (   0.3333333   0.7056507   0.0000000), wk =   0.0493827
        k(   29) = (   0.3333333  -0.3207503   0.0000000), wk =   0.0493827
        k(   30) = (   0.3333333  -0.1924502   0.0000000), wk =   0.0493827
        k(   31) = (   0.3333333  -0.0641501   0.0000000), wk =   0.0493827
        k(   32) = (   0.3333333   0.0641501   0.0000000), wk =   0.0493827
        k(   33) = (   0.4444444   0.2566002   0.0000000), wk =   0.0493827
        k(   34) = (   0.4444444   0.3849004   0.0000000), wk =   0.0493827
        k(   35) = (   0.4444444   0.5132005   0.0000000), wk =   0.0493827
        k(   36) = (   0.4444444   0.6415006   0.0000000), wk =   0.0493827
        k(   37) = (   0.4444444   0.7698007   0.0000000), wk =   0.0493827
        k(   38) = (   0.4444444  -0.2566002   0.0000000), wk =   0.0493827
        k(   39) = (   0.4444444  -0.1283001   0.0000000), wk =   0.0493827
        k(   40) = (   0.4444444   0.0000000   0.0000000), wk =   0.0493827
        k(   41) = (   0.4444444   0.1283001   0.0000000), wk =   0.0493827

     Dense  grid:   348105 G-vectors     FFT dimensions: (  54,  54, 320)

     Smooth grid:    87947 G-vectors     FFT dimensions: (  32,  32, 192)

     Estimated max dynamical RAM per process >      92.62 MB

     Estimated total dynamical RAM >       1.45 GB

     Initial potential from superposition of free atoms

     starting charge      25.9991, renormalised to      26.0000

     negative rho (up, down):  6.194E-05 0.000E+00
     Starting wfcs are   18 randomized atomic wfcs
     Checking if some PAW data can be deallocated... 

     total cpu time spent up to now is        1.2 secs

     Self-consistent Calculation

     iteration #  1     ecut=    70.00 Ry     beta= 0.70
     Davidson diagonalization with overlap
     ethr =  1.00E-02,  avg # of iterations =  2.5

     Threshold (ethr) on eigenvalues was too large:
     Diagonalizing with lowered threshold

     Davidson diagonalization with overlap
     ethr =  2.99E-04,  avg # of iterations =  3.7

     negative rho (up, down):  7.224E-05 0.000E+00

     total cpu time spent up to now is        3.3 secs

     total energy              =    -496.68758235 Ry
     estimated scf accuracy    <       0.11712244 Ry

     iteration #  2     ecut=    70.00 Ry     beta= 0.70
     Davidson diagonalization with overlap
     ethr =  4.50E-04,  avg # of iterations =  3.0

     negative rho (up, down):  7.245E-05 0.000E+00

     total cpu time spent up to now is        4.4 secs

     total energy              =    -496.65696712 Ry
     estimated scf accuracy    <       0.32022638 Ry

     iteration #  3     ecut=    70.00 Ry     beta= 0.70
     Davidson diagonalization with overlap
     ethr =  4.50E-04,  avg # of iterations =  2.4

     negative rho (up, down):  7.450E-05 0.000E+00

     total cpu time spent up to now is        5.6 secs

     total energy              =    -496.71571110 Ry
     estimated scf accuracy    <       0.12172737 Ry

     iteration #  4     ecut=    70.00 Ry     beta= 0.70
     Davidson diagonalization with overlap
     ethr =  4.50E-04,  avg # of iterations =  1.4

     negative rho (up, down):  7.743E-05 0.000E+00

     total cpu time spent up to now is        6.6 secs

     total energy              =    -496.73226782 Ry
     estimated scf accuracy    <       0.00061963 Ry

     iteration #  5     ecut=    70.00 Ry     beta= 0.70
     Davidson diagonalization with overlap
     ethr =  2.38E-06,  avg # of iterations =  3.4

     negative rho (up, down):  7.812E-05 0.000E+00

     total cpu time spent up to now is        7.8 secs

     total energy              =    -496.73247008 Ry
     estimated scf accuracy    <       0.00052801 Ry

     iteration #  6     ecut=    70.00 Ry     beta= 0.70
     Davidson diagonalization with overlap
     ethr =  2.03E-06,  avg # of iterations =  2.0

     negative rho (up, down):  7.933E-05 0.000E+00

     total cpu time spent up to now is        8.8 secs

     total energy              =    -496.73253201 Ry
     estimated scf accuracy    <       0.00034543 Ry

     iteration #  7     ecut=    70.00 Ry     beta= 0.70
     Davidson diagonalization with overlap
     ethr =  1.33E-06,  avg # of iterations =  1.0

     negative rho (up, down):  8.023E-05 0.000E+00

     total cpu time spent up to now is        9.8 secs

     total energy              =    -496.73256221 Ry
     estimated scf accuracy    <       0.00000661 Ry

     iteration #  8     ecut=    70.00 Ry     beta= 0.70
     Davidson diagonalization with overlap
     ethr =  2.54E-08,  avg # of iterations =  4.0

     negative rho (up, down):  8.040E-05 0.000E+00

     total cpu time spent up to now is       11.0 secs

     total energy              =    -496.73256542 Ry
     estimated scf accuracy    <       0.00000158 Ry

     iteration #  9     ecut=    70.00 Ry     beta= 0.70
     Davidson diagonalization with overlap
     ethr =  6.09E-09,  avg # of iterations =  1.1

     negative rho (up, down):  8.041E-05 0.000E+00

     total cpu time spent up to now is       12.0 secs

     End of self-consistent calculation

          k = 0.0000 0.0000 0.0000 ( 10889 PWs)   bands (ev):

   -61.5186 -35.6678 -35.4408 -35.4408 -14.7853 -13.4815  -6.2984  -3.2320
    -3.2320  -2.4727  -2.1141  -2.1141  -0.7040   2.1620   2.1620   2.3975
     2.3975

          k = 0.0000 0.1283 0.0000 ( 10908 PWs)   bands (ev):

   -61.5139 -35.6585 -35.4879 -35.4515 -14.6012 -13.4049  -6.0920  -3.6250
    -3.1464  -3.0402  -2.3958  -1.7425  -0.7971   1.9425   1.9688   2.1988
     2.4662

          k = 0.0000 0.2566 0.0000 ( 10974 PWs)   bands (ev):

   -61.5021 -35.6351 -35.6054 -35.4785 -14.1003 -13.1973  -5.6942  -4.3413
    -4.0267  -2.9686  -2.5404  -1.8878  -1.2464   1.5176   1.8201   2.1460
     3.0459

          k = 0.0000 0.3849 0.0000 ( 11018 PWs)   bands (ev):

   -61.4885 -35.7365 -35.6083 -35.5089 -13.4461 -12.9319  -5.9126  -4.8632
    -4.5534  -3.4804  -2.3001  -1.9676  -1.6373   1.6057   1.6950   2.7751
     3.4803

          k = 0.0000 0.5132 0.0000 ( 11016 PWs)   bands (ev):

   -61.4796 -35.8206 -35.5907 -35.5287 -12.9421 -12.7363  -6.3864  -5.4071
    -4.6976  -3.7655  -2.5287  -1.6221  -1.3740   1.6372   2.0770   3.1946
     3.6712

          k = 0.1111 0.0642 0.0000 ( 10908 PWs)   bands (ev):

   -61.5139 -35.6585 -35.4879 -35.4515 -14.6012 -13.4049  -6.0920  -3.6250
    -3.1464  -3.0402  -2.3958  -1.7425  -0.7971   1.9425   1.9688   2.1988
     2.4662

          k = 0.1111 0.1925 0.0000 ( 10978 PWs)   bands (ev):

   -61.5057 -35.6422 -35.5659 -35.4745 -14.2580 -13.2620  -5.7669  -4.1591
    -3.6792  -3.0812  -2.7329  -1.5771  -1.0764   1.5300   1.8560   1.9108
     2.9943

          k = 0.1111 0.3208 0.0000 ( 10999 PWs)   bands (ev):

   -61.4929 -35.6805 -35.6170 -35.5129 -13.6745 -13.0201  -5.6454  -4.4836
    -4.4632  -3.7072  -2.4888  -1.8274  -1.4693   1.3323   1.8355   2.1977
     3.5331

          k = 0.1111 0.4491 0.0000 ( 11020 PWs)   bands (ev):

   -61.4817 -35.7791 -35.5948 -35.5470 -13.0759 -12.7768  -6.0591  -5.2899
    -4.5262  -3.8390  -2.4737  -2.3036  -1.2960   1.5812   1.9963   2.8067
     3.6855

          k = 0.1111 0.5774 0.0000 ( 11012 PWs)   bands (ev):

   -61.4773 -35.8176 -35.5860 -35.5604 -12.8066 -12.6703  -6.2816  -5.6183
    -4.6732  -3.8270  -2.5349  -2.3864  -1.0456   1.6499   2.2667   3.1945
     3.5318

          k = 0.1111-0.4491 0.0000 ( 11020 PWs)   bands (ev):

   -61.4817 -35.7791 -35.5948 -35.5470 -13.0759 -12.7768  -6.0591  -5.2899
    -4.5262  -3.8390  -2.4737  -2.3036  -1.2960   1.5812   1.9963   2.8067
     3.6855

          k = 0.1111-0.3208 0.0000 ( 10999 PWs)   bands (ev):

   -61.4929 -35.6805 -35.6170 -35.5129 -13.6745 -13.0201  -5.6454  -4.4836
    -4.4632  -3.7072  -2.4888  -1.8274  -1.4693   1.3323   1.8355   2.1977
     3.5331

          k = 0.1111-0.1925 0.0000 ( 10978 PWs)   bands (ev):

   -61.5057 -35.6422 -35.5659 -35.4745 -14.2580 -13.2620  -5.7669  -4.1591
    -3.6792  -3.0812  -2.7329  -1.5771  -1.0764   1.5300   1.8560   1.9108
     2.9943

          k = 0.1111-0.0642 0.0000 ( 10908 PWs)   bands (ev):

   -61.5139 -35.6585 -35.4879 -35.4515 -14.6012 -13.4049  -6.0920  -3.6250
    -3.1464  -3.0402  -2.3958  -1.7425  -0.7971   1.9425   1.9688   2.1988
     2.4662

          k = 0.2222 0.1283 0.0000 ( 10974 PWs)   bands (ev):

   -61.5021 -35.6351 -35.6054 -35.4785 -14.1003 -13.1973  -5.6942  -4.3413
    -4.0267  -2.9686  -2.5404  -1.8878  -1.2464   1.5176   1.8201   2.1460
     3.0459

          k = 0.2222 0.2566 0.0000 ( 10999 PWs)   bands (ev):

   -61.4929 -35.6805 -35.6170 -35.5129 -13.6745 -13.0201  -5.6454  -4.4836
    -4.4632  -3.7072  -2.4888  -1.8274  -1.4693   1.3323   1.8356   2.1977
     3.5331

          k = 0.2222 0.3849 0.0000 ( 11026 PWs)   bands (ev):

   -61.4825 -35.7438 -35.5965 -35.5736 -13.1314 -12.7886  -5.7838  -5.2254
    -4.2870  -3.9898  -3.1774  -2.0623  -1.3293   1.4992   2.0225   2.3692
     3.8811

          k = 0.2222 0.5132 0.0000 ( 11025 PWs)   bands (ev):

   -61.4757 -35.7741 -35.6238 -35.5830 -12.7312 -12.6142  -5.8402  -5.8048
    -4.4629  -3.7829  -3.5941  -2.5428  -0.9475   1.4429   2.5199   2.5608
     4.0312

          k = 0.2222 0.6415 0.0000 ( 11025 PWs)   bands (ev):

   -61.4757 -35.7741 -35.6238 -35.5830 -12.7312 -12.6142  -5.8402  -5.8048
    -4.4629  -3.7829  -3.5941  -2.5428  -0.9475   1.4429   2.5199   2.5608
     4.0312

          k = 0.2222-0.3849 0.0000 ( 11026 PWs)   bands (ev):

   -61.4825 -35.7438 -35.5965 -35.5736 -13.1314 -12.7886  -5.7838  -5.2254
    -4.2870  -3.9898  -3.1774  -2.0623  -1.3293   1.4992   2.0225   2.3692
     3.8811

          k = 0.2222-0.2566 0.0000 ( 10999 PWs)   bands (ev):

   -61.4929 -35.6805 -35.6170 -35.5129 -13.6745 -13.0201  -5.6454  -4.4836
    -4.4632  -3.7072  -2.4888  -1.8274  -1.4693   1.3323   1.8355   2.1977
     3.5331

          k = 0.2222-0.1283 0.0000 ( 10974 PWs)   bands (ev):

   -61.5021 -35.6351 -35.6054 -35.4785 -14.1003 -13.1973  -5.6942  -4.3413
    -4.0267  -2.9686  -2.5404  -1.8878  -1.2464   1.5176   1.8201   2.1460
     3.0459

          k = 0.2222-0.0000 0.0000 ( 10978 PWs)   bands (ev):

   -61.5057 -35.6422 -35.5659 -35.4745 -14.2580 -13.2620  -5.7669  -4.1591
    -3.6792  -3.0812  -2.7329  -1.5771  -1.0764   1.5300   1.8560   1.9108
     2.9943

          k = 0.3333 0.1925 0.0000 ( 11018 PWs)   bands (ev):

   -61.4885 -35.7365 -35.6083 -35.5089 -13.4461 -12.9319  -5.9126  -4.8632
    -4.5534  -3.4804  -2.3001  -1.9676  -1.6373   1.6057   1.6950   2.7751
     3.4803

          k = 0.3333 0.3208 0.0000 ( 11020 PWs)   bands (ev):

   -61.4817 -35.7791 -35.5948 -35.5470 -13.0759 -12.7768  -6.0591  -5.2899
    -4.5262  -3.8390  -2.4737  -2.3036  -1.2960   1.5812   1.9963   2.8067
     3.6855

          k = 0.3333 0.4491 0.0000 ( 11025 PWs)   bands (ev):

   -61.4757 -35.7741 -35.6238 -35.5830 -12.7312 -12.6142  -5.8402  -5.8048
    -4.4629  -3.7829  -3.5941  -2.5428  -0.9475   1.4429   2.5199   2.5608
     4.0312

          k = 0.3333 0.5774 0.0000 ( 11052 PWs)   bands (ev):

   -61.4734 -35.7355 -35.6910 -35.5784 -12.5910 -12.5414  -6.0960  -5.2707
    -4.7449  -4.1992  -3.5514  -2.8301  -0.6538   1.0879   2.3915   2.9313
     4.2957

          k = 0.3333 0.7057 0.0000 ( 11025 PWs)   bands (ev):

   -61.4757 -35.7741 -35.6238 -35.5830 -12.7312 -12.6142  -5.8402  -5.8048
    -4.4629  -3.7829  -3.5941  -2.5428  -0.9475   1.4429   2.5199   2.5608
     4.0312

          k = 0.3333-0.3208 0.0000 ( 11020 PWs)   bands (ev):

   -61.4817 -35.7791 -35.5948 -35.5470 -13.0759 -12.7768  -6.0591  -5.2899
    -4.5262  -3.8390  -2.4737  -2.3036  -1.2960   1.5812   1.9963   2.8067
     3.6855

          k = 0.3333-0.1925 0.0000 ( 11018 PWs)   bands (ev):

   -61.4885 -35.7365 -35.6083 -35.5089 -13.4461 -12.9319  -5.9126  -4.8632
    -4.5534  -3.4804  -2.3001  -1.9676  -1.6373   1.6057   1.6950   2.7751
     3.4803

          k = 0.3333-0.0642 0.0000 ( 10999 PWs)   bands (ev):

   -61.4929 -35.6805 -35.6170 -35.5129 -13.6745 -13.0201  -5.6454  -4.4836
    -4.4632  -3.7072  -2.4888  -1.8274  -1.4693   1.3323   1.8355   2.1977
     3.5331

          k = 0.3333 0.0642 0.0000 ( 10999 PWs)   bands (ev):

   -61.4929 -35.6805 -35.6170 -35.5129 -13.6745 -13.0201  -5.6454  -4.4836
    -4.4632  -3.7072  -2.4888  -1.8274  -1.4693   1.3323   1.8355   2.1977
     3.5331

          k = 0.4444 0.2566 0.0000 ( 11016 PWs)   bands (ev):

   -61.4796 -35.8206 -35.5907 -35.5287 -12.9421 -12.7363  -6.3864  -5.4071
    -4.6976  -3.7655  -2.5287  -1.6221  -1.3740   1.6372   2.0770   3.1946
     3.6712

          k = 0.4444 0.3849 0.0000 ( 11012 PWs)   bands (ev):

   -61.4773 -35.8176 -35.5860 -35.5604 -12.8066 -12.6703  -6.2816  -5.6183
    -4.6732  -3.8270  -2.5349  -2.3864  -1.0456   1.6499   2.2667   3.1945
     3.5318

          k = 0.4444 0.5132 0.0000 ( 11025 PWs)   bands (ev):

   -61.4757 -35.7741 -35.6238 -35.5830 -12.7312 -12.6142  -5.8402  -5.8048
    -4.4629  -3.7829  -3.5941  -2.5428  -0.9475   1.4429   2.5199   2.5608
     4.0312

          k = 0.4444 0.6415 0.0000 ( 11025 PWs)   bands (ev):

   -61.4757 -35.7741 -35.6238 -35.5830 -12.7312 -12.6142  -5.8402  -5.8048
    -4.4629  -3.7829  -3.5941  -2.5428  -0.9475   1.4429   2.5199   2.5608
     4.0312

          k = 0.4444 0.7698 0.0000 ( 11012 PWs)   bands (ev):

   -61.4773 -35.8176 -35.5860 -35.5604 -12.8066 -12.6703  -6.2816  -5.6183
    -4.6732  -3.8270  -2.5349  -2.3864  -1.0456   1.6499   2.2667   3.1945
     3.5318

          k = 0.4444-0.2566 0.0000 ( 11016 PWs)   bands (ev):

   -61.4796 -35.8206 -35.5907 -35.5287 -12.9421 -12.7363  -6.3864  -5.4071
    -4.6976  -3.7655  -2.5287  -1.6221  -1.3740   1.6372   2.0770   3.1946
     3.6712

          k = 0.4444-0.1283 0.0000 ( 11020 PWs)   bands (ev):

   -61.4817 -35.7791 -35.5948 -35.5470 -13.0759 -12.7768  -6.0591  -5.2899
    -4.5262  -3.8390  -2.4737  -2.3036  -1.2960   1.5812   1.9963   2.8067
     3.6855

          k = 0.4444 0.0000 0.0000 ( 11026 PWs)   bands (ev):

   -61.4825 -35.7438 -35.5965 -35.5736 -13.1314 -12.7886  -5.7838  -5.2254
    -4.2870  -3.9897  -3.1774  -2.0623  -1.3293   1.4992   2.0225   2.3692
     3.8811

          k = 0.4444 0.1283 0.0000 ( 11020 PWs)   bands (ev):

   -61.4817 -35.7791 -35.5948 -35.5470 -13.0759 -12.7768  -6.0591  -5.2899
    -4.5262  -3.8390  -2.4737  -2.3036  -1.2960   1.5812   1.9963   2.8067
     3.6855

     the Fermi energy is    -0.0023 ev

!    total energy              =    -496.73256532 Ry
     total all-electron energy =     -9695.062780 Ry
     estimated scf accuracy    <       0.00000024 Ry
     smearing contrib. (-TS)   =      -0.00000000 Ry
     internal energy E=F+TS    =    -496.73256532 Ry

     The total energy is F=E-TS. E is the sum of the following terms:
     one-electron contribution =   -1040.36530318 Ry
     hartree contribution      =     522.98179242 Ry
     xc contribution           =     -29.71299927 Ry
     ewald contribution        =     370.03541763 Ry
     DFT-D3 Dispersion         =      -0.03607836 Ry
     one-center paw contrib.   =    -319.63539457 Ry

     convergence has been achieved in   9 iterations

     negative rho (up, down):  8.041E-05 0.000E+00

     Forces acting on atoms (cartesian axes, Ry/au):

     atom    1 type  1   force =    -0.00000066    0.00000015   -0.00023817
     atom    2 type  2   force =     0.00000122   -0.00000074    0.00112228
     atom    3 type  2   force =    -0.00000057    0.00000059   -0.00088411
     The non-local contrib.  to forces
     atom    1 type  1   force =    -0.00000033    0.00000093   -0.00007438
     atom    2 type  2   force =     0.00000008    0.00000165   -0.26667545
     atom    3 type  2   force =    -0.00000010   -0.00000028    0.26665269
     The ionic contribution  to forces
     atom    1 type  1   force =     0.00000000    0.00000500   -0.00000000
     atom    2 type  2   force =    -0.00000000   -0.00000250   35.80564742
     atom    3 type  2   force =    -0.00000000   -0.00000250  -35.80564742
     The local contribution  to forces
     atom    1 type  1   force =    -0.00000217   -0.00000320   -0.00177969
     atom    2 type  2   force =     0.00000165   -0.00000223  -35.53839201
     atom    3 type  2   force =    -0.00000117    0.00000359   35.53770638
     The core correction contribution to forces
     atom    1 type  1   force =    -0.00000002    0.00000000   -0.00000682
     atom    2 type  2   force =     0.00000003   -0.00000009    0.00213460
     atom    3 type  2   force =    -0.00000001    0.00000002   -0.00213694
     The Hubbard contrib.    to forces
     atom    1 type  1   force =     0.00000000    0.00000000    0.00000000
     atom    2 type  2   force =     0.00000000    0.00000000    0.00000000
     atom    3 type  2   force =     0.00000000    0.00000000    0.00000000
     The SCF correction term to forces
     atom    1 type  1   force =     0.00000156   -0.00000253    0.00148093
     atom    2 type  2   force =    -0.00000084    0.00000248    0.00005024
     atom    3 type  2   force =     0.00000042   -0.00000020    0.00061510

     DFT-D3 dispersion contribution to forces:
     atom    1 type  1   force =     0.00000000   -0.00000001    0.00000000
     atom    2 type  2   force =    -0.00000000    0.00000000   -0.00178430
     atom    3 type  2   force =    -0.00000000    0.00000000    0.00178430

     Total force =     0.001448     Total SCF correction =     0.001604
     SCF correction compared to forces is large: reduce conv_thr to get better values


     Computing stress (Cartesian axis) and pressure


     negative rho (up, down):  8.041E-05 0.000E+00
          total   stress  (Ry/bohr**3)                   (kbar)     P=        0.90
   0.00000733   0.00000000   0.00000000            1.08        0.00        0.00
   0.00000000   0.00000733  -0.00000000            0.00        1.08       -0.00
   0.00000000  -0.00000000   0.00000364            0.00       -0.00        0.54


     Writing all to output data dir ./tmp/pwscf.save/
 
     init_run     :      0.77s CPU      0.88s WALL (       1 calls)
     electrons    :      9.49s CPU     10.85s WALL (       1 calls)
     forces       :      0.45s CPU      0.51s WALL (       1 calls)
     force_dftd3  :      0.02s CPU      0.02s WALL (       1 calls)
     stress       :      1.49s CPU      1.73s WALL (       1 calls)
     stres_dftd3  :      0.01s CPU      0.02s WALL (       1 calls)

     Called by init_run:
     wfcinit      :      0.16s CPU      0.17s WALL (       1 calls)
     potinit      :      0.18s CPU      0.18s WALL (       1 calls)
     hinit0       :      0.27s CPU      0.32s WALL (       1 calls)

     Called by electrons:
     c_bands      :      6.57s CPU      6.73s WALL (      10 calls)
     sum_band     :      1.53s CPU      2.18s WALL (      10 calls)
     v_of_rho     :      0.20s CPU      0.23s WALL (      10 calls)
     newd         :      0.86s CPU      1.40s WALL (      10 calls)
     PAW_pot      :      0.41s CPU      0.43s WALL (      10 calls)
     mix_rho      :      0.02s CPU      0.02s WALL (      10 calls)
     energy_dftd3 :      0.02s CPU      0.02s WALL (       1 calls)

     Called by c_bands:
     init_us_2    :      0.16s CPU      0.17s WALL (     943 calls)
     init_us_2:cp :      0.16s CPU      0.17s WALL (     943 calls)
     cegterg      :      3.88s CPU      4.01s WALL (     410 calls)

     Called by *egterg:
     cdiaghg      :      0.35s CPU      0.36s WALL (    1373 calls)
     h_psi        :      3.04s CPU      3.14s WALL (    1455 calls)
     s_psi        :      0.10s CPU      0.11s WALL (    1455 calls)
     g_psi        :      0.02s CPU      0.02s WALL (    1004 calls)

     Called by h_psi:
     h_psi:calbec :      0.24s CPU      0.25s WALL (    1455 calls)
     vloc_psi     :      2.64s CPU      2.73s WALL (    1455 calls)
     add_vuspsi   :      0.12s CPU      0.12s WALL (    1455 calls)

     General routines
     calbec       :      0.34s CPU      0.35s WALL (    2070 calls)
     fft          :      0.16s CPU      0.25s WALL (     154 calls)
     ffts         :      0.00s CPU      0.00s WALL (      20 calls)
     fftw         :      2.22s CPU      2.29s WALL (   43376 calls)
     interpolate  :      0.01s CPU      0.01s WALL (      10 calls)
 
     Parallel routines
 
     PWSCF        :     12.49s CPU     14.82s WALL

 
   This run was terminated on:  15: 4:18  24Jul2025            

=------------------------------------------------------------------------------=
   JOB DONE.
=------------------------------------------------------------------------------=
