
     Program PWSCF v.7.2 starts on 30May2025 at 13:31:38 

     This program is part of the open-source Quantum ESPRESSO suite
     for quantum simulation of materials; please cite
         "P. Giannozzi et al., J. Phys.:Condens. Matter 21 395502 (2009);
         "P. Giannozzi et al., J. Phys.:Condens. Matter 29 465901 (2017);
         "P. Giannozzi et al., J. Chem. Phys. 152 154105 (2020);
          URL http://www.quantum-espresso.org", 
     in publications or presentations arising from this work. More details at
     http://www.quantum-espresso.org/quote

     Parallel version (MPI), running on    16 processors

     MPI processes distributed on     1 nodes
     23023 MiB available memory on the printing compute node when the environment starts
 
     Waiting for input...
     Reading input from standard input

     Current dimensions of program PWSCF are:
     Max number of different atomic species (ntypx) = 10
     Max number of k-points (npk) =  40000
     Max angular momentum in pseudopotentials (lmaxx) =  4
     file Co.pbe-n-kjpaw_psl.1.0.0.UPF: wavefunction(s)  4S 3D renormalized
     Message from routine setup:
     using ibrav=0 with symmetry is DISCOURAGED, use correct ibrav instead
 
     R & G space division:  proc/nbgrp/npool/nimage =      16
     Subspace diagonalization in iterative solution of the eigenvalue problem:
     a serial algorithm will be used

 
     Parallelization info
     --------------------
     sticks:   dense  smooth     PW     G-vecs:    dense   smooth      PW
     Min          23      23      7                  627      627     107
     Max          24      24      8                  636      636     112
     Sum         379     379    121                10137    10137    1761
 
     Using Slab Decomposition
 


     bravais-lattice index     =            0
     lattice parameter (alat)  =       4.6676  a.u.
     unit-cell volume          =     143.3333 (a.u.)^3
     number of atoms/cell      =            2
     number of atomic types    =            1
     number of electrons       =        18.00
     number of Kohn-Sham states=           13
     kinetic-energy cutoff     =      65.0000  Ry
     charge density cutoff     =     260.0000  Ry
     scf convergence threshold =      1.0E-06
     mixing beta               =       0.7000
     number of iterations used =            8  plain     mixing
     Exchange-correlation= SLA  PW   PBX  PBC
                           (   1   4   3   4   0   0   0)

     celldm(1)=   4.667624  celldm(2)=   0.000000  celldm(3)=   0.000000
     celldm(4)=   0.000000  celldm(5)=   0.000000  celldm(6)=   0.000000

     crystal axes: (cart. coord. in units of alat)
               a(1) = (   1.000000   0.000000   0.000000 )  
               a(2) = (  -0.500000   0.866025   0.000000 )  
               a(3) = (   0.000000   0.000000   1.627530 )  

     reciprocal axes: (cart. coord. in units 2 pi/alat)
               b(1) = (  1.000000  0.577350  0.000000 )  
               b(2) = (  0.000000  1.154701  0.000000 )  
               b(3) = (  0.000000  0.000000  0.614428 )  


     PseudoPot. # 1 for Co read from file:
     /shared/ESPRESSO/PSLIBRARY/1.0.0/pbe/PSEUDOPOTENTIALS/Co.pbe-n-kjpaw_psl.1.0.0.UPF
     MD5 check sum: 17e7ab8db721b244d1352252ea6cb8e7
     Pseudo is Projector augmented-wave + core cor, Zval =  9.0
     Generated using "atomic" code by A. Dal Corso  (Quantum ESPRESSO distribution)
     Shape of augmentation charge: PSQ
     Using radial grid of 1193 points,  6 beta functions with: 
                l(1) =   0
                l(2) =   0
                l(3) =   1
                l(4) =   1
                l(5) =   2
                l(6) =   2
     Q(r) pseudized with 0 coefficients 


     atomic species   valence    mass     pseudopotential
        Co             9.00    58.93320     Co( 1.00)

     24 Sym. Ops., with inversion, found (12 have fractional translation)



   Cartesian axes

     site n.     atom                  positions (alat units)
         1           Co  tau(   1) = (   0.0000000   0.0000000   0.0000000  )
         2           Co  tau(   2) = (  -0.0000000   0.5773503   0.8137652  )

     number of k points=    32  Fermi-Dirac smearing, width (Ry)=  0.0070
                       cart. coord. in units 2pi/alat
        k(    1) = (   0.0000000   0.0000000   0.0000000), wk =   0.0058309
        k(    2) = (   0.0000000   0.0000000   0.0877754), wk =   0.0116618
        k(    3) = (   0.0000000   0.0000000   0.1755508), wk =   0.0116618
        k(    4) = (   0.0000000   0.0000000   0.2633262), wk =   0.0116618
        k(    5) = (   0.0000000   0.1649572   0.0000000), wk =   0.0349854
        k(    6) = (   0.0000000   0.1649572   0.0877754), wk =   0.0699708
        k(    7) = (   0.0000000   0.1649572   0.1755508), wk =   0.0699708
        k(    8) = (   0.0000000   0.1649572   0.2633262), wk =   0.0699708
        k(    9) = (   0.0000000   0.3299144   0.0000000), wk =   0.0349854
        k(   10) = (   0.0000000   0.3299144   0.0877754), wk =   0.0699708
        k(   11) = (   0.0000000   0.3299144   0.1755508), wk =   0.0699708
        k(   12) = (   0.0000000   0.3299144   0.2633262), wk =   0.0699708
        k(   13) = (   0.0000000   0.4948717   0.0000000), wk =   0.0349854
        k(   14) = (   0.0000000   0.4948717   0.0877754), wk =   0.0699708
        k(   15) = (   0.0000000   0.4948717   0.1755508), wk =   0.0699708
        k(   16) = (   0.0000000   0.4948717   0.2633262), wk =   0.0699708
        k(   17) = (   0.1428571   0.2474358   0.0000000), wk =   0.0349854
        k(   18) = (   0.1428571   0.2474358   0.0877754), wk =   0.0699708
        k(   19) = (   0.1428571   0.2474358   0.1755508), wk =   0.0699708
        k(   20) = (   0.1428571   0.2474358   0.2633262), wk =   0.0699708
        k(   21) = (   0.1428571   0.4123930   0.0000000), wk =   0.0699708
        k(   22) = (   0.1428571   0.4123930   0.0877754), wk =   0.1399417
        k(   23) = (   0.1428571   0.4123930   0.1755508), wk =   0.1399417
        k(   24) = (   0.1428571   0.4123930   0.2633262), wk =   0.1399417
        k(   25) = (   0.1428571   0.5773503   0.0000000), wk =   0.0349854
        k(   26) = (   0.1428571   0.5773503   0.0877754), wk =   0.0699708
        k(   27) = (   0.1428571   0.5773503   0.1755508), wk =   0.0699708
        k(   28) = (   0.1428571   0.5773503   0.2633262), wk =   0.0699708
        k(   29) = (   0.2857143   0.4948717   0.0000000), wk =   0.0349854
        k(   30) = (   0.2857143   0.4948717   0.0877754), wk =   0.0699708
        k(   31) = (   0.2857143   0.4948717   0.1755508), wk =   0.0699708
        k(   32) = (   0.2857143   0.4948717   0.2633262), wk =   0.0699708

     Dense  grid:    10137 G-vectors     FFT dimensions: (  24,  24,  40)

     Estimated max dynamical RAM per process >       4.16 MB

     Estimated total dynamical RAM >      66.63 MB

     Initial potential from superposition of free atoms

     starting charge      17.9994, renormalised to      18.0000
     Starting wfcs are   18 randomized atomic wfcs
     Checking if some PAW data can be deallocated... 

     total cpu time spent up to now is        0.3 secs

     Self-consistent Calculation

     iteration #  1     ecut=    65.00 Ry     beta= 0.70
     Davidson diagonalization with overlap
     ethr =  1.00E-02,  avg # of iterations =  2.3

     Threshold (ethr) on eigenvalues was too large:
     Diagonalizing with lowered threshold

     Davidson diagonalization with overlap
     ethr =  3.91E-05,  avg # of iterations =  6.8

     total cpu time spent up to now is        0.6 secs

     total energy              =    -324.07986309 Ry
     estimated scf accuracy    <       0.02566916 Ry

     iteration #  2     ecut=    65.00 Ry     beta= 0.70
     Davidson diagonalization with overlap
     ethr =  1.43E-04,  avg # of iterations =  2.3

     total cpu time spent up to now is        0.7 secs

     total energy              =    -324.07977119 Ry
     estimated scf accuracy    <       0.07441933 Ry

     iteration #  3     ecut=    65.00 Ry     beta= 0.70
     Davidson diagonalization with overlap
     ethr =  1.43E-04,  avg # of iterations =  2.0

     total cpu time spent up to now is        0.9 secs

     total energy              =    -324.09269909 Ry
     estimated scf accuracy    <       0.00009778 Ry

     iteration #  4     ecut=    65.00 Ry     beta= 0.70
     Davidson diagonalization with overlap
     ethr =  5.43E-07,  avg # of iterations =  4.6

     total cpu time spent up to now is        1.1 secs

     total energy              =    -324.09277876 Ry
     estimated scf accuracy    <       0.00012134 Ry

     iteration #  5     ecut=    65.00 Ry     beta= 0.70
     Davidson diagonalization with overlap
     ethr =  5.43E-07,  avg # of iterations =  1.3

     total cpu time spent up to now is        1.2 secs

     total energy              =    -324.09278663 Ry
     estimated scf accuracy    <       0.00000706 Ry

     iteration #  6     ecut=    65.00 Ry     beta= 0.70
     Davidson diagonalization with overlap
     ethr =  3.92E-08,  avg # of iterations =  3.4

     total cpu time spent up to now is        1.3 secs

     total energy              =    -324.09278944 Ry
     estimated scf accuracy    <       0.00000801 Ry

     iteration #  7     ecut=    65.00 Ry     beta= 0.70
     Davidson diagonalization with overlap
     ethr =  3.92E-08,  avg # of iterations =  1.4

     total cpu time spent up to now is        1.5 secs

     End of self-consistent calculation

          k = 0.0000 0.0000 0.0000 (  1261 PWs)   bands (ev):

     5.1586   9.4682  12.3860  12.4403  12.4403  12.7831  12.7831  13.2189
    13.2189  14.0173  14.3948  14.3948  21.1734

          k = 0.0000 0.0000 0.0878 (  1261 PWs)   bands (ev):

     5.3650   9.3720  12.3254  12.3905  12.3905  12.7248  12.7248  13.3468
    13.3468  13.3911  14.3821  14.3821  22.2601

          k = 0.0000 0.0000 0.1756 (  1232 PWs)   bands (ev):

     5.9672   8.9374  12.1686  12.3296  12.3296  12.4119  12.5854  12.5854
    13.6257  13.6257  14.3195  14.3195  24.7499

          k = 0.0000 0.0000 0.2633 (  1226 PWs)   bands (ev):

     6.9020   8.0094  11.9750  11.9958  12.3415  12.3415  12.4372  12.4372
    13.9252  13.9252  14.1689  14.1689  27.8491

          k = 0.0000 0.1650 0.0000 (  1277 PWs)   bands (ev):

     5.8750   9.9072  11.9441  12.2299  12.5672  12.7951  12.8455  13.0077
    13.0969  13.1123  14.4768  16.7552  21.2704

          k = 0.0000 0.1650 0.0878 (  1263 PWs)   bands (ev):

     6.0721   9.8455  11.9585  11.9683  12.4789  12.6835  12.7724  13.0090
    13.2352  13.3080  14.4483  16.0783  22.5338

          k = 0.0000 0.1650 0.1756 (  1254 PWs)   bands (ev):

     6.6460   9.4731  11.5881  12.0408  12.1661  12.6000  12.6527  12.8749
    13.5522  13.6509  14.3479  15.1499  25.1680

          k = 0.0000 0.1650 0.2633 (  1248 PWs)   bands (ev):

     7.5350   8.5892  11.5676  11.8203  12.2007  12.4239  12.6174  12.7226
    13.8783  14.0565  14.1556  14.5228  28.3206

          k = 0.0000 0.3299 0.0000 (  1268 PWs)   bands (ev):

     7.7698  10.4288  10.9818  11.5960  12.3994  12.6155  12.7493  13.6570
    13.6684  13.8568  14.5833  19.8476  21.6298

          k = 0.0000 0.3299 0.0878 (  1265 PWs)   bands (ev):

     7.9145  10.4398  10.9054  11.6273  12.2737  12.6685  12.8202  13.6940
    13.7019  13.8061  14.5343  18.3246  23.4973

          k = 0.0000 0.3299 0.1756 (  1267 PWs)   bands (ev):

     8.3256  10.2026  10.9341  11.6691  12.1511  12.7875  12.8212  13.5780
    13.8552  13.9208  14.4020  16.5813  26.0427

          k = 0.0000 0.3299 0.2633 (  1261 PWs)   bands (ev):

     8.9321   9.6139  11.2054  11.5099  12.2864  12.5680  13.0525  13.3240
    14.0238  14.2193  14.4194  15.2767  27.3007

          k = 0.0000 0.4949 0.0000 (  1266 PWs)   bands (ev):

     9.5658  10.1209  10.3703  11.8982  12.3448  12.4717  12.7520  14.4308
    14.5755  14.6292  15.3242  19.4639  23.2398

          k = 0.0000 0.4949 0.0878 (  1270 PWs)   bands (ev):

     9.4932  10.1009  10.6220  11.4653  12.4352  12.7353  13.0883  14.3925
    14.4745  14.6347  15.1808  18.9726  22.5393

          k = 0.0000 0.4949 0.1756 (  1263 PWs)   bands (ev):

     9.4461  10.0371  10.8858  11.2443  12.6962  12.8254  14.0302  14.0497
    14.4846  14.6114  14.7558  17.7326  22.3348

          k = 0.0000 0.4949 0.2633 (  1267 PWs)   bands (ev):

     9.5501   9.7918  11.0328  11.2256  13.0956  13.3171  13.5759  14.0714
    14.5252  14.5711  15.1162  16.3491  22.7115

          k = 0.1429 0.2474 0.0000 (  1260 PWs)   bands (ev):

     7.2030  10.5126  11.3051  11.4468  12.4290  12.4991  13.0380  13.0996
    13.4965  13.8213  14.5100  18.9975  21.5790

          k = 0.1429 0.2474 0.0878 (  1264 PWs)   bands (ev):

     7.3727  10.5289  11.1431  11.4881  12.3889  12.4673  12.9190  13.2020
    13.6262  13.7789  14.4875  17.7711  23.2341

          k = 0.1429 0.2474 0.1756 (  1258 PWs)   bands (ev):

     7.8622  10.2449  11.0460  11.6042  12.1309  12.4331  12.8381  13.3195
    13.8266  13.8428  14.4104  16.2295  26.0429

          k = 0.1429 0.2474 0.2633 (  1266 PWs)   bands (ev):

     8.6056   9.4735  11.3057  11.6185  11.9775  12.1988  12.9757  13.1800
    14.0544  14.1908  14.3604  15.0858  29.1492

          k = 0.1429 0.4124 0.0000 (  1263 PWs)   bands (ev):

     9.2414  10.5655  10.6163  11.3133  12.1824  12.6213  12.6622  13.7513
    14.3515  14.5204  15.0925  21.7830  22.1706

          k = 0.1429 0.4124 0.0878 (  1269 PWs)   bands (ev):

     9.3002  10.5545  10.6617  11.3478  12.1993  12.6195  12.6856  13.7577
    14.3417  14.4191  15.1460  19.8564  23.4306

          k = 0.1429 0.4124 0.1756 (  1270 PWs)   bands (ev):

     9.4709  10.3634  10.8854  11.4991  12.1374  12.5448  12.8710  13.7489
    14.1010  14.5635  15.2289  17.9393  24.1361

          k = 0.1429 0.4124 0.2633 (  1269 PWs)   bands (ev):

     9.7350  10.0555  11.2075  11.5020  12.1856  12.4147  13.0798  13.3993
    14.4061  14.6280  15.4975  16.4152  24.9878

          k = 0.1429 0.5774 0.0000 (  1270 PWs)   bands (ev):

    10.1713  10.2779  10.3844  11.6647  12.1823  12.3597  12.8788  14.4119
    14.5213  14.5318  16.9149  18.6089  24.9738

          k = 0.1429 0.5774 0.0878 (  1273 PWs)   bands (ev):

     9.9525  10.3244  10.7653  11.3329  12.1450  12.6958  12.9432  14.3393
    14.4061  14.5802  16.9181  18.5305  24.1023

          k = 0.1429 0.5774 0.1756 (  1285 PWs)   bands (ev):

     9.8377  10.3454  11.0193  11.2870  12.0463  13.0340  13.1711  13.9461
    14.4006  14.6436  16.9812  18.2672  22.9818

          k = 0.1429 0.5774 0.2633 (  1274 PWs)   bands (ev):

     9.9058  10.1247  11.1406  11.4006  12.3004  12.8512  13.4863  13.6881
    14.4434  14.5798  17.2779  17.7982  22.3653

          k = 0.2857 0.4949 0.0000 (  1274 PWs)   bands (ev):

    10.5148  10.5522  10.8897  10.9515  12.0147  12.2969  12.9906  14.0046
    14.4090  14.5023  17.3617  21.2597  21.4262

          k = 0.2857 0.4949 0.0878 (  1274 PWs)   bands (ev):

    10.5105  10.5789  10.9494  11.0070  12.0690  12.1904  12.9836  14.0348
    14.2274  14.5445  17.4921  21.0611  21.6318

          k = 0.2857 0.4949 0.1756 (  1279 PWs)   bands (ev):

    10.5253  10.6033  11.0336  11.2896  11.9367  12.1202  12.9884  13.7697
    14.1976  14.6056  17.8360  20.2911  22.2116

          k = 0.2857 0.4949 0.2633 (  1289 PWs)   bands (ev):

    10.5573  10.5869  11.2591  11.5048  11.7655  12.0072  13.0805  13.3438
    14.4078  14.5735  18.3971  19.2459  23.0479

     the Fermi energy is    14.2829 ev

!    total energy              =    -324.09279043 Ry
     total all-electron energy =     -5573.780143 Ry
     estimated scf accuracy    <       0.00000011 Ry
     smearing contrib. (-TS)   =      -0.01158726 Ry
     internal energy E=F+TS    =    -324.08120317 Ry

     The total energy is F=E-TS. E is the sum of the following terms:
     one-electron contribution =       0.93307997 Ry
     hartree contribution      =      25.93784080 Ry
     xc contribution           =     -65.20580787 Ry
     ewald contribution        =    -112.64113270 Ry
     one-center paw contrib.   =    -173.10518337 Ry

     convergence has been achieved in   7 iterations

     Forces acting on atoms (cartesian axes, Ry/au):

     atom    1 type  1   force =     0.00000000    0.00000000    0.00000000
     atom    2 type  1   force =     0.00000000    0.00000000    0.00000000
     The non-local contrib.  to forces
     atom    1 type  1   force =     0.00000000    0.00000000    0.00000000
     atom    2 type  1   force =     0.00000000    0.00000000    0.00000000
     The ionic contribution  to forces
     atom    1 type  1   force =    -0.00000000    0.00000000   -0.00000000
     atom    2 type  1   force =    -0.00000000    0.00000000    0.00000000
     The local contribution  to forces
     atom    1 type  1   force =    -0.00000000    0.00000000   -0.00000000
     atom    2 type  1   force =     0.00000000   -0.00000000    0.00000000
     The core correction contribution to forces
     atom    1 type  1   force =     0.00000000    0.00000000    0.00000000
     atom    2 type  1   force =     0.00000000   -0.00000000   -0.00000000
     The Hubbard contrib.    to forces
     atom    1 type  1   force =     0.00000000    0.00000000    0.00000000
     atom    2 type  1   force =     0.00000000    0.00000000    0.00000000
     The SCF correction term to forces
     atom    1 type  1   force =    -0.00000000   -0.00000000   -0.00000000
     atom    2 type  1   force =    -0.00000000   -0.00000000   -0.00000000

     Total force =     0.000000     Total SCF correction =     0.000000


     Computing stress (Cartesian axis) and pressure

          total   stress  (Ry/bohr**3)                   (kbar)     P=      -53.15
  -0.00035387  -0.00000000   0.00000000          -52.06       -0.00        0.00
  -0.00000000  -0.00035387   0.00000000           -0.00      -52.06        0.00
   0.00000000   0.00000000  -0.00037619            0.00        0.00      -55.34


     Writing all to output data dir ./tmp/scf.save/
 
     init_run     :      0.12s CPU      0.16s WALL (       1 calls)
     electrons    :      1.00s CPU      1.17s WALL (       1 calls)
     forces       :      0.01s CPU      0.01s WALL (       1 calls)
     stress       :      0.04s CPU      0.04s WALL (       1 calls)

     Called by init_run:
     wfcinit      :      0.03s CPU      0.03s WALL (       1 calls)
     potinit      :      0.04s CPU      0.05s WALL (       1 calls)
     hinit0       :      0.05s CPU      0.07s WALL (       1 calls)

     Called by electrons:
     c_bands      :      0.66s CPU      0.77s WALL (       8 calls)
     sum_band     :      0.08s CPU      0.10s WALL (       8 calls)
     v_of_rho     :      0.00s CPU      0.00s WALL (       8 calls)
     newd         :      0.01s CPU      0.01s WALL (       8 calls)
     PAW_pot      :      0.27s CPU      0.33s WALL (       8 calls)
     mix_rho      :      0.00s CPU      0.00s WALL (       8 calls)

     Called by c_bands:
     init_us_2    :      0.01s CPU      0.01s WALL (     608 calls)
     init_us_2:cp :      0.01s CPU      0.01s WALL (     608 calls)
     cegterg      :      0.62s CPU      0.72s WALL (     256 calls)

     Called by *egterg:
     cdiaghg      :      0.12s CPU      0.14s WALL (     996 calls)
     h_psi        :      0.47s CPU      0.55s WALL (    1060 calls)
     s_psi        :      0.01s CPU      0.01s WALL (    1060 calls)
     g_psi        :      0.00s CPU      0.00s WALL (     772 calls)

     Called by h_psi:
     h_psi:calbec :      0.01s CPU      0.01s WALL (    1060 calls)
     vloc_psi     :      0.45s CPU      0.52s WALL (    1060 calls)
     add_vuspsi   :      0.01s CPU      0.01s WALL (    1060 calls)

     General routines
     calbec       :      0.02s CPU      0.02s WALL (    1476 calls)
     fft          :      0.02s CPU      0.04s WALL (     114 calls)
     ffts         :      0.00s CPU      0.00s WALL (       8 calls)
     fftw         :      0.47s CPU      0.55s WALL (   24130 calls)
 
     Parallel routines
 
     PWSCF        :      1.32s CPU      1.54s WALL

 
   This run was terminated on:  13:31:40  30May2025            

=------------------------------------------------------------------------------=
   JOB DONE.
=------------------------------------------------------------------------------=
